38
RDKit ETKDG+MMFF
O       1.72487230     -0.50557602      3.34345366
C       1.04507613     -0.56991011      2.33167717
S      -0.53228512      0.17955264      2.18417791
N      -0.75623890     -0.44697263      0.60192810
C      -1.75053256      0.10495695     -0.26132959
C      -1.35026181      0.56609309     -1.52952581
C      -2.24761848      1.19988487     -2.38272471
C      -3.56706968      1.37907234     -1.98761389
C      -4.01893537      0.89982421     -0.75160410
C      -5.37029755      1.06754792     -0.40431414
C      -5.87541917      0.56141162      0.79012711
C      -5.03672242     -0.13492720      1.64571900
C      -3.68885740     -0.30308502      1.31526565
C      -3.12369672      0.23426979      0.12915046
C       0.38819201     -1.13224590      0.15858411
O       0.54522062     -1.62633560     -0.95496571
N       1.33926710     -1.20880664      1.16367811
C       2.61439998     -1.85882624      0.95920125
C       3.64945506     -0.90131662      0.41391015
C       4.44380458     -0.13948480      1.28326672
C       5.38065963      0.76316992      0.77791333
C       5.52941966      0.91780213     -0.59894128
C       4.73972212      0.17282766     -1.47245004
C       3.80199614     -0.73028708     -0.96974846
H      -0.31773278      0.47895030     -1.86043001
H      -1.91313222      1.56456207     -3.35057504
H      -4.25037642      1.88452229     -2.66749406
H      -6.05031758      1.58948177     -1.07500656
H      -6.92423984      0.69595726      1.04012643
H      -5.42597150     -0.55722639      2.56853675
H      -3.08567219     -0.89322326      1.99938732
H       2.96728583     -2.27763661      1.90966505
H       2.49138045     -2.70233333      0.26918795
H       4.33533682     -0.24070530      2.36217993
H       5.99246314      1.34836322      1.45986535
H       6.25867670      1.62179849     -0.99121310
H       4.85159624      0.29680212     -2.54658448
H       3.18655321     -1.29795191     -1.66627434
