38
 energy: -65.100568592638 gnorm: 0.000300724789 xtb: 6.7.1 (edcfbbe)
O            1.77812814619718       -0.36499143083386        3.35648309485511
C            1.08715826597178       -0.37766615090883        2.37914400540577
S           -0.43854035429059        0.53769325223969        2.19846819117125
N           -0.66731369926321       -0.10389569257528        0.62274362994304
C           -1.66448767490338        0.37572284756221       -0.26082834288579
C           -1.27710007563903        0.90242475990349       -1.46720330513220
C           -2.23514958656897        1.37357514981492       -2.37321016871842
C           -3.56213820669290        1.34006380079785       -2.05077520697649
C           -3.99170143249009        0.81242585804636       -0.81544651402168
C           -5.35891551824591        0.76678368447371       -0.47096647528135
C           -5.76593149652426        0.23175482315937        0.71832402316960
C           -4.82158550583498       -0.29305978394915        1.61246950266471
C           -3.48783906609355       -0.26075088470698        1.31305014814573
C           -3.03374674328741        0.30248050997821        0.10262281691050
C            0.33786998519164       -0.93092111040452        0.21092981128607
O            0.40135884564943       -1.49255077392228       -0.85351805308461
N            1.27317138458053       -1.07542800150134        1.23049060361491
C            2.49037619228372       -1.84921575102818        1.00300913295380
C            3.55847487974046       -0.95624369663330        0.42762122877107
C            4.43210826410775       -0.27839839713670        1.26781570831689
C            5.37509115961368        0.58536130690265        0.73855274281243
C            5.44728921916306        0.78070947993875       -0.63041916950115
C            4.57293844783362        0.11197557642040       -1.47087717157084
C            3.62940516143783       -0.75281668727576       -0.94481545184678
H           -0.22976166331578        0.94128075013786       -1.72330411372756
H           -1.90806692687308        1.77298635575329       -3.32090470132834
H           -4.30530007165130        1.71400744614433       -2.73970058274765
H           -6.07939367764607        1.16340244000519       -1.17159093944697
H           -6.81443909299628        0.20274690352633        0.97488827827014
H           -5.15590840837857       -0.72738946151080        2.54275665495200
H           -2.77465884880550       -0.67833910015723        2.00616398499507
H            2.79888348719926       -2.26619094237788        1.96370216895139
H            2.22611528304153       -2.64527202928781        0.30333863686265
H            4.36549154228975       -0.42348078485614        2.33594895237101
H            6.05256080977457        1.10871206372880        1.39677188863405
H            6.18300011546413        1.45583888991488       -1.04210844621925
H            4.62481002528761        0.26512679518267       -2.53873714229360
H            2.93774684467589       -1.26846201456559       -1.59468323027462
