60
 energy: -61.508083826066 gnorm: 0.000701394449 xtb: 6.7.1 (edcfbbe)
B           -6.14587392698898        2.12621061793865        0.06440464576207
B           -5.85650577385635        0.47341013622441       -0.30964521418733
B           -4.83436038794796        3.19903684518906       -0.23219162187475
B           -4.56391342399164        1.53661996151995       -0.14443677233873
B           -4.28458111865277       -0.13878690526511       -0.10502132554251
B           -5.31179052930424       -2.87868465572251        0.10496176910905
B           -5.02700776254735       -4.53371971332736       -0.25723169371448
B           -4.01228732277816       -1.78951945780681       -0.03663246848744
B           -3.73688963661272       -3.46499037307050        0.03663655948167
B           -3.46131234691601       -5.12525206070980        0.14552986664207
B           -3.25581545542278        2.62157495240418       -0.00970120288573
B           -2.97811342483051        0.93596439256882        0.00064266218145
B           -1.96017886276058        3.67301076878414        0.29355870576927
B           -1.67848950622972        2.01634888898415        0.10878763973237
B           -1.39611475320223        0.34614848625234       -0.00718911582618
B           -2.42398126999929       -2.38210929733651       -0.06432986661248
B           -2.14315461132472       -4.06713229495988        0.01406964888023
B           -1.12071542582265       -1.31126331072390       -0.00196389831448
B           -0.84161103863907       -2.98322104795434       -0.03715948039174
B           -0.56046463131808       -4.64363771717112       -0.16205689850116
B           -0.37205844956955        3.10017829214322        0.13912652088165
B           -0.08964142504512        1.41726516440999        0.07269906845172
B            0.94020617915956        4.16281868862493        0.02047217843706
B            1.21446312265653        2.49906417786679        0.11984659927832
B            1.49255419469354        0.82657018115158        0.11744806799233
B            0.46437664447360       -1.90143235118040        0.03137305240340
B            0.74363029158367       -3.58576462657567        0.06216179121903
B            1.76962045548186       -0.82998503672804        0.07335517214065
B            2.04606385992353       -2.50332643887786        0.14395721238083
B            2.31684465734050       -4.16527819148435        0.30276747959510
B            2.51218826183338        3.58049075147439        0.26964445800128
B            2.79874072288777        1.89808693581097        0.16520736300761
B            3.81647320915131        4.63265431673673        0.51222904612552
B            4.09997353844786        2.97613982125391        0.36845689142704
B            4.38040400554117        1.30307891701314        0.27118441333821
B            3.35085375366791       -1.42104420201620        0.16390669646660
B            3.63027936477733       -3.10586956216571        0.12178242861784
B            4.65799136945558       -0.34530221244331        0.17580877446391
B            4.94076800425533       -2.01894119710725        0.11060316772289
B            5.21803953605608       -3.67821749991149       -0.01187418522801
B            5.40723208206823        4.05196310449977        0.19185113954292
B            5.67017235875112        2.38746591152638        0.52221000465036
B            6.24279938838160       -0.95283483526078        0.05913491577871
B            6.50890595350581       -2.61553265407595        0.40448497781761
H           -7.18008262351488        2.53478851952760        0.43801216238420
H           -6.69746058978254       -0.16151107035782       -0.82247597589662
H           -5.05798430566217        4.29262568923792       -0.60147199100946
H           -6.33723673697882       -2.54939318038043        0.56721668791069
H           -5.84418968181265       -5.25597881582181       -0.68925732929100
H           -3.34551084912592       -6.23134991642926        0.52678919148218
H           -2.16545454225429        4.80020573571056        0.56040794164471
H           -0.37085751233670       -5.78442212190408       -0.37805155508592
H            0.76290787577482        5.30987677705215       -0.17132740767564
H            2.50603522881840       -5.30134277978175        0.54239333754048
H            3.67773290876282        5.72870068180931        0.91415324050400
H            5.46919802759570       -4.76044697548780       -0.39649917455372
H            6.24648393162479        4.78812157666055       -0.16847808084052
H            6.66321211241062        2.04203033708200        1.03984526478705
H            7.11284406257266       -0.30345955133471       -0.38191109191001
H            7.51406986357526       -3.03906098608487        0.83594524661587
