 Entering Gaussian System
 *********************************************
 Gaussian 98:
 frequency output generated by the xtb code
 *********************************************
                         Standard orientation:
 --------------------------------------------------------------------
  Center     Atomic     Atomic              Coordinates (Angstroms)
  Number     Number      Type              X           Y           Z
 --------------------------------------------------------------------
    1          5             0       -4.790113   -2.580655    0.293397
    2          5             0       -4.568035   -1.309113   -0.644141
    3          5             0       -4.425986   -0.187059   -1.860427
    4          5             0       -3.410302   -2.634222   -0.529345
    5          5             0       -3.009807    0.229846   -1.344704
    6          5             0       -4.379026    0.373199   -0.150136
    7          5             0       -5.034328    1.442163    0.845841
    8          5             0       -4.615046    3.024507    0.996774
    9          5             0       -2.802006    0.529466    0.267479
   10          5             0       -3.226595    3.286768    1.807943
   11          5             0       -2.189439   -3.757413   -0.686625
   12          5             0       -1.879405   -2.212273   -0.919371
   13          5             0       -1.690372   -0.586298   -0.766106
   14          5             0       -0.597990   -3.206669   -0.863654
   15          5             0       -0.214624   -0.138330   -0.224124
   16          5             0       -1.392037    0.054394    0.931945
   17          5             0       -1.768089    1.679542    0.833778
   18          5             0       -1.888812    3.255517    0.919754
   19          5             0       -0.204930    1.052023    1.147703
   20          5             0       -0.741901    4.363603    0.592378
   21          5             0        0.808033   -4.107105   -0.799508
   22          5             0        0.903852   -2.500279   -0.730730
   23          5             0        1.209285   -0.950208   -0.521980
   24          5             0        2.193792   -3.417813   -0.214075
   25          5             0        2.622352   -0.211786   -0.232868
   26          5             0        1.244687    0.551718    0.202016
   27          5             0        1.131704    2.013900    1.105437
   28          5             0        0.539414    3.445391    0.662831
   29          5             0        2.453251    1.686384    0.145308
   30          5             0        1.206063    3.005442   -0.804094
   31          5             0        3.214066   -3.913398    1.039889
   32          5             0        3.629282   -2.691010    0.027985
   33          5             0        4.018832   -1.153443   -0.255886
   34          5             0        4.430485   -2.934819    1.373908
   35          5             0        5.357639   -0.275050   -0.727641
   36          5             0        4.124229    0.483213    0.008275
   37          5             0        4.026898    2.268547   -0.059517
   38          5             0        2.816618    3.067376   -0.901727
   39          5             0        5.435565    1.410263   -0.187015
   40          5             0        4.295004    3.464570   -1.095490
   41          1             0       -5.180842   -3.072085    1.285240
   42          1             0       -5.721226   -2.032913   -0.408689
   43          1             0       -5.206040   -0.032453   -2.732752
   44          1             0       -5.789590    1.057972    1.682145
   45          1             0       -5.346998    3.878009    0.636272
   46          1             0       -3.260101    3.338376    2.988502
   47          1             0       -2.410421   -4.909081   -0.665722
   48          1             0       -0.880551    5.491965    0.280201
   49          1             0        0.810394   -5.239297   -1.099554
   50          1             0        0.535944    2.671543   -1.723858
   51          1             0        2.950826   -4.902221    1.610552
   52          1             0        5.288152   -2.634254    2.106000
   53          1             0        6.359902   -0.691820   -1.165954
   54          1             0        6.512517    1.789067    0.082897
   55          1             0        5.143176    4.120772   -1.558748
 --------------------------------------------------------------------
     1 basis functions        1 primitive gaussians
     1 alpha electrons        1 beta electrons

 Harmonic frequencies (cm**-1), IR intensities (km*mol⁻¹),
 Raman scattering activities (A**4/amu), Raman depolarization ratios,
 reduced masses (AMU), force constants (mDyne/A) and normal coordinates:
                      1                      2                      3
                        a                      a                      a 
 Frequencies --    14.6030                29.9832                45.2528
 Red. masses --     9.7086                 9.7053                 9.5821
 Frc consts  --     0.0000                 0.0000                 0.0000
 IR Inten    --    17.0144                 1.0631                11.7992
 Raman Activ --     0.0000                 0.0000                 0.0000
 Depolar     --     0.0000                 0.0000                 0.0000
 Atom AN      X      Y      Z        X      Y      Z        X      Y      Z
   1   5     0.03  -0.03  -0.00     0.03   0.00   0.24    -0.10   0.08  -0.08
   2   5    -0.01  -0.01   0.01    -0.04  -0.07   0.12    -0.01   0.03  -0.13
   3   5    -0.07   0.02   0.03    -0.15  -0.16   0.02     0.04   0.01  -0.14
   4   5    -0.01  -0.01  -0.06    -0.01  -0.03   0.17    -0.05   0.02   0.01
   5   5    -0.05   0.00  -0.03    -0.12  -0.09  -0.10     0.04  -0.01  -0.11
   6   5     0.01  -0.02   0.04    -0.06  -0.03  -0.03     0.01   0.06  -0.16
   7   5     0.06  -0.07   0.12     0.04  -0.03   0.03    -0.01   0.04  -0.17
   8   5     0.06  -0.07   0.19     0.01  -0.02   0.08     0.02   0.03  -0.05
   9   5     0.03  -0.03  -0.03    -0.04   0.05  -0.14     0.00   0.03  -0.12
  10   5     0.10  -0.13   0.14     0.08  -0.09  -0.02    -0.02  -0.07   0.05
  11   5    -0.01  -0.01  -0.10     0.01  -0.01   0.24    -0.04  -0.00   0.23
  12   5    -0.02  -0.00  -0.11    -0.04  -0.03   0.03    -0.03  -0.04   0.04
  13   5    -0.01  -0.00  -0.10    -0.06  -0.01  -0.12     0.01  -0.03  -0.06
  14   5    -0.02  -0.00  -0.08    -0.02   0.01   0.05    -0.03  -0.04   0.19
  15   5     0.01  -0.01  -0.16    -0.04   0.04  -0.19     0.00  -0.03  -0.04
  16   5     0.05  -0.06  -0.10    -0.03   0.05  -0.17    -0.03  -0.02  -0.07
  17   5     0.04  -0.05  -0.02    -0.02   0.05  -0.20     0.01  -0.01  -0.04
  18   5     0.05  -0.05   0.08     0.03   0.05  -0.10     0.02  -0.02   0.11
  19   5     0.05  -0.06  -0.09    -0.03   0.04  -0.18    -0.01  -0.07  -0.02
  20   5     0.04  -0.03   0.11     0.04   0.06   0.00     0.06  -0.01   0.25
  21   5    -0.02  -0.00   0.07    -0.02   0.01  -0.02    -0.05  -0.06   0.31
  22   5    -0.03   0.01  -0.11     0.01   0.01  -0.05    -0.02  -0.06   0.11
  23   5     0.02   0.01  -0.19    -0.03   0.03  -0.11    -0.01  -0.04  -0.01
  24   5    -0.07   0.05   0.09    -0.01  -0.01  -0.04     0.00  -0.01   0.13
  25   5     0.01  -0.00  -0.16    -0.03   0.02  -0.06    -0.01  -0.02  -0.08
  26   5     0.01  -0.01  -0.15    -0.04   0.05  -0.16     0.01  -0.05   0.02
  27   5     0.05  -0.06  -0.07    -0.01   0.01  -0.09     0.01  -0.09   0.06
  28   5     0.05  -0.03   0.02     0.04   0.05  -0.03     0.03  -0.05   0.19
  29   5     0.03  -0.02  -0.10     0.02  -0.00  -0.04    -0.01  -0.04  -0.01
  30   5     0.03   0.04  -0.01     0.11   0.11  -0.02    -0.01   0.06   0.14
  31   5    -0.23   0.25   0.31     0.04  -0.12  -0.14     0.13   0.10   0.08
  32   5    -0.07   0.02   0.11    -0.02   0.01   0.00     0.03   0.00  -0.07
  33   5     0.01  -0.02   0.02    -0.04   0.03   0.01     0.00  -0.01  -0.15
  34   5    -0.25   0.29   0.27     0.05  -0.14  -0.07     0.16   0.13  -0.13
  35   5     0.05  -0.06   0.06    -0.01   0.02   0.10    -0.07   0.03  -0.28
  36   5    -0.00   0.01  -0.09    -0.04   0.02   0.08    -0.01  -0.01  -0.12
  37   5     0.04   0.00  -0.05     0.05   0.02   0.15    -0.01  -0.01   0.02
  38   5     0.03   0.04  -0.01     0.12   0.08   0.10    -0.02   0.05   0.11
  39   5     0.02  -0.02  -0.03     0.02  -0.02   0.22    -0.02  -0.01  -0.16
  40   5     0.02   0.07   0.02     0.14   0.11   0.28    -0.02   0.08   0.14
  41   1     0.02  -0.01   0.00     0.03   0.02   0.09    -0.06   0.04  -0.03
  42   1     0.00  -0.00   0.01    -0.01  -0.02   0.08    -0.01   0.03  -0.04
  43   1    -0.03   0.01   0.02    -0.06  -0.08   0.02     0.02   0.00  -0.05
  44   1     0.03  -0.03   0.04     0.04  -0.02   0.03    -0.02   0.01  -0.07
  45   1     0.01  -0.02   0.09    -0.02  -0.00   0.07     0.02   0.02  -0.01
  46   1     0.05  -0.06   0.05     0.05  -0.07  -0.00    -0.02  -0.05   0.02
  47   1    -0.01  -0.00  -0.04     0.02  -0.01   0.13    -0.01  -0.00   0.12
  48   1     0.01  -0.00   0.05     0.02   0.03   0.02     0.03   0.01   0.11
  49   1    -0.00  -0.01   0.06    -0.01   0.01  -0.02    -0.03  -0.03   0.14
  50   1     0.00   0.03  -0.01     0.05   0.06  -0.02    -0.01   0.04   0.04
  51   1    -0.10   0.11   0.13     0.03  -0.05  -0.06     0.06   0.04   0.06
  52   1    -0.10   0.12   0.10     0.02  -0.07  -0.02     0.07   0.06  -0.07
  53   1     0.03  -0.02   0.05    -0.00   0.01   0.03    -0.04   0.02  -0.14
  54   1     0.01  -0.00  -0.01     0.00  -0.03   0.10     0.00  -0.01  -0.07
  55   1     0.01   0.03   0.02     0.06   0.05   0.13    -0.01   0.04   0.06
                      4                      5                      6
                        a                      a                      a 
 Frequencies --    49.0984                62.4776                70.3525
 Red. masses --     9.3388                 9.4779                 9.4364
 Frc consts  --     0.0000                 0.0000                 0.0000
 IR Inten    --    12.5812                 6.4745                21.0277
 Raman Activ --     0.0000                 0.0000                 0.0000
 Depolar     --     0.0000                 0.0000                 0.0000
 Atom AN      X      Y      Z        X      Y      Z        X      Y      Z
   1   5     0.09   0.02   0.22    -0.17  -0.09  -0.24     0.09   0.03   0.16
   2   5     0.01  -0.02   0.16    -0.05  -0.00  -0.10     0.03  -0.05   0.02
   3   5    -0.02  -0.07   0.10     0.04   0.08  -0.02     0.03  -0.18  -0.09
   4   5     0.02  -0.02   0.10    -0.08  -0.03  -0.09     0.04  -0.00   0.08
   5   5    -0.01  -0.04   0.05     0.02   0.01   0.08     0.00  -0.05  -0.11
   6   5     0.01   0.01   0.06    -0.02  -0.05   0.04    -0.03  -0.02  -0.14
   7   5    -0.08   0.14  -0.12     0.08  -0.12   0.16     0.05  -0.06  -0.05
   8   5     0.01   0.13  -0.31    -0.00  -0.09   0.18    -0.04  -0.04   0.09
   9   5     0.01  -0.03   0.05    -0.03  -0.04   0.09    -0.03   0.10  -0.15
  10   5    -0.09   0.21  -0.16     0.11  -0.08  -0.02     0.02  -0.14   0.01
  11   5    -0.01  -0.03  -0.02    -0.06  -0.03  -0.05     0.04  -0.00  -0.01
  12   5    -0.00  -0.03   0.01    -0.05  -0.01   0.08     0.04   0.01   0.04
  13   5    -0.01  -0.04   0.05    -0.02  -0.02   0.12     0.01   0.01  -0.00
  14   5    -0.01  -0.04  -0.07    -0.05  -0.03   0.08     0.03  -0.01  -0.04
  15   5    -0.00  -0.05   0.05    -0.02  -0.01   0.12    -0.01   0.03   0.07
  16   5     0.00  -0.06   0.05    -0.01   0.05   0.11    -0.08   0.11  -0.03
  17   5     0.03  -0.05   0.07    -0.04   0.04  -0.03    -0.06   0.11  -0.14
  18   5     0.00  -0.05  -0.02     0.02   0.05  -0.17    -0.00   0.11  -0.03
  19   5     0.02  -0.08   0.07    -0.02   0.09   0.00    -0.07   0.10  -0.01
  20   5     0.04  -0.08  -0.05    -0.00   0.02  -0.25     0.02   0.13   0.14
  21   5     0.01  -0.03  -0.12    -0.04  -0.03   0.10     0.05   0.01  -0.19
  22   5    -0.03  -0.02  -0.10    -0.07  -0.02   0.09    -0.02   0.02   0.04
  23   5    -0.00  -0.04  -0.04    -0.03  -0.03   0.12    -0.01  -0.00   0.16
  24   5     0.01  -0.01  -0.16    -0.00  -0.02  -0.03     0.02  -0.03  -0.12
  25   5     0.01  -0.03  -0.07    -0.01  -0.02   0.03     0.00  -0.02   0.17
  26   5     0.01  -0.07   0.01    -0.00   0.02  -0.02     0.00   0.03   0.08
  27   5     0.01  -0.08   0.04    -0.02   0.06  -0.06    -0.05   0.06   0.09
  28   5     0.02  -0.08   0.04     0.02   0.04  -0.19    -0.02   0.08   0.09
  29   5     0.01  -0.06   0.01     0.01  -0.00  -0.00    -0.03   0.06   0.17
  30   5     0.03  -0.06   0.04     0.10  -0.03  -0.12     0.03   0.07   0.11
  31   5    -0.06   0.20   0.01     0.06   0.16   0.02    -0.06   0.12   0.03
  32   5     0.01  -0.03  -0.24     0.01  -0.03  -0.22     0.02  -0.06  -0.15
  33   5     0.03  -0.02  -0.12     0.01  -0.01  -0.10    -0.00  -0.04  -0.00
  34   5    -0.14   0.32  -0.08     0.03   0.26  -0.18    -0.15   0.23   0.00
  35   5     0.03   0.04  -0.03    -0.01   0.06  -0.06    -0.03  -0.04  -0.11
  36   5    -0.00  -0.02  -0.02    -0.01  -0.03   0.06     0.05  -0.08   0.08
  37   5     0.01  -0.02   0.12     0.03  -0.03   0.12    -0.01  -0.11   0.01
  38   5     0.03  -0.00   0.10     0.11  -0.02   0.01     0.03  -0.04   0.05
  39   5     0.01  -0.02   0.11     0.02  -0.05   0.17     0.02  -0.06  -0.09
  40   5     0.03   0.07   0.23     0.14  -0.02   0.17     0.07  -0.31  -0.21
  41   1     0.05   0.02   0.08    -0.09  -0.05  -0.10     0.05   0.04   0.07
  42   1     0.01  -0.01   0.08    -0.03   0.01  -0.08     0.01  -0.02   0.05
  43   1    -0.01  -0.04   0.03     0.02   0.05  -0.01     0.01  -0.09  -0.04
  44   1    -0.06   0.08  -0.05     0.06  -0.05   0.07     0.04  -0.04   0.00
  45   1     0.04   0.04  -0.18    -0.04  -0.04   0.11    -0.04  -0.01   0.09
  46   1    -0.07   0.14  -0.05     0.08  -0.05  -0.00     0.03  -0.12   0.01
  47   1    -0.01  -0.01  -0.02    -0.02  -0.01  -0.03     0.01   0.00  -0.01
  48   1     0.02  -0.03  -0.03    -0.00   0.00  -0.10     0.02   0.05   0.08
  49   1     0.01  -0.01  -0.04    -0.02  -0.01   0.04     0.03   0.02  -0.11
  50   1     0.02  -0.01   0.00     0.05  -0.02  -0.05     0.01   0.02   0.04
  51   1    -0.03   0.08   0.03     0.03   0.06   0.04    -0.03   0.04   0.02
  52   1    -0.07   0.15  -0.01     0.01   0.12  -0.07    -0.07   0.11   0.02
  53   1     0.01   0.02  -0.01    -0.01   0.02  -0.04    -0.03  -0.02  -0.06
  54   1     0.00  -0.01   0.05     0.00  -0.03   0.09     0.01  -0.02  -0.04
  55   1     0.01   0.04   0.10     0.05  -0.00   0.08     0.03  -0.15  -0.12
                      7                      8                      9
                        a                      a                      a 
 Frequencies --    74.0775                90.3546                97.5544
 Red. masses --     9.2343                 9.2361                 9.1316
 Frc consts  --     0.0000                 0.0000                 0.0000
 IR Inten    --    29.3728                 6.8888                 1.4748
 Raman Activ --     0.0000                 0.0000                 0.0000
 Depolar     --     0.0000                 0.0000                 0.0000
 Atom AN      X      Y      Z        X      Y      Z        X      Y      Z
   1   5     0.08  -0.13   0.03    -0.23  -0.14  -0.23    -0.04  -0.15  -0.05
   2   5    -0.00  -0.07   0.10    -0.02  -0.06  -0.08    -0.04  -0.05   0.07
   3   5    -0.04  -0.08   0.08     0.07   0.02   0.00    -0.12   0.02   0.12
   4   5     0.03  -0.05  -0.07    -0.06  -0.08   0.07    -0.05  -0.01  -0.08
   5   5    -0.04  -0.03   0.05     0.05  -0.03   0.09    -0.09   0.00   0.04
   6   5    -0.03  -0.07   0.08     0.03  -0.08   0.04    -0.03  -0.04   0.10
   7   5    -0.03  -0.03   0.03    -0.03  -0.06  -0.02    -0.12   0.01  -0.00
   8   5    -0.04  -0.01  -0.09    -0.03  -0.05  -0.14    -0.05   0.01  -0.14
   9   5    -0.02  -0.01   0.04     0.01  -0.08   0.11    -0.01  -0.05   0.04
  10   5    -0.04   0.05  -0.11    -0.06   0.01  -0.08    -0.12   0.06  -0.03
  11   5     0.00  -0.03  -0.34     0.05  -0.02   0.36    -0.03   0.02  -0.09
  12   5     0.02   0.01  -0.04    -0.04  -0.04   0.21    -0.05   0.02  -0.06
  13   5    -0.01   0.00   0.05     0.01  -0.03   0.13    -0.03   0.02  -0.05
  14   5     0.01  -0.00  -0.08     0.00   0.03   0.07    -0.03   0.05   0.03
  15   5    -0.01   0.05   0.02     0.03   0.03   0.03     0.00   0.05  -0.10
  16   5     0.00   0.04   0.03     0.06  -0.01   0.08     0.04  -0.04  -0.05
  17   5    -0.03   0.03  -0.03     0.00  -0.03   0.03    -0.02  -0.04   0.02
  18   5    -0.02   0.04  -0.08    -0.02  -0.03  -0.01    -0.06  -0.05   0.06
  19   5    -0.01   0.07  -0.01     0.04   0.03   0.01     0.01  -0.01  -0.06
  20   5    -0.01   0.04  -0.03    -0.02   0.01   0.07    -0.06   0.00   0.17
  21   5     0.02   0.03   0.01     0.01   0.05  -0.19    -0.06   0.02   0.22
  22   5    -0.02   0.03   0.07     0.02   0.06  -0.11    -0.01   0.03   0.01
  23   5    -0.02   0.03   0.04     0.02   0.05  -0.08     0.02   0.05  -0.10
  24   5    -0.05   0.05   0.17    -0.00   0.00  -0.13    -0.02   0.05   0.08
  25   5    -0.01   0.02   0.02     0.02   0.04  -0.06     0.03   0.02  -0.06
  26   5     0.00   0.08  -0.05     0.03   0.10  -0.15     0.02   0.08  -0.19
  27   5    -0.01   0.05   0.01     0.02   0.04   0.02    -0.02   0.01   0.01
  28   5     0.01   0.07   0.01     0.01   0.06   0.05    -0.02   0.04   0.06
  29   5     0.01   0.06   0.05     0.02   0.11   0.04    -0.01   0.10   0.07
  30   5     0.11   0.11   0.05     0.08   0.14   0.06     0.08   0.15   0.07
  31   5    -0.09  -0.00   0.15    -0.12  -0.07  -0.08     0.08   0.08   0.02
  32   5    -0.01   0.00   0.18    -0.04   0.01   0.04     0.02   0.00  -0.09
  33   5    -0.06  -0.02  -0.06    -0.01  -0.00   0.03     0.04   0.01  -0.04
  34   5     0.10  -0.20   0.07    -0.23  -0.01   0.15     0.18   0.02  -0.18
  35   5    -0.18  -0.05  -0.38     0.00  -0.08  -0.05     0.14  -0.01   0.16
  36   5     0.01  -0.03  -0.05     0.05   0.00  -0.06     0.05  -0.05   0.06
  37   5     0.06  -0.04   0.08     0.06  -0.01  -0.02     0.04  -0.09  -0.01
  38   5     0.11   0.11   0.13     0.09   0.13   0.08     0.10   0.04   0.04
  39   5     0.01  -0.07  -0.23     0.04  -0.01  -0.16     0.08  -0.04   0.16
  40   5     0.15   0.04   0.20     0.12  -0.01  -0.01     0.15  -0.32  -0.28
  41   1     0.05  -0.06   0.01    -0.15  -0.07  -0.12    -0.00  -0.09  -0.03
  42   1     0.01  -0.04   0.04    -0.02   0.01  -0.10    -0.02  -0.01   0.02
  43   1    -0.02  -0.03   0.03     0.03   0.03  -0.00    -0.05   0.01   0.05
  44   1    -0.00   0.01   0.02    -0.02  -0.00  -0.01    -0.06   0.03  -0.01
  45   1    -0.02  -0.01  -0.04    -0.00  -0.02  -0.08     0.01   0.00  -0.10
  46   1    -0.02   0.03  -0.03    -0.04   0.03  -0.03    -0.07   0.06  -0.01
  47   1    -0.01  -0.01  -0.19     0.04  -0.01   0.20    -0.00   0.00  -0.05
  48   1    -0.00   0.01  -0.01    -0.01   0.01   0.04    -0.03   0.01   0.09
  49   1     0.03   0.01   0.00    -0.00   0.03  -0.11    -0.03  -0.01   0.12
  50   1     0.05   0.04  -0.00     0.04   0.06   0.01     0.03   0.06   0.01
  51   1    -0.05   0.01   0.05    -0.04  -0.03  -0.05     0.03   0.03   0.03
  52   1     0.06  -0.10  -0.00    -0.11   0.00   0.09     0.09  -0.00  -0.10
  53   1    -0.09   0.00  -0.22    -0.00  -0.03  -0.01     0.06  -0.03   0.10
  54   1     0.03  -0.06  -0.11     0.02  -0.01  -0.08     0.01  -0.00   0.11
  55   1     0.05   0.02   0.08     0.04  -0.02  -0.01     0.07  -0.17  -0.15
                     10                     11                     12
                        a                      a                      a 
 Frequencies --   107.1476               123.2008               134.9470
 Red. masses --     9.4167                 9.3255                 8.9253
 Frc consts  --     0.0000                 0.0000                 0.0000
 IR Inten    --     3.3307                 5.1481                13.1254
 Raman Activ --     0.0000                 0.0000                 0.0000
 Depolar     --     0.0000                 0.0000                 0.0000
 Atom AN      X      Y      Z        X      Y      Z        X      Y      Z
   1   5     0.07   0.14   0.05     0.12   0.30   0.16    -0.07  -0.17  -0.10
   2   5     0.02   0.04  -0.09     0.03   0.09  -0.12    -0.04  -0.03   0.09
   3   5    -0.08   0.15   0.01     0.14   0.08  -0.08    -0.09  -0.00   0.10
   4   5     0.04   0.11  -0.00     0.06   0.04   0.06    -0.03  -0.05  -0.01
   5   5    -0.05   0.12  -0.05     0.09   0.03   0.07    -0.04  -0.06   0.02
   6   5     0.00   0.01   0.05     0.02   0.04  -0.01    -0.01   0.07   0.01
   7   5    -0.05  -0.11   0.15    -0.20   0.07  -0.18    -0.05   0.26  -0.21
   8   5    -0.12  -0.10   0.09    -0.05  -0.00   0.02     0.27   0.16  -0.04
   9   5     0.01  -0.04  -0.02    -0.01  -0.10   0.11    -0.01  -0.08   0.04
  10   5    -0.10   0.09  -0.01    -0.08  -0.26   0.18     0.25  -0.23   0.15
  11   5     0.08   0.12   0.28    -0.01  -0.02   0.01     0.03  -0.02   0.07
  12   5     0.02   0.08  -0.16     0.06  -0.03   0.01    -0.03  -0.03  -0.01
  13   5     0.02   0.09  -0.21     0.01  -0.04   0.10    -0.02  -0.03  -0.02
  14   5     0.04   0.11  -0.02     0.02  -0.07  -0.02     0.02   0.02  -0.05
  15   5     0.02   0.04  -0.14     0.01  -0.05   0.10    -0.03  -0.01  -0.04
  16   5     0.02  -0.09  -0.11     0.03  -0.05   0.10    -0.00  -0.06   0.01
  17   5     0.00  -0.10   0.08    -0.07  -0.08   0.13     0.01  -0.06  -0.03
  18   5    -0.12  -0.11  -0.03    -0.11  -0.08   0.13     0.13  -0.06  -0.01
  19   5    -0.00  -0.09   0.00    -0.01   0.04   0.00    -0.01  -0.05   0.01
  20   5    -0.14  -0.15  -0.25    -0.18  -0.03   0.06     0.03  -0.02  -0.07
  21   5     0.00   0.06   0.02     0.03  -0.03  -0.06     0.04   0.06  -0.07
  22   5     0.06   0.06  -0.08    -0.01  -0.02   0.02     0.02   0.06  -0.11
  23   5     0.06   0.05  -0.06     0.00  -0.04   0.02     0.00   0.04  -0.04
  24   5     0.02   0.03   0.00     0.01  -0.02   0.02    -0.00   0.08   0.00
  25   5     0.04   0.01   0.10     0.01  -0.02  -0.06    -0.01   0.04   0.11
  26   5     0.00  -0.02   0.05     0.00   0.08  -0.22    -0.06   0.01   0.01
  27   5    -0.03  -0.02   0.05    -0.07   0.06  -0.14    -0.01  -0.01   0.01
  28   5    -0.09  -0.08  -0.06    -0.08   0.07  -0.22     0.02  -0.03  -0.05
  29   5     0.03  -0.02   0.16    -0.05   0.10  -0.09     0.02  -0.05   0.07
  30   5     0.04  -0.14   0.02     0.06   0.10  -0.16    -0.00  -0.13  -0.03
  31   5    -0.02   0.05   0.05    -0.04   0.01   0.06    -0.07   0.09   0.05
  32   5     0.03  -0.01  -0.00     0.02  -0.03   0.01     0.00   0.07   0.06
  33   5     0.03  -0.01   0.03    -0.00  -0.03  -0.06    -0.02   0.08   0.06
  34   5     0.02   0.02   0.01     0.03  -0.06   0.00     0.06  -0.03  -0.01
  35   5    -0.08   0.01  -0.19    -0.01  -0.02  -0.04    -0.16   0.16  -0.14
  36   5     0.06  -0.03   0.12    -0.01  -0.04  -0.01    -0.04   0.07   0.20
  37   5     0.02  -0.05   0.13     0.00  -0.04   0.01    -0.03   0.07   0.13
  38   5     0.05  -0.06   0.09     0.09   0.07  -0.04    -0.01  -0.08  -0.02
  39   5     0.02  -0.01  -0.11     0.00  -0.05   0.10    -0.05   0.09   0.05
  40   5     0.07  -0.16   0.02     0.13  -0.03   0.05    -0.00  -0.14  -0.10
  41   1     0.04   0.07   0.04     0.06   0.17   0.10    -0.05  -0.10  -0.07
  42   1     0.01   0.01   0.01     0.02  -0.00  -0.00    -0.01   0.01  -0.01
  43   1    -0.04   0.07   0.02     0.07   0.06  -0.04    -0.03  -0.01   0.03
  44   1    -0.00  -0.06   0.04    -0.14   0.03  -0.12    -0.10   0.14  -0.11
  45   1    -0.05  -0.05   0.01     0.04   0.04   0.01     0.17   0.11  -0.02
  46   1    -0.02   0.11  -0.00    -0.03  -0.14   0.06     0.09  -0.16   0.05
  47   1     0.04   0.04   0.19    -0.02  -0.00   0.00     0.03  -0.01   0.05
  48   1    -0.05  -0.07  -0.14    -0.09  -0.00   0.05     0.00  -0.01  -0.03
  49   1    -0.02   0.02   0.01     0.03  -0.00  -0.03     0.02   0.02  -0.04
  50   1     0.04  -0.07  -0.01     0.04   0.03  -0.07    -0.00  -0.05  -0.00
  51   1    -0.01   0.02   0.02    -0.03   0.01   0.03    -0.04   0.04   0.03
  52   1     0.01   0.00   0.00     0.02  -0.02  -0.01     0.04  -0.04  -0.01
  53   1    -0.05   0.02  -0.13    -0.01   0.00  -0.03    -0.08   0.08  -0.13
  54   1     0.02  -0.02  -0.06    -0.00  -0.03   0.06    -0.01   0.00   0.02
  55   1     0.02  -0.07  -0.02     0.06  -0.03   0.03    -0.00  -0.06  -0.06
                     13                     14                     15
                        a                      a                      a 
 Frequencies --   135.7412               151.9421               154.2558
 Red. masses --     8.9652                 9.4990                 9.0490
 Frc consts  --     0.0000                 0.0000                 0.0000
 IR Inten    --     8.6703                 3.4007                 5.5583
 Raman Activ --     0.0000                 0.0000                 0.0000
 Depolar     --     0.0000                 0.0000                 0.0000
 Atom AN      X      Y      Z        X      Y      Z        X      Y      Z
   1   5     0.05  -0.13  -0.07    -0.10  -0.20  -0.01    -0.02  -0.11  -0.14
   2   5     0.01  -0.01   0.09     0.03  -0.08   0.13     0.01  -0.02  -0.00
   3   5    -0.13   0.07   0.14     0.02  -0.17   0.03    -0.03   0.02   0.02
   4   5     0.02   0.05  -0.13    -0.07   0.04   0.02     0.07  -0.01   0.00
   5   5    -0.06   0.03   0.01    -0.00   0.03  -0.02    -0.02   0.01  -0.02
   6   5    -0.02   0.05   0.08     0.00   0.01  -0.06    -0.01   0.01   0.01
   7   5    -0.13   0.12  -0.05    -0.22  -0.01  -0.19     0.06  -0.03   0.10
   8   5     0.00   0.08  -0.00    -0.19  -0.05   0.03    -0.07   0.03  -0.01
   9   5    -0.01  -0.01   0.02     0.00   0.09  -0.05    -0.00   0.09  -0.03
  10   5    -0.03  -0.03   0.11    -0.17  -0.22   0.09    -0.16   0.27   0.07
  11   5     0.03   0.05  -0.05    -0.01   0.10   0.01     0.10  -0.01   0.13
  12   5     0.04   0.03  -0.13    -0.05   0.11   0.07     0.06  -0.01   0.02
  13   5     0.01   0.04  -0.13     0.04   0.11  -0.01     0.01   0.01  -0.07
  14   5     0.04   0.03   0.06    -0.05   0.13   0.03     0.07  -0.04  -0.03
  15   5    -0.00  -0.00  -0.06     0.05   0.11  -0.01    -0.02  -0.01  -0.05
  16   5     0.01   0.01  -0.06     0.02   0.10  -0.05    -0.01   0.06  -0.06
  17   5    -0.02   0.01   0.01    -0.03   0.06   0.08     0.00   0.07   0.04
  18   5    -0.05   0.00   0.07    -0.13   0.06   0.14    -0.06   0.06   0.22
  19   5    -0.01   0.05  -0.09     0.02   0.09   0.00     0.00   0.03  -0.06
  20   5    -0.06   0.01   0.06    -0.01  -0.09  -0.05     0.05   0.05   0.29
  21   5     0.00  -0.08   0.11    -0.07   0.09   0.00     0.11  -0.02  -0.20
  22   5     0.09  -0.08   0.13    -0.03   0.09   0.00     0.03  -0.03   0.02
  23   5     0.01  -0.07   0.14     0.04   0.07   0.01    -0.00  -0.06   0.09
  24   5     0.11  -0.20  -0.06    -0.06   0.07  -0.01     0.04  -0.03   0.01
  25   5    -0.00  -0.03   0.12     0.07   0.01   0.02    -0.01  -0.05   0.07
  26   5    -0.02   0.01  -0.02     0.09  -0.04   0.23    -0.03  -0.06   0.03
  27   5    -0.01   0.05  -0.10     0.10   0.04  -0.02     0.02   0.00  -0.17
  28   5    -0.01   0.06  -0.09     0.08  -0.01  -0.09     0.07   0.03  -0.12
  29   5     0.01  -0.02  -0.05     0.13  -0.08  -0.02     0.00  -0.10  -0.20
  30   5     0.03   0.07  -0.08     0.05  -0.20  -0.06    -0.01   0.02  -0.16
  31   5     0.29  -0.23  -0.17    -0.11   0.07   0.03    -0.08   0.09   0.15
  32   5     0.02  -0.08  -0.05    -0.01  -0.02  -0.05     0.05  -0.05   0.03
  33   5    -0.02  -0.04   0.17     0.07  -0.03  -0.02    -0.01  -0.03  -0.05
  34   5    -0.19   0.26   0.14     0.03  -0.06  -0.08     0.08  -0.05   0.01
  35   5    -0.07  -0.07  -0.02     0.13  -0.09   0.05    -0.13   0.08  -0.15
  36   5     0.00  -0.00   0.06     0.10  -0.03  -0.08    -0.06  -0.04   0.13
  37   5     0.02  -0.01  -0.00     0.13   0.00  -0.06    -0.01  -0.01  -0.02
  38   5     0.03  -0.00  -0.04     0.05  -0.11  -0.07    -0.00  -0.13  -0.18
  39   5    -0.00  -0.04  -0.16     0.12  -0.05  -0.05    -0.03  -0.08   0.23
  40   5     0.05   0.05   0.09     0.01   0.14   0.08    -0.00  -0.01   0.00
  41   1     0.04  -0.10  -0.04    -0.03  -0.12  -0.03    -0.04  -0.07  -0.08
  42   1     0.00  -0.00   0.03    -0.02   0.01   0.06     0.01  -0.00  -0.05
  43   1    -0.06   0.02   0.06     0.01  -0.10  -0.00    -0.02  -0.00   0.01
  44   1    -0.09   0.06  -0.05    -0.11  -0.01  -0.10     0.05  -0.02   0.05
  45   1     0.04   0.05  -0.03    -0.05   0.02   0.06    -0.04  -0.03  -0.05
  46   1    -0.01  -0.03   0.03    -0.07  -0.16   0.03    -0.10   0.15   0.02
  47   1     0.01   0.01  -0.02     0.01   0.03  -0.01     0.03  -0.00   0.09
  48   1    -0.03   0.01   0.04     0.00  -0.04  -0.06     0.00   0.04   0.17
  49   1    -0.05  -0.02   0.02    -0.04   0.03   0.01     0.05   0.01  -0.12
  50   1     0.01   0.02  -0.03     0.02  -0.09  -0.01    -0.02   0.01  -0.04
  51   1     0.18  -0.13  -0.11    -0.06   0.04   0.02    -0.06   0.06   0.09
  52   1    -0.14   0.16   0.11     0.03  -0.04  -0.04     0.04  -0.03  -0.01
  53   1    -0.04  -0.03  -0.04     0.05  -0.04   0.05    -0.06   0.05  -0.13
  54   1     0.01  -0.01  -0.10     0.04  -0.01  -0.03    -0.02  -0.05   0.14
  55   1     0.01   0.04   0.05    -0.02   0.08   0.05     0.00   0.02   0.03
                     16                     17                     18
                        a                      a                      a 
 Frequencies --   169.7571               172.5048               180.8921
 Red. masses --     9.4168                 9.3889                 9.7703
 Frc consts  --     0.0000                 0.0000                 0.0000
 IR Inten    --    20.5990                 6.9964                 8.0842
 Raman Activ --     0.0000                 0.0000                 0.0000
 Depolar     --     0.0000                 0.0000                 0.0000
 Atom AN      X      Y      Z        X      Y      Z        X      Y      Z
   1   5    -0.08  -0.11   0.00    -0.01  -0.09  -0.11    -0.04  -0.03   0.11
   2   5     0.07  -0.02   0.13    -0.04   0.03   0.06     0.08  -0.10  -0.00
   3   5     0.14  -0.23  -0.08    -0.13   0.06   0.05     0.06  -0.04   0.04
   4   5    -0.06  -0.03   0.04     0.05   0.02  -0.00    -0.12   0.04  -0.05
   5   5     0.10  -0.05  -0.11    -0.06  -0.08  -0.05     0.08   0.06  -0.02
   6   5     0.08   0.11  -0.23    -0.05   0.12  -0.02     0.13  -0.08  -0.04
   7   5     0.18   0.03  -0.06     0.01   0.17  -0.00     0.16  -0.14   0.01
   8   5     0.09   0.04   0.16     0.09   0.15   0.14     0.17  -0.13  -0.17
   9   5     0.07   0.11  -0.14    -0.04   0.00  -0.05     0.13  -0.07  -0.01
  10   5    -0.02   0.30   0.28     0.08   0.13   0.14     0.05  -0.04  -0.01
  11   5    -0.06  -0.03  -0.12     0.06  -0.02   0.09    -0.08   0.07   0.04
  12   5    -0.03  -0.01   0.11     0.06  -0.04  -0.00    -0.10   0.05  -0.10
  13   5     0.05  -0.03   0.05    -0.00  -0.02  -0.05     0.08   0.03  -0.10
  14   5    -0.04  -0.01   0.06     0.06  -0.07  -0.02    -0.11   0.07  -0.03
  15   5     0.05   0.00   0.00     0.01  -0.04   0.02     0.05  -0.03   0.00
  16   5     0.02  -0.01  -0.04    -0.05  -0.00  -0.06     0.11  -0.05   0.04
  17   5     0.02  -0.01   0.12    -0.06   0.00  -0.09     0.09  -0.05   0.02
  18   5    -0.08  -0.04   0.21    -0.05  -0.01  -0.05     0.06  -0.07   0.02
  19   5     0.02  -0.05   0.07    -0.06  -0.01  -0.02     0.07  -0.00   0.02
  20   5    -0.15  -0.05  -0.10    -0.15   0.05  -0.09    -0.06   0.07   0.09
  21   5    -0.07  -0.01   0.14     0.11  -0.02  -0.19    -0.15   0.01   0.00
  22   5    -0.00   0.00  -0.08     0.01  -0.03   0.09    -0.09   0.02   0.03
  23   5     0.04   0.02  -0.13     0.03  -0.05   0.10     0.07  -0.04   0.12
  24   5    -0.01   0.02  -0.04     0.04  -0.04   0.03    -0.13  -0.07  -0.02
  25   5     0.02   0.03  -0.07     0.05  -0.08   0.03     0.05  -0.06   0.25
  26   5     0.02   0.03  -0.09     0.05   0.01  -0.08     0.01   0.08  -0.13
  27   5    -0.07   0.03  -0.00    -0.13   0.01   0.04    -0.00   0.08  -0.06
  28   5    -0.12  -0.01  -0.13    -0.21  -0.02  -0.04    -0.07   0.07  -0.08
  29   5    -0.06   0.10   0.04    -0.09   0.12   0.12     0.01   0.07   0.04
  30   5     0.02  -0.02  -0.07    -0.07   0.07   0.02    -0.06   0.10  -0.07
  31   5    -0.01  -0.07  -0.10    -0.05   0.11   0.17    -0.14   0.05   0.07
  32   5    -0.01   0.01  -0.00     0.08  -0.09  -0.05    -0.10  -0.13  -0.15
  33   5     0.01   0.01   0.01     0.09  -0.10  -0.05     0.03  -0.07   0.22
  34   5    -0.10  -0.01   0.05     0.15  -0.07  -0.08     0.02  -0.03  -0.22
  35   5    -0.03   0.03  -0.06     0.21  -0.15   0.15    -0.07  -0.03   0.08
  36   5     0.00   0.00   0.02     0.10  -0.11  -0.14     0.02  -0.00   0.21
  37   5    -0.05   0.01   0.12    -0.05  -0.11  -0.08    -0.02   0.08  -0.05
  38   5     0.03   0.07   0.04    -0.06   0.08   0.11    -0.06   0.03  -0.05
  39   5    -0.04   0.06   0.01     0.03  -0.03  -0.17    -0.06   0.05  -0.11
  40   5     0.08  -0.11   0.01    -0.06   0.09   0.15    -0.08   0.17   0.05
  41   1    -0.04  -0.07  -0.02    -0.04  -0.08  -0.07     0.03  -0.00   0.05
  42   1    -0.01   0.04   0.04     0.01   0.01  -0.04    -0.02   0.02   0.10
  43   1     0.06  -0.15  -0.06    -0.05   0.00   0.03     0.02  -0.01   0.01
  44   1     0.06  -0.04  -0.03    -0.01   0.05  -0.01     0.05  -0.03   0.01
  45   1     0.02  -0.00   0.02     0.04   0.06   0.04     0.07  -0.06  -0.14
  46   1    -0.01   0.19   0.08     0.07   0.07   0.04    -0.01   0.03  -0.01
  47   1    -0.02  -0.01  -0.10     0.01  -0.00   0.07    -0.01   0.02   0.04
  48   1    -0.07  -0.03  -0.07    -0.05   0.01  -0.03    -0.05   0.03   0.08
  49   1    -0.03  -0.02   0.09     0.06   0.01  -0.12    -0.07   0.01  -0.02
  50   1     0.03  -0.02  -0.04     0.01   0.01  -0.01    -0.02   0.02  -0.02
  51   1     0.01  -0.04  -0.06    -0.06   0.07   0.09    -0.05   0.04   0.06
  52   1    -0.05  -0.00   0.04     0.08  -0.03  -0.06     0.05  -0.03  -0.10
  53   1    -0.01   0.03  -0.05     0.10  -0.07   0.15    -0.03   0.00  -0.00
  54   1    -0.01   0.00   0.00    -0.00   0.04  -0.08    -0.00   0.02  -0.10
  55   1     0.04  -0.06  -0.01    -0.02   0.04   0.06    -0.03   0.08   0.03
                     19                     20                     21
                        a                      a                      a 
 Frequencies --   191.5996               197.0237               202.8761
 Red. masses --     9.5228                 9.7045                 9.6029
 Frc consts  --     0.0000                 0.0000                 0.0000
 IR Inten    --     4.9643                 9.0888                13.7184
 Raman Activ --     0.0000                 0.0000                 0.0000
 Depolar     --     0.0000                 0.0000                 0.0000
 Atom AN      X      Y      Z        X      Y      Z        X      Y      Z
   1   5     0.08  -0.16   0.00    -0.07   0.08   0.03     0.03   0.02   0.02
   2   5     0.14  -0.11   0.06    -0.07   0.02  -0.06    -0.07  -0.03  -0.07
   3   5     0.01  -0.02   0.09    -0.01  -0.03  -0.07    -0.04   0.01  -0.02
   4   5     0.02   0.10  -0.12    -0.07  -0.08   0.04     0.02  -0.04   0.02
   5   5     0.05   0.10  -0.02    -0.02  -0.07  -0.04    -0.04  -0.03   0.02
   6   5     0.07   0.00  -0.06     0.01  -0.04   0.02    -0.05  -0.08   0.04
   7   5     0.04  -0.03  -0.06     0.03  -0.01   0.01     0.09  -0.02   0.06
   8   5     0.10  -0.06  -0.03     0.14  -0.04  -0.02     0.14  -0.02  -0.12
   9   5     0.06  -0.02  -0.00     0.01  -0.08  -0.04    -0.05  -0.04   0.02
  10   5     0.10  -0.09  -0.02     0.02   0.06   0.15     0.06  -0.02   0.01
  11   5     0.07   0.13   0.15    -0.08  -0.08  -0.06     0.04   0.01   0.02
  12   5     0.04   0.10  -0.15    -0.07  -0.07   0.02    -0.03   0.01  -0.05
  13   5     0.07   0.09  -0.13    -0.01  -0.07  -0.06    -0.02  -0.00   0.02
  14   5     0.01   0.09   0.02    -0.06  -0.06   0.03     0.02   0.07  -0.05
  15   5     0.00   0.02   0.08    -0.01   0.04  -0.14    -0.01  -0.03   0.07
  16   5     0.00  -0.02   0.07     0.02  -0.09  -0.09    -0.07  -0.02   0.04
  17   5     0.04  -0.02   0.07     0.06  -0.11   0.03    -0.03  -0.01  -0.04
  18   5     0.06  -0.02  -0.07    -0.04  -0.13   0.08     0.03  -0.01  -0.01
  19   5    -0.00  -0.02   0.13     0.04  -0.07  -0.09    -0.06  -0.04   0.06
  20   5    -0.05   0.02  -0.14    -0.11  -0.13  -0.11    -0.04   0.13   0.18
  21   5    -0.04   0.02   0.05     0.04   0.06  -0.25    -0.03   0.04   0.18
  22   5     0.01   0.01   0.09    -0.10   0.04   0.25     0.03   0.04  -0.18
  23   5    -0.02   0.01   0.07    -0.05   0.06   0.08     0.01   0.06  -0.07
  24   5    -0.01  -0.02   0.00    -0.07   0.01   0.10     0.02   0.15  -0.07
  25   5    -0.04   0.02  -0.12    -0.07   0.11   0.03     0.01   0.05   0.01
  26   5     0.02  -0.02   0.18    -0.02  -0.04   0.42     0.01  -0.17   0.43
  27   5    -0.05   0.04   0.06     0.07   0.09  -0.03    -0.14   0.07  -0.09
  28   5    -0.04   0.06   0.09     0.06   0.08   0.07    -0.05   0.09  -0.21
  29   5    -0.15   0.12  -0.12     0.04  -0.02  -0.12    -0.11  -0.04  -0.04
  30   5    -0.07   0.21   0.04     0.10   0.20   0.03     0.01   0.13  -0.17
  31   5    -0.07  -0.05  -0.01     0.10   0.02  -0.00    -0.06   0.04  -0.08
  32   5     0.02  -0.04   0.01    -0.13   0.11   0.05     0.06   0.06   0.00
  33   5    -0.04  -0.07  -0.25    -0.09   0.08   0.04     0.06   0.04  -0.05
  34   5    -0.10  -0.07   0.09     0.05   0.12  -0.06    -0.03  -0.06   0.04
  35   5    -0.01  -0.04  -0.13    -0.02  -0.03   0.05     0.15  -0.01   0.03
  36   5    -0.08  -0.09  -0.19    -0.04   0.06  -0.04     0.09  -0.04  -0.07
  37   5    -0.07  -0.07  -0.11     0.10  -0.00  -0.08    -0.10  -0.12   0.13
  38   5    -0.05   0.09   0.01     0.09   0.05  -0.01     0.02  -0.12  -0.08
  39   5    -0.05  -0.13   0.32     0.08  -0.09  -0.01     0.02   0.04  -0.18
  40   5    -0.04   0.01  -0.04     0.11  -0.00  -0.06     0.08  -0.15   0.17
  41   1     0.07  -0.11  -0.01    -0.03   0.08   0.03     0.00   0.04   0.02
  42   1     0.01  -0.00   0.09    -0.02   0.00  -0.02     0.00  -0.03  -0.03
  43   1    -0.01  -0.03   0.03    -0.00   0.01  -0.02    -0.01   0.03   0.00
  44   1    -0.00  -0.01  -0.03    -0.01   0.01  -0.01     0.04   0.02   0.04
  45   1     0.04  -0.01  -0.01     0.08  -0.01  -0.08     0.06  -0.01  -0.09
  46   1     0.05  -0.04  -0.01    -0.00   0.08   0.04    -0.00   0.00   0.00
  47   1     0.04   0.04   0.10    -0.03  -0.02  -0.03     0.03  -0.00   0.01
  48   1    -0.02  -0.01  -0.10    -0.07  -0.06  -0.10    -0.04   0.07   0.17
  49   1    -0.04   0.00   0.03     0.04   0.05  -0.18    -0.02  -0.02   0.16
  50   1    -0.02   0.09   0.00     0.02   0.08   0.01     0.01   0.03  -0.05
  51   1    -0.03  -0.02  -0.01     0.06  -0.00   0.00    -0.04  -0.00  -0.05
  52   1    -0.05  -0.01   0.05     0.03   0.04  -0.04    -0.02  -0.04   0.03
  53   1     0.00   0.01  -0.05    -0.01  -0.06   0.04     0.06  -0.02   0.07
  54   1    -0.04  -0.07   0.22     0.02  -0.03   0.02    -0.00   0.06  -0.08
  55   1     0.00  -0.02  -0.01     0.03   0.00  -0.02     0.03  -0.03   0.09
                     22                     23                     24
                        a                      a                      a 
 Frequencies --   207.0148               211.7962               219.6343
 Red. masses --     9.5994                 9.8831                 9.6004
 Frc consts  --     0.0000                 0.0000                 0.0000
 IR Inten    --    18.6470                 2.1190                33.1911
 Raman Activ --     0.0000                 0.0000                 0.0000
 Depolar     --     0.0000                 0.0000                 0.0000
 Atom AN      X      Y      Z        X      Y      Z        X      Y      Z
   1   5     0.10  -0.10  -0.03     0.02  -0.01   0.06     0.06   0.04  -0.02
   2   5     0.11  -0.08  -0.01    -0.09  -0.10  -0.08    -0.05  -0.02  -0.12
   3   5     0.11  -0.11  -0.03    -0.10  -0.04  -0.03     0.03  -0.04  -0.09
   4   5     0.10   0.00  -0.05    -0.06   0.06  -0.10     0.10  -0.08   0.07
   5   5     0.03   0.11   0.06    -0.11   0.05  -0.02    -0.04  -0.02   0.05
   6   5    -0.02   0.01  -0.10    -0.08  -0.06  -0.12    -0.05  -0.12   0.05
   7   5     0.05   0.01  -0.06     0.15  -0.08   0.03     0.11  -0.00   0.03
   8   5    -0.01   0.03   0.03     0.16  -0.06  -0.15     0.20  -0.00  -0.12
   9   5    -0.06   0.05   0.08    -0.07  -0.01  -0.01    -0.05  -0.02   0.05
  10   5     0.01   0.04  -0.00     0.04  -0.00   0.04     0.04   0.02   0.16
  11   5     0.14   0.04   0.13    -0.02   0.08   0.03     0.11  -0.02  -0.03
  12   5     0.06   0.04  -0.09    -0.04   0.08  -0.07     0.04   0.02   0.07
  13   5    -0.03   0.04   0.03    -0.06   0.08  -0.06    -0.04   0.02   0.08
  14   5     0.05   0.06  -0.20    -0.04   0.08   0.11     0.07   0.08  -0.03
  15   5    -0.08   0.01   0.09    -0.09   0.02   0.11    -0.03   0.14  -0.09
  16   5    -0.07   0.02   0.11    -0.09  -0.02   0.07     0.01   0.07  -0.01
  17   5    -0.05   0.03   0.16    -0.11  -0.03   0.09    -0.06   0.04  -0.04
  18   5     0.05   0.06   0.05     0.07  -0.03   0.10    -0.04   0.03   0.06
  19   5    -0.05   0.01   0.12    -0.08  -0.02   0.11    -0.01   0.09  -0.06
  20   5     0.09  -0.01  -0.05     0.10  -0.05   0.12    -0.12   0.07  -0.01
  21   5     0.01  -0.03  -0.05     0.04   0.14  -0.13    -0.00   0.04   0.13
  22   5     0.07   0.00  -0.20    -0.07   0.09   0.32     0.06   0.07  -0.12
  23   5    -0.12   0.02  -0.11    -0.04   0.05   0.16    -0.04   0.11  -0.13
  24   5    -0.13  -0.09   0.17     0.02   0.04   0.07     0.01   0.04   0.01
  25   5    -0.12   0.03  -0.10     0.01   0.05  -0.14    -0.06   0.04   0.08
  26   5    -0.11   0.01  -0.04    -0.02   0.09  -0.22    -0.05   0.11  -0.07
  27   5    -0.02  -0.03   0.00    -0.04  -0.13   0.03     0.01   0.10   0.04
  28   5     0.10   0.01   0.00     0.02  -0.16  -0.16    -0.15   0.03  -0.00
  29   5    -0.06  -0.06  -0.08     0.02   0.02   0.05     0.05   0.03   0.14
  30   5     0.03   0.03  -0.03     0.06  -0.31  -0.08    -0.07  -0.21   0.10
  31   5     0.14   0.01   0.07     0.08  -0.03  -0.04     0.06  -0.01  -0.02
  32   5    -0.24   0.07   0.08     0.03   0.07   0.06     0.01  -0.02  -0.03
  33   5    -0.16   0.03   0.15     0.00   0.05  -0.12    -0.13  -0.03  -0.05
  34   5     0.15   0.17  -0.18    -0.01   0.02   0.09    -0.01   0.06  -0.00
  35   5    -0.09  -0.14   0.16     0.08   0.02   0.02    -0.05  -0.13  -0.07
  36   5    -0.11   0.02  -0.01     0.02   0.04  -0.14     0.00  -0.09   0.05
  37   5    -0.04  -0.07   0.03     0.03   0.02   0.05     0.15  -0.12  -0.23
  38   5     0.03  -0.00   0.00     0.07  -0.00   0.01    -0.05  -0.12   0.03
  39   5    -0.05  -0.07  -0.17     0.04   0.07  -0.03     0.13  -0.32   0.14
  40   5     0.07  -0.09   0.06     0.06  -0.02   0.00    -0.15   0.18   0.03
  41   1     0.05  -0.06  -0.01     0.05  -0.00   0.04     0.00   0.07   0.02
  42   1     0.02  -0.04   0.01    -0.02  -0.02   0.04     0.02  -0.06  -0.08
  43   1     0.06  -0.07  -0.04    -0.02  -0.02  -0.02     0.02   0.01  -0.03
  44   1     0.04  -0.01  -0.00     0.08  -0.01   0.04     0.03   0.05   0.03
  45   1    -0.03   0.01   0.05     0.06  -0.04  -0.11     0.11  -0.00  -0.13
  46   1    -0.01  -0.01   0.00    -0.03   0.02   0.01    -0.01   0.02   0.05
  47   1     0.07   0.01   0.12    -0.01   0.02   0.02     0.05  -0.01  -0.02
  48   1     0.03  -0.01  -0.05     0.04  -0.00   0.08    -0.05   0.02  -0.01
  49   1    -0.03  -0.00  -0.04     0.03   0.07  -0.13    -0.01  -0.00   0.10
  50   1     0.00   0.03  -0.01     0.04  -0.12  -0.03    -0.01  -0.09   0.03
  51   1     0.12   0.01   0.06     0.03  -0.03  -0.04     0.03  -0.02  -0.03
  52   1     0.10   0.04  -0.12    -0.02   0.02   0.04    -0.01   0.04  -0.00
  53   1    -0.02  -0.09   0.11     0.04   0.00   0.05    -0.05  -0.10  -0.04
  54   1    -0.01  -0.01  -0.09     0.01   0.02  -0.01     0.03  -0.10   0.08
  55   1     0.03  -0.03   0.04     0.03  -0.02  -0.01    -0.07   0.08  -0.00
                     25                     26                     27
                        a                      a                      a 
 Frequencies --   238.5477               242.7286               246.2942
 Red. masses --     9.7892                 9.8711                 9.4587
 Frc consts  --     0.0000                 0.0000                 0.0000
 IR Inten    --    15.2094                 7.7709                 4.2657
 Raman Activ --     0.0000                 0.0000                 0.0000
 Depolar     --     0.0000                 0.0000                 0.0000
 Atom AN      X      Y      Z        X      Y      Z        X      Y      Z
   1   5     0.07  -0.01   0.08     0.03   0.01  -0.01     0.16  -0.02  -0.02
   2   5    -0.05  -0.12  -0.06     0.14   0.01   0.04     0.01  -0.11  -0.18
   3   5    -0.11   0.04   0.05    -0.05   0.20   0.14    -0.00  -0.02  -0.04
   4   5    -0.06  -0.03  -0.16     0.02   0.00  -0.04     0.07  -0.05  -0.16
   5   5     0.00  -0.14  -0.02     0.10  -0.09  -0.07    -0.03   0.01   0.07
   6   5     0.02   0.13  -0.23     0.14   0.01   0.06    -0.06  -0.12   0.04
   7   5    -0.05   0.02  -0.13    -0.02  -0.06   0.01     0.01  -0.00  -0.03
   8   5    -0.07   0.00   0.22     0.03  -0.08  -0.03     0.11   0.00  -0.03
   9   5    -0.01  -0.13   0.02     0.15  -0.03  -0.09    -0.08   0.00   0.09
  10   5     0.01   0.22   0.00    -0.07   0.00   0.10    -0.02   0.10   0.20
  11   5    -0.02  -0.04   0.09    -0.02  -0.05   0.05     0.05  -0.06   0.08
  12   5    -0.05  -0.08  -0.18     0.04  -0.06  -0.03     0.08  -0.05  -0.07
  13   5    -0.03  -0.10   0.01     0.08  -0.06  -0.01    -0.02  -0.02  -0.05
  14   5    -0.02  -0.01  -0.06    -0.02  -0.10  -0.07     0.02  -0.11   0.07
  15   5    -0.08  -0.18   0.24     0.04  -0.06   0.07    -0.06   0.04  -0.02
  16   5    -0.07  -0.03   0.20     0.07   0.10   0.06    -0.02   0.11  -0.01
  17   5     0.00  -0.05  -0.09     0.10   0.11  -0.29    -0.07   0.08   0.03
  18   5    -0.05  -0.05  -0.12    -0.14   0.07  -0.03    -0.04   0.10   0.18
  19   5    -0.02  -0.00   0.04     0.04   0.13  -0.03    -0.03   0.16  -0.14
  20   5     0.01  -0.02   0.09    -0.09   0.09   0.11     0.04  -0.08  -0.15
  21   5    -0.03   0.03   0.11    -0.04  -0.09  -0.03    -0.02  -0.10   0.15
  22   5    -0.01   0.04  -0.12    -0.02  -0.07  -0.07    -0.04  -0.07   0.05
  23   5    -0.01  -0.00   0.12    -0.04  -0.02  -0.03    -0.08  -0.06   0.12
  24   5     0.00   0.13  -0.07    -0.12  -0.09   0.09     0.05   0.03  -0.17
  25   5    -0.01   0.08   0.12    -0.06   0.02  -0.11    -0.07  -0.04   0.01
  26   5    -0.05   0.02   0.01     0.03  -0.01   0.13    -0.05   0.03  -0.01
  27   5     0.05  -0.03  -0.03     0.03   0.11   0.04     0.09   0.05  -0.00
  28   5    -0.00  -0.04   0.00    -0.10   0.03  -0.10     0.18   0.09   0.13
  29   5     0.09  -0.03  -0.03     0.05   0.06   0.15     0.09  -0.09   0.02
  30   5     0.09   0.02   0.03     0.05  -0.31   0.05     0.07   0.03   0.08
  31   5    -0.06   0.05  -0.08     0.02  -0.04  -0.01    -0.23   0.07  -0.01
  32   5     0.01   0.10   0.01    -0.21   0.08   0.08     0.11  -0.09  -0.15
  33   5    -0.05   0.11   0.03    -0.06   0.01  -0.06    -0.04  -0.00  -0.05
  34   5    -0.03  -0.03   0.00    -0.02   0.04  -0.06    -0.07  -0.16  -0.04
  35   5     0.01   0.03  -0.02    -0.04  -0.03   0.01    -0.03   0.04   0.12
  36   5     0.05   0.08   0.09    -0.10   0.06  -0.27    -0.10   0.06  -0.09
  37   5     0.20  -0.01  -0.21     0.01   0.11   0.15    -0.01   0.13   0.11
  38   5     0.10  -0.01   0.01     0.04   0.04   0.04     0.04   0.06   0.01
  39   5     0.19  -0.11   0.00    -0.06   0.06   0.06    -0.09   0.12  -0.10
  40   5     0.04   0.15  -0.08     0.05  -0.04  -0.03     0.06  -0.03  -0.06
  41   1     0.05  -0.03   0.02     0.02  -0.04  -0.02     0.12   0.03   0.04
  42   1    -0.01   0.02   0.05     0.01   0.03   0.03     0.01  -0.08  -0.00
  43   1    -0.02   0.02   0.01    -0.06   0.09   0.09     0.02   0.03  -0.02
  44   1    -0.06  -0.05  -0.10    -0.05  -0.02  -0.04    -0.02   0.04  -0.01
  45   1    -0.06  -0.01   0.12     0.05  -0.03  -0.10     0.06  -0.00  -0.08
  46   1     0.06   0.14  -0.00    -0.01   0.01   0.03    -0.03   0.03   0.06
  47   1     0.01  -0.01   0.06    -0.01  -0.01   0.04     0.01  -0.02   0.07
  48   1     0.01   0.01   0.09    -0.02   0.05   0.10     0.02  -0.06  -0.17
  49   1    -0.00  -0.00   0.08    -0.01  -0.02  -0.03     0.01  -0.05   0.12
  50   1     0.03   0.01  -0.00     0.03  -0.16   0.02    -0.00   0.01   0.04
  51   1    -0.03   0.01  -0.04     0.03  -0.00   0.03    -0.13   0.04   0.00
  52   1    -0.01  -0.03   0.01     0.02   0.01  -0.04    -0.03  -0.07   0.00
  53   1    -0.03  -0.05  -0.02     0.01   0.02   0.04     0.02   0.02   0.10
  54   1     0.05  -0.03   0.03    -0.00  -0.02   0.02    -0.01   0.03  -0.07
  55   1    -0.01   0.06  -0.03     0.03  -0.04  -0.03     0.02  -0.02  -0.02
                     28                     29                     30
                        a                      a                      a 
 Frequencies --   261.3770               265.3605               270.9413
 Red. masses --     9.7600                 8.9681                 8.9758
 Frc consts  --     0.0000                 0.0000                 0.0000
 IR Inten    --     4.0449                15.2018                18.6955
 Raman Activ --     0.0000                 0.0000                 0.0000
 Depolar     --     0.0000                 0.0000                 0.0000
 Atom AN      X      Y      Z        X      Y      Z        X      Y      Z
   1   5    -0.03  -0.01  -0.05    -0.01   0.06   0.04    -0.06   0.03  -0.02
   2   5    -0.18   0.09   0.04    -0.22  -0.06  -0.11    -0.06   0.12   0.15
   3   5     0.08  -0.20  -0.13    -0.17   0.03  -0.03    -0.16   0.16   0.08
   4   5     0.04   0.00   0.07     0.04   0.02   0.15     0.03   0.06   0.13
   5   5    -0.06   0.01   0.04    -0.12  -0.11  -0.06    -0.03  -0.05  -0.15
   6   5    -0.15  -0.08   0.09    -0.05  -0.04  -0.04     0.05   0.08  -0.06
   7   5     0.12   0.12   0.09    -0.28  -0.18  -0.05     0.22  -0.05   0.12
   8   5    -0.02   0.17  -0.04     0.17  -0.29   0.04     0.00  -0.01  -0.25
   9   5    -0.12  -0.00   0.02    -0.00   0.04  -0.10     0.09   0.12  -0.19
  10   5    -0.01  -0.03  -0.01     0.07   0.11   0.15    -0.14  -0.26   0.04
  11   5     0.03   0.04   0.04     0.05   0.08  -0.06    -0.03  -0.01  -0.01
  12   5    -0.04   0.04  -0.13    -0.01   0.11   0.08     0.01  -0.02  -0.02
  13   5    -0.01   0.03   0.00    -0.02   0.08   0.11    -0.01  -0.01  -0.03
  14   5     0.00   0.09  -0.23     0.03   0.14  -0.10     0.01  -0.09  -0.10
  15   5     0.04  -0.08   0.10     0.03  -0.01   0.13    -0.04  -0.15   0.16
  16   5    -0.06  -0.04  -0.05    -0.04   0.11   0.06    -0.05   0.05   0.05
  17   5    -0.10  -0.06   0.06    -0.00   0.07  -0.11    -0.01   0.04   0.06
  18   5    -0.03  -0.05  -0.02     0.03   0.05   0.03    -0.06   0.03   0.18
  19   5    -0.05  -0.01  -0.09     0.00   0.02   0.11    -0.03   0.05   0.09
  20   5    -0.04  -0.05   0.04     0.10  -0.05  -0.08    -0.06  -0.11  -0.14
  21   5    -0.10  -0.08   0.06    -0.03  -0.00  -0.01     0.04  -0.07   0.05
  22   5     0.06  -0.07  -0.12     0.09  -0.00  -0.13     0.02  -0.07  -0.17
  23   5     0.04  -0.07   0.14     0.05  -0.02   0.02    -0.03  -0.10   0.12
  24   5    -0.07  -0.16   0.03    -0.01  -0.11   0.04     0.06   0.06  -0.06
  25   5     0.08  -0.09   0.12     0.08  -0.07   0.01    -0.04   0.01   0.05
  26   5     0.13  -0.06   0.13     0.08  -0.03  -0.03    -0.06   0.02  -0.09
  27   5     0.01  -0.04  -0.03     0.03  -0.08   0.07     0.01  -0.02   0.03
  28   5    -0.06  -0.08  -0.06     0.11  -0.05   0.06     0.05   0.01   0.05
  29   5     0.09   0.11   0.06    -0.06   0.04  -0.11    -0.04  -0.02  -0.08
  30   5     0.10  -0.00   0.00    -0.00   0.10  -0.03     0.03   0.07   0.02
  31   5    -0.00  -0.06   0.03     0.06  -0.05   0.06     0.00   0.05  -0.02
  32   5    -0.10  -0.04   0.03    -0.03  -0.07   0.03     0.06   0.08   0.05
  33   5     0.11  -0.06   0.05     0.11  -0.08   0.09    -0.04   0.10   0.01
  34   5    -0.02   0.01  -0.03     0.04   0.04  -0.01     0.04  -0.02   0.04
  35   5     0.00   0.02  -0.07     0.01  -0.01  -0.04     0.02   0.05   0.02
  36   5    -0.01   0.08  -0.21     0.04  -0.03  -0.00    -0.00   0.05   0.06
  37   5     0.10   0.21  -0.03    -0.06   0.03  -0.00     0.04  -0.09  -0.12
  38   5     0.09   0.21   0.07    -0.01   0.07  -0.05     0.04   0.06   0.05
  39   5     0.01   0.10   0.14    -0.06   0.07   0.06     0.09  -0.06  -0.05
  40   5     0.07   0.13  -0.18     0.01   0.01  -0.02     0.05   0.01  -0.01
  41   1    -0.02   0.03  -0.00    -0.08   0.02  -0.02    -0.11  -0.05  -0.07
  42   1    -0.01  -0.07  -0.07     0.01   0.01  -0.08     0.01   0.09  -0.04
  43   1     0.05  -0.07  -0.07    -0.06   0.04   0.00    -0.09   0.02   0.06
  44   1     0.11   0.06   0.10    -0.21  -0.04  -0.12     0.16  -0.03   0.11
  45   1    -0.03   0.05   0.04     0.14  -0.08  -0.15     0.02  -0.02  -0.13
  46   1    -0.02  -0.05  -0.00     0.05   0.15   0.04    -0.12  -0.17   0.01
  47   1     0.04   0.01   0.07     0.02   0.02  -0.06    -0.04   0.00  -0.02
  48   1    -0.01  -0.01   0.05     0.06  -0.03  -0.08    -0.02  -0.07  -0.17
  49   1    -0.09  -0.03   0.04    -0.06  -0.00  -0.01     0.03  -0.03   0.06
  50   1     0.06  -0.02  -0.02    -0.01   0.05  -0.01     0.02   0.04  -0.01
  51   1     0.01   0.00   0.05     0.04  -0.01   0.04    -0.00   0.01  -0.02
  52   1     0.00  -0.00  -0.01     0.02   0.01  -0.01     0.01  -0.02   0.02
  53   1     0.01   0.07  -0.07     0.00   0.05  -0.06    -0.01  -0.04   0.02
  54   1     0.02  -0.02   0.05    -0.01   0.01   0.02     0.01   0.00   0.01
  55   1     0.02   0.01  -0.09     0.01  -0.00   0.01     0.02   0.01   0.01
                     31                     32                     33
                        a                      a                      a 
 Frequencies --   277.3463               286.4974               291.7026
 Red. masses --    10.0975                 9.4788                 9.8173
 Frc consts  --     0.0000                 0.0000                 0.0000
 IR Inten    --     7.4132                12.7277                 5.4190
 Raman Activ --     0.0000                 0.0000                 0.0000
 Depolar     --     0.0000                 0.0000                 0.0000
 Atom AN      X      Y      Z        X      Y      Z        X      Y      Z
   1   5     0.11  -0.01  -0.07     0.11   0.02   0.10     0.06  -0.01  -0.09
   2   5     0.04   0.07   0.05    -0.19  -0.17  -0.19     0.00   0.11   0.08
   3   5    -0.10   0.07  -0.02    -0.22   0.16   0.09     0.02   0.01  -0.05
   4   5     0.16   0.10   0.07    -0.05  -0.14  -0.09     0.26  -0.09   0.34
   5   5    -0.08  -0.02  -0.08    -0.04  -0.25   0.03     0.04  -0.15  -0.12
   6   5    -0.03   0.12  -0.09     0.08   0.06  -0.18     0.06  -0.03   0.08
   7   5    -0.08  -0.05   0.04     0.29   0.09  -0.11     0.02   0.06   0.00
   8   5    -0.00  -0.08  -0.01    -0.14   0.18  -0.02    -0.05   0.07   0.06
   9   5    -0.01   0.03  -0.08     0.03  -0.10   0.07     0.08  -0.14  -0.08
  10   5     0.05  -0.06  -0.12    -0.11  -0.03  -0.04    -0.01   0.02  -0.00
  11   5     0.07   0.02  -0.06     0.06  -0.06  -0.02     0.19  -0.02  -0.03
  12   5     0.17   0.04   0.17    -0.04  -0.03   0.04     0.03   0.03  -0.14
  13   5    -0.06   0.05   0.08     0.03  -0.06   0.07     0.09   0.01  -0.10
  14   5     0.08  -0.06   0.20     0.02   0.08   0.04     0.06   0.11  -0.04
  15   5    -0.02   0.12  -0.04     0.05   0.12  -0.05    -0.00   0.07   0.04
  16   5    -0.04  -0.09  -0.02     0.06   0.00   0.05     0.04  -0.04   0.05
  17   5     0.03  -0.10   0.08    -0.03  -0.01   0.02    -0.03  -0.07  -0.06
  18   5     0.09  -0.11  -0.05    -0.02   0.01   0.12    -0.07  -0.10  -0.09
  19   5     0.03  -0.17   0.12     0.02   0.03   0.07    -0.03   0.05   0.10
  20   5     0.04  -0.01   0.10     0.03  -0.06  -0.03     0.01  -0.13   0.06
  21   5     0.05  -0.02   0.07    -0.01   0.08  -0.02    -0.09   0.06   0.12
  22   5    -0.00   0.01   0.03     0.03   0.09   0.01    -0.05   0.09   0.20
  23   5    -0.10   0.07  -0.10     0.06   0.11  -0.13     0.00   0.05   0.17
  24   5     0.08   0.03  -0.14    -0.04  -0.02   0.04    -0.13  -0.01   0.09
  25   5    -0.11  -0.05   0.06     0.06  -0.02  -0.00     0.01   0.13  -0.08
  26   5    -0.01   0.01   0.15     0.07   0.03   0.07    -0.01   0.10  -0.09
  27   5     0.00  -0.04   0.04     0.01   0.04   0.07     0.02  -0.04   0.04
  28   5    -0.03  -0.09  -0.15     0.12   0.07   0.01     0.10  -0.02   0.02
  29   5     0.02   0.12   0.07    -0.05   0.11  -0.01     0.04  -0.04  -0.04
  30   5     0.10  -0.03  -0.09    -0.02  -0.01  -0.04    -0.01   0.04  -0.05
  31   5    -0.10   0.06   0.03     0.03  -0.05   0.04    -0.12  -0.05  -0.07
  32   5     0.09  -0.12  -0.15    -0.01  -0.14  -0.06    -0.12  -0.00  -0.09
  33   5    -0.16  -0.02   0.17     0.09  -0.14   0.13    -0.13  -0.01  -0.24
  34   5    -0.00  -0.05  -0.08    -0.00   0.03  -0.04    -0.15  -0.03  -0.09
  35   5    -0.19  -0.07   0.11    -0.02  -0.10  -0.04    -0.03  -0.04   0.06
  36   5    -0.23   0.08  -0.11     0.00  -0.08  -0.09     0.05  -0.02   0.15
  37   5     0.05   0.11  -0.06    -0.07   0.05   0.05    -0.01   0.07   0.09
  38   5     0.09   0.16   0.01    -0.03   0.03  -0.08    -0.02  -0.10  -0.09
  39   5    -0.08  -0.08  -0.03    -0.11   0.03   0.08    -0.04   0.04  -0.05
  40   5     0.10   0.10  -0.09    -0.01   0.01   0.01    -0.02  -0.01   0.02
  41   1    -0.02  -0.06  -0.07    -0.01   0.02   0.02    -0.14   0.01  -0.08
  42   1     0.04   0.03  -0.03     0.02   0.06  -0.00     0.08  -0.01  -0.18
  43   1    -0.05  -0.02   0.01    -0.08   0.15   0.05    -0.02  -0.00   0.01
  44   1    -0.02  -0.04   0.00     0.16  -0.00   0.02     0.00   0.01  -0.00
  45   1     0.00  -0.02  -0.00    -0.13   0.04   0.13    -0.02   0.02   0.04
  46   1     0.02   0.03  -0.04    -0.07  -0.11  -0.01     0.03   0.01  -0.00
  47   1    -0.02   0.01  -0.08     0.04  -0.02  -0.03     0.07  -0.01  -0.07
  48   1    -0.00   0.02   0.11    -0.01  -0.04  -0.07    -0.00  -0.03   0.03
  49   1     0.04  -0.01   0.05    -0.02   0.03  -0.02    -0.05   0.02   0.04
  50   1     0.06  -0.03  -0.04    -0.02  -0.00   0.00    -0.02   0.02  -0.00
  51   1    -0.07   0.02  -0.00     0.02  -0.02   0.01    -0.02  -0.02  -0.01
  52   1     0.00  -0.01  -0.03     0.00   0.03  -0.02    -0.05  -0.00  -0.03
  53   1    -0.07  -0.05   0.04     0.00   0.04  -0.06     0.02  -0.01   0.07
  54   1    -0.01  -0.06  -0.02    -0.02  -0.02   0.01    -0.00   0.02  -0.07
  55   1     0.04   0.00  -0.04     0.01  -0.01   0.01    -0.02   0.01   0.00
                     34                     35                     36
                        a                      a                      a 
 Frequencies --   296.5292               300.0417               305.8588
 Red. masses --     9.9458                 9.9667                10.3759
 Frc consts  --     0.0000                 0.0000                 0.0000
 IR Inten    --    26.2656                 9.2508                13.8007
 Raman Activ --     0.0000                 0.0000                 0.0000
 Depolar     --     0.0000                 0.0000                 0.0000
 Atom AN      X      Y      Z        X      Y      Z        X      Y      Z
   1   5     0.20  -0.03  -0.06    -0.07   0.03  -0.07    -0.10   0.01   0.03
   2   5     0.03   0.04  -0.02     0.31   0.07   0.01     0.15   0.03   0.08
   3   5    -0.06   0.02  -0.04     0.06   0.02  -0.04     0.05   0.02   0.01
   4   5     0.08   0.19  -0.27    -0.04  -0.19  -0.07    -0.05   0.13   0.05
   5   5    -0.04  -0.11  -0.01     0.04   0.03  -0.10     0.05   0.05   0.01
   6   5    -0.08  -0.03   0.03    -0.04  -0.17   0.27    -0.01   0.04  -0.10
   7   5     0.07   0.03   0.06    -0.06   0.08   0.05     0.17   0.02   0.04
   8   5     0.03   0.05  -0.05    -0.03   0.10   0.03     0.07   0.04  -0.02
   9   5    -0.06  -0.02  -0.03     0.01   0.01  -0.13    -0.05  -0.19   0.07
  10   5    -0.02  -0.04   0.04    -0.03   0.03   0.07    -0.03  -0.01   0.10
  11   5    -0.04   0.05   0.02     0.04  -0.10   0.02    -0.03   0.14  -0.06
  12   5     0.19   0.04   0.24    -0.07  -0.06  -0.04    -0.00   0.11   0.10
  13   5     0.02   0.04   0.15     0.00  -0.04  -0.04    -0.00   0.07   0.04
  14   5     0.01  -0.09   0.27    -0.02   0.04   0.04     0.02   0.16   0.06
  15   5     0.08   0.08   0.05    -0.01  -0.05   0.07    -0.05   0.01   0.08
  16   5    -0.03   0.03  -0.03    -0.04   0.02  -0.03    -0.04   0.01   0.16
  17   5    -0.10  -0.00  -0.08    -0.01   0.04  -0.18    -0.09  -0.03  -0.23
  18   5    -0.08  -0.02  -0.04    -0.04   0.03   0.03    -0.29  -0.09  -0.25
  19   5    -0.04   0.01   0.01    -0.08   0.01   0.11    -0.08   0.11  -0.13
  20   5    -0.04  -0.09   0.00     0.10  -0.10   0.02    -0.15  -0.19   0.07
  21   5    -0.08  -0.09  -0.01     0.01   0.10   0.04     0.04   0.09  -0.04
  22   5     0.01  -0.03  -0.05    -0.06   0.10   0.05     0.08   0.05  -0.04
  23   5     0.03   0.00  -0.07     0.02   0.07  -0.01    -0.02   0.03  -0.05
  24   5    -0.12  -0.12   0.03    -0.01   0.14  -0.04     0.11   0.02  -0.06
  25   5     0.10   0.05  -0.11     0.02   0.00   0.03    -0.00  -0.02  -0.11
  26   5     0.12  -0.07   0.06     0.00   0.03   0.01    -0.03  -0.04  -0.02
  27   5    -0.00  -0.10   0.02    -0.03  -0.10   0.14     0.05  -0.07  -0.11
  28   5    -0.05  -0.13   0.00     0.07  -0.13   0.02    -0.02  -0.06   0.15
  29   5    -0.00   0.00  -0.10    -0.22   0.17  -0.21     0.08  -0.20  -0.17
  30   5    -0.02   0.09  -0.03     0.03  -0.16  -0.03    -0.00   0.05   0.09
  31   5    -0.10  -0.04  -0.05    -0.03   0.03  -0.03     0.04   0.03   0.08
  32   5    -0.28   0.12   0.05     0.03  -0.04  -0.06     0.16  -0.12  -0.03
  33   5     0.02   0.05  -0.07     0.08  -0.00   0.29     0.03  -0.06   0.16
  34   5    -0.09   0.01  -0.11    -0.00  -0.00  -0.04     0.09  -0.00   0.04
  35   5     0.04   0.06  -0.05    -0.01  -0.03  -0.02    -0.06  -0.07   0.03
  36   5     0.18  -0.01   0.33     0.01  -0.02   0.02    -0.09   0.01  -0.10
  37   5     0.03  -0.01  -0.05    -0.11  -0.14  -0.18     0.03   0.06   0.11
  38   5    -0.01   0.01   0.02     0.04   0.20  -0.06    -0.01  -0.07  -0.02
  39   5     0.08   0.05  -0.02    -0.03  -0.02   0.01    -0.05  -0.01   0.00
  40   5    -0.02   0.03  -0.02     0.10   0.02   0.04    -0.00  -0.06  -0.02
  41   1     0.20  -0.06   0.01     0.10   0.10   0.07     0.00  -0.02   0.01
  42   1    -0.01  -0.05   0.08    -0.02  -0.11   0.03    -0.02   0.01   0.07
  43   1    -0.02   0.01  -0.01    -0.02  -0.00   0.02     0.03  -0.04  -0.01
  44   1     0.05   0.03   0.06    -0.02   0.07   0.04     0.08  -0.00   0.03
  45   1     0.02   0.01  -0.04     0.01   0.04  -0.01     0.04  -0.00  -0.08
  46   1    -0.00  -0.03   0.01     0.00  -0.03   0.02     0.04  -0.00   0.03
  47   1    -0.06   0.02   0.02     0.06  -0.04   0.03     0.00   0.04  -0.07
  48   1     0.02  -0.02  -0.00     0.07  -0.03  -0.01    -0.02  -0.04   0.05
  49   1    -0.01  -0.01  -0.08     0.00   0.03   0.01    -0.02   0.03  -0.01
  50   1     0.01   0.04  -0.02     0.01  -0.03  -0.02    -0.02   0.04   0.03
  51   1    -0.02   0.03   0.06    -0.01  -0.01  -0.05     0.01   0.00   0.01
  52   1    -0.02  -0.02  -0.04     0.01  -0.02  -0.02     0.03  -0.00   0.01
  53   1     0.00   0.02  -0.04    -0.03  -0.00  -0.08    -0.02   0.00  -0.02
  54   1     0.02   0.03  -0.02    -0.02  -0.00   0.05    -0.00  -0.03  -0.02
  55   1    -0.02   0.02  -0.01     0.07  -0.02   0.06    -0.00  -0.01  -0.00
                     37                     38                     39
                        a                      a                      a 
 Frequencies --   309.8586               321.3789               324.7259
 Red. masses --     9.9621                 9.9896                10.4978
 Frc consts  --     0.0000                 0.0000                 0.0000
 IR Inten    --     6.8964                31.8096                 2.1512
 Raman Activ --     0.0000                 0.0000                 0.0000
 Depolar     --     0.0000                 0.0000                 0.0000
 Atom AN      X      Y      Z        X      Y      Z        X      Y      Z
   1   5     0.12  -0.01  -0.06     0.04  -0.07   0.09     0.13  -0.01  -0.01
   2   5    -0.42   0.20   0.15    -0.31  -0.17  -0.12    -0.25   0.06   0.06
   3   5     0.08  -0.23  -0.14     0.11  -0.03   0.09     0.06  -0.04  -0.01
   4   5     0.01   0.28  -0.19     0.07   0.12   0.21     0.02  -0.07  -0.10
   5   5    -0.01  -0.16  -0.01     0.10   0.09   0.16     0.02   0.05   0.01
   6   5     0.01  -0.00   0.08     0.08  -0.07  -0.02    -0.01   0.02   0.06
   7   5    -0.03   0.00   0.09     0.11   0.01  -0.12    -0.06  -0.01   0.05
   8   5    -0.01  -0.01   0.02    -0.02   0.03   0.01    -0.01  -0.02  -0.04
   9   5     0.07  -0.11  -0.05     0.01  -0.03   0.20     0.03   0.18  -0.07
  10   5    -0.01   0.00  -0.02    -0.03   0.02   0.04    -0.02  -0.05  -0.00
  11   5    -0.10   0.09   0.09    -0.00   0.08  -0.05     0.10  -0.05   0.04
  12   5     0.08   0.01  -0.08     0.02   0.08  -0.06    -0.06  -0.03  -0.16
  13   5     0.05  -0.02   0.05     0.12   0.06  -0.21    -0.05  -0.06   0.08
  14   5    -0.02  -0.12  -0.05    -0.02  -0.06   0.05     0.03   0.08   0.13
  15   5     0.05   0.01   0.02     0.01   0.04  -0.10    -0.01  -0.28   0.15
  16   5     0.10  -0.03   0.03     0.05   0.07   0.04    -0.06   0.01   0.04
  17   5     0.05  -0.07  -0.07     0.06   0.10  -0.12     0.16   0.07  -0.05
  18   5    -0.03  -0.10  -0.05    -0.08   0.09  -0.03     0.03   0.08   0.07
  19   5     0.05   0.06   0.05     0.05   0.00  -0.06     0.05  -0.10  -0.01
  20   5    -0.01  -0.05   0.05    -0.01   0.02   0.01    -0.06   0.14  -0.06
  21   5     0.03   0.00   0.00     0.01  -0.06  -0.01     0.02   0.08  -0.01
  22   5    -0.06   0.01   0.00    -0.06  -0.06   0.05     0.01   0.08   0.14
  23   5     0.00   0.02  -0.04    -0.02  -0.06  -0.02     0.09   0.07  -0.10
  24   5     0.00   0.12   0.01     0.03   0.00  -0.08     0.02   0.01  -0.00
  25   5    -0.04  -0.01   0.02    -0.04  -0.04  -0.05     0.06   0.19  -0.27
  26   5    -0.01   0.11  -0.05     0.02  -0.09   0.08    -0.04  -0.04   0.06
  27   5     0.02   0.14   0.08     0.08  -0.08   0.07    -0.03   0.02  -0.22
  28   5     0.17   0.19   0.08    -0.21  -0.24   0.01    -0.13   0.06   0.00
  29   5    -0.09   0.08  -0.04    -0.11   0.06  -0.14     0.05  -0.11  -0.18
  30   5     0.00  -0.15   0.07     0.03  -0.11   0.02    -0.06  -0.09   0.09
  31   5     0.03   0.02  -0.02    -0.02   0.04  -0.02    -0.04  -0.01   0.05
  32   5     0.06  -0.01  -0.02    -0.01   0.07   0.02     0.06  -0.14  -0.11
  33   5     0.01   0.00   0.10    -0.03   0.08   0.05    -0.03  -0.07   0.10
  34   5     0.02   0.01   0.02     0.01  -0.02  -0.00    -0.01  -0.02  -0.05
  35   5    -0.01  -0.01   0.00    -0.02   0.11   0.03    -0.07  -0.16   0.02
  36   5    -0.05  -0.03  -0.06    -0.05   0.02   0.16     0.07  -0.05   0.15
  37   5    -0.10  -0.09  -0.01    -0.09  -0.14  -0.14     0.08   0.10   0.10
  38   5    -0.00  -0.06  -0.20     0.04   0.21   0.03    -0.02   0.11   0.24
  39   5    -0.06  -0.02  -0.00    -0.01  -0.02  -0.07    -0.03   0.00   0.01
  40   5     0.03  -0.04   0.10     0.11  -0.04   0.03    -0.05  -0.00  -0.09
  41   1     0.05  -0.07  -0.05    -0.14  -0.04  -0.04    -0.01  -0.01  -0.03
  42   1    -0.02   0.03   0.00     0.03   0.05  -0.09     0.02   0.03  -0.06
  43   1     0.06  -0.08  -0.08     0.08   0.06   0.00     0.03  -0.00  -0.02
  44   1    -0.03   0.00   0.01     0.01   0.01  -0.05    -0.02   0.00   0.02
  45   1     0.01  -0.01  -0.02    -0.03   0.01   0.05     0.01   0.00  -0.02
  46   1     0.01   0.03  -0.01     0.00  -0.03   0.01    -0.03  -0.03  -0.00
  47   1    -0.09   0.04   0.13    -0.07   0.04  -0.07     0.04  -0.02   0.01
  48   1    -0.05  -0.02   0.01     0.06   0.02   0.03    -0.03   0.04  -0.04
  49   1     0.08  -0.00   0.02     0.01  -0.02   0.01    -0.01   0.04  -0.04
  50   1    -0.05  -0.05   0.06     0.03  -0.05  -0.01     0.01  -0.03   0.01
  51   1     0.01  -0.02  -0.05    -0.03   0.02  -0.01    -0.01  -0.02  -0.01
  52   1     0.01   0.00   0.00     0.00  -0.01  -0.00    -0.00   0.00  -0.02
  53   1    -0.01  -0.01  -0.02    -0.02  -0.01   0.02    -0.02  -0.01  -0.03
  54   1    -0.03   0.00   0.02    -0.02   0.03   0.02     0.02  -0.04  -0.05
  55   1     0.03  -0.01   0.08     0.07  -0.03   0.05    -0.02  -0.02  -0.07
                     40                     41                     42
                        a                      a                      a 
 Frequencies --   330.3311               333.9962               337.0596
 Red. masses --    10.0147                 9.5167                10.1629
 Frc consts  --     0.0000                 0.0000                 0.0000
 IR Inten    --    74.1174                 9.0798                 8.1210
 Raman Activ --     0.0000                 0.0000                 0.0000
 Depolar     --     0.0000                 0.0000                 0.0000
 Atom AN      X      Y      Z        X      Y      Z        X      Y      Z
   1   5     0.05  -0.03  -0.02    -0.06   0.03   0.02    -0.00  -0.01  -0.01
   2   5     0.08  -0.04  -0.01    -0.04  -0.00  -0.03    -0.17  -0.01  -0.09
   3   5    -0.04   0.08   0.03    -0.04  -0.06  -0.04    -0.01  -0.09  -0.05
   4   5     0.16   0.02   0.20    -0.11  -0.11  -0.07    -0.02   0.00  -0.04
   5   5    -0.02   0.06  -0.00    -0.05   0.03  -0.06     0.02  -0.08  -0.11
   6   5    -0.05   0.07  -0.12     0.02  -0.01   0.04     0.09  -0.23   0.25
   7   5    -0.01  -0.03  -0.00     0.01   0.05  -0.00     0.01   0.07  -0.06
   8   5     0.04  -0.04   0.00    -0.04   0.06   0.03    -0.05   0.08   0.05
   9   5    -0.08  -0.04   0.05     0.05  -0.02  -0.07     0.13  -0.03  -0.11
  10   5     0.07   0.02  -0.06     0.00   0.00  -0.04    -0.01   0.04   0.01
  11   5     0.05  -0.03  -0.05     0.07   0.06  -0.08    -0.00   0.04  -0.06
  12   5     0.07  -0.00  -0.02    -0.10   0.07   0.06    -0.01   0.06   0.09
  13   5    -0.01   0.02  -0.10    -0.06   0.04   0.04     0.12   0.08  -0.25
  14   5     0.01  -0.06   0.20     0.07   0.29   0.21    -0.00   0.01   0.20
  15   5    -0.01  -0.06   0.01     0.01  -0.13   0.05    -0.00  -0.04   0.03
  16   5    -0.05  -0.07  -0.05     0.04  -0.05   0.00     0.06   0.06   0.06
  17   5    -0.11  -0.07   0.20     0.09  -0.08  -0.01     0.01   0.04   0.04
  18   5     0.06  -0.03  -0.04     0.02  -0.10  -0.00    -0.01   0.05   0.01
  19   5    -0.09   0.04  -0.11     0.08  -0.04  -0.05    -0.00   0.01   0.32
  20   5    -0.03   0.09   0.01    -0.04  -0.00   0.03    -0.01   0.05  -0.02
  21   5    -0.04  -0.06   0.03    -0.03  -0.04  -0.02     0.03  -0.03  -0.02
  22   5    -0.05  -0.01   0.02     0.24  -0.07  -0.07    -0.01  -0.03  -0.04
  23   5     0.06  -0.01   0.05    -0.00  -0.05   0.05     0.02  -0.03   0.00
  24   5    -0.07  -0.03  -0.08     0.18  -0.34  -0.20     0.08  -0.04  -0.18
  25   5     0.04   0.04   0.00    -0.06   0.06   0.04    -0.03   0.01  -0.02
  26   5    -0.05   0.04  -0.04    -0.05   0.04   0.01    -0.06  -0.00  -0.12
  27   5    -0.10   0.10  -0.14     0.02   0.13   0.03    -0.04  -0.06  -0.01
  28   5     0.06   0.23   0.13     0.06   0.14   0.06    -0.05  -0.03  -0.07
  29   5    -0.08  -0.02  -0.16    -0.08   0.07  -0.03     0.06  -0.12   0.06
  30   5    -0.02  -0.22   0.19     0.05  -0.19   0.10    -0.05   0.19  -0.09
  31   5    -0.09   0.01  -0.06    -0.04   0.04   0.10    -0.01   0.06   0.01
  32   5    -0.21   0.10   0.02    -0.04   0.07   0.11    -0.09   0.10   0.07
  33   5     0.20   0.04   0.31    -0.14   0.07  -0.24     0.01   0.07   0.19
  34   5    -0.06  -0.01  -0.11     0.07  -0.05   0.01     0.06  -0.00  -0.03
  35   5     0.13   0.02  -0.11    -0.02   0.05   0.06    -0.02  -0.03  -0.01
  36   5     0.09   0.03  -0.19    -0.04   0.02   0.08    -0.08   0.12  -0.26
  37   5     0.00  -0.10  -0.00    -0.08  -0.07  -0.07     0.13   0.02   0.11
  38   5     0.00  -0.04  -0.02     0.04   0.06  -0.13    -0.04  -0.20   0.12
  39   5     0.10   0.06   0.07    -0.03   0.01  -0.07     0.11  -0.10   0.04
  40   5    -0.00  -0.05   0.04     0.09  -0.01   0.06    -0.10  -0.06  -0.00
  41   1    -0.06  -0.03  -0.05     0.03   0.07   0.06     0.04   0.06   0.05
  42   1     0.05  -0.00  -0.07    -0.04  -0.02   0.03    -0.03  -0.05  -0.01
  43   1    -0.02  -0.01   0.01    -0.02  -0.00  -0.00    -0.02   0.06   0.02
  44   1     0.00  -0.02  -0.00     0.01   0.02   0.01    -0.03   0.06  -0.02
  45   1     0.01  -0.01   0.01    -0.02   0.02   0.05    -0.03   0.03   0.08
  46   1     0.02   0.04  -0.02     0.00   0.01  -0.01     0.01  -0.02   0.01
  47   1    -0.03  -0.00  -0.11     0.09   0.00  -0.08    -0.01   0.01  -0.02
  48   1    -0.06   0.02   0.00    -0.06  -0.00   0.02     0.00   0.01  -0.01
  49   1    -0.02  -0.01  -0.03    -0.17  -0.00  -0.04    -0.04  -0.01   0.00
  50   1    -0.04  -0.06   0.08    -0.02  -0.08   0.06     0.00   0.09  -0.05
  51   1    -0.05   0.02   0.01    -0.06   0.09   0.15    -0.05   0.05   0.02
  52   1     0.01  -0.04  -0.05     0.01  -0.00   0.01     0.03  -0.01  -0.02
  53   1     0.00   0.03  -0.14     0.01  -0.03   0.10    -0.04  -0.04  -0.05
  54   1     0.02   0.02   0.06    -0.02   0.03   0.00     0.04  -0.05   0.01
  55   1     0.01  -0.01   0.04     0.06  -0.01   0.07    -0.07  -0.01  -0.05
                     43                     44                     45
                        a                      a                      a 
 Frequencies --   349.4245               359.0195               364.5505
 Red. masses --    10.2960                10.1318                 9.9261
 Frc consts  --     0.0000                 0.0000                 0.0000
 IR Inten    --    12.3653                16.3869                10.5207
 Raman Activ --     0.0000                 0.0000                 0.0000
 Depolar     --     0.0000                 0.0000                 0.0000
 Atom AN      X      Y      Z        X      Y      Z        X      Y      Z
   1   5     0.22  -0.04   0.00    -0.08  -0.00   0.01    -0.01  -0.07  -0.03
   2   5    -0.12   0.01   0.05     0.07   0.00   0.07     0.05  -0.15  -0.19
   3   5     0.10   0.00   0.02     0.10   0.04   0.03    -0.08  -0.04  -0.01
   4   5     0.07  -0.16  -0.09     0.06   0.18   0.16     0.09   0.15   0.11
   5   5     0.01   0.22   0.07     0.09  -0.01   0.07    -0.08   0.15  -0.06
   6   5    -0.00   0.17  -0.07    -0.10  -0.07  -0.02    -0.03  -0.13   0.08
   7   5    -0.02   0.00   0.07    -0.00  -0.03  -0.01     0.03   0.06  -0.07
   8   5    -0.01  -0.00  -0.04    -0.03  -0.01  -0.01    -0.07   0.10   0.03
   9   5     0.00   0.17   0.00    -0.11  -0.09   0.10     0.02  -0.00  -0.04
  10   5    -0.06  -0.08   0.05    -0.06   0.05   0.04    -0.02   0.03  -0.02
  11   5     0.18  -0.09   0.03    -0.12   0.05   0.02    -0.01   0.08  -0.07
  12   5    -0.06  -0.01  -0.05     0.00  -0.03  -0.35     0.11   0.10   0.29
  13   5    -0.13  -0.02   0.19     0.03  -0.09  -0.04    -0.05   0.13  -0.11
  14   5     0.01   0.11   0.14    -0.02  -0.03   0.31    -0.01  -0.05   0.05
  15   5    -0.04  -0.06  -0.02     0.01  -0.13   0.11    -0.03  -0.28   0.15
  16   5    -0.03   0.00   0.01    -0.09  -0.05  -0.00    -0.04  -0.04   0.08
  17   5     0.21   0.04  -0.22    -0.03   0.00  -0.26     0.19  -0.06  -0.18
  18   5    -0.09  -0.03  -0.02     0.06   0.01   0.18     0.08  -0.10   0.13
  19   5     0.11  -0.13  -0.09    -0.08  -0.02  -0.10     0.13  -0.16  -0.10
  20   5    -0.06  -0.10  -0.01     0.14  -0.07  -0.04    -0.05  -0.01  -0.03
  21   5    -0.03   0.05   0.02     0.01   0.03  -0.05    -0.01   0.06  -0.00
  22   5    -0.06   0.05   0.09     0.06   0.03  -0.06    -0.02   0.06  -0.15
  23   5    -0.03   0.01   0.00     0.02   0.07  -0.22     0.02  -0.02   0.04
  24   5    -0.06   0.01  -0.00     0.06  -0.06  -0.08    -0.16   0.20   0.27
  25   5    -0.03  -0.13   0.21     0.00   0.01   0.05    -0.01  -0.04   0.16
  26   5    -0.03   0.03  -0.13     0.02   0.01   0.04    -0.04   0.01  -0.05
  27   5     0.08  -0.06   0.10    -0.10  -0.00   0.09     0.02   0.06  -0.09
  28   5    -0.07  -0.14   0.02     0.27   0.10  -0.11     0.02   0.10   0.02
  29   5     0.02  -0.03   0.11    -0.02   0.10   0.25     0.03  -0.04   0.02
  30   5     0.00   0.18  -0.07    -0.01   0.09  -0.15     0.01  -0.02   0.04
  31   5    -0.04  -0.01  -0.06     0.04  -0.00   0.04     0.01  -0.03  -0.07
  32   5    -0.13   0.10   0.02    -0.04   0.02   0.05     0.06  -0.04  -0.06
  33   5     0.08   0.04   0.07    -0.02  -0.02  -0.05    -0.01  -0.04  -0.11
  34   5    -0.05  -0.00  -0.04     0.04   0.01   0.01    -0.06   0.04   0.00
  35   5     0.07   0.11  -0.04    -0.02  -0.05  -0.02     0.00  -0.02   0.01
  36   5    -0.06   0.07  -0.23     0.01  -0.03   0.02    -0.02  -0.03  -0.04
  37   5    -0.03  -0.08   0.00     0.01   0.02  -0.03    -0.04   0.01   0.00
  38   5    -0.01  -0.17  -0.16    -0.03  -0.03   0.05     0.01   0.04  -0.02
  39   5     0.05   0.01   0.03    -0.01  -0.04   0.03    -0.06   0.03   0.01
  40   5     0.01  -0.07   0.08    -0.09   0.07  -0.02     0.02   0.00   0.00
  41   1    -0.01  -0.03  -0.04    -0.05  -0.05  -0.03     0.06  -0.00   0.03
  42   1     0.06   0.05  -0.06     0.00  -0.03  -0.03    -0.01  -0.12  -0.01
  43   1     0.06  -0.03  -0.03     0.05  -0.03  -0.02    -0.04   0.03   0.02
  44   1     0.02  -0.02   0.03     0.01  -0.01   0.01     0.02   0.05   0.01
  45   1     0.03   0.01  -0.07    -0.02  -0.02  -0.01    -0.06   0.04   0.10
  46   1    -0.02  -0.02   0.01    -0.06  -0.02   0.01    -0.03  -0.01  -0.01
  47   1     0.07  -0.03  -0.01    -0.08   0.02  -0.14    -0.05   0.03  -0.02
  48   1     0.01  -0.03  -0.02     0.02  -0.04  -0.07    -0.07  -0.02  -0.04
  49   1    -0.05   0.03  -0.04    -0.01   0.02  -0.07     0.12   0.03  -0.06
  50   1    -0.02   0.07  -0.02     0.01   0.03  -0.05    -0.01  -0.02   0.02
  51   1    -0.03   0.01  -0.00    -0.04   0.03   0.03     0.09  -0.06  -0.07
  52   1    -0.01  -0.01  -0.02     0.01   0.03  -0.01    -0.02  -0.00   0.01
  53   1     0.01   0.02  -0.03    -0.00  -0.01   0.00     0.02   0.01   0.04
  54   1    -0.00   0.02   0.05     0.00  -0.01  -0.01    -0.02   0.00   0.00
  55   1     0.00   0.01   0.06    -0.05   0.02  -0.05     0.02  -0.00   0.02
                     46                     47                     48
                        a                      a                      a 
 Frequencies --   372.2411               380.2914               382.2666
 Red. masses --    10.2611                10.3636                10.4116
 Frc consts  --     0.0000                 0.0000                 0.0000
 IR Inten    --    16.1376                 0.0729                13.3315
 Raman Activ --     0.0000                 0.0000                 0.0000
 Depolar     --     0.0000                 0.0000                 0.0000
 Atom AN      X      Y      Z        X      Y      Z        X      Y      Z
   1   5     0.09  -0.05   0.07    -0.09   0.00  -0.03     0.01  -0.08   0.08
   2   5    -0.25  -0.00   0.05     0.10  -0.08  -0.08    -0.07  -0.20  -0.13
   3   5     0.11   0.05   0.10    -0.11  -0.02  -0.02     0.03   0.01   0.08
   4   5    -0.07  -0.15  -0.07     0.04   0.03   0.09    -0.02  -0.05   0.05
   5   5     0.17   0.25  -0.12    -0.11   0.01  -0.02     0.00   0.39  -0.04
   6   5     0.03   0.02   0.03    -0.08  -0.09   0.03    -0.06   0.05  -0.02
   7   5    -0.02  -0.00   0.04     0.02   0.02  -0.04     0.01   0.05   0.04
   8   5     0.07  -0.03   0.01     0.02   0.03  -0.01     0.01   0.08   0.02
   9   5     0.01   0.05  -0.09    -0.02   0.12  -0.06    -0.03   0.05  -0.07
  10   5     0.05  -0.01   0.03     0.02  -0.02   0.01    -0.02  -0.01   0.06
  11   5     0.06  -0.14  -0.05    -0.08  -0.01   0.05     0.01  -0.03  -0.01
  12   5    -0.06  -0.08   0.07    -0.00  -0.02  -0.24     0.01   0.01   0.10
  13   5     0.04  -0.00  -0.22    -0.04   0.00  -0.00    -0.09   0.07   0.03
  14   5    -0.01  -0.08   0.28    -0.04  -0.11   0.06    -0.02  -0.13  -0.22
  15   5    -0.00  -0.10   0.07     0.01  -0.10   0.17     0.01   0.04  -0.02
  16   5    -0.01   0.01  -0.11    -0.02   0.09   0.02    -0.01  -0.01  -0.06
  17   5    -0.17  -0.01   0.27    -0.00   0.03   0.17     0.07  -0.03  -0.16
  18   5    -0.15   0.03  -0.23    -0.03   0.05  -0.06    -0.17  -0.10  -0.15
  19   5    -0.14   0.18  -0.02     0.10  -0.03   0.08    -0.01  -0.08   0.28
  20   5     0.03  -0.08   0.05    -0.13   0.09  -0.03    -0.04  -0.13   0.06
  21   5     0.06   0.04  -0.01     0.03  -0.03  -0.05     0.02  -0.14   0.01
  22   5     0.03   0.06  -0.28    -0.05  -0.03   0.05    -0.08  -0.11   0.15
  23   5     0.02   0.02  -0.02    -0.00   0.03  -0.19    -0.01  -0.02  -0.09
  24   5    -0.05   0.10   0.11     0.03  -0.01  -0.03     0.05  -0.09  -0.07
  25   5     0.02  -0.01   0.10     0.02  -0.00  -0.19     0.01   0.06  -0.20
  26   5     0.01  -0.00   0.03     0.11  -0.00   0.01     0.02  -0.00   0.02
  27   5    -0.01  -0.04   0.04     0.10   0.02   0.11    -0.10   0.06   0.06
  28   5     0.08  -0.02   0.02    -0.24  -0.07   0.15     0.29   0.25  -0.07
  29   5     0.01   0.03   0.06     0.09   0.14   0.09    -0.04   0.07   0.09
  30   5     0.05   0.01  -0.00     0.10   0.10   0.14     0.03  -0.03  -0.02
  31   5     0.04  -0.03  -0.00     0.03  -0.01   0.04     0.01  -0.00   0.03
  32   5     0.00  -0.04   0.01     0.03  -0.05  -0.01     0.02  -0.02  -0.01
  33   5    -0.03  -0.08  -0.15     0.00  -0.02   0.06     0.02   0.02   0.06
  34   5     0.00   0.04   0.01     0.02  -0.00   0.02     0.01  -0.03   0.02
  35   5    -0.03  -0.11   0.01    -0.05   0.01   0.00     0.02   0.04  -0.02
  36   5     0.01  -0.07   0.03     0.01  -0.01   0.10     0.07  -0.01   0.12
  37   5    -0.04   0.08  -0.01     0.03   0.12   0.05     0.07   0.02  -0.04
  38   5     0.02   0.05  -0.09     0.11  -0.23  -0.49     0.02  -0.07   0.06
  39   5    -0.10   0.01   0.02    -0.02   0.00   0.00     0.06   0.03   0.00
  40   5     0.03   0.07  -0.03     0.13   0.06   0.03    -0.06   0.09  -0.05
  41   1    -0.03   0.01   0.01    -0.00   0.02   0.01    -0.05  -0.01   0.01
  42   1     0.01   0.06  -0.01    -0.01  -0.09  -0.04     0.02  -0.00  -0.02
  43   1     0.04   0.05   0.03    -0.05  -0.02   0.01     0.01   0.01   0.02
  44   1    -0.03   0.00  -0.01     0.03   0.04   0.02     0.02   0.03   0.03
  45   1     0.06  -0.00  -0.05     0.00   0.02   0.03     0.03   0.03  -0.04
  46   1     0.06   0.03   0.01     0.02  -0.02   0.00     0.03  -0.01   0.02
  47   1    -0.01  -0.04  -0.03    -0.05  -0.00  -0.04    -0.01  -0.01   0.06
  48   1     0.04  -0.00   0.08    -0.02   0.03  -0.01    -0.07  -0.03   0.04
  49   1     0.08   0.04  -0.10     0.03  -0.01  -0.01     0.01  -0.06   0.07
  50   1    -0.00  -0.00   0.01    -0.03   0.00   0.09     0.01  -0.00  -0.01
  51   1     0.04  -0.02  -0.01    -0.01  -0.00  -0.00    -0.02   0.00   0.01
  52   1    -0.00   0.02  -0.00     0.01   0.01  -0.00     0.00  -0.00   0.00
  53   1     0.02   0.01   0.04    -0.02   0.02  -0.03    -0.01   0.01  -0.04
  54   1    -0.02  -0.02  -0.02     0.01  -0.01  -0.04     0.02   0.01  -0.01
  55   1     0.02   0.02  -0.00     0.05   0.05   0.07    -0.05   0.04  -0.05
                     49                     50                     51
                        a                      a                      a 
 Frequencies --   388.5696               394.2005               409.1136
 Red. masses --    10.3540                10.3611                10.2389
 Frc consts  --     0.0000                 0.0000                 0.0000
 IR Inten    --    13.2540                 3.9221                 0.6880
 Raman Activ --     0.0000                 0.0000                 0.0000
 Depolar     --     0.0000                 0.0000                 0.0000
 Atom AN      X      Y      Z        X      Y      Z        X      Y      Z
   1   5     0.00   0.03  -0.08    -0.10   0.09  -0.05     0.05  -0.04   0.07
   2   5     0.08   0.05   0.00     0.09   0.05  -0.02    -0.08   0.00   0.08
   3   5    -0.09  -0.10  -0.10    -0.04  -0.17  -0.07     0.14   0.16   0.08
   4   5     0.07  -0.06   0.03    -0.03  -0.02  -0.01    -0.02   0.07  -0.01
   5   5    -0.15  -0.04  -0.03    -0.18  -0.04   0.25     0.22  -0.04  -0.06
   6   5     0.06   0.01   0.01    -0.02   0.22  -0.11    -0.03  -0.18   0.06
   7   5     0.04   0.01  -0.01    -0.02  -0.01   0.12     0.02  -0.02  -0.09
   8   5     0.01   0.02   0.01    -0.00  -0.01  -0.03     0.01  -0.02   0.00
   9   5     0.12  -0.05  -0.04    -0.03  -0.00   0.24    -0.07   0.04  -0.05
  10   5    -0.01  -0.01   0.03    -0.04  -0.06   0.04    -0.01   0.03   0.02
  11   5     0.03  -0.02   0.04    -0.06  -0.05  -0.06    -0.07   0.01   0.01
  12   5    -0.04   0.01  -0.23     0.06  -0.08   0.00     0.01  -0.04  -0.00
  13   5    -0.09   0.03   0.03     0.02  -0.03  -0.28     0.05  -0.09   0.09
  14   5    -0.05  -0.01   0.18     0.06  -0.11   0.09     0.01   0.05  -0.02
  15   5    -0.09   0.08  -0.02    -0.08  -0.02  -0.19    -0.01   0.10  -0.11
  16   5     0.09   0.08   0.16     0.02   0.05   0.04    -0.11  -0.05  -0.05
  17   5     0.01   0.04   0.11     0.15   0.10  -0.13    -0.10   0.03  -0.08
  18   5    -0.12   0.03  -0.12    -0.09   0.08  -0.05     0.03   0.05   0.04
  19   5     0.06   0.08   0.25     0.02  -0.08   0.36    -0.14  -0.16   0.21
  20   5    -0.05   0.03   0.02    -0.01   0.03   0.01    -0.03   0.09  -0.04
  21   5    -0.02   0.02  -0.05     0.02  -0.03   0.03    -0.13   0.03  -0.05
  22   5    -0.05  -0.00  -0.00     0.12   0.02  -0.13     0.17  -0.01   0.02
  23   5    -0.13   0.02  -0.24     0.08   0.03   0.07    -0.01   0.03  -0.12
  24   5    -0.05  -0.03   0.12    -0.00  -0.07   0.05    -0.04  -0.16   0.24
  25   5    -0.03  -0.28   0.09     0.03   0.21   0.15    -0.01  -0.00   0.17
  26   5    -0.01  -0.11   0.01    -0.16   0.05  -0.01    -0.08  -0.00  -0.04
  27   5     0.06   0.05  -0.12    -0.01  -0.02   0.05    -0.18  -0.07  -0.09
  28   5     0.06   0.14  -0.06    -0.02  -0.02   0.02    -0.05   0.05   0.09
  29   5     0.10  -0.24   0.06    -0.05   0.01  -0.11    -0.05  -0.03  -0.11
  30   5     0.04  -0.01   0.04     0.03  -0.02   0.01     0.10  -0.04   0.13
  31   5     0.03  -0.06  -0.00    -0.04  -0.03   0.03    -0.11  -0.06   0.02
  32   5     0.03  -0.04  -0.01    -0.01  -0.05  -0.04     0.18  -0.15  -0.15
  33   5     0.14  -0.04  -0.06    -0.03  -0.03  -0.08    -0.07   0.06  -0.05
  34   5    -0.02   0.00   0.03    -0.03  -0.01  -0.04    -0.06  -0.03  -0.03
  35   5     0.08   0.25  -0.01     0.04  -0.14  -0.03     0.03   0.20   0.03
  36   5    -0.07  -0.06   0.07     0.15  -0.02  -0.07    -0.01   0.15  -0.10
  37   5    -0.06  -0.11  -0.19     0.02   0.10   0.05     0.09  -0.00  -0.04
  38   5     0.02   0.16   0.21     0.04   0.01  -0.07     0.11  -0.12  -0.10
  39   5    -0.04   0.07  -0.06     0.01   0.10   0.05     0.15   0.08  -0.04
  40   5     0.01   0.02  -0.05     0.06   0.03  -0.03     0.10   0.03  -0.02
  41   1     0.01   0.03  -0.01     0.00   0.05   0.01    -0.02  -0.05  -0.02
  42   1     0.01  -0.04  -0.05    -0.03  -0.00   0.01     0.01   0.05   0.02
  43   1    -0.04  -0.06  -0.02     0.04  -0.11  -0.07     0.04   0.08   0.04
  44   1    -0.00   0.01  -0.01    -0.01  -0.03   0.02     0.01   0.01  -0.01
  45   1     0.01   0.01  -0.01     0.04  -0.01  -0.10    -0.02  -0.01   0.03
  46   1     0.02  -0.01   0.01    -0.01  -0.04   0.01    -0.00  -0.01   0.01
  47   1    -0.00  -0.01  -0.05    -0.02  -0.02  -0.00    -0.01   0.00  -0.01
  48   1    -0.03   0.02   0.04     0.02   0.01  -0.01    -0.02   0.01  -0.05
  49   1     0.01   0.03  -0.10     0.05  -0.00  -0.03    -0.00   0.02  -0.06
  50   1     0.04  -0.03   0.00     0.00   0.01   0.00     0.01   0.02   0.04
  51   1     0.01   0.00   0.04     0.02  -0.00   0.04     0.10  -0.01   0.09
  52   1    -0.03   0.01   0.03    -0.01   0.00  -0.01    -0.06  -0.04   0.06
  53   1     0.03   0.08   0.01     0.03  -0.00   0.00    -0.01  -0.00   0.02
  54   1    -0.03   0.06   0.04     0.02  -0.00  -0.00     0.03   0.04   0.02
  55   1     0.02   0.01   0.01     0.02   0.01  -0.01     0.02   0.04   0.02
                     52                     53                     54
                        a                      a                      a 
 Frequencies --   416.9787               419.1103               430.7390
 Red. masses --    10.3342                10.2839                10.1411
 Frc consts  --     0.0000                 0.0000                 0.0000
 IR Inten    --     6.2558                 3.4970                15.0562
 Raman Activ --     0.0000                 0.0000                 0.0000
 Depolar     --     0.0000                 0.0000                 0.0000
 Atom AN      X      Y      Z        X      Y      Z        X      Y      Z
   1   5     0.02   0.04  -0.03     0.05  -0.03   0.03    -0.03   0.01   0.03
   2   5    -0.07   0.20   0.17    -0.04   0.01   0.07    -0.00  -0.05  -0.04
   3   5     0.02  -0.02   0.01     0.07   0.07   0.02     0.01  -0.07  -0.01
   4   5    -0.05  -0.14  -0.08     0.01  -0.00  -0.01    -0.06  -0.14  -0.02
   5   5     0.06  -0.00  -0.04     0.08   0.13  -0.09    -0.02   0.05   0.01
   6   5     0.02   0.09  -0.06    -0.04  -0.07   0.02    -0.05   0.16  -0.04
   7   5    -0.04  -0.03   0.04    -0.01  -0.00  -0.04    -0.09   0.03   0.14
   8   5    -0.03  -0.05  -0.01    -0.02   0.00   0.01    -0.03   0.05  -0.00
   9   5    -0.04  -0.18   0.10    -0.01  -0.06  -0.09    -0.02  -0.09   0.00
  10   5    -0.02   0.00  -0.02     0.00   0.03  -0.03     0.01  -0.02  -0.05
  11   5     0.13  -0.04  -0.09    -0.02  -0.05   0.03     0.08  -0.02  -0.00
  12   5    -0.00   0.02   0.29    -0.03  -0.03  -0.05    -0.08   0.02  -0.14
  13   5     0.09   0.08  -0.40    -0.04   0.00   0.05     0.07   0.04  -0.04
  14   5     0.04   0.04  -0.09    -0.05  -0.08   0.02    -0.03  -0.00   0.21
  15   5    -0.12  -0.01   0.10    -0.10   0.32  -0.07     0.05   0.25   0.04
  16   5    -0.12  -0.02   0.23    -0.07  -0.02   0.15     0.03   0.03   0.02
  17   5    -0.05   0.00  -0.11    -0.02  -0.02  -0.19    -0.00  -0.03  -0.16
  18   5     0.14   0.02   0.17     0.14  -0.07   0.14     0.14  -0.09   0.12
  19   5    -0.07  -0.02  -0.09    -0.04  -0.11   0.16     0.03   0.02   0.04
  20   5     0.01   0.09  -0.06    -0.06   0.06  -0.03    -0.05   0.04  -0.00
  21   5     0.02  -0.02   0.01     0.11   0.02   0.03     0.01  -0.05  -0.01
  22   5    -0.03  -0.00   0.11    -0.16   0.05  -0.09     0.02  -0.05  -0.28
  23   5    -0.05   0.05  -0.14    -0.11   0.03   0.07    -0.09  -0.14   0.25
  24   5    -0.01  -0.06   0.01     0.08   0.06  -0.25    -0.08   0.08   0.16
  25   5    -0.02  -0.04  -0.21     0.04  -0.13   0.18     0.03  -0.20  -0.26
  26   5    -0.01  -0.08   0.03     0.05  -0.01  -0.04     0.24  -0.04   0.01
  27   5    -0.05  -0.01  -0.03    -0.05  -0.03  -0.20    -0.02   0.04   0.02
  28   5    -0.03   0.04   0.00    -0.10   0.02   0.09    -0.03   0.06   0.00
  29   5     0.06  -0.01   0.26     0.08  -0.05  -0.14    -0.05   0.19  -0.11
  30   5     0.10   0.06   0.06     0.02  -0.05   0.12    -0.05  -0.04   0.02
  31   5    -0.01  -0.04   0.01     0.17  -0.01   0.03    -0.06   0.01  -0.04
  32   5    -0.03  -0.03  -0.02    -0.17   0.09   0.17     0.13  -0.05  -0.05
  33   5     0.10  -0.03   0.08     0.07  -0.10  -0.14    -0.00   0.04   0.04
  34   5    -0.03  -0.01  -0.02     0.08   0.02   0.06    -0.00   0.02  -0.00
  35   5     0.04   0.14  -0.02     0.03  -0.19  -0.02    -0.04   0.10   0.07
  36   5    -0.03  -0.07   0.09     0.10  -0.12   0.05    -0.13   0.12   0.06
  37   5    -0.03  -0.02  -0.14     0.00   0.14   0.09     0.13   0.01   0.10
  38   5     0.08  -0.06  -0.13     0.04   0.09  -0.11    -0.02  -0.11   0.04
  39   5    -0.04   0.02  -0.02    -0.10   0.02   0.03     0.09  -0.12  -0.06
  40   5     0.05   0.09  -0.02     0.07   0.04  -0.05    -0.05  -0.03   0.02
  41   1     0.02   0.05   0.02    -0.01  -0.03  -0.01    -0.03   0.05   0.02
  42   1    -0.01   0.02   0.01     0.02   0.01  -0.01     0.00   0.01  -0.01
  43   1     0.02  -0.04  -0.02     0.01   0.00   0.01     0.02  -0.04  -0.02
  44   1    -0.02  -0.05  -0.01     0.01   0.00   0.00    -0.01  -0.01   0.05
  45   1    -0.01  -0.03  -0.04    -0.03  -0.01   0.03     0.01   0.01  -0.04
  46   1    -0.05   0.00  -0.01    -0.02   0.00  -0.01    -0.02   0.01  -0.02
  47   1     0.08  -0.02   0.11    -0.03  -0.01   0.00     0.02  -0.01  -0.06
  48   1    -0.01   0.01  -0.06    -0.06  -0.01  -0.07    -0.06  -0.01  -0.05
  49   1    -0.03  -0.01   0.03    -0.02  -0.01   0.07     0.05   0.02  -0.13
  50   1     0.02  -0.01   0.03    -0.01  -0.02   0.04    -0.01  -0.01  -0.00
  51   1    -0.01   0.01   0.03    -0.11   0.02  -0.02     0.10  -0.02  -0.00
  52   1    -0.01  -0.01  -0.00     0.05   0.09  -0.04    -0.01  -0.07   0.04
  53   1     0.01   0.05  -0.03     0.05   0.02   0.01    -0.04  -0.01  -0.01
  54   1    -0.02   0.02   0.03    -0.00  -0.02  -0.05     0.03  -0.02  -0.05
  55   1     0.02   0.04   0.02     0.04   0.00   0.00    -0.04  -0.00  -0.03
                     55                     56                     57
                        a                      a                      a 
 Frequencies --   437.1192               447.3086               454.8814
 Red. masses --    10.4755                10.2979                10.1722
 Frc consts  --     0.0000                 0.0000                 0.0000
 IR Inten    --    11.9673                21.9287                 2.9380
 Raman Activ --     0.0000                 0.0000                 0.0000
 Depolar     --     0.0000                 0.0000                 0.0000
 Atom AN      X      Y      Z        X      Y      Z        X      Y      Z
   1   5    -0.02   0.00   0.00    -0.02   0.04  -0.04     0.00  -0.07   0.07
   2   5    -0.07   0.03   0.07    -0.01   0.07   0.05     0.03  -0.28  -0.28
   3   5    -0.03  -0.03  -0.01    -0.07  -0.04   0.01     0.09  -0.12   0.02
   4   5     0.02  -0.01   0.01     0.01  -0.07  -0.02    -0.03   0.05   0.04
   5   5    -0.07   0.36  -0.15    -0.07   0.03   0.02     0.14  -0.10  -0.10
   6   5     0.04  -0.02  -0.01     0.03   0.04  -0.06    -0.04   0.34   0.04
   7   5     0.01  -0.00  -0.05     0.04  -0.02  -0.02    -0.23   0.08   0.39
   8   5    -0.02  -0.00   0.01     0.01  -0.03   0.00    -0.05   0.15  -0.01
   9   5     0.13  -0.25  -0.12     0.02  -0.04   0.06     0.01  -0.09  -0.11
  10   5     0.02   0.04  -0.07    -0.02  -0.00   0.03     0.03  -0.06  -0.07
  11   5    -0.07  -0.07   0.01     0.04  -0.03  -0.01    -0.06   0.05   0.01
  12   5     0.03  -0.07  -0.04    -0.00   0.02   0.08     0.04  -0.00   0.01
  13   5    -0.22   0.02   0.07     0.01   0.07  -0.14     0.10  -0.05   0.00
  14   5     0.02  -0.11   0.00    -0.01  -0.03  -0.09     0.01   0.02  -0.08
  15   5    -0.11   0.04  -0.04     0.02  -0.13   0.13     0.07  -0.11   0.06
  16   5     0.15   0.06   0.19     0.02   0.02   0.07     0.08   0.05  -0.04
  17   5    -0.11  -0.06  -0.04    -0.03   0.03   0.05    -0.16  -0.03  -0.04
  18   5     0.18  -0.06   0.16    -0.07   0.06  -0.05     0.15  -0.04   0.11
  19   5     0.02   0.27  -0.09     0.03  -0.01  -0.07    -0.08   0.18   0.08
  20   5     0.02  -0.00   0.01     0.06  -0.01  -0.00    -0.01   0.03  -0.01
  21   5    -0.01  -0.07  -0.01     0.03   0.00  -0.00    -0.04   0.05  -0.02
  22   5     0.11  -0.03  -0.01    -0.09  -0.00   0.19     0.01   0.03   0.14
  23   5    -0.09   0.08  -0.09    -0.05   0.08  -0.34     0.06   0.07  -0.19
  24   5     0.03  -0.14   0.06     0.03  -0.03  -0.02     0.01  -0.02  -0.02
  25   5    -0.03   0.16   0.04     0.05  -0.24   0.31     0.00  -0.01   0.13
  26   5    -0.07   0.04   0.09     0.22  -0.05  -0.01    -0.02  -0.01  -0.01
  27   5     0.15   0.06   0.14    -0.06  -0.04  -0.09     0.01  -0.03  -0.06
  28   5    -0.13  -0.16  -0.03     0.07   0.02   0.07    -0.09  -0.06   0.03
  29   5    -0.05   0.02  -0.08    -0.11   0.30  -0.25     0.06  -0.12  -0.02
  30   5    -0.05   0.04  -0.09    -0.11  -0.08   0.01     0.00   0.02   0.04
  31   5    -0.06  -0.04   0.06     0.01  -0.02  -0.03     0.01  -0.00  -0.01
  32   5     0.08  -0.10  -0.08    -0.01   0.04   0.01    -0.03   0.03   0.02
  33   5    -0.07   0.03   0.07    -0.09   0.04  -0.16    -0.02   0.01  -0.05
  34   5    -0.02  -0.03  -0.03    -0.01  -0.01   0.00    -0.00  -0.00  -0.00
  35   5     0.06  -0.03  -0.05    -0.03   0.00   0.07    -0.03   0.01   0.01
  36   5     0.20   0.02  -0.07    -0.01   0.17   0.01    -0.04   0.03  -0.03
  37   5     0.01  -0.02   0.05     0.14   0.05   0.23    -0.03  -0.02  -0.03
  38   5    -0.04  -0.01   0.04    -0.06  -0.02   0.05     0.00   0.05  -0.03
  39   5     0.12   0.15   0.07     0.16  -0.11  -0.02    -0.02  -0.01  -0.01
  40   5    -0.03  -0.05   0.02    -0.07  -0.06   0.02     0.04  -0.02   0.01
  41   1    -0.00  -0.02  -0.01     0.03   0.04   0.01    -0.04  -0.03  -0.00
  42   1    -0.01  -0.03  -0.03    -0.01  -0.05  -0.02     0.02   0.04   0.01
  43   1    -0.03  -0.06   0.00    -0.02  -0.04  -0.00     0.05   0.02  -0.00
  44   1    -0.00   0.00  -0.02    -0.01  -0.02  -0.03    -0.03   0.01   0.14
  45   1    -0.05  -0.01   0.06     0.01  -0.02  -0.03     0.07   0.06  -0.13
  46   1    -0.03   0.02  -0.02     0.01  -0.01   0.01    -0.01  -0.00  -0.02
  47   1    -0.02  -0.02   0.00     0.02  -0.01   0.06    -0.00   0.01  -0.03
  48   1     0.01  -0.01  -0.02     0.05  -0.00  -0.02    -0.01  -0.01  -0.05
  49   1     0.04  -0.02  -0.02    -0.00  -0.01   0.05    -0.02   0.00   0.05
  50   1    -0.00   0.02  -0.04    -0.03   0.01  -0.01    -0.00  -0.00   0.01
  51   1     0.04  -0.01   0.05    -0.04   0.03   0.03    -0.03   0.02   0.01
  52   1    -0.02  -0.02   0.01    -0.02   0.02   0.01    -0.01   0.02  -0.00
  53   1    -0.00  -0.01  -0.05    -0.03  -0.04   0.01     0.00  -0.00   0.03
  54   1     0.04   0.05  -0.00     0.07  -0.00  -0.11    -0.01  -0.00   0.01
  55   1    -0.02  -0.00   0.01    -0.04  -0.04  -0.06     0.03  -0.01   0.03
                     58                     59                     60
                        a                      a                      a 
 Frequencies --   464.3742               478.0805               484.3870
 Red. masses --    10.5315                 9.8210                 9.8914
 Frc consts  --     0.0000                 0.0000                 0.0000
 IR Inten    --    10.2541                22.4436                15.2660
 Raman Activ --     0.0000                 0.0000                 0.0000
 Depolar     --     0.0000                 0.0000                 0.0000
 Atom AN      X      Y      Z        X      Y      Z        X      Y      Z
   1   5     0.06  -0.00  -0.01    -0.10  -0.01   0.01     0.11  -0.01  -0.03
   2   5     0.02   0.12   0.15    -0.08   0.04   0.11    -0.00  -0.02  -0.04
   3   5    -0.04   0.12  -0.03     0.02   0.16   0.12    -0.00  -0.03  -0.02
   4   5     0.03  -0.03  -0.01    -0.01  -0.03   0.00     0.12   0.04   0.05
   5   5    -0.09   0.13   0.08     0.15  -0.04   0.02    -0.03   0.09  -0.02
   6   5    -0.09  -0.05  -0.14    -0.30  -0.07  -0.14     0.06   0.02   0.03
   7   5     0.05  -0.04  -0.11    -0.03  -0.01  -0.06     0.01   0.00   0.01
   8   5     0.01  -0.05  -0.00     0.04  -0.05  -0.01    -0.01   0.00  -0.00
   9   5    -0.07  -0.20   0.11    -0.24   0.14   0.02     0.06  -0.03  -0.01
  10   5     0.01   0.06  -0.02     0.06  -0.03  -0.08    -0.01   0.00   0.01
  11   5     0.13  -0.02   0.00    -0.07  -0.08  -0.01    -0.23  -0.12   0.01
  12   5    -0.09   0.06   0.06     0.04  -0.09   0.01     0.07  -0.12   0.08
  13   5    -0.06   0.06   0.11     0.12  -0.03  -0.19    -0.09  -0.05  -0.03
  14   5    -0.06   0.07   0.02     0.03  -0.05  -0.06    -0.06   0.01  -0.06
  15   5     0.20  -0.32  -0.11     0.02   0.06   0.17    -0.06  -0.07  -0.05
  16   5     0.27   0.06  -0.30    -0.03   0.23  -0.14     0.01  -0.06   0.02
  17   5    -0.17  -0.03  -0.16     0.07  -0.05  -0.01     0.04   0.01   0.02
  18   5     0.10  -0.01   0.11     0.07  -0.18   0.00    -0.01   0.04   0.00
  19   5    -0.06   0.22   0.30     0.20   0.04   0.14    -0.05   0.03  -0.02
  20   5    -0.03   0.06  -0.01    -0.12  -0.09   0.06     0.02   0.03  -0.01
  21   5    -0.00  -0.01  -0.04    -0.01   0.06   0.05    -0.27   0.14   0.01
  22   5    -0.12  -0.06   0.05     0.10   0.07   0.02     0.17   0.08  -0.01
  23   5     0.18  -0.12  -0.02    -0.04   0.11  -0.04     0.01   0.10   0.09
  24   5    -0.04   0.10   0.00     0.04  -0.07  -0.00     0.01  -0.05  -0.05
  25   5     0.03  -0.00   0.01    -0.02  -0.04   0.02    -0.02  -0.00  -0.05
  26   5    -0.01  -0.07   0.01     0.03   0.16  -0.02    -0.08   0.12   0.05
  27   5    -0.03  -0.02   0.03     0.25   0.14   0.07    -0.01   0.01   0.09
  28   5    -0.07   0.01   0.00    -0.03   0.00  -0.04    -0.03  -0.04  -0.00
  29   5    -0.00  -0.09  -0.02     0.13  -0.12  -0.11    -0.07   0.13  -0.15
  30   5     0.05   0.02   0.06    -0.12  -0.00  -0.07     0.04  -0.02  -0.00
  31   5     0.03   0.05  -0.03    -0.01  -0.05  -0.01     0.06  -0.00  -0.09
  32   5     0.00   0.05   0.02    -0.03  -0.00  -0.00     0.01   0.05   0.07
  33   5     0.02  -0.01  -0.05     0.04  -0.01   0.01     0.31  -0.10  -0.02
  34   5     0.01   0.01   0.03    -0.02  -0.01  -0.04     0.07   0.02   0.03
  35   5    -0.06   0.00   0.04     0.02   0.07   0.00     0.13   0.17   0.02
  36   5    -0.12   0.03   0.01    -0.06  -0.02  -0.01    -0.25  -0.17   0.08
  37   5     0.01   0.05  -0.02    -0.02  -0.07   0.01     0.13   0.14   0.10
  38   5     0.05  -0.02  -0.03    -0.08   0.09   0.08     0.06  -0.14   0.08
  39   5    -0.07  -0.09  -0.04    -0.01  -0.03  -0.02    -0.17  -0.27  -0.17
  40   5     0.04   0.03  -0.03    -0.03  -0.10   0.05    -0.01   0.06  -0.03
  41   1     0.03  -0.02  -0.01     0.08   0.03   0.06     0.03  -0.07  -0.05
  42   1     0.01  -0.03  -0.01    -0.05  -0.18  -0.03     0.03  -0.02  -0.03
  43   1     0.01  -0.04  -0.04     0.05   0.02  -0.01    -0.01   0.00   0.00
  44   1     0.02  -0.02  -0.03     0.06  -0.03   0.04    -0.01   0.00  -0.01
  45   1    -0.05  -0.04   0.05    -0.01  -0.00   0.07     0.00  -0.00  -0.01
  46   1    -0.02   0.00  -0.01     0.00   0.07  -0.03    -0.01  -0.01   0.00
  47   1     0.02  -0.00   0.01     0.01  -0.03   0.04    -0.03  -0.04   0.02
  48   1    -0.03   0.01  -0.04    -0.10  -0.03   0.04     0.03   0.01   0.00
  49   1    -0.03  -0.01   0.00     0.03   0.02   0.01    -0.03   0.05  -0.02
  50   1     0.02  -0.01   0.02    -0.03  -0.03  -0.01     0.03   0.03  -0.03
  51   1    -0.01  -0.01  -0.07    -0.03   0.04   0.09    -0.07   0.12   0.14
  52   1     0.02   0.01  -0.01    -0.04   0.01   0.02    -0.04  -0.01   0.08
  53   1    -0.01  -0.00   0.04     0.01   0.01   0.01     0.05   0.05   0.04
  54   1    -0.02  -0.04   0.00    -0.01   0.00   0.02    -0.07  -0.07   0.03
  55   1     0.02   0.01  -0.00     0.02  -0.05   0.03    -0.05   0.02  -0.09
                     61                     62                     63
                        a                      a                      a 
 Frequencies --   491.7383               494.5589               508.7793
 Red. masses --     9.4574                 9.6169                 9.6210
 Frc consts  --     0.0000                 0.0000                 0.0000
 IR Inten    --     2.5865                11.8799                 6.1769
 Raman Activ --     0.0000                 0.0000                 0.0000
 Depolar     --     0.0000                 0.0000                 0.0000
 Atom AN      X      Y      Z        X      Y      Z        X      Y      Z
   1   5    -0.22   0.09   0.05    -0.22   0.06   0.07     0.02   0.08  -0.01
   2   5    -0.07  -0.02   0.03    -0.02  -0.04  -0.01     0.01  -0.02  -0.04
   3   5    -0.03  -0.05   0.07     0.00  -0.04   0.04    -0.05  -0.08   0.01
   4   5    -0.10   0.03  -0.04    -0.16   0.07  -0.06     0.05   0.04  -0.01
   5   5    -0.04   0.14   0.00     0.01  -0.02   0.02    -0.12   0.10   0.10
   6   5     0.03  -0.04   0.01     0.02  -0.03   0.04     0.11  -0.01   0.04
   7   5     0.04  -0.01  -0.05     0.01  -0.00  -0.02     0.05  -0.01  -0.05
   8   5    -0.00  -0.01   0.01     0.01  -0.00  -0.01     0.01  -0.02   0.00
   9   5     0.06  -0.03  -0.05     0.01   0.05  -0.03     0.06   0.06   0.04
  10   5    -0.02   0.02   0.02     0.02   0.01  -0.02    -0.00   0.01  -0.01
  11   5     0.02   0.07  -0.04     0.18   0.16  -0.05    -0.18  -0.09  -0.02
  12   5     0.12  -0.06  -0.08     0.05   0.03  -0.07     0.09  -0.11   0.06
  13   5    -0.07  -0.06   0.09    -0.01  -0.04   0.08    -0.05  -0.05  -0.03
  14   5     0.22  -0.02  -0.03     0.21  -0.04   0.00     0.01  -0.02  -0.06
  15   5     0.01   0.03  -0.03     0.00  -0.04   0.02     0.02  -0.04   0.06
  16   5     0.03  -0.05   0.01    -0.00  -0.04  -0.04     0.06  -0.14  -0.15
  17   5    -0.03   0.01  -0.03     0.02  -0.02  -0.01     0.11  -0.01  -0.06
  18   5    -0.02   0.04  -0.00     0.03  -0.03   0.03     0.01  -0.01   0.02
  19   5    -0.07  -0.00   0.08    -0.05   0.07  -0.06    -0.18   0.17   0.06
  20   5     0.04   0.00  -0.02    -0.04   0.00   0.00    -0.01  -0.01  -0.01
  21   5     0.11  -0.08   0.09     0.41  -0.08   0.13     0.01   0.24   0.12
  22   5     0.27  -0.03   0.15    -0.05   0.04  -0.01     0.06   0.20  -0.08
  23   5     0.02   0.04   0.02     0.00   0.05  -0.04    -0.04   0.10   0.15
  24   5     0.01   0.03   0.12     0.01   0.04   0.04     0.10  -0.02  -0.08
  25   5     0.05  -0.05  -0.02    -0.04  -0.01   0.05     0.10  -0.09  -0.14
  26   5     0.08  -0.03  -0.01    -0.09   0.08   0.01     0.17  -0.02   0.03
  27   5    -0.05  -0.08  -0.19    -0.01   0.03   0.14    -0.08  -0.10  -0.15
  28   5     0.02   0.00   0.04    -0.04  -0.03  -0.02    -0.01   0.01   0.02
  29   5     0.14  -0.02   0.14    -0.12   0.01  -0.17     0.10  -0.02   0.10
  30   5    -0.09   0.02   0.01     0.11  -0.01   0.03    -0.07   0.02   0.03
  31   5    -0.19   0.06  -0.29     0.00  -0.16   0.10     0.09  -0.20   0.20
  32   5    -0.04   0.21   0.00    -0.23  -0.04  -0.07    -0.13  -0.13  -0.04
  33   5     0.13   0.04   0.05     0.11  -0.08  -0.05    -0.10   0.00  -0.02
  34   5    -0.08   0.05  -0.16    -0.16  -0.06  -0.09    -0.05  -0.07  -0.04
  35   5     0.00  -0.14  -0.01     0.05   0.18   0.02    -0.10   0.12   0.06
  36   5    -0.08   0.01   0.03    -0.11  -0.09   0.00    -0.05   0.20  -0.03
  37   5    -0.07   0.03   0.02     0.10   0.04  -0.00    -0.03  -0.15  -0.10
  38   5    -0.08   0.17  -0.14     0.11  -0.22   0.15    -0.05   0.04  -0.06
  39   5    -0.08  -0.22   0.01    -0.08   0.03  -0.09     0.13   0.04   0.01
  40   5     0.01  -0.01   0.04     0.00   0.05  -0.05     0.00  -0.08   0.07
  41   1    -0.06   0.04   0.03    -0.08   0.05   0.03    -0.04  -0.05  -0.06
  42   1    -0.06   0.01   0.02    -0.06   0.08   0.07     0.02   0.04  -0.02
  43   1    -0.01  -0.03   0.02    -0.00  -0.00   0.02    -0.02  -0.03   0.01
  44   1    -0.01   0.01  -0.03    -0.00   0.01  -0.00    -0.02   0.01  -0.04
  45   1    -0.02  -0.02   0.00    -0.02   0.00   0.04    -0.02  -0.01   0.03
  46   1     0.00  -0.02   0.01    -0.01   0.01  -0.01    -0.01  -0.00  -0.00
  47   1     0.06   0.01   0.01     0.04   0.05  -0.00    -0.01  -0.03   0.06
  48   1     0.03  -0.00  -0.02    -0.02   0.00   0.02    -0.01  -0.01  -0.01
  49   1     0.16  -0.01  -0.02     0.11  -0.01  -0.01     0.04   0.09  -0.04
  50   1    -0.05  -0.04   0.03     0.06   0.05  -0.03    -0.03  -0.03   0.03
  51   1     0.02   0.12   0.13    -0.13  -0.05  -0.03    -0.16  -0.03   0.03
  52   1    -0.09  -0.15   0.09    -0.01   0.10  -0.12    -0.01   0.19  -0.10
  53   1     0.00  -0.03  -0.01     0.04   0.07   0.04    -0.05   0.02  -0.01
  54   1    -0.02  -0.07  -0.01    -0.03  -0.00   0.03     0.03   0.04  -0.01
  55   1     0.07  -0.09   0.01    -0.07   0.09  -0.04     0.04  -0.04   0.07
                     64                     65                     66
                        a                      a                      a 
 Frequencies --   513.5367               523.3959               534.3440
 Red. masses --     7.3260                 7.8401                 8.9014
 Frc consts  --     0.0000                 0.0000                 0.0000
 IR Inten    --     3.5738                33.7901                11.3326
 Raman Activ --     0.0000                 0.0000                 0.0000
 Depolar     --     0.0000                 0.0000                 0.0000
 Atom AN      X      Y      Z        X      Y      Z        X      Y      Z
   1   5     0.15   0.09   0.11    -0.13   0.01  -0.15    -0.04  -0.03  -0.07
   2   5     0.15  -0.02  -0.02    -0.13   0.01  -0.00    -0.04   0.01  -0.01
   3   5     0.01  -0.03  -0.12    -0.03  -0.08   0.20    -0.01  -0.02   0.05
   4   5    -0.07  -0.06  -0.09     0.10  -0.01   0.03     0.02  -0.02   0.01
   5   5    -0.13  -0.08   0.13     0.04  -0.02   0.12    -0.01  -0.01   0.07
   6   5     0.04  -0.14   0.13     0.14   0.14  -0.05     0.06   0.05  -0.01
   7   5    -0.02  -0.01  -0.07     0.06  -0.01  -0.03     0.02  -0.00  -0.01
   8   5     0.04  -0.01  -0.02     0.01  -0.05   0.00     0.01  -0.02   0.01
   9   5    -0.05   0.21   0.08     0.08   0.22  -0.01     0.04   0.15  -0.02
  10   5     0.07   0.01  -0.07     0.02  -0.04  -0.07     0.02  -0.01  -0.05
  11   5     0.02   0.04  -0.04    -0.03  -0.00   0.03     0.08   0.03   0.03
  12   5     0.00   0.05   0.03     0.04   0.01  -0.02    -0.04   0.06  -0.02
  13   5     0.02   0.03  -0.10     0.05  -0.00   0.03     0.05   0.03   0.03
  14   5    -0.03  -0.03   0.02     0.00   0.03   0.01    -0.03  -0.03   0.05
  15   5    -0.04   0.01   0.16     0.02   0.09   0.04     0.01   0.05   0.01
  16   5    -0.03  -0.05  -0.10     0.03  -0.14  -0.05    -0.04  -0.12   0.03
  17   5     0.16  -0.05  -0.07     0.14  -0.02  -0.05     0.11  -0.02  -0.06
  18   5     0.09  -0.16   0.06     0.06  -0.08   0.05     0.02  -0.06   0.02
  19   5    -0.17   0.27   0.03    -0.21   0.22  -0.03    -0.21   0.17   0.03
  20   5    -0.11  -0.12   0.03    -0.08  -0.05   0.00     0.02  -0.12   0.03
  21   5    -0.06  -0.06  -0.04    -0.09   0.01  -0.06     0.02  -0.13  -0.10
  22   5     0.00  -0.06   0.03     0.04  -0.03   0.06    -0.11  -0.07  -0.06
  23   5    -0.15   0.04  -0.12    -0.08  -0.00  -0.04     0.04   0.01  -0.06
  24   5    -0.02  -0.03   0.01    -0.01   0.05  -0.01    -0.06  -0.08   0.03
  25   5    -0.07  -0.07   0.05    -0.02  -0.10   0.01    -0.06   0.19   0.06
  26   5     0.00   0.04  -0.01     0.02  -0.05  -0.03    -0.08   0.08   0.04
  27   5     0.01  -0.01   0.03    -0.12  -0.06   0.04    -0.03  -0.06  -0.17
  28   5    -0.03  -0.02  -0.01    -0.03  -0.01  -0.02     0.00  -0.06   0.06
  29   5     0.01  -0.03  -0.05    -0.11  -0.07  -0.04     0.13   0.07   0.06
  30   5     0.02   0.00   0.01     0.15   0.01   0.07    -0.15   0.00  -0.04
  31   5    -0.03   0.08  -0.12    -0.02   0.08  -0.11     0.01   0.01   0.15
  32   5     0.10   0.05   0.04     0.05   0.05   0.05     0.03  -0.07  -0.06
  33   5     0.00   0.01   0.02    -0.04  -0.01  -0.00     0.00   0.02   0.05
  34   5     0.06   0.05   0.02     0.05   0.05   0.01    -0.03  -0.04   0.08
  35   5     0.04  -0.08  -0.02    -0.08  -0.16   0.02     0.21   0.28  -0.09
  36   5     0.09  -0.09   0.02     0.06  -0.02  -0.00    -0.01  -0.13  -0.00
  37   5     0.01   0.04   0.04    -0.02  -0.02  -0.07     0.03   0.13   0.14
  38   5     0.01   0.00  -0.01     0.10  -0.15   0.07    -0.09   0.18  -0.14
  39   5    -0.01   0.04   0.04    -0.08   0.17   0.07     0.08  -0.26  -0.13
  40   5    -0.01   0.03  -0.03    -0.00   0.05  -0.08     0.01   0.02   0.08
  41   1    -0.29  -0.08  -0.15     0.23   0.13   0.13     0.10   0.08   0.07
  42   1     0.12   0.39   0.02    -0.10  -0.36  -0.10    -0.04  -0.12  -0.01
  43   1    -0.04  -0.04  -0.00     0.02   0.05   0.05     0.01   0.03   0.01
  44   1     0.01   0.03   0.01    -0.03  -0.05  -0.08    -0.02  -0.01  -0.04
  45   1    -0.03   0.02   0.12    -0.02  -0.02   0.03    -0.01  -0.01   0.02
  46   1    -0.00   0.05  -0.02    -0.02   0.06  -0.02     0.00   0.03  -0.02
  47   1     0.02   0.01   0.07     0.02  -0.01  -0.05    -0.02   0.02  -0.06
  48   1    -0.09  -0.04   0.04    -0.06  -0.02   0.02     0.01  -0.04  -0.01
  49   1    -0.02  -0.02  -0.01    -0.00  -0.02   0.05    -0.08  -0.07   0.07
  50   1     0.01   0.00  -0.00     0.06   0.05  -0.01    -0.06  -0.06   0.02
  51   1     0.08   0.06   0.06     0.04   0.05   0.02     0.07  -0.13  -0.14
  52   1    -0.02  -0.10   0.10    -0.01  -0.06   0.06     0.08   0.01  -0.09
  53   1     0.01  -0.01  -0.03    -0.01   0.04  -0.03     0.02  -0.11   0.06
  54   1     0.01   0.01  -0.04     0.01   0.01  -0.06    -0.04  -0.01   0.13
  55   1    -0.01   0.01  -0.01    -0.05   0.11   0.02     0.07  -0.15  -0.09
                     67                     68                     69
                        a                      a                      a 
 Frequencies --   543.4218               553.9522               555.7964
 Red. masses --     7.1963                 7.6065                 9.1073
 Frc consts  --     0.0000                 0.0000                 0.0000
 IR Inten    --    13.3670                76.0231                14.4988
 Raman Activ --     0.0000                 0.0000                 0.0000
 Depolar     --     0.0000                 0.0000                 0.0000
 Atom AN      X      Y      Z        X      Y      Z        X      Y      Z
   1   5    -0.01   0.33   0.04    -0.03   0.00   0.01    -0.02   0.06  -0.01
   2   5     0.04  -0.10   0.09    -0.03   0.01  -0.01    -0.01  -0.03   0.02
   3   5    -0.05  -0.15   0.27     0.06   0.01  -0.01    -0.03  -0.10   0.10
   4   5     0.03  -0.15  -0.27    -0.00   0.05   0.02     0.01  -0.03  -0.04
   5   5     0.01   0.06  -0.02     0.07  -0.03  -0.04     0.05   0.02  -0.12
   6   5    -0.04  -0.05   0.01     0.03   0.01   0.02     0.06   0.04  -0.02
   7   5     0.00  -0.01  -0.04     0.01  -0.00   0.00     0.05  -0.00   0.02
   8   5     0.01  -0.01  -0.01    -0.00  -0.01   0.00    -0.07   0.02   0.03
   9   5    -0.01  -0.01  -0.04    -0.03  -0.08   0.05    -0.06  -0.25   0.10
  10   5     0.01   0.02   0.00    -0.01  -0.00   0.01    -0.08   0.03   0.10
  11   5    -0.19   0.03   0.05    -0.09   0.04   0.01     0.04   0.05  -0.07
  12   5     0.18   0.03  -0.00     0.11  -0.10   0.04     0.02   0.08  -0.00
  13   5     0.08   0.09   0.01    -0.15  -0.15  -0.07    -0.01   0.05   0.07
  14   5     0.02  -0.01   0.07     0.18   0.19   0.03    -0.04  -0.05  -0.01
  15   5     0.09   0.08   0.03    -0.12  -0.14  -0.03     0.14   0.02   0.21
  16   5    -0.04   0.04   0.08     0.06   0.08  -0.16    -0.05  -0.21  -0.32
  17   5    -0.10   0.00  -0.01     0.02   0.01   0.03     0.08  -0.02   0.00
  18   5     0.00  -0.01  -0.01    -0.01   0.02  -0.01    -0.05   0.14  -0.01
  19   5     0.05  -0.08  -0.05     0.07  -0.01   0.11    -0.05  -0.13   0.03
  20   5    -0.01  -0.01   0.01     0.01   0.02   0.00     0.10   0.20  -0.08
  21   5    -0.13  -0.02  -0.16    -0.10  -0.02  -0.09    -0.04  -0.06   0.12
  22   5     0.09  -0.04   0.02     0.22  -0.04   0.08    -0.09   0.01  -0.04
  23   5     0.18  -0.04  -0.02    -0.31   0.03   0.06    -0.18   0.06  -0.02
  24   5    -0.05   0.06  -0.00    -0.02   0.10  -0.03    -0.00  -0.04  -0.07
  25   5     0.06   0.08   0.05    -0.12  -0.22  -0.05    -0.12  -0.06   0.02
  26   5    -0.00  -0.02  -0.03     0.07   0.00  -0.00     0.07   0.27   0.02
  27   5    -0.01   0.02   0.01     0.03  -0.02  -0.04     0.03   0.03   0.07
  28   5     0.01   0.01  -0.01     0.00   0.01  -0.01    -0.05  -0.02   0.01
  29   5    -0.02  -0.06  -0.02     0.03   0.10  -0.01     0.16  -0.12  -0.11
  30   5     0.03  -0.01   0.01     0.02   0.01   0.02    -0.05   0.02  -0.03
  31   5     0.00   0.05   0.08    -0.08   0.14   0.12     0.01   0.04  -0.03
  32   5    -0.03   0.01  -0.01    -0.07   0.06  -0.01     0.06  -0.02   0.03
  33   5     0.01  -0.02  -0.03    -0.04  -0.00   0.03    -0.11   0.02   0.08
  34   5    -0.03  -0.01   0.05    -0.08   0.02   0.06     0.07   0.02   0.03
  35   5    -0.04   0.03   0.02     0.11   0.04  -0.00     0.03   0.05  -0.09
  36   5    -0.07   0.04  -0.02     0.09  -0.17   0.03     0.09  -0.18  -0.02
  37   5    -0.02  -0.01  -0.04     0.03   0.01   0.07     0.02   0.02   0.02
  38   5     0.01  -0.03   0.04     0.01   0.00  -0.01    -0.01   0.00   0.01
  39   5    -0.05  -0.02  -0.03     0.01   0.04   0.06    -0.01   0.11  -0.03
  40   5     0.01  -0.01  -0.00    -0.05   0.04  -0.04     0.02  -0.01   0.01
  41   1    -0.24   0.06  -0.11     0.03  -0.07  -0.01    -0.06   0.10   0.01
  42   1     0.09  -0.05  -0.34    -0.03   0.03   0.07     0.02  -0.05  -0.11
  43   1    -0.06  -0.23   0.09     0.02   0.05   0.00    -0.06  -0.05   0.07
  44   1     0.02   0.01   0.02     0.00  -0.01  -0.00    -0.01  -0.03  -0.03
  45   1    -0.01   0.00   0.03    -0.00  -0.01  -0.02     0.01  -0.02  -0.12
  46   1     0.01  -0.01   0.00    -0.00  -0.01   0.00    -0.01  -0.10   0.04
  47   1     0.07  -0.01  -0.01     0.11  -0.01  -0.07     0.01   0.02   0.12
  48   1    -0.01  -0.00   0.00     0.01   0.00  -0.02     0.09   0.08   0.00
  49   1    -0.01  -0.06   0.15    -0.03  -0.03   0.07     0.01   0.04  -0.19
  50   1     0.01   0.01  -0.00     0.01  -0.00   0.00    -0.02  -0.01  -0.00
  51   1     0.01  -0.10  -0.18     0.10  -0.21  -0.34     0.04   0.03   0.04
  52   1     0.09   0.04  -0.12     0.19  -0.03  -0.22    -0.02  -0.03   0.07
  53   1     0.00   0.01   0.04    -0.01   0.01  -0.11     0.02  -0.07   0.08
  54   1    -0.02  -0.02   0.04     0.02   0.06  -0.12    -0.02  -0.00   0.12
  55   1    -0.01   0.01   0.01    -0.01   0.01  -0.02     0.01   0.00   0.01
                     70                     71                     72
                        a                      a                      a 
 Frequencies --   565.8501               568.6722               574.9395
 Red. masses --     7.6932                 5.9931                 6.3149
 Frc consts  --     0.0000                 0.0000                 0.0000
 IR Inten    --    31.3083               182.0105                38.9831
 Raman Activ --     0.0000                 0.0000                 0.0000
 Depolar     --     0.0000                 0.0000                 0.0000
 Atom AN      X      Y      Z        X      Y      Z        X      Y      Z
   1   5    -0.00   0.09  -0.03     0.01  -0.03  -0.01    -0.01  -0.09   0.02
   2   5     0.05  -0.04   0.02    -0.02   0.01   0.02    -0.04   0.05   0.02
   3   5     0.07  -0.09   0.19     0.01  -0.00  -0.04    -0.02   0.08  -0.15
   4   5     0.02   0.02  -0.09    -0.04  -0.08  -0.04    -0.06  -0.12   0.04
   5   5     0.12  -0.14  -0.01     0.02  -0.00  -0.08    -0.08   0.06   0.04
   6   5     0.08   0.05   0.03     0.03   0.01   0.00    -0.04  -0.03  -0.02
   7   5     0.01  -0.00  -0.01     0.00   0.00   0.01    -0.01  -0.00   0.00
   8   5     0.04  -0.03  -0.02    -0.03   0.01   0.01    -0.01   0.02   0.01
   9   5    -0.02   0.06   0.02    -0.04  -0.09   0.06     0.01  -0.01  -0.01
  10   5     0.04  -0.03  -0.06    -0.02   0.01   0.03    -0.01   0.01   0.01
  11   5     0.08   0.11  -0.04     0.02   0.08   0.15     0.03  -0.00   0.12
  12   5    -0.00   0.10   0.00    -0.00   0.06   0.02     0.02   0.00  -0.03
  13   5    -0.07   0.01   0.06    -0.02   0.04  -0.00     0.06   0.05  -0.04
  14   5    -0.04   0.03  -0.01     0.00   0.01   0.03     0.03  -0.06  -0.01
  15   5    -0.09  -0.19  -0.19     0.01   0.02   0.05     0.07   0.07   0.09
  16   5     0.07   0.23  -0.02    -0.08  -0.14  -0.09     0.03   0.01   0.02
  17   5    -0.18   0.03  -0.02     0.11  -0.02   0.01     0.02  -0.00  -0.01
  18   5     0.03  -0.06   0.01    -0.01   0.04  -0.01    -0.00  -0.01  -0.00
  19   5     0.11  -0.04   0.03    -0.08  -0.01   0.01     0.03   0.00  -0.01
  20   5    -0.03  -0.14   0.07     0.02   0.10  -0.03     0.02  -0.02  -0.02
  21   5    -0.12   0.01   0.10    -0.04  -0.08  -0.25    -0.22  -0.04  -0.13
  22   5    -0.02  -0.04  -0.04     0.09  -0.13  -0.00     0.26  -0.09   0.08
  23   5    -0.18  -0.06   0.06    -0.04  -0.03   0.01     0.01  -0.02  -0.00
  24   5    -0.00   0.12   0.01    -0.08   0.17   0.13    -0.02   0.19   0.02
  25   5    -0.12  -0.00  -0.05    -0.05   0.02  -0.03     0.01   0.01   0.05
  26   5    -0.07  -0.09   0.03    -0.10   0.10   0.00     0.14  -0.03  -0.05
  27   5    -0.05  -0.05  -0.12     0.04   0.06   0.17    -0.02  -0.04  -0.12
  28   5     0.03  -0.01   0.01    -0.02   0.01  -0.01    -0.00  -0.01   0.01
  29   5    -0.04   0.14   0.07     0.04  -0.11  -0.04     0.01   0.06  -0.02
  30   5    -0.00   0.00   0.01    -0.03  -0.01  -0.06     0.01   0.00   0.04
  31   5     0.14  -0.10  -0.04     0.15  -0.12  -0.04     0.07  -0.05  -0.02
  32   5     0.02  -0.02  -0.03    -0.01  -0.03  -0.05    -0.05   0.01   0.00
  33   5    -0.10   0.03   0.11     0.07  -0.04  -0.04    -0.16   0.04   0.13
  34   5     0.07  -0.07  -0.02     0.02  -0.06  -0.02     0.02  -0.03  -0.04
  35   5     0.10   0.04  -0.05     0.06  -0.00   0.14    -0.09   0.03  -0.17
  36   5     0.12  -0.14  -0.01    -0.01   0.06   0.01     0.08  -0.11  -0.03
  37   5     0.01   0.05   0.09     0.02  -0.01   0.02    -0.03   0.02  -0.02
  38   5     0.00   0.03  -0.06    -0.03   0.14  -0.07     0.02  -0.12   0.08
  39   5     0.06   0.01   0.02     0.10  -0.08   0.11    -0.07   0.15  -0.13
  40   5    -0.03   0.06  -0.01    -0.01  -0.00  -0.03     0.02  -0.01   0.03
  41   1    -0.06   0.09  -0.00     0.02   0.02   0.02     0.04  -0.02   0.03
  42   1     0.03  -0.07  -0.16    -0.00   0.03   0.02    -0.03   0.10   0.14
  43   1    -0.01  -0.02   0.08    -0.02   0.01   0.01     0.02   0.04  -0.07
  44   1    -0.00  -0.01  -0.01     0.01  -0.02  -0.00     0.00   0.01   0.01
  45   1    -0.01  -0.00   0.07     0.01  -0.00  -0.05     0.01   0.00  -0.02
  46   1    -0.00   0.07  -0.02    -0.00  -0.03   0.01     0.01  -0.02   0.01
  47   1     0.00   0.04   0.06     0.01   0.02  -0.23     0.02  -0.01  -0.18
  48   1    -0.03  -0.06  -0.05     0.01   0.04   0.01     0.02   0.00   0.01
  49   1     0.10   0.06  -0.20     0.03  -0.12   0.28     0.17  -0.05   0.12
  50   1    -0.00  -0.01   0.01    -0.02   0.01  -0.01     0.02  -0.01   0.01
  51   1    -0.26   0.15   0.15    -0.28   0.13   0.12    -0.21   0.05   0.00
  52   1    -0.13   0.19   0.09    -0.10   0.19   0.03    -0.05   0.19  -0.03
  53   1    -0.02  -0.08  -0.04    -0.06   0.09  -0.24     0.05  -0.15   0.28
  54   1     0.01   0.05  -0.02     0.07   0.08  -0.29    -0.08  -0.06   0.36
  55   1     0.00  -0.03  -0.06     0.06  -0.05   0.03    -0.06   0.05  -0.03
                     73                     74                     75
                        a                      a                      a 
 Frequencies --   581.1184               594.5841               604.5989
 Red. masses --     6.7498                 7.6012                 7.6332
 Frc consts  --     0.0000                 0.0000                 0.0000
 IR Inten    --    25.4304                36.4183                58.8919
 Raman Activ --     0.0000                 0.0000                 0.0000
 Depolar     --     0.0000                 0.0000                 0.0000
 Atom AN      X      Y      Z        X      Y      Z        X      Y      Z
   1   5    -0.04  -0.13  -0.01     0.04  -0.01  -0.16    -0.01   0.02  -0.03
   2   5    -0.00   0.03   0.01    -0.02   0.10  -0.05    -0.01   0.02   0.01
   3   5    -0.01   0.03  -0.05     0.01  -0.27   0.02    -0.02  -0.02   0.00
   4   5    -0.07  -0.05   0.06     0.03  -0.07   0.05    -0.04  -0.07  -0.08
   5   5    -0.02   0.00   0.02     0.05   0.04  -0.15    -0.04   0.03   0.03
   6   5    -0.01   0.01  -0.01     0.28   0.15   0.12     0.01  -0.00   0.01
   7   5    -0.00   0.00  -0.00     0.04   0.01  -0.00     0.01  -0.01   0.01
   8   5     0.03  -0.02  -0.01     0.15  -0.12  -0.09     0.02  -0.01  -0.01
   9   5     0.01   0.04  -0.02    -0.15  -0.08   0.20     0.01  -0.02   0.00
  10   5     0.01   0.00  -0.01     0.05  -0.03  -0.07     0.00   0.02  -0.01
  11   5     0.16   0.07  -0.11    -0.07  -0.02   0.13     0.11   0.01   0.26
  12   5     0.01   0.05  -0.06     0.01   0.00  -0.04     0.01   0.05   0.02
  13   5     0.04   0.02   0.04    -0.10   0.07   0.04     0.07   0.07  -0.00
  14   5     0.03  -0.15  -0.02    -0.01  -0.03  -0.05    -0.04  -0.18  -0.11
  15   5     0.02   0.06   0.00    -0.02   0.03   0.09     0.08  -0.04   0.04
  16   5    -0.05  -0.05   0.09    -0.15   0.19  -0.15     0.04   0.08  -0.05
  17   5    -0.01   0.00  -0.02    -0.10   0.08  -0.05    -0.09   0.02  -0.04
  18   5    -0.00   0.00   0.01    -0.01  -0.01   0.02    -0.00  -0.00   0.00
  19   5    -0.05   0.01  -0.02     0.03  -0.11  -0.01     0.06  -0.08   0.03
  20   5    -0.02   0.00   0.02    -0.11  -0.04   0.10     0.07  -0.12   0.02
  21   5    -0.42  -0.19   0.16     0.04   0.02   0.02    -0.01   0.02   0.07
  22   5     0.17  -0.06   0.07    -0.01   0.02   0.02    -0.03   0.09  -0.03
  23   5     0.09   0.06  -0.08     0.04   0.01  -0.02     0.01   0.11   0.05
  24   5    -0.05   0.06  -0.14     0.04  -0.03  -0.01    -0.00  -0.13  -0.07
  25   5     0.05   0.06   0.03     0.07   0.00   0.01    -0.06   0.14   0.02
  26   5    -0.05   0.06   0.02    -0.00  -0.02  -0.04     0.03   0.18   0.08
  27   5     0.01   0.01   0.03    -0.04   0.00   0.13    -0.02  -0.03  -0.33
  28   5    -0.01  -0.01   0.01     0.03   0.04  -0.00    -0.03  -0.10   0.03
  29   5     0.02  -0.05  -0.01    -0.01  -0.10  -0.02     0.09   0.17   0.04
  30   5    -0.02  -0.01  -0.02    -0.04  -0.02  -0.05     0.04   0.00   0.07
  31   5     0.07   0.10   0.09    -0.04  -0.01   0.03    -0.02   0.05  -0.04
  32   5    -0.00   0.01   0.01    -0.01  -0.00  -0.00     0.01  -0.00   0.04
  33   5     0.12  -0.04  -0.11     0.10   0.01  -0.02    -0.08  -0.06  -0.03
  34   5     0.05  -0.05   0.12    -0.03   0.01  -0.01     0.03   0.05   0.03
  35   5    -0.03  -0.05   0.10    -0.05  -0.06  -0.06     0.03   0.10   0.16
  36   5    -0.09   0.12   0.00    -0.01   0.12   0.04    -0.08  -0.16  -0.08
  37   5     0.02  -0.05  -0.04     0.01   0.05  -0.02    -0.00  -0.17  -0.07
  38   5    -0.01   0.02  -0.01    -0.02   0.04  -0.02     0.03  -0.12   0.08
  39   5     0.01  -0.04   0.04     0.02  -0.03  -0.04    -0.12   0.07   0.06
  40   5     0.01  -0.04  -0.00     0.06  -0.01   0.02    -0.06  -0.04  -0.02
  41   1    -0.01   0.14   0.09     0.09   0.07   0.02     0.00   0.04   0.01
  42   1    -0.00   0.06   0.06    -0.02   0.17   0.14    -0.01   0.07   0.04
  43   1    -0.01   0.05   0.00    -0.16   0.18   0.20    -0.00  -0.03  -0.01
  44   1    -0.01   0.01  -0.01    -0.04   0.01  -0.05    -0.03   0.03  -0.01
  45   1    -0.02  -0.01   0.04    -0.08  -0.03   0.22    -0.02  -0.01   0.03
  46   1    -0.02   0.02  -0.00    -0.10   0.10  -0.03     0.00  -0.03  -0.00
  47   1     0.01   0.03   0.15    -0.03  -0.01  -0.17    -0.11   0.02  -0.40
  48   1    -0.01  -0.01  -0.02    -0.09  -0.05  -0.08     0.07  -0.04  -0.03
  49   1     0.22   0.06  -0.40     0.02   0.00   0.01     0.04   0.01  -0.01
  50   1    -0.01   0.01  -0.01    -0.03  -0.02  -0.00     0.05   0.04  -0.02
  51   1    -0.09  -0.08  -0.22     0.06  -0.04  -0.02     0.11   0.01   0.04
  52   1     0.09   0.11  -0.10     0.02  -0.04  -0.02     0.03  -0.13   0.04
  53   1    -0.01   0.10  -0.09     0.05  -0.00   0.11    -0.06   0.10  -0.18
  54   1     0.03  -0.00  -0.13     0.00  -0.07   0.09    -0.02   0.10  -0.15
  55   1     0.02   0.01   0.06     0.02  -0.01  -0.01    -0.02   0.07   0.10
                     76                     77                     78
                        a                      a                      a 
 Frequencies --   609.8216               611.7479               616.4529
 Red. masses --     6.0363                 6.3990                 8.0610
 Frc consts  --     0.0000                 0.0000                 0.0000
 IR Inten    --    41.4391                43.1980                28.6780
 Raman Activ --     0.0000                 0.0000                 0.0000
 Depolar     --     0.0000                 0.0000                 0.0000
 Atom AN      X      Y      Z        X      Y      Z        X      Y      Z
   1   5     0.05  -0.06   0.04    -0.08   0.01  -0.01     0.07  -0.13  -0.03
   2   5    -0.00  -0.04   0.05     0.01  -0.00  -0.05    -0.00   0.05   0.02
   3   5     0.03   0.08  -0.04    -0.02  -0.07   0.04    -0.01  -0.03  -0.11
   4   5    -0.04  -0.07  -0.06     0.02   0.15   0.07     0.02  -0.17   0.11
   5   5     0.06  -0.06  -0.13     0.01   0.04  -0.03    -0.03   0.03  -0.06
   6   5    -0.12   0.03  -0.02    -0.04   0.09   0.01     0.09   0.02  -0.02
   7   5    -0.23   0.05  -0.05    -0.09   0.03   0.02     0.01   0.00  -0.04
   8   5     0.12  -0.09  -0.15     0.20  -0.12  -0.16    -0.08   0.02   0.05
   9   5     0.00  -0.16   0.04     0.00  -0.10  -0.02    -0.08  -0.02   0.10
  10   5     0.01  -0.09   0.10     0.01  -0.01   0.03    -0.01  -0.05   0.02
  11   5    -0.09   0.10   0.14     0.14  -0.09  -0.26    -0.27  -0.01  -0.14
  12   5     0.02   0.05   0.05    -0.02  -0.09  -0.06    -0.02   0.05  -0.11
  13   5    -0.03   0.03  -0.01    -0.00  -0.08   0.04     0.05   0.18   0.09
  14   5    -0.00   0.00  -0.09     0.04   0.02   0.16    -0.07  -0.03   0.06
  15   5    -0.03   0.02  -0.04     0.04   0.04   0.03     0.11   0.12   0.13
  16   5     0.03  -0.09   0.02     0.00   0.00  -0.01    -0.01   0.11  -0.06
  17   5     0.30   0.00   0.05     0.01   0.03  -0.01     0.01   0.00  -0.02
  18   5    -0.12   0.09  -0.00    -0.11   0.09   0.00     0.05  -0.05   0.02
  19   5    -0.07   0.14   0.02     0.01  -0.04   0.04     0.07  -0.01  -0.02
  20   5     0.06   0.05  -0.13     0.04  -0.05  -0.02     0.04  -0.06  -0.09
  21   5     0.04   0.02   0.12    -0.05  -0.06  -0.21     0.11   0.08   0.00
  22   5    -0.01   0.01   0.01    -0.01  -0.02  -0.02     0.10  -0.04  -0.00
  23   5     0.01  -0.04  -0.01     0.04   0.05   0.05     0.08  -0.08  -0.03
  24   5     0.05  -0.03  -0.01    -0.12   0.05   0.01     0.14  -0.02   0.08
  25   5     0.02  -0.03  -0.00    -0.00   0.07   0.01    -0.03   0.14   0.07
  26   5    -0.03  -0.11  -0.03     0.05   0.10   0.02     0.02  -0.08  -0.04
  27   5     0.01  -0.03  -0.03     0.01  -0.01  -0.16    -0.03  -0.03  -0.12
  28   5     0.02  -0.00  -0.00    -0.00  -0.05   0.03    -0.00  -0.03  -0.04
  29   5    -0.07   0.04   0.03     0.07   0.12   0.01    -0.05  -0.02  -0.00
  30   5     0.05   0.01   0.06    -0.02   0.00   0.03     0.16   0.01   0.13
  31   5    -0.03  -0.00   0.02     0.06   0.01  -0.07    -0.06  -0.03   0.04
  32   5    -0.01   0.03  -0.01     0.02  -0.06   0.03    -0.04   0.10  -0.04
  33   5    -0.00   0.03   0.00    -0.06  -0.07  -0.01    -0.13   0.08   0.03
  34   5    -0.02  -0.01  -0.02     0.06   0.02   0.04    -0.07  -0.05  -0.08
  35   5     0.02  -0.03  -0.03    -0.04   0.06   0.07     0.14   0.06   0.09
  36   5     0.02   0.02   0.01    -0.03  -0.06  -0.03    -0.02  -0.14  -0.07
  37   5    -0.03   0.02   0.04     0.02  -0.10  -0.05    -0.12  -0.02   0.04
  38   5    -0.00  -0.00  -0.02     0.00  -0.06   0.05     0.04  -0.04   0.01
  39   5     0.01  -0.03  -0.00    -0.03   0.09   0.00    -0.14  -0.12   0.04
  40   5    -0.04   0.04   0.00    -0.01  -0.06   0.00    -0.10   0.09  -0.03
  41   1    -0.03   0.05   0.03     0.00   0.00   0.01     0.02   0.05   0.04
  42   1     0.04  -0.09  -0.12    -0.03   0.04   0.07     0.03   0.03   0.02
  43   1    -0.00  -0.05  -0.02    -0.03   0.03   0.04    -0.09   0.14   0.07
  44   1     0.26  -0.03   0.25     0.03   0.07   0.08     0.06  -0.09  -0.00
  45   1     0.05   0.14   0.32    -0.08   0.01   0.35     0.06   0.03  -0.11
  46   1    -0.22   0.22   0.01    -0.19   0.09  -0.00     0.02   0.05   0.00
  47   1    -0.02   0.02  -0.19     0.03  -0.02   0.36     0.04  -0.02   0.30
  48   1     0.09   0.07   0.14     0.08   0.00   0.01     0.03   0.02   0.12
  49   1     0.06   0.05  -0.15    -0.12  -0.10   0.25     0.09   0.02   0.03
  50   1     0.01   0.01   0.02     0.01   0.01  -0.01     0.08   0.03   0.01
  51   1     0.02  -0.02  -0.01    -0.05   0.06   0.04     0.01  -0.03  -0.01
  52   1    -0.00  -0.00  -0.01    -0.01   0.01   0.05    -0.03   0.07  -0.05
  53   1     0.00  -0.03   0.01    -0.03   0.04  -0.03    -0.07  -0.02  -0.19
  54   1    -0.01  -0.00   0.02    -0.01   0.03  -0.02    -0.05   0.10  -0.12
  55   1    -0.01  -0.02  -0.05    -0.02   0.05   0.08    -0.01  -0.05  -0.07
                     79                     80                     81
                        a                      a                      a 
 Frequencies --   620.6677               628.2890               629.3517
 Red. masses --     7.5451                 5.6688                 7.8335
 Frc consts  --     0.0000                 0.0000                 0.0000
 IR Inten    --    16.6488                38.3052                 2.6356
 Raman Activ --     0.0000                 0.0000                 0.0000
 Depolar     --     0.0000                 0.0000                 0.0000
 Atom AN      X      Y      Z        X      Y      Z        X      Y      Z
   1   5     0.04  -0.12  -0.02     0.11  -0.27   0.02     0.12  -0.15   0.07
   2   5     0.02   0.01   0.05     0.08  -0.02   0.06     0.01  -0.00   0.06
   3   5     0.03  -0.02  -0.01     0.01   0.11  -0.03     0.04   0.13  -0.14
   4   5    -0.05   0.06  -0.02    -0.13   0.07  -0.05    -0.03  -0.24   0.04
   5   5     0.09  -0.07  -0.17    -0.02  -0.06   0.01    -0.02  -0.03  -0.01
   6   5     0.06  -0.06  -0.01    -0.04   0.06  -0.01    -0.04   0.08  -0.02
   7   5     0.00  -0.00  -0.09     0.07   0.00   0.12     0.06   0.00   0.12
   8   5    -0.18   0.07   0.13     0.10  -0.03  -0.05     0.12  -0.04  -0.04
   9   5    -0.14  -0.05   0.16     0.04  -0.03  -0.03     0.03  -0.04  -0.02
  10   5     0.01  -0.05   0.00    -0.01   0.06  -0.04     0.01   0.08  -0.07
  11   5     0.02   0.10  -0.05     0.11   0.08  -0.03    -0.44   0.17   0.01
  12   5     0.01   0.02  -0.02    -0.10   0.07   0.02     0.10   0.05  -0.00
  13   5    -0.19  -0.04   0.05    -0.01  -0.01   0.02    -0.01   0.03  -0.01
  14   5     0.04  -0.04   0.05    -0.10  -0.17   0.02     0.08   0.14   0.01
  15   5    -0.15  -0.01  -0.03    -0.02  -0.06  -0.02     0.01  -0.00   0.01
  16   5    -0.04   0.11  -0.09     0.02  -0.02  -0.02    -0.03  -0.01  -0.01
  17   5     0.21  -0.01   0.06     0.02   0.01   0.01     0.08   0.03   0.03
  18   5     0.07  -0.06  -0.01    -0.04   0.04  -0.00    -0.05   0.05  -0.02
  19   5    -0.01   0.15   0.07     0.01  -0.02  -0.02    -0.04   0.01   0.01
  20   5     0.06  -0.04   0.03    -0.04   0.02   0.05    -0.02  -0.04   0.18
  21   5    -0.02  -0.05  -0.09    -0.05   0.23  -0.09     0.20  -0.18   0.05
  22   5    -0.02   0.02  -0.01     0.15   0.04   0.01    -0.08  -0.05  -0.02
  23   5     0.02   0.06   0.03    -0.09   0.01   0.05     0.02  -0.01  -0.03
  24   5    -0.05   0.01  -0.02     0.17  -0.05  -0.01    -0.06   0.05   0.05
  25   5     0.07   0.07  -0.01    -0.01  -0.08  -0.03    -0.03   0.04   0.01
  26   5    -0.06  -0.08   0.01     0.02  -0.02  -0.01    -0.04   0.05   0.03
  27   5     0.08  -0.01  -0.21    -0.02  -0.02   0.06     0.01   0.00  -0.11
  28   5    -0.03  -0.05   0.05     0.01   0.02  -0.01    -0.03  -0.04   0.04
  29   5    -0.03   0.22   0.09    -0.01  -0.04  -0.01     0.03   0.10   0.05
  30   5    -0.08  -0.01  -0.01     0.02  -0.00  -0.01    -0.07  -0.02  -0.07
  31   5     0.02  -0.02  -0.01    -0.10  -0.09   0.08     0.03   0.02  -0.05
  32   5     0.00  -0.06   0.03    -0.05   0.04   0.04     0.01  -0.00  -0.03
  33   5     0.15  -0.07  -0.05     0.02   0.04   0.00     0.04  -0.03  -0.01
  34   5     0.01   0.05   0.02    -0.08   0.04  -0.09     0.00  -0.02   0.01
  35   5    -0.12  -0.06  -0.01     0.04  -0.02  -0.03    -0.05  -0.02   0.01
  36   5    -0.06   0.13   0.03     0.01  -0.00   0.02    -0.02  -0.01   0.00
  37   5     0.07  -0.06  -0.07    -0.01   0.02   0.01     0.06  -0.02  -0.05
  38   5    -0.01  -0.07   0.05     0.01   0.01  -0.01     0.01  -0.03   0.04
  39   5     0.01   0.08  -0.04    -0.01  -0.02  -0.00    -0.01   0.06   0.00
  40   5     0.05  -0.10   0.02    -0.00   0.04   0.00     0.05  -0.07  -0.03
  41   1    -0.07   0.20   0.08    -0.14   0.35   0.15    -0.01  -0.02   0.02
  42   1     0.06   0.00  -0.10     0.12  -0.04  -0.21     0.06  -0.11  -0.11
  43   1    -0.10   0.03   0.10     0.02  -0.11  -0.05     0.05   0.05  -0.08
  44   1     0.13  -0.16   0.02    -0.19   0.12  -0.11    -0.19   0.12  -0.10
  45   1     0.14   0.06  -0.27    -0.12  -0.09   0.10    -0.12  -0.10   0.10
  46   1     0.12   0.05   0.00    -0.05  -0.11  -0.01    -0.02  -0.15  -0.02
  47   1    -0.05   0.04   0.08    -0.19   0.07   0.07     0.16  -0.00   0.05
  48   1     0.04  -0.02  -0.04    -0.03  -0.02  -0.07    -0.01  -0.09  -0.23
  49   1     0.00  -0.06   0.12     0.15  -0.00   0.25    -0.06  -0.02  -0.12
  50   1    -0.02  -0.02   0.00     0.01  -0.00  -0.00    -0.01  -0.01  -0.02
  51   1     0.02   0.01   0.03     0.14  -0.06   0.04    -0.07   0.04  -0.00
  52   1     0.03  -0.07   0.01     0.03  -0.05  -0.07    -0.03   0.00   0.03
  53   1     0.06   0.09   0.10     0.02  -0.00   0.01     0.01   0.04   0.02
  54   1     0.02  -0.07   0.07    -0.01  -0.01   0.01     0.01  -0.02  -0.00
  55   1    -0.04   0.10   0.09     0.01  -0.03  -0.04    -0.01   0.10   0.11
                     82                     83                     84
                        a                      a                      a 
 Frequencies --   632.5893               639.7938               645.2788
 Red. masses --     6.2058                 4.4505                 6.9275
 Frc consts  --     0.0000                 0.0000                 0.0000
 IR Inten    --    25.2930                28.1270                61.4694
 Raman Activ --     0.0000                 0.0000                 0.0000
 Depolar     --     0.0000                 0.0000                 0.0000
 Atom AN      X      Y      Z        X      Y      Z        X      Y      Z
   1   5    -0.03   0.07  -0.01     0.02   0.02  -0.02     0.06  -0.14  -0.03
   2   5    -0.01  -0.01  -0.03     0.01   0.00  -0.01     0.01   0.03   0.04
   3   5    -0.01  -0.04   0.06     0.01  -0.02   0.02     0.04   0.02  -0.03
   4   5     0.01   0.10  -0.02     0.02  -0.00   0.00    -0.04  -0.13   0.03
   5   5     0.07  -0.00  -0.12     0.00  -0.01   0.03    -0.04  -0.01   0.12
   6   5    -0.07   0.03   0.01     0.03   0.02   0.01     0.07   0.05   0.00
   7   5     0.09  -0.03   0.13    -0.00  -0.01   0.00     0.02  -0.01  -0.01
   8   5     0.07  -0.02  -0.03     0.00  -0.01  -0.02    -0.02  -0.02  -0.02
   9   5    -0.09  -0.11   0.03     0.00   0.05  -0.01     0.04   0.14  -0.05
  10   5    -0.02   0.22  -0.03    -0.01   0.01   0.02    -0.02  -0.01   0.05
  11   5     0.09  -0.05   0.03    -0.00  -0.02   0.00    -0.19   0.15   0.01
  12   5    -0.00  -0.06   0.02    -0.06   0.03   0.01     0.11   0.04  -0.02
  13   5    -0.06  -0.07   0.00     0.02   0.04  -0.00    -0.02  -0.01  -0.02
  14   5     0.03   0.05  -0.03    -0.06   0.00  -0.01     0.07  -0.01   0.03
  15   5    -0.08   0.13   0.07     0.01  -0.03  -0.02    -0.02  -0.12  -0.08
  16   5    -0.09   0.13  -0.10     0.01  -0.02   0.03     0.07   0.00   0.06
  17   5     0.24  -0.02   0.08    -0.08  -0.02  -0.04    -0.27  -0.03  -0.10
  18   5     0.02  -0.05   0.06     0.02  -0.03   0.03     0.06  -0.06   0.06
  19   5     0.03   0.10   0.03    -0.01  -0.02   0.02     0.03  -0.09   0.02
  20   5     0.00  -0.12  -0.22     0.03  -0.05  -0.15     0.04  -0.08  -0.35
  21   5    -0.04  -0.03   0.04     0.02   0.04   0.00     0.04  -0.08  -0.03
  22   5    -0.05   0.01   0.01     0.03  -0.04  -0.01    -0.05   0.03  -0.02
  23   5     0.07  -0.03  -0.03    -0.04  -0.03  -0.01    -0.06   0.10   0.04
  24   5    -0.05  -0.00   0.00     0.08  -0.02   0.05    -0.08   0.04  -0.05
  25   5     0.06   0.07   0.03    -0.06  -0.01  -0.02     0.00  -0.04  -0.03
  26   5    -0.06  -0.18  -0.06    -0.01   0.03   0.01     0.01   0.14   0.05
  27   5     0.08   0.01  -0.08    -0.02   0.03   0.02    -0.03   0.03   0.05
  28   5    -0.01  -0.01  -0.02     0.02   0.01  -0.00     0.03   0.02   0.02
  29   5    -0.11   0.06   0.03     0.03   0.04   0.03     0.07  -0.01  -0.05
  30   5     0.09   0.03   0.12    -0.01   0.00   0.02    -0.05   0.01   0.06
  31   5     0.03   0.02  -0.01    -0.04  -0.02   0.06     0.04  -0.04  -0.04
  32   5     0.02  -0.01  -0.01    -0.00   0.05  -0.04     0.01  -0.10   0.03
  33   5     0.01   0.01  -0.01     0.07   0.07   0.02     0.05  -0.08  -0.02
  34   5     0.03  -0.03   0.03    -0.03  -0.06  -0.05    -0.01   0.09   0.06
  35   5     0.01  -0.02   0.01     0.06  -0.02  -0.08    -0.09   0.01  -0.03
  36   5    -0.00   0.07  -0.00    -0.01  -0.01   0.04    -0.00   0.05   0.02
  37   5    -0.06  -0.01   0.04     0.02   0.06   0.14     0.05  -0.05  -0.04
  38   5    -0.01  -0.02  -0.02    -0.06   0.16  -0.02    -0.03   0.00  -0.03
  39   5    -0.00  -0.05  -0.01     0.04  -0.12   0.00     0.07   0.08  -0.00
  40   5    -0.07   0.04   0.03    -0.02  -0.25  -0.30    -0.01   0.02   0.10
  41   1     0.00  -0.03  -0.02     0.02  -0.01  -0.01    -0.02   0.15   0.07
  42   1    -0.02   0.02   0.02     0.00  -0.01  -0.01     0.04   0.03  -0.03
  43   1    -0.01  -0.07   0.01    -0.00   0.01   0.01     0.01   0.09   0.01
  44   1    -0.22   0.13  -0.12    -0.00  -0.00  -0.00    -0.01  -0.02  -0.02
  45   1    -0.15  -0.15  -0.00    -0.01  -0.00   0.02    -0.01  -0.01   0.01
  46   1    -0.02  -0.42   0.01    -0.03  -0.03   0.01    -0.07   0.02   0.01
  47   1    -0.01  -0.01  -0.07    -0.03  -0.00   0.00     0.07   0.02   0.01
  48   1    -0.00   0.08   0.35     0.02   0.06   0.23     0.03   0.14   0.49
  49   1    -0.04   0.02  -0.09     0.02   0.01   0.01    -0.02  -0.04   0.04
  50   1     0.03   0.01   0.03    -0.01  -0.01   0.01    -0.05   0.02   0.03
  51   1    -0.05   0.01  -0.02     0.02  -0.04  -0.03    -0.01   0.04   0.07
  52   1    -0.02   0.04   0.02    -0.04   0.07  -0.01     0.09  -0.14  -0.02
  53   1    -0.01  -0.02  -0.01     0.04  -0.05   0.05     0.03   0.04   0.10
  54   1    -0.01   0.01   0.02     0.02  -0.06   0.02     0.03  -0.01   0.01
  55   1    -0.03  -0.05  -0.08    -0.13   0.52   0.52     0.04  -0.14  -0.10
                     85                     86                     87
                        a                      a                      a 
 Frequencies --   656.8255               658.4296               663.5656
 Red. masses --     5.0585                 6.7023                 5.4534
 Frc consts  --     0.0000                 0.0000                 0.0000
 IR Inten    --    24.3895                 9.3141                88.8025
 Raman Activ --     0.0000                 0.0000                 0.0000
 Depolar     --     0.0000                 0.0000                 0.0000
 Atom AN      X      Y      Z        X      Y      Z        X      Y      Z
   1   5    -0.02  -0.02   0.00    -0.07   0.19   0.05     0.03  -0.12  -0.13
   2   5    -0.01   0.00   0.00    -0.03  -0.01  -0.01    -0.03   0.05   0.01
   3   5    -0.01   0.01  -0.01     0.05  -0.03   0.00    -0.01  -0.09   0.05
   4   5    -0.01   0.01   0.00     0.08  -0.18   0.03    -0.00   0.02   0.03
   5   5    -0.00   0.02  -0.02     0.07  -0.11  -0.06    -0.01   0.05   0.04
   6   5    -0.01  -0.01  -0.00     0.01   0.03  -0.02    -0.03   0.02  -0.04
   7   5     0.00   0.00   0.00    -0.15  -0.04  -0.02    -0.25  -0.07  -0.15
   8   5    -0.00   0.00   0.01     0.06  -0.02  -0.05     0.05  -0.06  -0.05
   9   5    -0.01  -0.03   0.01    -0.01   0.02   0.04     0.02   0.07  -0.02
  10   5     0.00   0.00  -0.01     0.06   0.22  -0.00     0.09   0.34   0.01
  11   5     0.01  -0.01  -0.01     0.05   0.02  -0.06    -0.08   0.03   0.01
  12   5     0.03  -0.03  -0.01    -0.07   0.18  -0.05     0.10  -0.05  -0.00
  13   5     0.01  -0.01   0.01     0.01   0.21   0.06     0.03  -0.08  -0.01
  14   5     0.02  -0.00  -0.01    -0.17  -0.12   0.03     0.08   0.03  -0.00
  15   5     0.01   0.04   0.02     0.02  -0.08  -0.09     0.02  -0.05  -0.07
  16   5    -0.03   0.02  -0.00     0.02  -0.06   0.03     0.04  -0.08   0.12
  17   5     0.06   0.01   0.03     0.04  -0.02   0.00    -0.04  -0.03   0.00
  18   5    -0.01   0.01  -0.01    -0.02   0.01   0.00    -0.02   0.02  -0.02
  19   5     0.00   0.02  -0.03    -0.04   0.01   0.01    -0.01   0.01  -0.01
  20   5    -0.03   0.03   0.06    -0.01  -0.08   0.01    -0.07  -0.01   0.09
  21   5    -0.02   0.02   0.04    -0.04   0.10  -0.02     0.01   0.02   0.00
  22   5     0.02   0.03   0.03     0.08  -0.08   0.00    -0.05   0.07  -0.00
  23   5     0.09  -0.04  -0.00    -0.10  -0.04  -0.01     0.07  -0.00   0.02
  24   5    -0.04   0.05  -0.05     0.17   0.03  -0.01    -0.06  -0.01  -0.03
  25   5     0.04   0.02   0.01    -0.09  -0.02  -0.02     0.04  -0.08  -0.02
  26   5    -0.00  -0.12  -0.05    -0.08   0.07   0.05     0.05  -0.02  -0.01
  27   5    -0.01  -0.03   0.07    -0.00   0.03  -0.06     0.02  -0.01   0.08
  28   5     0.01   0.03  -0.04    -0.02  -0.02   0.06     0.00   0.03  -0.03
  29   5    -0.05  -0.05  -0.00     0.01   0.07   0.03     0.02  -0.04  -0.02
  30   5     0.06   0.00   0.01    -0.10  -0.00  -0.05     0.02  -0.00  -0.02
  31   5     0.15  -0.13  -0.17    -0.03  -0.12   0.05    -0.02   0.05  -0.02
  32   5     0.05  -0.11   0.00    -0.00   0.01   0.00    -0.03  -0.01   0.04
  33   5    -0.18  -0.06   0.02     0.13   0.01  -0.03    -0.13  -0.02   0.02
  34   5    -0.21   0.23   0.22    -0.13   0.08  -0.02     0.08  -0.02  -0.03
  35   5     0.02   0.14   0.00    -0.04  -0.09  -0.04     0.02   0.08   0.03
  36   5     0.04  -0.06  -0.05    -0.01   0.03   0.04     0.02  -0.08  -0.03
  37   5    -0.05   0.04   0.09     0.08  -0.01  -0.07    -0.02   0.02   0.04
  38   5    -0.01   0.09  -0.03     0.01  -0.05   0.02     0.00   0.03  -0.00
  39   5     0.08  -0.07   0.01     0.00   0.08   0.02     0.02  -0.01  -0.01
  40   5    -0.04  -0.02  -0.10     0.07   0.00   0.06    -0.01   0.00  -0.04
  41   1    -0.01   0.03   0.02     0.10  -0.31  -0.12    -0.00   0.27   0.11
  42   1    -0.00   0.02   0.01    -0.07  -0.11   0.06     0.02   0.16   0.04
  43   1    -0.01  -0.01  -0.00     0.02   0.11   0.02    -0.09   0.06   0.11
  44   1    -0.00   0.00  -0.00     0.11  -0.04   0.12     0.27  -0.12   0.23
  45   1     0.00  -0.00  -0.01    -0.00  -0.00   0.03     0.03   0.01  -0.01
  46   1     0.02  -0.00  -0.00     0.03  -0.31   0.02     0.10  -0.45   0.03
  47   1     0.01  -0.00   0.01     0.04   0.00   0.10     0.02   0.00  -0.02
  48   1    -0.04  -0.02  -0.08    -0.00  -0.02   0.03    -0.10  -0.04  -0.08
  49   1     0.03   0.02  -0.05     0.19   0.01   0.07    -0.06   0.01   0.01
  50   1     0.03  -0.02   0.00    -0.05  -0.00  -0.00     0.01  -0.02  -0.00
  51   1    -0.21   0.18   0.21     0.04  -0.01   0.08     0.04  -0.01  -0.02
  52   1     0.40  -0.40  -0.29     0.12  -0.12  -0.14    -0.08   0.05   0.10
  53   1    -0.07  -0.13   0.00     0.07   0.09   0.05    -0.05  -0.07  -0.03
  54   1    -0.00   0.06  -0.01     0.03  -0.04  -0.03    -0.01   0.04   0.01
  55   1    -0.03   0.11   0.10     0.03  -0.06  -0.05    -0.01   0.03   0.03
                     88                     89                     90
                        a                      a                      a 
 Frequencies --   667.6887               676.6402               689.1910
 Red. masses --     8.4298                 4.7463                 8.5806
 Frc consts  --     0.0000                 0.0000                 0.0000
 IR Inten    --     7.0366                25.3927                16.2264
 Raman Activ --     0.0000                 0.0000                 0.0000
 Depolar     --     0.0000                 0.0000                 0.0000
 Atom AN      X      Y      Z        X      Y      Z        X      Y      Z
   1   5     0.17  -0.05  -0.10    -0.01   0.01   0.02    -0.02  -0.04   0.13
   2   5     0.06   0.02  -0.05     0.00  -0.00   0.01     0.01  -0.03   0.04
   3   5    -0.05  -0.08   0.06     0.02   0.01  -0.01     0.01   0.11  -0.12
   4   5    -0.00   0.24  -0.01    -0.00  -0.03  -0.00    -0.05   0.05  -0.05
   5   5    -0.01   0.03   0.00     0.02  -0.03  -0.02    -0.08  -0.02   0.06
   6   5     0.01   0.00   0.01     0.01   0.01   0.00     0.22   0.05   0.06
   7   5    -0.03  -0.01  -0.02     0.01   0.00   0.01    -0.12  -0.02  -0.04
   8   5     0.00  -0.01  -0.01     0.00   0.00  -0.00     0.01  -0.01  -0.01
   9   5    -0.03   0.08   0.03    -0.02   0.03   0.02     0.11  -0.06   0.03
  10   5     0.01   0.03   0.02    -0.00  -0.01  -0.00     0.08   0.10  -0.05
  11   5    -0.06  -0.21   0.05     0.00   0.04  -0.00     0.06  -0.01  -0.01
  12   5    -0.32  -0.10   0.08     0.02   0.03  -0.00    -0.08  -0.01   0.02
  13   5     0.09  -0.00  -0.04    -0.05   0.01  -0.01    -0.07  -0.02  -0.04
  14   5    -0.08   0.22  -0.07    -0.00  -0.03   0.01     0.02  -0.03   0.00
  15   5     0.06   0.05   0.01    -0.03  -0.04  -0.04    -0.02   0.02   0.10
  16   5    -0.01  -0.07   0.08    -0.00  -0.02   0.02     0.01   0.13  -0.12
  17   5    -0.07  -0.01  -0.04    -0.02  -0.00  -0.01    -0.04   0.09   0.01
  18   5     0.00  -0.01   0.00     0.00  -0.00   0.01     0.01   0.03   0.02
  19   5    -0.04  -0.00   0.05    -0.02   0.01   0.00     0.06  -0.11  -0.06
  20   5     0.02  -0.03  -0.03    -0.03   0.02  -0.05    -0.05  -0.11   0.07
  21   5     0.19  -0.09   0.06    -0.01   0.00  -0.01     0.02  -0.14  -0.03
  22   5     0.18  -0.17   0.03    -0.01   0.01   0.00     0.00   0.01  -0.04
  23   5    -0.01  -0.06  -0.07    -0.03   0.01  -0.00    -0.14   0.18   0.03
  24   5     0.07   0.03   0.17    -0.00  -0.00  -0.01    -0.07  -0.08   0.07
  25   5    -0.08  -0.01   0.01     0.08  -0.04   0.01     0.04   0.07   0.02
  26   5     0.02   0.10   0.03     0.03  -0.04  -0.00     0.10   0.17   0.03
  27   5     0.07   0.06  -0.07     0.04  -0.02   0.05    -0.18  -0.05  -0.01
  28   5    -0.02  -0.02   0.06     0.02   0.04   0.03     0.01  -0.04  -0.12
  29   5     0.07   0.07  -0.01     0.01  -0.01   0.03     0.04  -0.11  -0.03
  30   5    -0.10  -0.01  -0.05    -0.13  -0.00  -0.06     0.23   0.01   0.15
  31   5     0.03   0.03  -0.07     0.01   0.00  -0.01     0.07   0.03   0.00
  32   5     0.05   0.13  -0.12    -0.00   0.00   0.01     0.06  -0.00  -0.10
  33   5     0.05   0.05   0.01    -0.09   0.02  -0.11     0.13   0.07  -0.02
  34   5    -0.15  -0.04   0.05    -0.01   0.01   0.02    -0.03  -0.06   0.09
  35   5    -0.04  -0.11   0.02     0.17  -0.14   0.34     0.02  -0.13  -0.01
  36   5    -0.01  -0.04   0.01    -0.01   0.01   0.01    -0.02   0.20   0.06
  37   5     0.06  -0.02  -0.09     0.04   0.11  -0.01    -0.14  -0.08   0.08
  38   5     0.02  -0.09   0.06    -0.01  -0.02   0.03    -0.03   0.05  -0.08
  39   5    -0.09   0.11   0.01    -0.02   0.11  -0.30    -0.01  -0.06  -0.08
  40   5     0.07  -0.01   0.07     0.13  -0.03   0.02    -0.19   0.02  -0.01
  41   1    -0.02   0.14   0.02    -0.00  -0.04  -0.01    -0.03  -0.09  -0.01
  42   1     0.08   0.02  -0.10    -0.00  -0.03  -0.01     0.02  -0.20  -0.13
  43   1    -0.08  -0.08   0.07     0.01   0.03   0.00     0.07  -0.01  -0.10
  44   1     0.04  -0.02   0.02    -0.02   0.00  -0.02     0.13  -0.12   0.08
  45   1     0.01   0.00   0.00    -0.00  -0.00   0.00     0.06   0.06   0.02
  46   1     0.00  -0.04   0.01    -0.01   0.01  -0.00     0.02  -0.12  -0.01
  47   1    -0.20  -0.03  -0.05     0.02   0.01  -0.00    -0.06   0.01   0.01
  48   1     0.02   0.01   0.04    -0.02   0.03   0.06    -0.04  -0.05  -0.04
  49   1    -0.09   0.01  -0.13     0.02  -0.00   0.01    -0.10  -0.05   0.00
  50   1    -0.04   0.00  -0.01    -0.07  -0.03   0.01     0.12   0.06  -0.01
  51   1    -0.21   0.04  -0.07     0.02   0.01   0.02    -0.10   0.02  -0.03
  52   1     0.11   0.02  -0.18     0.02  -0.00  -0.02     0.04   0.02  -0.04
  53   1     0.01   0.05  -0.02    -0.21  -0.00  -0.54     0.02  -0.00  -0.03
  54   1    -0.00  -0.03   0.01    -0.10  -0.09   0.49    -0.04  -0.04   0.15
  55   1     0.03  -0.06  -0.04    -0.01   0.06   0.01    -0.06  -0.01  -0.03
                     91                     92                     93
                        a                      a                      a 
 Frequencies --   694.9691               698.2631               715.2543
 Red. masses --     8.1484                 8.8867                 8.5567
 Frc consts  --     0.0000                 0.0000                 0.0000
 IR Inten    --   107.9004                27.7716                21.5438
 Raman Activ --     0.0000                 0.0000                 0.0000
 Depolar     --     0.0000                 0.0000                 0.0000
 Atom AN      X      Y      Z        X      Y      Z        X      Y      Z
   1   5     0.03   0.03  -0.20     0.00   0.04   0.07     0.12   0.02  -0.08
   2   5    -0.02   0.04  -0.06     0.04  -0.00   0.03     0.01   0.02  -0.08
   3   5    -0.02  -0.08   0.20     0.06  -0.09  -0.11    -0.06   0.02   0.09
   4   5     0.07  -0.10   0.07    -0.02   0.02  -0.04     0.01   0.08   0.05
   5   5     0.04   0.01   0.09     0.09  -0.04  -0.20    -0.03   0.03   0.07
   6   5    -0.22  -0.05  -0.06    -0.08   0.00  -0.03     0.08  -0.01   0.05
   7   5     0.04   0.00  -0.02     0.06  -0.01   0.07    -0.01   0.01  -0.04
   8   5    -0.01  -0.01  -0.00     0.00   0.03  -0.00    -0.01  -0.02   0.01
   9   5    -0.00   0.00  -0.14    -0.16   0.18   0.14     0.05  -0.07  -0.04
  10   5    -0.06  -0.03   0.07    -0.02  -0.03   0.02     0.03   0.01  -0.04
  11   5    -0.06   0.06   0.00     0.01  -0.03   0.01    -0.09  -0.03   0.01
  12   5     0.12   0.06  -0.01    -0.09  -0.00   0.00    -0.22  -0.03   0.04
  13   5     0.09  -0.03   0.01    -0.06   0.09  -0.01     0.05  -0.09  -0.01
  14   5    -0.05  -0.01   0.01     0.01  -0.00  -0.00     0.04   0.23  -0.01
  15   5     0.01  -0.01   0.03    -0.00  -0.12  -0.22     0.03   0.06   0.07
  16   5     0.09  -0.10  -0.02    -0.00  -0.19   0.23    -0.10   0.05  -0.07
  17   5    -0.01  -0.10  -0.02    -0.02  -0.04  -0.03    -0.02   0.05   0.01
  18   5    -0.03  -0.01  -0.04    -0.01   0.02  -0.02     0.01   0.02   0.02
  19   5     0.05   0.02   0.04    -0.10   0.06   0.07    -0.03  -0.04   0.01
  20   5     0.14   0.06   0.07    -0.01   0.06   0.04    -0.01  -0.06   0.03
  21   5    -0.03   0.05  -0.03     0.04  -0.07   0.01    -0.02  -0.19   0.01
  22   5    -0.09  -0.02  -0.04     0.06  -0.01   0.01     0.02  -0.12   0.07
  23   5    -0.14  -0.02  -0.01     0.14   0.05   0.03     0.06  -0.05  -0.06
  24   5     0.05  -0.02   0.05    -0.02   0.02  -0.03     0.06   0.33  -0.20
  25   5    -0.09  -0.02  -0.02     0.08  -0.10  -0.03    -0.02   0.02   0.02
  26   5    -0.12   0.05   0.02     0.07   0.13   0.05    -0.09   0.04   0.01
  27   5     0.09   0.10  -0.13     0.20  -0.01   0.05     0.03   0.05  -0.02
  28   5    -0.05  -0.07  -0.07     0.02   0.01  -0.19    -0.01  -0.03  -0.04
  29   5    -0.05   0.04   0.04     0.13   0.07  -0.09     0.02   0.02   0.01
  30   5     0.20   0.02   0.11     0.20   0.05   0.17     0.07  -0.01   0.04
  31   5     0.05  -0.08   0.06    -0.03   0.03  -0.02    -0.12  -0.22   0.14
  32   5     0.07   0.01  -0.07    -0.03  -0.01   0.04    -0.08  -0.15   0.19
  33   5     0.18   0.13  -0.04    -0.06  -0.05  -0.01    -0.01  -0.09  -0.08
  34   5    -0.08  -0.02   0.04     0.03   0.02  -0.03     0.04   0.17  -0.19
  35   5     0.05  -0.21  -0.03    -0.06   0.03   0.02     0.01   0.05   0.05
  36   5    -0.01   0.19   0.10    -0.01  -0.02  -0.01    -0.02  -0.01  -0.00
  37   5    -0.08  -0.08   0.10    -0.05  -0.18   0.12     0.03  -0.08   0.08
  38   5    -0.03   0.04  -0.07    -0.05   0.07  -0.08    -0.03   0.07  -0.07
  39   5     0.02   0.01  -0.07     0.04   0.06  -0.04     0.09   0.04  -0.06
  40   5    -0.18   0.02   0.01    -0.28  -0.00   0.00    -0.12   0.01  -0.01
  41   1     0.05   0.15   0.03    -0.02  -0.12  -0.05     0.05  -0.01  -0.03
  42   1    -0.03   0.26   0.18     0.01  -0.09  -0.07     0.02  -0.00  -0.02
  43   1     0.03  -0.03   0.03    -0.17   0.17   0.17     0.07  -0.17  -0.08
  44   1    -0.02   0.08   0.01    -0.12   0.05  -0.08     0.05  -0.04   0.02
  45   1    -0.04  -0.04  -0.01    -0.05  -0.04  -0.02     0.04   0.03   0.00
  46   1     0.00   0.05   0.02    -0.02   0.03   0.00     0.01   0.00  -0.01
  47   1     0.08  -0.00   0.00    -0.06   0.00  -0.02     0.03  -0.02  -0.01
  48   1     0.13  -0.02  -0.15    -0.01  -0.00  -0.07    -0.01  -0.02  -0.00
  49   1    -0.08   0.01   0.00     0.05  -0.02   0.00     0.26  -0.04  -0.05
  50   1     0.10   0.05  -0.02     0.12  -0.00   0.01     0.04   0.05  -0.02
  51   1    -0.03   0.01   0.07     0.02  -0.01  -0.03     0.21  -0.08   0.14
  52   1     0.05  -0.01  -0.08    -0.02   0.00   0.03    -0.06  -0.09   0.09
  53   1     0.04   0.03  -0.04    -0.04  -0.06   0.03    -0.01   0.05  -0.04
  54   1    -0.02  -0.06   0.15    -0.01   0.02   0.09     0.02  -0.01   0.08
  55   1    -0.09  -0.01  -0.07    -0.05  -0.05  -0.00    -0.01  -0.02   0.01
                     94                     95                     96
                        a                      a                      a 
 Frequencies --   720.9448               730.3509               739.0080
 Red. masses --     7.1291                 7.6201                 9.7666
 Frc consts  --     0.0000                 0.0000                 0.0000
 IR Inten    --     9.6899                16.4017                 6.9131
 Raman Activ --     0.0000                 0.0000                 0.0000
 Depolar     --     0.0000                 0.0000                 0.0000
 Atom AN      X      Y      Z        X      Y      Z        X      Y      Z
   1   5     0.02   0.01   0.12    -0.06  -0.03   0.10     0.09   0.05  -0.09
   2   5     0.08   0.03   0.08     0.02   0.00   0.08     0.02   0.02  -0.06
   3   5     0.12  -0.15  -0.13     0.02  -0.07  -0.15     0.00  -0.04   0.09
   4   5    -0.06   0.08  -0.07    -0.02   0.08  -0.07     0.01  -0.02   0.05
   5   5    -0.10   0.05   0.18    -0.06   0.09   0.03     0.12  -0.07  -0.12
   6   5    -0.03   0.11  -0.02    -0.10   0.01  -0.06    -0.19  -0.03  -0.05
   7   5    -0.01   0.01  -0.06     0.02   0.01   0.01     0.01   0.01   0.01
   8   5     0.02  -0.06  -0.03     0.00   0.01   0.03    -0.00   0.00  -0.01
   9   5     0.02   0.06  -0.11    -0.00  -0.07  -0.02    -0.05   0.08   0.07
  10   5    -0.08   0.02   0.12    -0.00  -0.02  -0.04    -0.05  -0.02   0.05
  11   5     0.07   0.05   0.02     0.04  -0.09   0.01    -0.06   0.02   0.01
  12   5    -0.06  -0.03   0.06     0.06  -0.07  -0.01    -0.16   0.02   0.01
  13   5     0.01  -0.18  -0.10     0.16   0.01   0.04    -0.11   0.03  -0.04
  14   5     0.05   0.06  -0.01     0.02   0.01  -0.01     0.03   0.06   0.01
  15   5    -0.08   0.13   0.19     0.11  -0.02  -0.03    -0.03  -0.08  -0.09
  16   5     0.11  -0.12  -0.10    -0.02   0.14   0.05     0.20   0.04   0.13
  17   5    -0.15  -0.13  -0.07     0.13   0.03   0.05     0.13  -0.04   0.04
  18   5    -0.02  -0.06  -0.06     0.01  -0.02   0.02     0.00  -0.06  -0.03
  19   5     0.11  -0.01   0.02     0.01   0.02  -0.01     0.08   0.07  -0.04
  20   5     0.11   0.12   0.00     0.05  -0.10  -0.00     0.03   0.06  -0.01
  21   5    -0.07  -0.04  -0.01    -0.01   0.06   0.01     0.01  -0.22  -0.02
  22   5    -0.06  -0.01   0.01     0.03   0.02   0.02    -0.01  -0.02  -0.01
  23   5    -0.08  -0.01  -0.02     0.06  -0.05  -0.01    -0.15   0.19   0.05
  24   5     0.01   0.06  -0.05    -0.02   0.04  -0.03    -0.03   0.06  -0.05
  25   5     0.01   0.15   0.05    -0.08  -0.21  -0.09     0.13   0.13   0.04
  26   5    -0.00  -0.17  -0.07    -0.12   0.12   0.07     0.30   0.10  -0.00
  27   5     0.13   0.05  -0.05    -0.24   0.20  -0.09    -0.32  -0.05   0.05
  28   5    -0.02   0.01   0.01    -0.10  -0.08   0.26    -0.02  -0.01   0.13
  29   5    -0.07   0.01   0.02    -0.07  -0.10   0.12     0.04  -0.16  -0.00
  30   5    -0.01   0.03  -0.00     0.07  -0.20  -0.19     0.03  -0.10  -0.10
  31   5     0.00  -0.09   0.07    -0.02  -0.01   0.00     0.01  -0.07   0.07
  32   5     0.01  -0.05   0.01    -0.02  -0.03   0.04     0.01  -0.06  -0.00
  33   5     0.02   0.04   0.00     0.00  -0.02  -0.03    -0.04   0.06   0.01
  34   5    -0.00   0.03  -0.02     0.02   0.02  -0.02     0.00   0.03  -0.03
  35   5     0.06  -0.00  -0.02     0.00  -0.02  -0.01     0.07   0.03  -0.03
  36   5    -0.00   0.06  -0.01     0.02   0.00   0.04     0.02   0.12  -0.02
  37   5    -0.05   0.06  -0.04     0.00  -0.00   0.08    -0.17   0.10  -0.10
  38   5     0.01  -0.04   0.05     0.03   0.07  -0.07     0.02  -0.07   0.07
  39   5    -0.07  -0.09   0.02     0.13   0.06  -0.04    -0.12  -0.19   0.04
  40   5     0.07  -0.03   0.03    -0.03   0.09  -0.07     0.12  -0.03   0.01
  41   1    -0.08  -0.10  -0.05    -0.09   0.00   0.01     0.06  -0.01  -0.03
  42   1     0.05  -0.17  -0.16     0.02  -0.06  -0.06     0.00   0.07   0.04
  43   1    -0.14   0.41   0.20    -0.16   0.22   0.15    -0.03  -0.07   0.05
  44   1     0.05   0.04   0.05    -0.02   0.03  -0.01    -0.03   0.09   0.02
  45   1    -0.08  -0.08   0.00     0.01  -0.01  -0.03    -0.07  -0.07  -0.03
  46   1    -0.01  -0.03   0.04     0.02   0.01  -0.01     0.03   0.00   0.02
  47   1    -0.01   0.02  -0.07     0.01  -0.03  -0.03    -0.03   0.01   0.01
  48   1     0.07   0.02  -0.09     0.07  -0.01   0.05     0.01   0.02  -0.00
  49   1     0.07  -0.01  -0.02    -0.07   0.02  -0.01     0.08  -0.07  -0.01
  50   1    -0.01  -0.08   0.03    -0.01   0.39  -0.19     0.01   0.13  -0.09
  51   1     0.05  -0.01   0.07     0.01  -0.01  -0.01     0.04  -0.01   0.05
  52   1    -0.00  -0.03   0.01    -0.01   0.00   0.01    -0.01  -0.05   0.03
  53   1     0.03   0.04  -0.02    -0.03  -0.07  -0.01     0.01  -0.01  -0.01
  54   1    -0.03   0.02  -0.05     0.03  -0.01   0.07    -0.08   0.08  -0.05
  55   1    -0.05   0.04  -0.05     0.04  -0.01   0.00    -0.03   0.06  -0.02
                     97                     98                     99
                        a                      a                      a 
 Frequencies --   746.0727               751.1016               751.9626
 Red. masses --     4.7859                 8.1987                 7.1967
 Frc consts  --     0.0000                 0.0000                 0.0000
 IR Inten    --     3.7418                 6.7883                 9.6043
 Raman Activ --     0.0000                 0.0000                 0.0000
 Depolar     --     0.0000                 0.0000                 0.0000
 Atom AN      X      Y      Z        X      Y      Z        X      Y      Z
   1   5     0.07   0.04  -0.05     0.13   0.07  -0.07    -0.06  -0.03   0.04
   2   5     0.03   0.03  -0.03     0.07   0.07  -0.03    -0.01  -0.01   0.06
   3   5     0.04  -0.05   0.09     0.05  -0.15   0.11     0.01  -0.04  -0.10
   4   5    -0.01  -0.06   0.03    -0.01  -0.09   0.04     0.01   0.08  -0.06
   5   5    -0.01  -0.02   0.09    -0.05   0.04   0.19    -0.00   0.06  -0.02
   6   5    -0.06   0.04   0.02    -0.21   0.03  -0.04    -0.13  -0.07  -0.11
   7   5     0.01   0.05  -0.07     0.05   0.09  -0.09     0.01  -0.05   0.07
   8   5    -0.00  -0.07   0.02    -0.01  -0.10   0.12    -0.01   0.09   0.03
   9   5     0.03  -0.06  -0.10     0.10  -0.25  -0.23     0.03  -0.06   0.02
  10   5    -0.05  -0.01   0.03    -0.02  -0.05  -0.11     0.06  -0.01  -0.09
  11   5    -0.01   0.11  -0.01    -0.02   0.14  -0.01     0.02  -0.09   0.02
  12   5    -0.09   0.07   0.02    -0.18   0.10   0.03     0.13  -0.07  -0.01
  13   5    -0.07  -0.09  -0.03     0.08  -0.14   0.03     0.10  -0.01   0.02
  14   5    -0.03  -0.03  -0.00    -0.05  -0.06  -0.00     0.02   0.06  -0.00
  15   5    -0.09   0.03   0.02     0.01  -0.05  -0.09     0.09  -0.03  -0.07
  16   5    -0.01   0.04  -0.04    -0.16   0.19   0.00     0.03   0.07   0.09
  17   5     0.03  -0.03   0.02     0.19   0.08   0.12     0.12   0.08   0.06
  18   5     0.01  -0.03  -0.01     0.01   0.05   0.07    -0.01   0.08   0.04
  19   5     0.01   0.03  -0.02    -0.07   0.00  -0.04     0.01   0.00  -0.06
  20   5    -0.02   0.10  -0.02    -0.04  -0.07  -0.01    -0.04  -0.14   0.02
  21   5     0.03   0.00   0.00     0.08  -0.00   0.00    -0.08  -0.04  -0.01
  22   5     0.01   0.00  -0.01     0.09   0.01   0.00    -0.11  -0.05  -0.01
  23   5     0.00   0.02   0.01     0.03   0.07   0.01    -0.08  -0.03  -0.02
  24   5     0.01  -0.08   0.04    -0.01  -0.07   0.04     0.05   0.14  -0.04
  25   5     0.06   0.10   0.04     0.02  -0.08  -0.02    -0.08   0.03   0.03
  26   5     0.06  -0.11  -0.02     0.00   0.12   0.02     0.04   0.10   0.02
  27   5     0.03  -0.11   0.08    -0.12  -0.09   0.05    -0.18  -0.11   0.06
  28   5     0.05   0.04  -0.09     0.02  -0.00  -0.07     0.04  -0.01  -0.23
  29   5     0.04   0.05   0.00     0.03  -0.02  -0.05     0.01  -0.02  -0.06
  30   5    -0.10  -0.11   0.09     0.01   0.11   0.04    -0.15   0.16   0.20
  31   5    -0.00   0.05  -0.06    -0.00   0.08  -0.06    -0.07  -0.17   0.05
  32   5     0.01   0.04  -0.02    -0.03   0.03  -0.01     0.10  -0.01   0.06
  33   5    -0.00  -0.02   0.02    -0.01  -0.08  -0.00     0.04   0.13  -0.01
  34   5    -0.01  -0.03   0.03     0.01  -0.02   0.02    -0.04   0.02  -0.04
  35   5    -0.04   0.03   0.01    -0.06   0.03   0.04     0.07  -0.07  -0.03
  36   5    -0.02  -0.06  -0.02     0.00  -0.04  -0.01    -0.00   0.04   0.02
  37   5     0.13  -0.05   0.04    -0.01  -0.02  -0.01     0.04   0.06  -0.05
  38   5     0.01  -0.07   0.02    -0.01   0.05  -0.03     0.02  -0.12   0.07
  39   5    -0.04   0.06  -0.06     0.06   0.04   0.01    -0.07  -0.01   0.00
  40   5    -0.18   0.14  -0.18     0.05  -0.05   0.06     0.01   0.06  -0.08
  41   1     0.04  -0.05  -0.04     0.03  -0.07  -0.07    -0.07   0.07   0.03
  42   1     0.01   0.00  -0.00     0.03   0.00  -0.01    -0.00   0.02  -0.00
  43   1     0.06   0.07   0.01     0.00   0.20   0.09    -0.13   0.10   0.11
  44   1     0.06   0.07   0.05     0.06   0.11   0.05    -0.08  -0.03  -0.05
  45   1    -0.05  -0.09  -0.04     0.01  -0.08  -0.10     0.07   0.09  -0.00
  46   1     0.04   0.01   0.01     0.07   0.05  -0.03    -0.03   0.01  -0.03
  47   1    -0.05   0.04   0.02    -0.11   0.06   0.03     0.10  -0.04  -0.05
  48   1    -0.06   0.02  -0.01    -0.02  -0.01   0.05     0.06  -0.03   0.02
  49   1     0.06  -0.01   0.02     0.05  -0.01   0.04    -0.13   0.00  -0.06
  50   1    -0.01   0.34  -0.12     0.00  -0.26   0.12    -0.03  -0.24   0.15
  51   1    -0.02   0.02  -0.02    -0.04   0.01  -0.07     0.11  -0.01   0.16
  52   1     0.02   0.05  -0.04    -0.00   0.01   0.00     0.04   0.10  -0.11
  53   1     0.00   0.01   0.04    -0.04  -0.02  -0.00     0.05   0.06  -0.02
  54   1     0.00  -0.08   0.06     0.02   0.01  -0.00    -0.01  -0.03  -0.01
  55   1     0.44  -0.28   0.39    -0.15   0.09  -0.12     0.23  -0.13   0.20
                    100                    101                    102
                        a                      a                      a 
 Frequencies --   756.8398               763.5434               769.6293
 Red. masses --     6.1774                 5.7386                 7.3688
 Frc consts  --     0.0000                 0.0000                 0.0000
 IR Inten    --    72.0842                39.3981                25.0103
 Raman Activ --     0.0000                 0.0000                 0.0000
 Depolar     --     0.0000                 0.0000                 0.0000
 Atom AN      X      Y      Z        X      Y      Z        X      Y      Z
   1   5     0.02   0.01  -0.01    -0.05  -0.05   0.05    -0.08  -0.05   0.06
   2   5     0.00   0.02  -0.02    -0.02  -0.04  -0.02    -0.02  -0.04   0.01
   3   5    -0.01  -0.00   0.01     0.00   0.07  -0.03     0.01   0.03  -0.07
   4   5    -0.01  -0.03   0.02    -0.01   0.03  -0.02     0.01   0.06  -0.04
   5   5    -0.01   0.04   0.02     0.01  -0.07  -0.09    -0.02   0.01  -0.04
   6   5     0.04  -0.00   0.03     0.07   0.16   0.15    -0.00   0.11   0.10
   7   5     0.02   0.01  -0.01    -0.02   0.18  -0.15     0.02   0.18  -0.12
   8   5     0.00  -0.01   0.03     0.02  -0.21  -0.00     0.03  -0.20   0.11
   9   5    -0.00  -0.04  -0.03    -0.04   0.07   0.08     0.01  -0.05   0.02
  10   5     0.03  -0.00  -0.07    -0.15  -0.05   0.09    -0.06  -0.06  -0.11
  11   5     0.03   0.14  -0.01    -0.00  -0.11   0.01     0.04  -0.07   0.00
  12   5     0.02   0.02   0.02     0.04  -0.04  -0.03     0.14  -0.05  -0.01
  13   5    -0.06  -0.20  -0.02    -0.05   0.17  -0.00     0.03   0.02   0.02
  14   5     0.02  -0.02   0.00     0.01  -0.00  -0.01    -0.02   0.03   0.00
  15   5    -0.03  -0.03  -0.05     0.00   0.01   0.02     0.06  -0.05  -0.08
  16   5    -0.13  -0.02   0.02     0.04   0.03   0.01    -0.10  -0.02   0.05
  17   5    -0.03   0.06   0.01    -0.01  -0.06  -0.02     0.00   0.11   0.02
  18   5    -0.01   0.06   0.04     0.05  -0.11  -0.02     0.02   0.10   0.08
  19   5    -0.09  -0.02   0.05     0.04   0.02  -0.02    -0.11  -0.02   0.02
  20   5    -0.09   0.02  -0.02     0.11  -0.03   0.01    -0.15   0.02  -0.04
  21   5    -0.07  -0.03  -0.01     0.03  -0.03   0.02    -0.10   0.04  -0.02
  22   5    -0.15   0.01  -0.03     0.02   0.02   0.02    -0.08  -0.06  -0.02
  23   5     0.12  -0.01  -0.01     0.05   0.02  -0.00    -0.00  -0.10  -0.03
  24   5     0.05  -0.01   0.02    -0.03   0.02  -0.02     0.07   0.10  -0.00
  25   5     0.06  -0.04  -0.01    -0.00  -0.07  -0.03    -0.07   0.05   0.04
  26   5     0.08   0.05   0.02    -0.06   0.04   0.02     0.08   0.03   0.01
  27   5     0.18  -0.00  -0.02    -0.13   0.09  -0.01     0.15  -0.15   0.02
  28   5     0.02   0.02   0.13    -0.04  -0.03  -0.05     0.07   0.04   0.04
  29   5     0.11   0.08  -0.00    -0.07  -0.06  -0.00     0.14   0.10  -0.02
  30   5     0.07  -0.10  -0.12    -0.03   0.09   0.05     0.03  -0.06  -0.05
  31   5    -0.22  -0.13  -0.16    -0.17  -0.04  -0.15     0.17  -0.07   0.22
  32   5     0.23   0.04   0.15     0.09  -0.04   0.15    -0.05   0.05  -0.15
  33   5    -0.04   0.13   0.04     0.01  -0.06  -0.00    -0.01   0.17  -0.00
  34   5    -0.03  -0.04   0.05     0.04   0.01   0.02    -0.08  -0.00  -0.06
  35   5     0.05  -0.04  -0.04    -0.03   0.02   0.02     0.07  -0.08  -0.04
  36   5    -0.00   0.01  -0.00     0.00  -0.02  -0.00    -0.01   0.02   0.02
  37   5    -0.07  -0.03  -0.03     0.02   0.01   0.02    -0.01  -0.04  -0.04
  38   5    -0.00  -0.01   0.03     0.02   0.01  -0.01    -0.02  -0.02   0.02
  39   5    -0.13  -0.04   0.05     0.08   0.02  -0.01    -0.13  -0.01   0.02
  40   5     0.00  -0.06   0.06     0.01   0.04  -0.03    -0.02  -0.05   0.05
  41   1     0.02  -0.04  -0.02    -0.02   0.02   0.03    -0.05   0.04   0.04
  42   1     0.00  -0.02  -0.01    -0.01  -0.02   0.00    -0.01  -0.00   0.00
  43   1     0.01  -0.01  -0.01     0.07  -0.09  -0.09    -0.00  -0.01  -0.02
  44   1     0.00  -0.04  -0.03     0.15   0.24   0.18     0.12   0.19   0.13
  45   1     0.06   0.04  -0.00    -0.23  -0.31  -0.10    -0.08  -0.20  -0.12
  46   1    -0.02   0.01  -0.02     0.23   0.05   0.03     0.17   0.07  -0.03
  47   1     0.05   0.04  -0.01    -0.01  -0.03  -0.00     0.12  -0.04  -0.03
  48   1    -0.13   0.01   0.06     0.15  -0.01  -0.04    -0.19   0.02   0.09
  49   1    -0.03  -0.01  -0.01    -0.07  -0.00  -0.02    -0.09   0.02  -0.03
  50   1     0.04   0.15  -0.11    -0.02  -0.16   0.09     0.03   0.09  -0.07
  51   1     0.16   0.04   0.20     0.08   0.01   0.06    -0.03  -0.02   0.03
  52   1     0.14   0.41  -0.33     0.07   0.24  -0.16    -0.07  -0.25   0.14
  53   1     0.01  -0.04   0.01    -0.02  -0.01  -0.01     0.05   0.04  -0.01
  54   1    -0.06   0.07  -0.05     0.03  -0.02   0.01    -0.04   0.02  -0.02
  55   1    -0.11   0.05  -0.08     0.03  -0.01   0.01    -0.05   0.01  -0.02
                    103                    104                    105
                        a                      a                      a 
 Frequencies --   773.4632               787.2974               790.0284
 Red. masses --     7.9271                 6.8400                 6.9319
 Frc consts  --     0.0000                 0.0000                 0.0000
 IR Inten    --    93.8143                34.7349                 2.7311
 Raman Activ --     0.0000                 0.0000                 0.0000
 Depolar     --     0.0000                 0.0000                 0.0000
 Atom AN      X      Y      Z        X      Y      Z        X      Y      Z
   1   5     0.06   0.01  -0.01     0.01   0.00  -0.02    -0.04   0.02  -0.00
   2   5     0.00   0.03  -0.06    -0.02   0.02   0.01     0.02  -0.02   0.06
   3   5    -0.05   0.02  -0.02    -0.02   0.02  -0.05     0.04  -0.02   0.10
   4   5    -0.05  -0.03   0.05    -0.01   0.01   0.02     0.04  -0.06  -0.02
   5   5     0.01   0.06  -0.05    -0.01   0.07   0.02    -0.06  -0.06   0.10
   6   5     0.07   0.03   0.08     0.09  -0.04  -0.08     0.08  -0.00  -0.00
   7   5     0.02   0.06  -0.04    -0.13  -0.22   0.07    -0.03  -0.09   0.02
   8   5     0.02  -0.08   0.06    -0.10   0.26  -0.37    -0.05   0.10  -0.14
   9   5    -0.06   0.06   0.06     0.03  -0.04   0.03     0.02  -0.09  -0.14
  10   5    -0.00   0.00  -0.07     0.03  -0.04   0.31     0.02   0.01   0.15
  11   5     0.00   0.16  -0.02    -0.01   0.07  -0.01     0.02  -0.04  -0.00
  12   5    -0.07  -0.01   0.03    -0.02  -0.02   0.01     0.04   0.05  -0.01
  13   5    -0.02  -0.23  -0.04     0.08  -0.16   0.01    -0.08   0.16   0.03
  14   5     0.07   0.02   0.02     0.03   0.05   0.01    -0.07  -0.10  -0.02
  15   5     0.01   0.02  -0.01     0.03  -0.00  -0.03    -0.05  -0.05  -0.06
  16   5    -0.07  -0.03   0.04    -0.08   0.11   0.01    -0.20   0.07  -0.04
  17   5    -0.06  -0.01  -0.03     0.06   0.06   0.04     0.03  -0.03   0.02
  18   5    -0.02   0.01   0.03     0.13  -0.08  -0.04     0.05  -0.10  -0.06
  19   5    -0.02  -0.01   0.05    -0.04   0.01  -0.02    -0.09   0.00   0.04
  20   5     0.08  -0.15   0.03    -0.03   0.03  -0.01     0.04   0.06  -0.01
  21   5    -0.10  -0.00  -0.04    -0.06   0.02  -0.02     0.06  -0.08   0.01
  22   5    -0.12   0.05  -0.05    -0.11   0.01  -0.03     0.18  -0.03   0.05
  23   5     0.21   0.01   0.01     0.05  -0.04  -0.02     0.08   0.08   0.01
  24   5     0.01  -0.12   0.02     0.03  -0.08   0.02    -0.02   0.21  -0.04
  25   5     0.05  -0.27  -0.09    -0.06  -0.02  -0.00     0.10  -0.14  -0.04
  26   5    -0.04   0.15   0.05     0.00   0.05   0.03    -0.04   0.08   0.02
  27   5     0.04   0.28  -0.07    -0.04  -0.08   0.02     0.16   0.03  -0.04
  28   5    -0.08  -0.05  -0.02     0.03   0.00   0.02    -0.01  -0.00   0.03
  29   5    -0.06  -0.03  -0.01     0.05   0.02  -0.02    -0.00   0.06   0.00
  30   5    -0.05   0.07   0.04     0.01   0.01  -0.03    -0.00   0.01  -0.03
  31   5     0.14   0.02   0.09     0.06   0.02   0.02    -0.04  -0.11   0.09
  32   5    -0.03   0.06  -0.12    -0.00   0.06  -0.06     0.01  -0.06   0.06
  33   5    -0.04   0.14  -0.01     0.01   0.05   0.01    -0.03   0.05  -0.04
  34   5    -0.05  -0.05   0.03    -0.04  -0.05   0.03     0.01   0.09  -0.11
  35   5     0.07  -0.08  -0.08    -0.01  -0.03   0.01     0.08  -0.03  -0.07
  36   5     0.03   0.09   0.03    -0.01  -0.04   0.00     0.02   0.12   0.02
  37   5    -0.11   0.12  -0.02     0.04  -0.05   0.01    -0.12   0.09  -0.04
  38   5     0.06  -0.16   0.12    -0.00   0.03  -0.02     0.02  -0.13   0.11
  39   5    -0.06  -0.04   0.05    -0.01   0.05  -0.00    -0.06  -0.06   0.05
  40   5     0.04   0.08  -0.08    -0.02  -0.00   0.01     0.01   0.02  -0.03
  41   1     0.05  -0.08  -0.03     0.04  -0.01   0.00    -0.03   0.03   0.01
  42   1     0.01  -0.05  -0.02    -0.00  -0.03  -0.02    -0.00   0.02   0.01
  43   1    -0.04  -0.13  -0.02    -0.10  -0.07   0.05     0.19   0.17  -0.09
  44   1     0.03  -0.00   0.00    -0.04  -0.01   0.04    -0.01  -0.08  -0.02
  45   1     0.04  -0.01  -0.02    -0.32  -0.06   0.12    -0.09   0.01   0.05
  46   1    -0.01  -0.01  -0.02     0.44   0.13   0.10     0.05   0.02   0.05
  47   1     0.05   0.04   0.01     0.08   0.01   0.00    -0.19   0.02   0.03
  48   1     0.18  -0.03  -0.00    -0.05   0.01   0.02    -0.02   0.01  -0.01
  49   1     0.22  -0.02   0.07     0.15  -0.00   0.04    -0.35  -0.00  -0.09
  50   1     0.00  -0.12   0.05     0.00  -0.05   0.01     0.04  -0.05  -0.02
  51   1    -0.03   0.01  -0.00     0.02   0.02   0.03    -0.04  -0.06  -0.03
  52   1    -0.02  -0.12   0.06     0.00  -0.02  -0.01    -0.04  -0.06   0.05
  53   1    -0.06  -0.23  -0.01     0.01   0.02  -0.00    -0.05  -0.21  -0.01
  54   1    -0.07   0.15  -0.03     0.01  -0.04   0.00    -0.09   0.20  -0.02
  55   1     0.16  -0.08   0.11    -0.02   0.00  -0.02     0.09  -0.04   0.08
                    106                    107                    108
                        a                      a                      a 
 Frequencies --   797.4411               797.6884               807.4227
 Red. masses --     6.7241                 7.1873                 7.9598
 Frc consts  --     0.0000                 0.0000                 0.0000
 IR Inten    --    41.4644                25.2840                16.2320
 Raman Activ --     0.0000                 0.0000                 0.0000
 Depolar     --     0.0000                 0.0000                 0.0000
 Atom AN      X      Y      Z        X      Y      Z        X      Y      Z
   1   5     0.06   0.04  -0.02     0.01   0.01   0.00    -0.00  -0.01   0.02
   2   5    -0.05   0.06  -0.08    -0.01   0.01  -0.02    -0.01   0.02  -0.03
   3   5    -0.08   0.04  -0.10    -0.02   0.01  -0.02    -0.04   0.02  -0.02
   4   5    -0.07  -0.17   0.08    -0.02  -0.03   0.02    -0.02  -0.03   0.01
   5   5     0.05   0.12  -0.09     0.01   0.03  -0.02    -0.02   0.05   0.00
   6   5     0.00  -0.00  -0.01     0.00   0.00   0.01     0.10   0.04   0.11
   7   5    -0.02   0.00   0.01     0.01   0.02   0.00     0.02   0.05  -0.04
   8   5     0.01  -0.01  -0.02     0.01  -0.02   0.02    -0.03  -0.04   0.03
   9   5    -0.03   0.07   0.13    -0.02   0.03   0.03    -0.09   0.05  -0.02
  10   5    -0.00  -0.02  -0.06    -0.01   0.01  -0.01    -0.00   0.05   0.16
  11   5     0.05   0.25  -0.04     0.01   0.06  -0.01     0.06   0.11  -0.01
  12   5    -0.02   0.07   0.02     0.00   0.01   0.01     0.07   0.00   0.01
  13   5     0.14  -0.31   0.01     0.02  -0.08  -0.00    -0.03  -0.20  -0.02
  14   5    -0.05  -0.23  -0.02    -0.01  -0.05  -0.01    -0.04  -0.07  -0.01
  15   5     0.03   0.04   0.04     0.01   0.00  -0.00    -0.00  -0.00  -0.09
  16   5     0.10  -0.10   0.01     0.03   0.01   0.02    -0.13   0.23   0.10
  17   5    -0.06   0.05  -0.03    -0.01  -0.01  -0.00     0.07  -0.15   0.04
  18   5    -0.02   0.10   0.07    -0.01  -0.02  -0.01     0.07  -0.28  -0.19
  19   5     0.05  -0.02   0.00     0.01   0.00   0.01    -0.02   0.08  -0.00
  20   5    -0.05  -0.09   0.01    -0.02   0.07  -0.04     0.17   0.12   0.02
  21   5     0.06   0.07   0.02    -0.00   0.00   0.00    -0.06   0.07  -0.01
  22   5     0.20  -0.02   0.06     0.03  -0.01   0.01    -0.02  -0.07  -0.01
  23   5    -0.10  -0.00   0.00    -0.04   0.00   0.00     0.14  -0.11  -0.04
  24   5    -0.01   0.17  -0.01     0.01   0.05   0.00     0.11   0.10   0.03
  25   5     0.00   0.04   0.02     0.01   0.07   0.03    -0.03  -0.00   0.01
  26   5    -0.03  -0.08  -0.03     0.06  -0.01  -0.03     0.13   0.07   0.02
  27   5     0.02   0.04  -0.01    -0.04  -0.01  -0.03    -0.20   0.03   0.09
  28   5     0.01   0.00  -0.08    -0.03   0.02   0.43    -0.04  -0.02  -0.08
  29   5    -0.05  -0.02   0.03    -0.05  -0.01  -0.01     0.13  -0.03  -0.06
  30   5    -0.04  -0.03   0.08     0.21   0.11  -0.43    -0.03   0.01   0.07
  31   5    -0.06  -0.05   0.02     0.01  -0.02   0.02     0.05  -0.04   0.09
  32   5     0.01  -0.06   0.07     0.00   0.00  -0.01     0.01   0.10  -0.06
  33   5    -0.01  -0.04  -0.01     0.01   0.01   0.00    -0.06   0.07   0.02
  34   5     0.03   0.09  -0.08    -0.01   0.00  -0.01    -0.07  -0.02  -0.05
  35   5     0.01   0.03   0.00    -0.03   0.00   0.02    -0.04   0.02   0.05
  36   5     0.01   0.01  -0.01    -0.01  -0.01  -0.01     0.00  -0.12  -0.03
  37   5     0.00   0.04  -0.01     0.00  -0.17   0.12     0.09  -0.07  -0.02
  38   5    -0.01   0.01  -0.01     0.08  -0.02   0.04    -0.03   0.07  -0.06
  39   5     0.02  -0.02  -0.01     0.00   0.02  -0.05    -0.05   0.05  -0.00
  40   5     0.04  -0.01   0.01    -0.25   0.14  -0.14     0.02  -0.04   0.05
  41   1     0.10  -0.12  -0.04     0.02  -0.03  -0.01     0.00  -0.04  -0.01
  42   1    -0.01  -0.07  -0.01    -0.00  -0.02  -0.00    -0.00  -0.03  -0.01
  43   1    -0.21  -0.23   0.09    -0.04  -0.05   0.02     0.02  -0.05  -0.04
  44   1     0.00   0.05   0.03    -0.00  -0.01  -0.01     0.03  -0.10  -0.05
  45   1    -0.01  -0.01   0.01     0.03   0.01   0.00    -0.04  -0.06  -0.05
  46   1     0.19   0.04  -0.01    -0.06  -0.02  -0.00    -0.39  -0.09   0.05
  47   1    -0.14   0.11   0.04    -0.02   0.02   0.00     0.04   0.03  -0.01
  48   1     0.04  -0.01   0.02    -0.09   0.03   0.04     0.07   0.01  -0.10
  49   1    -0.41   0.05  -0.08    -0.10   0.01  -0.03    -0.18   0.04  -0.06
  50   1    -0.04   0.10   0.00     0.16  -0.49  -0.00    -0.02   0.04   0.02
  51   1    -0.06  -0.04  -0.05     0.00  -0.00   0.01     0.01  -0.00   0.05
  52   1    -0.02  -0.03   0.03    -0.01  -0.01   0.00    -0.03  -0.06   0.01
  53   1     0.02   0.04  -0.00     0.02   0.08   0.01     0.02   0.12  -0.00
  54   1     0.01  -0.01  -0.00     0.03  -0.11   0.04     0.04  -0.13  -0.02
  55   1    -0.01   0.02  -0.01     0.14  -0.11   0.13    -0.07   0.04  -0.06
                    109                    110                    111
                        a                      a                      a 
 Frequencies --   818.0050               836.8550               845.7969
 Red. masses --     7.1161                 6.0534                 5.8146
 Frc consts  --     0.0000                 0.0000                 0.0000
 IR Inten    --     6.3601                 2.5340               109.2607
 Raman Activ --     0.0000                 0.0000                 0.0000
 Depolar     --     0.0000                 0.0000                 0.0000
 Atom AN      X      Y      Z        X      Y      Z        X      Y      Z
   1   5     0.02  -0.01   0.02    -0.00   0.01  -0.01     0.01  -0.03  -0.00
   2   5    -0.05   0.02  -0.06     0.00  -0.00   0.01    -0.01  -0.01  -0.00
   3   5    -0.03   0.06  -0.11     0.01  -0.01   0.01     0.04   0.02  -0.01
   4   5    -0.04   0.01   0.03     0.00  -0.01  -0.00     0.02   0.17  -0.01
   5   5     0.00   0.08   0.03     0.02  -0.02  -0.03    -0.01  -0.01   0.04
   6   5     0.02   0.02   0.02    -0.04  -0.01  -0.02     0.01   0.01   0.02
   7   5    -0.01   0.06  -0.04     0.00  -0.01   0.01    -0.02  -0.00  -0.01
   8   5    -0.03  -0.03   0.06     0.01  -0.01   0.01     0.01   0.04   0.00
   9   5    -0.01   0.00   0.02     0.02   0.04   0.03     0.00  -0.02  -0.03
  10   5     0.01   0.01   0.11    -0.02   0.00  -0.03     0.05  -0.01   0.01
  11   5    -0.04  -0.04  -0.00     0.02   0.02  -0.00     0.02   0.01  -0.00
  12   5    -0.08  -0.02  -0.02     0.02   0.00   0.00    -0.04   0.05   0.03
  13   5     0.33   0.04   0.11    -0.10  -0.03  -0.04    -0.04  -0.09  -0.03
  14   5     0.06  -0.02   0.01    -0.02  -0.02  -0.01    -0.23  -0.12   0.00
  15   5     0.08  -0.05  -0.03    -0.05   0.08   0.09    -0.02  -0.02  -0.05
  16   5    -0.00   0.12  -0.01     0.13  -0.02  -0.02    -0.07  -0.01   0.02
  17   5     0.00  -0.03   0.02    -0.01  -0.01  -0.01     0.01   0.02   0.02
  18   5     0.05  -0.13  -0.15    -0.02   0.02   0.02     0.03   0.01  -0.00
  19   5     0.01   0.01  -0.05     0.07   0.00  -0.03    -0.04  -0.01   0.03
  20   5     0.04   0.19  -0.03    -0.02   0.03  -0.01    -0.06  -0.06   0.02
  21   5     0.04  -0.04  -0.00    -0.04  -0.04  -0.01     0.07   0.15   0.04
  22   5     0.03   0.08   0.01     0.02  -0.05   0.00     0.02  -0.14  -0.01
  23   5    -0.13   0.11   0.04     0.04   0.01  -0.00    -0.13  -0.11  -0.05
  24   5    -0.10  -0.06  -0.04     0.08   0.16  -0.03     0.07  -0.07   0.07
  25   5    -0.08  -0.05  -0.02    -0.02   0.09   0.02     0.05   0.20   0.05
  26   5    -0.20   0.02   0.03    -0.01  -0.02   0.01     0.14  -0.00  -0.02
  27   5     0.11  -0.32  -0.05    -0.10  -0.10   0.02    -0.03   0.13   0.04
  28   5     0.08   0.00  -0.02     0.02   0.00   0.01    -0.02   0.02   0.03
  29   5    -0.06   0.08   0.04     0.02  -0.01  -0.01     0.10   0.01  -0.04
  30   5    -0.03  -0.00   0.01    -0.03  -0.00  -0.02     0.05  -0.00  -0.01
  31   5    -0.03   0.02  -0.04     0.11   0.04   0.10    -0.13  -0.01  -0.09
  32   5     0.00  -0.08   0.04    -0.07   0.16  -0.14     0.01  -0.05   0.12
  33   5     0.10  -0.02  -0.03     0.28  -0.12  -0.07     0.13  -0.18  -0.04
  34   5     0.05   0.01   0.04    -0.15  -0.20   0.05     0.09   0.14  -0.07
  35   5     0.06  -0.08  -0.07    -0.17  -0.02   0.03    -0.08   0.01   0.01
  36   5    -0.04   0.10   0.06    -0.17  -0.13   0.00    -0.05   0.05  -0.00
  37   5    -0.05   0.08  -0.01     0.08  -0.07   0.03    -0.01   0.05  -0.05
  38   5     0.00  -0.05   0.03     0.02   0.05  -0.04    -0.05  -0.03   0.02
  39   5     0.06   0.01   0.02     0.09   0.19   0.05     0.04   0.00   0.01
  40   5     0.04   0.00  -0.01     0.01   0.02   0.00    -0.04  -0.05   0.03
  41   1     0.04  -0.05  -0.00     0.00   0.00  -0.00    -0.02   0.05   0.02
  42   1    -0.00  -0.04  -0.01    -0.00   0.01   0.00     0.01   0.01  -0.02
  43   1    -0.21  -0.21   0.10     0.01   0.01   0.00    -0.04  -0.02   0.03
  44   1     0.03   0.02   0.02    -0.01   0.03   0.01     0.01  -0.05  -0.01
  45   1    -0.05  -0.09  -0.08     0.03   0.03   0.01    -0.07  -0.06  -0.03
  46   1    -0.30  -0.03   0.03     0.03  -0.01  -0.01    -0.04   0.01   0.00
  47   1     0.07  -0.03  -0.00    -0.03   0.01  -0.00     0.51  -0.09  -0.08
  48   1    -0.28   0.02  -0.03    -0.02   0.01   0.00     0.16   0.00   0.00
  49   1     0.08  -0.02   0.04    -0.11  -0.00  -0.05     0.02   0.05  -0.00
  50   1     0.00  -0.01   0.00    -0.03  -0.01   0.01     0.09  -0.03  -0.05
  51   1     0.00  -0.00  -0.02     0.27   0.04   0.20    -0.17  -0.05  -0.17
  52   1     0.02   0.05  -0.01    -0.03   0.02  -0.04     0.01  -0.00   0.02
  53   1    -0.03  -0.15  -0.01    -0.25  -0.47   0.01    -0.10  -0.18  -0.01
  54   1    -0.05   0.18   0.02    -0.02   0.23  -0.01    -0.09   0.25   0.05
  55   1     0.03  -0.01   0.02    -0.03   0.02  -0.04     0.02  -0.04   0.05
                    112                    113                    114
                        a                      a                      a 
 Frequencies --   851.3190               857.9570               866.0091
 Red. masses --     5.7233                 7.1835                 5.6269
 Frc consts  --     0.0000                 0.0000                 0.0000
 IR Inten    --    23.6511                 5.5257                 2.1402
 Raman Activ --     0.0000                 0.0000                 0.0000
 Depolar     --     0.0000                 0.0000                 0.0000
 Atom AN      X      Y      Z        X      Y      Z        X      Y      Z
   1   5    -0.00   0.03  -0.02     0.03  -0.02   0.00     0.08  -0.01  -0.02
   2   5    -0.01  -0.01   0.01    -0.02   0.00  -0.04     0.04   0.04  -0.01
   3   5     0.03   0.01   0.02     0.06   0.04  -0.02    -0.05  -0.07   0.07
   4   5     0.01  -0.03   0.00    -0.02   0.11   0.01    -0.04   0.16   0.01
   5   5     0.00  -0.02   0.01    -0.02  -0.01   0.10     0.03  -0.04  -0.08
   6   5    -0.04  -0.06  -0.04     0.05   0.03   0.03    -0.07  -0.02  -0.02
   7   5    -0.14  -0.05  -0.07     0.03   0.02   0.00    -0.01  -0.02  -0.01
   8   5     0.02   0.26   0.11     0.01  -0.04  -0.03    -0.05   0.03  -0.02
   9   5     0.09  -0.02   0.01    -0.03  -0.06  -0.08     0.04   0.03   0.05
  10   5     0.32  -0.08   0.06    -0.06   0.02  -0.02     0.10  -0.03   0.04
  11   5     0.00   0.00  -0.00    -0.02  -0.04   0.00     0.00   0.04  -0.00
  12   5    -0.00   0.01   0.00    -0.13   0.03   0.00    -0.17   0.02   0.03
  13   5    -0.05   0.03  -0.02     0.15   0.13   0.08    -0.13  -0.01  -0.04
  14   5     0.03   0.01  -0.00    -0.06  -0.16   0.00    -0.10  -0.23  -0.00
  15   5    -0.01   0.01   0.04     0.00  -0.12  -0.12    -0.02   0.09   0.11
  16   5     0.03  -0.12  -0.04    -0.18   0.02  -0.01     0.15  -0.07  -0.02
  17   5    -0.02   0.16   0.01     0.01  -0.05   0.01    -0.02   0.08  -0.02
  18   5     0.14   0.16  -0.08     0.01  -0.06   0.03    -0.05   0.12  -0.02
  19   5    -0.01  -0.05   0.01    -0.07  -0.01   0.04     0.06  -0.02  -0.02
  20   5    -0.27  -0.18   0.05    -0.05   0.00   0.01     0.20  -0.05  -0.02
  21   5    -0.00  -0.03  -0.01     0.07  -0.06   0.00     0.02  -0.04  -0.01
  22   5     0.01   0.02   0.01     0.15   0.04   0.04     0.08   0.01  -0.00
  23   5     0.00   0.02   0.01    -0.14   0.13   0.04     0.15   0.09   0.03
  24   5    -0.02   0.03  -0.02    -0.08   0.13  -0.10     0.02   0.04   0.01
  25   5     0.04  -0.01  -0.00     0.15  -0.01  -0.01     0.04  -0.13  -0.04
  26   5    -0.01  -0.05  -0.02     0.03  -0.09  -0.06    -0.10   0.09   0.05
  27   5     0.05   0.06  -0.02     0.14   0.12  -0.00    -0.01  -0.02  -0.07
  28   5     0.03   0.03   0.03    -0.02   0.04  -0.02    -0.02  -0.11  -0.02
  29   5    -0.04  -0.01   0.02    -0.06  -0.02   0.02    -0.11  -0.03   0.04
  30   5     0.00  -0.02  -0.04     0.02  -0.01  -0.00    -0.03   0.02   0.03
  31   5     0.04   0.02   0.01     0.15   0.15   0.02     0.01  -0.02   0.04
  32   5    -0.02   0.02  -0.04    -0.12   0.03  -0.16     0.02   0.05  -0.01
  33   5    -0.03   0.01   0.01    -0.09  -0.04   0.04    -0.07   0.05   0.00
  34   5    -0.03  -0.06   0.03    -0.11  -0.25   0.14    -0.03  -0.01  -0.03
  35   5    -0.00   0.02   0.01    -0.02   0.07   0.02    -0.00   0.04   0.03
  36   5     0.01  -0.02  -0.01     0.09   0.01  -0.03     0.05  -0.04  -0.02
  37   5    -0.01  -0.02   0.02    -0.06   0.03  -0.01    -0.06  -0.02   0.04
  38   5     0.02   0.01   0.00    -0.00  -0.02   0.02     0.05  -0.00   0.01
  39   5    -0.01  -0.01  -0.00    -0.02  -0.08  -0.02     0.02  -0.01  -0.00
  40   5    -0.00   0.02  -0.02    -0.00   0.00  -0.01     0.03   0.06  -0.04
  41   1     0.02  -0.00  -0.00     0.02   0.00   0.01    -0.03   0.02  -0.02
  42   1    -0.01   0.02   0.01     0.01  -0.01  -0.02     0.04  -0.01  -0.03
  43   1    -0.01  -0.00   0.02    -0.09  -0.10   0.07     0.10   0.10  -0.06
  44   1     0.05  -0.04   0.05     0.00  -0.05  -0.03    -0.00   0.02   0.01
  45   1    -0.34  -0.34  -0.25     0.05   0.05   0.05    -0.06  -0.04  -0.04
  46   1    -0.39   0.07   0.00     0.08  -0.01  -0.00    -0.04   0.04   0.01
  47   1    -0.10   0.02   0.02     0.29  -0.07  -0.04     0.43  -0.07  -0.07
  48   1     0.20  -0.01   0.03     0.22   0.02  -0.02    -0.46  -0.07   0.03
  49   1    -0.01  -0.01  -0.00    -0.08  -0.02  -0.02    -0.12  -0.01  -0.02
  50   1    -0.02   0.01  -0.01     0.00   0.03  -0.01    -0.11   0.01   0.08
  51   1     0.07   0.02   0.06     0.30   0.10   0.21    -0.00  -0.01   0.01
  52   1    -0.00   0.01  -0.01    -0.01   0.05  -0.04    -0.01  -0.01  -0.00
  53   1     0.00   0.01   0.01     0.04   0.11   0.03     0.01   0.04   0.01
  54   1     0.02  -0.05  -0.01     0.03  -0.12  -0.01     0.08  -0.18  -0.04
  55   1    -0.00   0.01  -0.01     0.01  -0.01   0.01    -0.00   0.03  -0.02
                    115                    116                    117
                        a                      a                      a 
 Frequencies --   868.9674               874.1647               893.8703
 Red. masses --     6.8885                 7.4807                 6.6084
 Frc consts  --     0.0000                 0.0000                 0.0000
 IR Inten    --     3.9827                13.9811                67.1039
 Raman Activ --     0.0000                 0.0000                 0.0000
 Depolar     --     0.0000                 0.0000                 0.0000
 Atom AN      X      Y      Z        X      Y      Z        X      Y      Z
   1   5     0.07  -0.03   0.04     0.06  -0.01  -0.01     0.02   0.02  -0.04
   2   5     0.10   0.11  -0.01     0.03   0.04  -0.04     0.01   0.00   0.08
   3   5    -0.36  -0.20   0.09    -0.04  -0.05   0.05    -0.09  -0.04   0.03
   4   5    -0.06  -0.00  -0.01    -0.05   0.07   0.02     0.02   0.03   0.00
   5   5     0.01   0.14  -0.24     0.00  -0.00  -0.03     0.01   0.02  -0.08
   6   5    -0.03   0.01   0.10    -0.03   0.00   0.03     0.17  -0.11  -0.18
   7   5     0.03   0.09  -0.01     0.02   0.03   0.00    -0.12  -0.25   0.00
   8   5    -0.04  -0.04  -0.08     0.05  -0.02  -0.00     0.15   0.17   0.18
   9   5    -0.15   0.04   0.09    -0.03   0.03   0.00     0.03   0.06   0.11
  10   5     0.08  -0.00   0.04    -0.09   0.03  -0.04    -0.17  -0.02  -0.08
  11   5     0.00   0.05   0.00    -0.02   0.01   0.00    -0.01   0.04  -0.01
  12   5    -0.02  -0.05  -0.00    -0.13  -0.01   0.00    -0.06   0.01   0.02
  13   5     0.23  -0.11   0.08     0.01   0.05   0.02    -0.04  -0.08  -0.01
  14   5     0.06  -0.00   0.01     0.03  -0.13   0.00    -0.04  -0.06  -0.00
  15   5     0.16  -0.05  -0.07    -0.03   0.06   0.06    -0.03   0.07   0.06
  16   5     0.02  -0.03   0.10     0.11   0.04  -0.01     0.04   0.05  -0.03
  17   5     0.03  -0.00   0.01    -0.00  -0.08  -0.01    -0.02  -0.01  -0.01
  18   5     0.01   0.04   0.00     0.05  -0.06   0.03     0.02  -0.10  -0.02
  19   5     0.00   0.02   0.01     0.07   0.02  -0.04     0.02   0.01  -0.02
  20   5    -0.05  -0.02   0.01    -0.36   0.12  -0.01    -0.03   0.06  -0.01
  21   5     0.02   0.08   0.01    -0.02  -0.09  -0.02     0.05   0.05   0.02
  22   5     0.02   0.02   0.02     0.00   0.10  -0.01     0.09  -0.01   0.03
  23   5    -0.17  -0.06  -0.00     0.16   0.13   0.04     0.12  -0.07  -0.03
  24   5    -0.07   0.01  -0.05    -0.02  -0.04   0.02    -0.05   0.04  -0.04
  25   5    -0.07   0.08   0.02    -0.04  -0.11  -0.02    -0.09  -0.09  -0.02
  26   5     0.01  -0.04  -0.03    -0.13   0.02   0.05    -0.11   0.04   0.04
  27   5     0.02  -0.02  -0.01     0.01  -0.31   0.00    -0.06  -0.10   0.02
  28   5     0.01   0.01  -0.00     0.11   0.12   0.01     0.03   0.04   0.04
  29   5    -0.02   0.00   0.01    -0.01   0.01   0.03     0.07   0.05  -0.03
  30   5     0.01  -0.01   0.00    -0.08  -0.04  -0.07     0.00   0.00   0.04
  31   5     0.02   0.07  -0.04    -0.04  -0.11   0.06     0.04   0.08  -0.03
  32   5    -0.06  -0.06  -0.02     0.10   0.02   0.04    -0.07  -0.05  -0.03
  33   5     0.04  -0.06  -0.00    -0.01   0.17  -0.01    -0.09  -0.02   0.02
  34   5     0.01  -0.06   0.07     0.02   0.10  -0.07    -0.01  -0.07   0.06
  35   5     0.01  -0.03  -0.02     0.07  -0.05  -0.04     0.04  -0.04  -0.03
  36   5    -0.01   0.05   0.02    -0.08  -0.04   0.02     0.03   0.04   0.02
  37   5    -0.02   0.04  -0.01     0.04  -0.16   0.10     0.04   0.14  -0.10
  38   5    -0.02  -0.01   0.01     0.10   0.05  -0.04    -0.11  -0.01  -0.03
  39   5     0.05  -0.02  -0.01    -0.05   0.07   0.02     0.03  -0.04  -0.02
  40   5    -0.00  -0.01   0.00     0.02   0.08  -0.05    -0.02  -0.11   0.08
  41   1    -0.13  -0.01  -0.04    -0.01  -0.01  -0.02     0.01   0.03   0.00
  42   1     0.05  -0.06  -0.02     0.02  -0.02  -0.02     0.01  -0.00  -0.03
  43   1     0.34   0.28  -0.32     0.05   0.04  -0.04     0.09   0.10  -0.08
  44   1     0.03  -0.19  -0.09     0.01  -0.10  -0.05    -0.03   0.40   0.23
  45   1    -0.07  -0.06  -0.00     0.04   0.03   0.04     0.08   0.05  -0.02
  46   1     0.03   0.01   0.01     0.06  -0.04  -0.01    -0.07  -0.01  -0.03
  47   1    -0.02   0.02  -0.02     0.20  -0.04  -0.03     0.07  -0.00  -0.00
  48   1     0.02   0.00   0.01     0.45   0.10  -0.03     0.08   0.03  -0.01
  49   1     0.02   0.02   0.01    -0.06  -0.03   0.00    -0.02   0.02  -0.00
  50   1     0.01  -0.00  -0.01    -0.06   0.02  -0.00     0.26  -0.06  -0.16
  51   1     0.09   0.03   0.05    -0.13  -0.05  -0.06     0.08   0.04   0.05
  52   1     0.01   0.03  -0.01    -0.00  -0.03   0.02     0.00   0.02  -0.01
  53   1     0.02   0.03   0.00     0.01  -0.05  -0.00     0.08   0.14  -0.01
  54   1    -0.03   0.09   0.03     0.03  -0.07  -0.04    -0.05   0.12   0.04
  55   1     0.01  -0.01   0.02    -0.04   0.06  -0.07     0.01  -0.04   0.05
                    118                    119                    120
                        a                      a                      a 
 Frequencies --   898.0280               904.8224               914.2379
 Red. masses --     7.0759                 5.4050                 9.9946
 Frc consts  --     0.0000                 0.0000                 0.0000
 IR Inten    --    18.8201               198.3885                 9.9347
 Raman Activ --     0.0000                 0.0000                 0.0000
 Depolar     --     0.0000                 0.0000                 0.0000
 Atom AN      X      Y      Z        X      Y      Z        X      Y      Z
   1   5    -0.02   0.01  -0.01    -0.02  -0.01   0.01    -0.07   0.00   0.01
   2   5     0.01  -0.01   0.08     0.00  -0.01   0.01    -0.02  -0.07   0.05
   3   5    -0.13  -0.03  -0.01    -0.05  -0.01  -0.02     0.02   0.03  -0.05
   4   5     0.05  -0.00  -0.02     0.03  -0.01  -0.02     0.11  -0.02  -0.04
   5   5    -0.00   0.07  -0.05     0.00   0.03  -0.02    -0.01   0.01  -0.01
   6   5     0.20  -0.07  -0.12    -0.01   0.01   0.02    -0.01   0.02   0.02
   7   5    -0.09  -0.18   0.00     0.01   0.05   0.01     0.01   0.05   0.01
   8   5     0.10   0.12   0.13    -0.01  -0.03  -0.02    -0.00  -0.04  -0.01
   9   5    -0.03   0.00   0.06    -0.02   0.00   0.01    -0.01   0.02   0.01
  10   5    -0.13  -0.01  -0.05     0.01   0.00   0.00    -0.03   0.01   0.01
  11   5    -0.01   0.01   0.00     0.00  -0.01   0.00     0.03  -0.01  -0.00
  12   5    -0.00   0.01   0.00     0.04   0.01  -0.00     0.12   0.08   0.01
  13   5     0.17  -0.07   0.06     0.09  -0.03   0.03    -0.09  -0.18  -0.06
  14   5     0.00   0.04   0.00    -0.01   0.05   0.00    -0.21   0.12  -0.01
  15   5     0.04  -0.10  -0.11    -0.00  -0.02   0.00     0.00   0.06   0.04
  16   5    -0.15   0.03   0.01     0.03   0.00  -0.00     0.05   0.03   0.02
  17   5    -0.00  -0.00   0.01    -0.01  -0.01  -0.00    -0.02  -0.01   0.00
  18   5     0.01  -0.07  -0.02    -0.00   0.01   0.01     0.03  -0.02  -0.01
  19   5    -0.07  -0.01   0.03     0.02  -0.01  -0.01     0.03   0.00  -0.01
  20   5     0.04   0.01  -0.00    -0.04   0.01  -0.00    -0.13   0.07  -0.01
  21   5    -0.04  -0.07  -0.02    -0.06  -0.07  -0.02     0.03   0.04   0.01
  22   5    -0.09   0.00  -0.03    -0.09  -0.02  -0.04    -0.01  -0.19  -0.02
  23   5    -0.19   0.13   0.04    -0.06   0.12   0.03     0.05  -0.04  -0.03
  24   5     0.08  -0.04   0.05     0.12  -0.02   0.06     0.11   0.04   0.03
  25   5     0.14   0.11   0.03     0.08  -0.04  -0.02    -0.02  -0.01  -0.02
  26   5     0.12  -0.04  -0.05    -0.09   0.04   0.02    -0.03   0.25   0.11
  27   5     0.14   0.09  -0.03     0.06  -0.07  -0.04     0.10  -0.21  -0.08
  28   5    -0.03  -0.02  -0.06     0.04   0.05   0.05     0.08   0.01  -0.02
  29   5    -0.09  -0.05   0.03    -0.08   0.00   0.01    -0.03   0.01   0.03
  30   5     0.00  -0.01  -0.05    -0.02   0.00   0.10    -0.12  -0.02   0.00
  31   5    -0.04  -0.07   0.03    -0.03  -0.06   0.05     0.01   0.08  -0.05
  32   5     0.08   0.08   0.03     0.07   0.13   0.02    -0.07   0.03  -0.01
  33   5     0.10  -0.01  -0.02     0.10  -0.06  -0.03    -0.00  -0.20   0.01
  34   5     0.00   0.07  -0.07    -0.02   0.04  -0.07    -0.03  -0.05   0.01
  35   5    -0.07   0.08   0.06    -0.09   0.16   0.13    -0.16   0.05   0.07
  36   5     0.00  -0.04  -0.04     0.14  -0.09  -0.06     0.17   0.08  -0.04
  37   5    -0.10  -0.14   0.10    -0.16   0.26  -0.17    -0.40  -0.03   0.13
  38   5     0.13  -0.00   0.05    -0.15  -0.06  -0.02     0.16  -0.10   0.09
  39   5    -0.03   0.02   0.01     0.05   0.04   0.03     0.22  -0.19  -0.07
  40   5     0.02   0.12  -0.09     0.01  -0.13   0.11     0.10   0.17  -0.14
  41   1    -0.01   0.03   0.01    -0.02   0.01   0.00    -0.02   0.04   0.02
  42   1     0.00  -0.00  -0.02    -0.00   0.00   0.01    -0.03   0.03   0.03
  43   1     0.08   0.09  -0.10     0.01   0.02  -0.03    -0.01   0.01   0.00
  44   1    -0.02   0.32   0.18     0.01  -0.05  -0.03     0.00  -0.05  -0.03
  45   1     0.06   0.03  -0.02    -0.01  -0.01   0.00     0.01   0.00   0.01
  46   1    -0.06   0.00  -0.02     0.02  -0.00   0.00     0.01  -0.01   0.00
  47   1    -0.01   0.00   0.01    -0.03   0.00   0.00    -0.05   0.01   0.01
  48   1     0.01  -0.00  -0.02     0.03   0.01   0.01     0.05   0.03  -0.00
  49   1     0.02  -0.02  -0.00     0.00  -0.02  -0.00     0.05   0.02  -0.01
  50   1    -0.29   0.07   0.18     0.41  -0.05  -0.26    -0.06   0.03   0.00
  51   1    -0.08  -0.04  -0.05    -0.05  -0.04  -0.03     0.06   0.03   0.01
  52   1    -0.00  -0.02   0.00    -0.01  -0.02  -0.00    -0.01   0.01  -0.01
  53   1    -0.10  -0.16   0.02    -0.16  -0.19  -0.01     0.03   0.19   0.03
  54   1     0.07  -0.17  -0.05     0.20  -0.43  -0.10    -0.00   0.06   0.08
  55   1    -0.01   0.05  -0.05     0.02  -0.05   0.05     0.02   0.07  -0.05
                    121                    122                    123
                        a                      a                      a 
 Frequencies --   916.8459               926.5886               945.7059
 Red. masses --     7.9709                 7.3316                 7.6366
 Frc consts  --     0.0000                 0.0000                 0.0000
 IR Inten    --    10.3869                 2.7600                26.4776
 Raman Activ --     0.0000                 0.0000                 0.0000
 Depolar     --     0.0000                 0.0000                 0.0000
 Atom AN      X      Y      Z        X      Y      Z        X      Y      Z
   1   5     0.00  -0.00   0.01     0.02  -0.00   0.00     0.01  -0.01   0.01
   2   5    -0.00   0.01  -0.02     0.01   0.03  -0.02     0.01   0.02  -0.01
   3   5     0.01   0.01   0.00    -0.00  -0.00   0.02    -0.04  -0.02  -0.00
   4   5    -0.01  -0.01  -0.00    -0.04   0.01   0.01    -0.02   0.01  -0.00
   5   5    -0.01   0.01   0.03    -0.00  -0.00   0.02     0.01   0.02   0.00
   6   5    -0.00  -0.03   0.06     0.02  -0.00  -0.01     0.00  -0.01  -0.01
   7   5    -0.14  -0.02  -0.02    -0.01  -0.03  -0.01    -0.00   0.01   0.00
   8   5     0.54   0.34   0.17     0.01   0.03   0.01    -0.01  -0.00  -0.01
   9   5    -0.04  -0.00  -0.04    -0.01  -0.02  -0.02    -0.00  -0.01  -0.00
  10   5    -0.33  -0.12  -0.21     0.03  -0.01  -0.01     0.03  -0.00  -0.00
  11   5     0.00  -0.01   0.00    -0.01   0.00   0.00    -0.01  -0.00   0.01
  12   5     0.02   0.00  -0.00    -0.03  -0.03  -0.01    -0.04  -0.04  -0.01
  13   5     0.01   0.01   0.00     0.04   0.06   0.02     0.14   0.08   0.06
  14   5    -0.00   0.01  -0.00     0.07  -0.03   0.00     0.13  -0.03  -0.00
  15   5    -0.00  -0.01  -0.01     0.00  -0.04  -0.04    -0.07  -0.03   0.00
  16   5     0.01   0.02   0.02    -0.06  -0.02   0.00     0.02  -0.02  -0.04
  17   5     0.01  -0.05   0.00     0.00  -0.00  -0.00     0.00  -0.01  -0.01
  18   5    -0.17  -0.03   0.09    -0.05   0.02   0.01    -0.02   0.02   0.01
  19   5     0.02   0.01  -0.00    -0.02   0.00   0.01     0.02  -0.01  -0.01
  20   5     0.14   0.09  -0.05     0.14  -0.06  -0.00     0.01  -0.01   0.00
  21   5    -0.00   0.00  -0.00    -0.02  -0.01  -0.00    -0.16  -0.13  -0.05
  22   5    -0.01  -0.00  -0.00    -0.01   0.05   0.00    -0.16   0.05  -0.06
  23   5     0.00  -0.00  -0.00    -0.05   0.01   0.01    -0.01   0.22   0.06
  24   5     0.00  -0.00   0.00    -0.02  -0.01  -0.00     0.27  -0.00   0.14
  25   5    -0.01  -0.00  -0.00     0.01   0.06   0.02     0.13  -0.09  -0.03
  26   5     0.00   0.02   0.01     0.06  -0.10  -0.05    -0.11  -0.08  -0.03
  27   5    -0.01  -0.02  -0.00     0.02   0.11   0.06    -0.01   0.03   0.01
  28   5    -0.01  -0.03  -0.01    -0.03   0.04   0.02    -0.02   0.01   0.01
  29   5    -0.00   0.00   0.00     0.04  -0.06   0.00    -0.05  -0.01   0.01
  30   5     0.02   0.01   0.01    -0.49   0.04   0.16     0.06  -0.00  -0.01
  31   5     0.00   0.00   0.00    -0.00  -0.02   0.01     0.00  -0.06   0.06
  32   5     0.00   0.00  -0.00     0.02  -0.00   0.00     0.13   0.27  -0.01
  33   5     0.00  -0.00  -0.00     0.02   0.05   0.00    -0.06  -0.11   0.05
  34   5    -0.00  -0.00  -0.00     0.01   0.02  -0.01    -0.09   0.03  -0.12
  35   5    -0.00  -0.00   0.00    -0.02  -0.04  -0.02    -0.27  -0.03   0.08
  36   5     0.00  -0.00  -0.00    -0.06   0.00  -0.00     0.11  -0.15  -0.08
  37   5    -0.00   0.01  -0.01    -0.04  -0.27   0.21     0.15   0.08  -0.01
  38   5    -0.01  -0.01   0.01     0.21   0.00  -0.12    -0.06   0.05  -0.03
  39   5     0.01  -0.00  -0.00    -0.01  -0.00  -0.00     0.10  -0.14  -0.07
  40   5    -0.00  -0.01   0.00     0.16   0.20  -0.14    -0.03  -0.04   0.02
  41   1    -0.01  -0.01  -0.01     0.01  -0.01  -0.01    -0.00  -0.01  -0.00
  42   1    -0.00  -0.00   0.01     0.01  -0.01  -0.01     0.00  -0.01  -0.00
  43   1    -0.02  -0.03   0.01     0.00  -0.01   0.00     0.00   0.00  -0.02
  44   1     0.08  -0.42  -0.10     0.00   0.01   0.01     0.00  -0.00  -0.00
  45   1    -0.16  -0.20  -0.02    -0.02  -0.01  -0.01    -0.01  -0.01  -0.01
  46   1     0.11   0.01  -0.06     0.00   0.02  -0.00     0.00   0.00  -0.00
  47   1    -0.02   0.00   0.00     0.01  -0.00  -0.00     0.01  -0.00  -0.00
  48   1    -0.10   0.02   0.00    -0.07  -0.03   0.02     0.00  -0.01  -0.00
  49   1     0.00   0.00  -0.00    -0.01  -0.00   0.00    -0.09  -0.04  -0.03
  50   1    -0.03   0.00   0.03     0.42  -0.08  -0.35     0.00  -0.01   0.01
  51   1     0.00  -0.00  -0.00    -0.02  -0.01  -0.01    -0.07  -0.03  -0.02
  52   1    -0.00  -0.00  -0.00     0.00  -0.00   0.00    -0.03  -0.04  -0.02
  53   1    -0.00   0.00  -0.00     0.02   0.04   0.02     0.05   0.29   0.04
  54   1     0.00  -0.00   0.00    -0.04   0.09   0.01    -0.17   0.41   0.13
  55   1     0.00  -0.00   0.00    -0.04   0.12  -0.13     0.01  -0.02   0.04
                    124                    125                    126
                        a                      a                      a 
 Frequencies --   954.4386               989.6831              1003.8183
 Red. masses --    10.2073                10.2701                 9.5945
 Frc consts  --     0.0000                 0.0000                 0.0000
 IR Inten    --   115.6814                30.0110                77.3741
 Raman Activ --     0.0000                 0.0000                 0.0000
 Depolar     --     0.0000                 0.0000                 0.0000
 Atom AN      X      Y      Z        X      Y      Z        X      Y      Z
   1   5    -0.13   0.04  -0.01    -0.01   0.00   0.00     0.09  -0.15   0.13
   2   5    -0.03  -0.19   0.16    -0.00  -0.00   0.02     0.02   0.40  -0.29
   3   5    -0.08   0.03  -0.13     0.02   0.03  -0.00    -0.08  -0.08   0.11
   4   5     0.30  -0.02  -0.11    -0.01   0.00   0.01    -0.27  -0.02   0.07
   5   5    -0.00   0.08  -0.05    -0.03   0.01   0.05     0.12  -0.01   0.06
   6   5     0.03  -0.01   0.01     0.16   0.03   0.02    -0.04   0.05   0.02
   7   5    -0.01   0.13   0.05    -0.01  -0.10  -0.04     0.01  -0.17  -0.08
   8   5    -0.01  -0.05  -0.02    -0.11   0.07  -0.02    -0.01   0.06   0.01
   9   5    -0.04   0.02   0.04    -0.19   0.01  -0.10     0.03  -0.01  -0.02
  10   5     0.05  -0.01  -0.00     0.49  -0.03  -0.15     0.02   0.00  -0.00
  11   5    -0.01  -0.07   0.00    -0.00  -0.01  -0.00     0.08  -0.09   0.01
  12   5     0.06   0.25   0.03    -0.01  -0.00  -0.00     0.34  -0.03  -0.06
  13   5     0.16  -0.27   0.02     0.05   0.02   0.02    -0.00   0.05   0.03
  14   5    -0.37   0.12  -0.00     0.01  -0.00   0.00    -0.26   0.15   0.00
  15   5    -0.13  -0.01   0.01    -0.06   0.01  -0.02    -0.09  -0.00   0.02
  16   5     0.07   0.00  -0.02    -0.02   0.08   0.03     0.04   0.01  -0.03
  17   5    -0.00  -0.03  -0.00     0.03  -0.36  -0.05     0.00  -0.01  -0.01
  18   5    -0.04   0.03   0.02    -0.49   0.07   0.30    -0.02  -0.00   0.01
  19   5     0.05   0.00  -0.01     0.08   0.06   0.01    -0.00  -0.01  -0.01
  20   5     0.04  -0.01  -0.00     0.09   0.13  -0.05    -0.01   0.01  -0.00
  21   5     0.12  -0.14   0.01     0.00   0.00   0.00     0.04  -0.00   0.00
  22   5     0.08  -0.04  -0.00     0.01   0.01   0.00    -0.03  -0.16  -0.02
  23   5     0.02   0.23   0.05     0.03  -0.03  -0.00    -0.03   0.07  -0.00
  24   5    -0.02  -0.01  -0.02    -0.02  -0.00  -0.01     0.07   0.01   0.03
  25   5     0.21  -0.08  -0.01    -0.07   0.00   0.00     0.23  -0.03  -0.01
  26   5    -0.11  -0.06  -0.01     0.01   0.02   0.01    -0.12   0.06   0.04
  27   5    -0.06   0.01   0.03    -0.04  -0.10   0.02    -0.02  -0.03   0.01
  28   5    -0.01   0.01   0.01    -0.02   0.05   0.01    -0.00   0.00   0.00
  29   5    -0.03  -0.03   0.02     0.07   0.03  -0.03     0.01   0.00   0.00
  30   5    -0.04   0.02   0.01     0.04  -0.00  -0.03    -0.02   0.00  -0.01
  31   5     0.01   0.02  -0.00    -0.00  -0.00   0.00     0.00   0.04  -0.03
  32   5    -0.01  -0.02  -0.01     0.00  -0.00   0.00    -0.04  -0.01   0.00
  33   5    -0.12   0.06   0.02     0.02   0.01  -0.01    -0.08  -0.05   0.01
  34   5    -0.01  -0.02   0.01     0.00   0.00   0.00    -0.01  -0.02   0.00
  35   5     0.11  -0.02  -0.07    -0.01  -0.00   0.01     0.06   0.04  -0.02
  36   5    -0.07   0.02   0.02     0.01   0.00   0.00     0.03   0.08  -0.00
  37   5     0.26  -0.10   0.01    -0.08   0.02  -0.01     0.10  -0.07   0.01
  38   5    -0.00   0.07  -0.08     0.01  -0.02   0.03     0.02   0.02  -0.03
  39   5    -0.17   0.05   0.03     0.03  -0.00  -0.00    -0.13  -0.01   0.02
  40   5    -0.02  -0.02   0.02    -0.00   0.00  -0.00    -0.01  -0.01   0.00
  41   1    -0.04   0.10   0.04     0.03  -0.01   0.01    -0.20  -0.07  -0.04
  42   1    -0.05   0.08   0.05     0.01   0.00  -0.02     0.01  -0.22   0.09
  43   1    -0.00   0.05  -0.06     0.00  -0.03  -0.00    -0.04  -0.08   0.03
  44   1     0.00  -0.06  -0.03    -0.01   0.11   0.05     0.01   0.07   0.04
  45   1    -0.04  -0.04  -0.01    -0.10  -0.07  -0.08     0.02   0.03  -0.01
  46   1     0.01   0.00  -0.00     0.04   0.04  -0.05    -0.01   0.01  -0.00
  47   1    -0.01  -0.03   0.02     0.00  -0.00   0.00    -0.01  -0.02  -0.02
  48   1    -0.02  -0.01   0.00     0.06   0.05  -0.02     0.01   0.00  -0.00
  49   1     0.10  -0.05   0.00     0.00   0.00  -0.00     0.05   0.00   0.00
  50   1     0.04  -0.03  -0.03    -0.04   0.01   0.03    -0.00  -0.01   0.00
  51   1     0.01   0.00  -0.00     0.00  -0.00   0.00     0.01   0.01  -0.01
  52   1    -0.00   0.00  -0.00     0.00   0.00   0.00    -0.00  -0.00  -0.00
  53   1     0.04  -0.02   0.00    -0.00   0.00  -0.00     0.00  -0.04   0.01
  54   1    -0.05   0.04  -0.02     0.02  -0.02  -0.00    -0.03  -0.01  -0.02
  55   1    -0.02   0.01  -0.01     0.00  -0.00   0.00    -0.02   0.01  -0.00
                    127                    128                    129
                        a                      a                      a 
 Frequencies --  1026.9667              1036.5146              1046.2427
 Red. masses --    10.5285                10.2327                 9.9683
 Frc consts  --     0.0000                 0.0000                 0.0000
 IR Inten    --    42.3360                 9.9284                35.0004
 Raman Activ --     0.0000                 0.0000                 0.0000
 Depolar     --     0.0000                 0.0000                 0.0000
 Atom AN      X      Y      Z        X      Y      Z        X      Y      Z
   1   5    -0.00   0.02  -0.03     0.00   0.05  -0.05     0.07  -0.02   0.01
   2   5    -0.00  -0.06   0.03     0.01  -0.09   0.07     0.01   0.13  -0.07
   3   5     0.09   0.03   0.01    -0.02  -0.01  -0.02    -0.08  -0.04   0.03
   4   5    -0.03   0.01   0.02    -0.01   0.01   0.01    -0.02  -0.00   0.00
   5   5    -0.07  -0.04  -0.01     0.01   0.01   0.00     0.13  -0.00   0.10
   6   5    -0.01   0.06   0.06     0.03  -0.14  -0.13     0.18  -0.38  -0.37
   7   5     0.03  -0.09  -0.05    -0.06   0.20   0.11    -0.17   0.46   0.29
   8   5    -0.01   0.03   0.00    -0.00  -0.05  -0.01    -0.01  -0.12  -0.03
   9   5    -0.05   0.01  -0.02     0.08   0.02   0.05     0.15   0.04   0.05
  10   5     0.05  -0.00  -0.02     0.03  -0.00  -0.01     0.06  -0.01  -0.03
  11   5     0.02   0.05  -0.01    -0.02   0.07  -0.00     0.00   0.00   0.01
  12   5    -0.01  -0.06   0.01    -0.11  -0.12   0.01     0.04  -0.00  -0.01
  13   5    -0.20  -0.04  -0.11     0.02   0.09   0.01    -0.13   0.01  -0.02
  14   5     0.04   0.00  -0.00     0.25  -0.06  -0.00    -0.05   0.01   0.00
  15   5     0.36   0.02  -0.02    -0.02   0.03   0.05     0.03   0.00  -0.01
  16   5    -0.04   0.07   0.11     0.04   0.04  -0.03    -0.07   0.06  -0.02
  17   5     0.01  -0.03   0.01    -0.01   0.00  -0.01    -0.02   0.02  -0.01
  18   5    -0.07  -0.04   0.04    -0.05  -0.07   0.03    -0.10  -0.13   0.05
  19   5    -0.05  -0.02  -0.01    -0.01  -0.02  -0.03    -0.08  -0.04   0.01
  20   5    -0.03   0.07  -0.01     0.03   0.02  -0.01     0.04   0.06  -0.01
  21   5    -0.04   0.03  -0.01    -0.12   0.11  -0.02     0.02  -0.02   0.00
  22   5    -0.06  -0.07  -0.02    -0.12  -0.13  -0.02     0.02   0.03   0.00
  23   5    -0.11   0.02  -0.00    -0.13  -0.12  -0.05     0.04   0.01   0.01
  24   5     0.14   0.02   0.07     0.24   0.06   0.11    -0.05  -0.01  -0.02
  25   5     0.14   0.05   0.01     0.28  -0.02  -0.02    -0.07   0.02   0.01
  26   5     0.10   0.21   0.04    -0.26   0.06   0.07     0.13   0.03  -0.02
  27   5     0.20  -0.11  -0.14    -0.08  -0.02   0.05     0.10  -0.00  -0.03
  28   5     0.04  -0.01  -0.01    -0.01   0.01   0.00    -0.01   0.02  -0.01
  29   5    -0.48  -0.23   0.17     0.19   0.11  -0.05    -0.13  -0.07   0.04
  30   5    -0.03   0.01   0.04    -0.03   0.00  -0.02     0.01   0.00   0.01
  31   5    -0.00   0.04  -0.05    -0.01   0.09  -0.10     0.00  -0.02   0.02
  32   5    -0.05  -0.01   0.00    -0.13  -0.05  -0.00     0.03   0.01   0.00
  33   5    -0.11  -0.11   0.03    -0.11  -0.23   0.03     0.01   0.05  -0.00
  34   5    -0.01  -0.01   0.00     0.00  -0.02   0.03    -0.00   0.00  -0.01
  35   5     0.13  -0.02  -0.08     0.14   0.09  -0.04    -0.02  -0.04  -0.00
  36   5    -0.16   0.01   0.05     0.12   0.25   0.01    -0.08  -0.08   0.01
  37   5     0.26   0.04  -0.00     0.04  -0.15   0.02     0.01   0.05  -0.01
  38   5    -0.04   0.08  -0.10     0.06   0.00   0.00    -0.02   0.01  -0.01
  39   5    -0.00   0.06   0.01    -0.25  -0.01   0.03     0.09   0.02  -0.01
  40   5    -0.00  -0.03   0.03    -0.02   0.01  -0.01     0.00  -0.00   0.00
  41   1     0.08  -0.01   0.01     0.09  -0.01   0.00    -0.16   0.03  -0.04
  42   1     0.02   0.05  -0.05     0.02   0.07  -0.06    -0.05  -0.12   0.12
  43   1     0.02   0.00   0.01    -0.00   0.03  -0.01    -0.05   0.01   0.03
  44   1    -0.00   0.02  -0.00    -0.00  -0.04   0.00    -0.01  -0.03   0.04
  45   1     0.00   0.01  -0.01    -0.03  -0.04  -0.01    -0.06  -0.09  -0.01
  46   1     0.00   0.00  -0.01     0.01  -0.01  -0.00     0.02  -0.02  -0.01
  47   1    -0.00   0.02  -0.00    -0.00   0.02   0.00     0.01  -0.00  -0.01
  48   1     0.01   0.02  -0.00     0.02   0.01  -0.01     0.04   0.02  -0.01
  49   1    -0.03   0.01  -0.01    -0.07   0.04  -0.02     0.01  -0.01   0.00
  50   1     0.06  -0.01  -0.04    -0.03  -0.01   0.02     0.01   0.01  -0.01
  51   1     0.00   0.02  -0.01     0.02   0.03  -0.01    -0.01  -0.01   0.00
  52   1     0.00  -0.01  -0.00     0.01  -0.00   0.00    -0.00   0.00  -0.00
  53   1     0.06   0.00   0.01    -0.01  -0.11  -0.00     0.02   0.04   0.00
  54   1    -0.00   0.05  -0.02    -0.04  -0.10  -0.02     0.02   0.03   0.00
  55   1    -0.00  -0.00   0.00    -0.02   0.02  -0.01     0.01  -0.01   0.00
                    130                    131                    132
                        a                      a                      a 
 Frequencies --  1058.7159              1081.0264              1090.6819
 Red. masses --    10.1876                 5.5494                 9.9465
 Frc consts  --     0.0000                 0.0000                 0.0000
 IR Inten    --    29.0623                68.8120                10.3675
 Raman Activ --     0.0000                 0.0000                 0.0000
 Depolar     --     0.0000                 0.0000                 0.0000
 Atom AN      X      Y      Z        X      Y      Z        X      Y      Z
   1   5    -0.00  -0.02   0.02    -0.05   0.04  -0.03    -0.04   0.01  -0.00
   2   5     0.00   0.03  -0.02     0.02  -0.02   0.02     0.01  -0.03   0.02
   3   5    -0.03  -0.00  -0.00     0.01  -0.03   0.05    -0.04  -0.04  -0.03
   4   5     0.04  -0.00  -0.02    -0.34   0.03   0.15    -0.08   0.01   0.03
   5   5     0.02   0.02   0.02    -0.08   0.01  -0.00     0.04  -0.00  -0.10
   6   5     0.02   0.01   0.01     0.11  -0.14  -0.10    -0.26   0.06   0.07
   7   5     0.00  -0.01  -0.01    -0.04   0.15   0.09     0.04  -0.07  -0.07
   8   5     0.00   0.00   0.00     0.01  -0.03   0.00    -0.02   0.01  -0.01
   9   5    -0.04  -0.02  -0.03    -0.12  -0.01  -0.06     0.37   0.05   0.23
  10   5    -0.03   0.00   0.01    -0.06  -0.00   0.02     0.14   0.00  -0.06
  11   5    -0.01  -0.01   0.01     0.10  -0.01  -0.02     0.03  -0.02  -0.01
  12   5    -0.02   0.02  -0.00     0.23  -0.12  -0.04     0.07   0.01  -0.01
  13   5     0.09   0.02   0.05     0.08   0.05   0.03    -0.07  -0.04  -0.02
  14   5     0.03  -0.01  -0.00    -0.21   0.09   0.00    -0.11   0.04  -0.00
  15   5    -0.17  -0.03  -0.01    -0.10  -0.02  -0.01     0.14   0.01   0.03
  16   5    -0.00  -0.04  -0.04     0.01  -0.04  -0.00    -0.02   0.07  -0.04
  17   5     0.01  -0.01  -0.00     0.02  -0.06   0.00    -0.06   0.26   0.00
  18   5     0.05   0.06  -0.02     0.08   0.12  -0.04    -0.22  -0.41   0.11
  19   5     0.03   0.02   0.01     0.07   0.04   0.01    -0.18  -0.10  -0.03
  20   5    -0.01  -0.03   0.01    -0.04  -0.03   0.01     0.15   0.08  -0.03
  21   5    -0.08  -0.06  -0.03     0.04  -0.01   0.01     0.03  -0.05   0.00
  22   5    -0.08  -0.03  -0.04     0.01  -0.07  -0.00     0.02   0.05   0.00
  23   5     0.11   0.15   0.04     0.04   0.08   0.01    -0.05   0.06   0.02
  24   5     0.28   0.05   0.13    -0.03  -0.01  -0.02    -0.05  -0.02  -0.02
  25   5    -0.06   0.04   0.02     0.00  -0.00   0.00     0.06   0.00   0.01
  26   5     0.12  -0.08  -0.04     0.04   0.00  -0.00    -0.09  -0.12  -0.04
  27   5    -0.03   0.05   0.03    -0.03   0.00  -0.01     0.05   0.02   0.05
  28   5    -0.01  -0.01   0.00     0.02  -0.03   0.00    -0.09   0.11  -0.00
  29   5     0.08   0.03  -0.04    -0.02  -0.01   0.00     0.12   0.07  -0.05
  30   5     0.02  -0.00   0.00     0.00  -0.00   0.00     0.02  -0.00  -0.02
  31   5    -0.00   0.07  -0.07     0.01  -0.00   0.01     0.03  -0.01   0.04
  32   5    -0.07   0.01   0.01     0.02   0.00   0.01     0.08   0.07   0.02
  33   5    -0.21  -0.24   0.06    -0.01   0.03  -0.00    -0.04  -0.01   0.01
  34   5    -0.03  -0.02  -0.02    -0.01  -0.00  -0.01    -0.04  -0.01  -0.04
  35   5     0.31  -0.13  -0.18     0.00  -0.02  -0.01     0.03  -0.04  -0.03
  36   5    -0.45  -0.01   0.15    -0.04  -0.04   0.00    -0.11  -0.06   0.02
  37   5    -0.23   0.07  -0.02    -0.01   0.02  -0.00    -0.12   0.02  -0.00
  38   5    -0.02  -0.05   0.05    -0.01  -0.00   0.00    -0.00  -0.03   0.03
  39   5     0.29   0.18   0.00     0.04   0.01  -0.00     0.10   0.03  -0.00
  40   5     0.03   0.02  -0.01     0.00   0.00   0.00     0.00   0.01  -0.00
  41   1    -0.06   0.01  -0.00     0.45  -0.15   0.08     0.16  -0.04   0.04
  42   1    -0.02  -0.03   0.04     0.23   0.26  -0.42     0.08   0.11  -0.14
  43   1    -0.01  -0.01  -0.00     0.04   0.05  -0.01     0.01   0.03  -0.02
  44   1     0.00   0.01   0.00    -0.00  -0.02   0.01     0.01  -0.03  -0.03
  45   1     0.01   0.01   0.00    -0.01  -0.02   0.00    -0.01   0.00  -0.01
  46   1    -0.00   0.00   0.00    -0.00   0.00   0.01     0.02  -0.02  -0.02
  47   1     0.01  -0.01  -0.00     0.02  -0.00  -0.01     0.01  -0.01   0.00
  48   1    -0.01  -0.01   0.00    -0.03  -0.01   0.01     0.11   0.02  -0.03
  49   1    -0.05  -0.02  -0.03     0.03  -0.00   0.00     0.02  -0.02   0.01
  50   1    -0.00   0.01   0.00     0.00  -0.00  -0.00    -0.02   0.01   0.01
  51   1     0.01   0.03  -0.02     0.00  -0.00  -0.00    -0.01  -0.01   0.00
  52   1    -0.01  -0.01  -0.01    -0.00   0.00  -0.00    -0.01  -0.00  -0.01
  53   1     0.14   0.03  -0.04     0.01   0.01  -0.00     0.03   0.03  -0.00
  54   1     0.15  -0.06  -0.03     0.01   0.01  -0.00     0.04  -0.00  -0.00
  55   1     0.02  -0.01  -0.01     0.00  -0.00   0.00     0.00  -0.00  -0.00
                    133                    134                    135
                        a                      a                      a 
 Frequencies --  1117.3095              1141.5813              1160.2043
 Red. masses --    10.5621                10.5180                10.2120
 Frc consts  --     0.0000                 0.0000                 0.0000
 IR Inten    --    30.0793                59.5095                 5.5424
 Raman Activ --     0.0000                 0.0000                 0.0000
 Depolar     --     0.0000                 0.0000                 0.0000
 Atom AN      X      Y      Z        X      Y      Z        X      Y      Z
   1   5    -0.03  -0.01   0.01    -0.01   0.01  -0.00     0.11   0.07  -0.10
   2   5     0.01  -0.01   0.01     0.00  -0.02   0.02    -0.02  -0.08   0.04
   3   5    -0.13  -0.04  -0.07    -0.09  -0.02  -0.05     0.21   0.06   0.09
   4   5     0.01  -0.01  -0.01     0.03  -0.01  -0.01    -0.11   0.00   0.06
   5   5     0.13   0.04   0.01     0.10   0.02   0.04    -0.29  -0.01  -0.15
   6   5    -0.12   0.05   0.05    -0.03   0.02   0.03     0.03  -0.02  -0.03
   7   5     0.02  -0.04  -0.04     0.01  -0.02  -0.02    -0.00   0.02   0.01
   8   5    -0.01   0.00  -0.00    -0.00   0.00  -0.00     0.01  -0.00   0.00
   9   5     0.16  -0.02   0.07     0.04  -0.01   0.00    -0.03  -0.00   0.04
  10   5     0.06   0.00  -0.02     0.01   0.00  -0.00    -0.02  -0.01   0.01
  11   5    -0.01   0.01   0.00    -0.01   0.02  -0.00     0.04   0.06  -0.01
  12   5    -0.03  -0.02  -0.00    -0.03  -0.03   0.00     0.05  -0.13   0.00
  13   5     0.19   0.08   0.11     0.09   0.06   0.06     0.10  -0.01   0.02
  14   5     0.07  -0.02  -0.00     0.05  -0.02   0.01    -0.10   0.03  -0.00
  15   5    -0.47  -0.04  -0.01    -0.28  -0.01  -0.00    -0.01  -0.01  -0.01
  16   5     0.03  -0.01  -0.12     0.04  -0.00  -0.06    -0.02  -0.05   0.01
  17   5    -0.03   0.13  -0.00    -0.01   0.00  -0.01    -0.00   0.09   0.01
  18   5    -0.08  -0.15   0.04    -0.01  -0.01   0.00     0.02  -0.00  -0.02
  19   5    -0.06  -0.05   0.01    -0.02  -0.01   0.01     0.06   0.03  -0.01
  20   5     0.03   0.05  -0.01    -0.03   0.03  -0.00     0.23  -0.22   0.02
  21   5    -0.03   0.04  -0.00     0.03   0.08   0.02     0.00  -0.04  -0.00
  22   5    -0.04  -0.12  -0.02     0.03   0.01   0.02    -0.00   0.00  -0.01
  23   5     0.19   0.02  -0.01     0.02  -0.19  -0.06     0.07   0.09   0.03
  24   5     0.16   0.05   0.07    -0.26  -0.07  -0.12     0.04   0.00   0.02
  25   5    -0.20   0.01  -0.00    -0.03   0.05   0.00    -0.22  -0.00  -0.00
  26   5     0.29   0.14   0.02     0.14   0.15   0.05     0.07  -0.02  -0.01
  27   5     0.11  -0.02  -0.05     0.03  -0.00  -0.04     0.08  -0.24   0.06
  28   5    -0.00   0.01  -0.01     0.04  -0.05  -0.00    -0.38   0.45  -0.01
  29   5    -0.21  -0.13   0.07    -0.11  -0.07   0.04    -0.03  -0.04  -0.00
  30   5    -0.01   0.00   0.01    -0.02   0.01   0.01     0.03  -0.03  -0.07
  31   5    -0.10  -0.00  -0.09     0.22   0.10   0.12     0.03   0.04  -0.00
  32   5    -0.22  -0.17  -0.10     0.35   0.17   0.27     0.02  -0.00   0.05
  33   5     0.07   0.10  -0.03    -0.08  -0.28   0.04     0.01  -0.12   0.00
  34   5     0.14   0.03   0.15    -0.31  -0.08  -0.31    -0.05  -0.02  -0.05
  35   5    -0.05   0.04   0.04     0.09   0.02  -0.04     0.03   0.03  -0.00
  36   5     0.11   0.02  -0.02     0.01   0.14   0.03     0.10   0.12   0.01
  37   5     0.12   0.01   0.01     0.07  -0.02   0.01     0.05  -0.02   0.00
  38   5    -0.00   0.03  -0.03     0.01   0.02  -0.02     0.02   0.01  -0.01
  39   5    -0.08  -0.03  -0.00    -0.06   0.01   0.00    -0.08  -0.01   0.00
  40   5    -0.01  -0.01   0.00    -0.00  -0.00  -0.00    -0.02  -0.01   0.01
  41   1     0.05  -0.01   0.02     0.01  -0.00   0.00    -0.07   0.04  -0.06
  42   1     0.04   0.06  -0.06     0.01   0.02  -0.01    -0.09  -0.11   0.11
  43   1    -0.02   0.01  -0.04    -0.02  -0.00  -0.02     0.06   0.02   0.04
  44   1     0.01  -0.01  -0.01     0.00  -0.00  -0.00    -0.00  -0.01  -0.01
  45   1    -0.00   0.00   0.00     0.00   0.00   0.00     0.00  -0.00   0.00
  46   1     0.00  -0.01  -0.01     0.00   0.00  -0.00    -0.01   0.00   0.00
  47   1     0.01   0.00   0.00    -0.00   0.01   0.01     0.01   0.02  -0.00
  48   1     0.03   0.02  -0.01    -0.00   0.01   0.00     0.06  -0.08   0.00
  49   1    -0.03   0.02  -0.02     0.03   0.02   0.01     0.01  -0.01  -0.00
  50   1     0.01  -0.00  -0.01     0.01  -0.01  -0.00    -0.02   0.03  -0.01
  51   1     0.02   0.00  -0.00    -0.01   0.03  -0.01     0.00   0.01  -0.01
  52   1     0.05   0.01   0.04    -0.12  -0.02  -0.10    -0.02  -0.00  -0.02
  53   1    -0.04  -0.02  -0.00     0.02  -0.03  -0.01    -0.01  -0.03  -0.01
  54   1    -0.03   0.00   0.00    -0.01  -0.02   0.00    -0.02  -0.02   0.00
  55   1    -0.00  -0.00   0.00    -0.00   0.00  -0.00    -0.01  -0.00   0.00
                    136                    137                    138
                        a                      a                      a 
 Frequencies --  1161.6695              1167.2267              1188.5821
 Red. masses --     9.7460                10.4353                10.4624
 Frc consts  --     0.0000                 0.0000                 0.0000
 IR Inten    --     7.2343                21.7913                29.7427
 Raman Activ --     0.0000                 0.0000                 0.0000
 Depolar     --     0.0000                 0.0000                 0.0000
 Atom AN      X      Y      Z        X      Y      Z        X      Y      Z
   1   5    -0.17  -0.14   0.18    -0.08  -0.04   0.06     0.11   0.12  -0.15
   2   5     0.03   0.21  -0.14     0.01   0.03  -0.01    -0.00  -0.21   0.18
   3   5    -0.11  -0.06   0.01    -0.20  -0.05  -0.10    -0.28  -0.03  -0.23
   4   5     0.10   0.01  -0.07     0.10  -0.01  -0.05    -0.08  -0.01   0.06
   5   5     0.16  -0.01   0.09     0.27   0.02   0.16     0.41   0.03   0.23
   6   5     0.01  -0.03  -0.02     0.00   0.02   0.03    -0.02   0.06   0.09
   7   5    -0.01   0.00   0.01     0.00  -0.02  -0.01     0.01  -0.03  -0.02
   8   5     0.00   0.00   0.00     0.01   0.01   0.00     0.00   0.01   0.00
   9   5    -0.02  -0.01  -0.04    -0.02  -0.02  -0.07     0.03  -0.00  -0.07
  10   5    -0.02  -0.00   0.01    -0.05  -0.01   0.03    -0.02  -0.00   0.01
  11   5    -0.06  -0.20   0.03    -0.03  -0.00   0.01     0.08   0.18  -0.03
  12   5    -0.01   0.36  -0.01    -0.07   0.02   0.01     0.05  -0.32   0.01
  13   5    -0.15  -0.12  -0.06    -0.06   0.05  -0.01    -0.16   0.14  -0.04
  14   5     0.06  -0.03  -0.00     0.12  -0.03   0.00    -0.21   0.04  -0.00
  15   5     0.17   0.01  -0.02    -0.06   0.03   0.01     0.18   0.02  -0.00
  16   5    -0.04   0.01   0.04     0.04   0.04  -0.01    -0.03   0.06   0.02
  17   5     0.00  -0.04   0.00     0.02  -0.10  -0.01     0.01  -0.14  -0.01
  18   5     0.03   0.05  -0.02     0.08   0.14  -0.05     0.04   0.10  -0.02
  19   5    -0.01   0.01   0.00    -0.02  -0.02  -0.02    -0.06  -0.03  -0.00
  20   5     0.05  -0.07   0.01     0.16  -0.22   0.03    -0.01  -0.03   0.01
  21   5    -0.05  -0.15  -0.03     0.01   0.12   0.02     0.02  -0.07  -0.00
  22   5     0.01   0.27   0.00    -0.01  -0.14   0.01     0.01   0.03  -0.01
  23   5     0.05  -0.01   0.03    -0.08  -0.12  -0.05     0.06   0.17   0.06
  24   5     0.15   0.02   0.07    -0.12  -0.01  -0.05     0.04   0.00   0.01
  25   5    -0.31  -0.00  -0.01     0.31   0.01   0.02    -0.22  -0.02  -0.01
  26   5     0.05  -0.08  -0.04    -0.06   0.14   0.07    -0.01  -0.13  -0.06
  27   5     0.03  -0.05   0.02     0.08  -0.21   0.04     0.00   0.03   0.02
  28   5    -0.10   0.12  -0.00    -0.32   0.38  -0.01    -0.01   0.01  -0.00
  29   5     0.00  -0.00  -0.00    -0.01  -0.01  -0.00     0.04   0.02  -0.02
  30   5    -0.00  -0.01  -0.02     0.04  -0.03  -0.06    -0.00  -0.00  -0.00
  31   5     0.00   0.03  -0.03    -0.01  -0.03   0.02    -0.02  -0.01   0.00
  32   5    -0.02   0.02   0.02     0.01  -0.01  -0.03    -0.00   0.03  -0.02
  33   5     0.01  -0.21   0.00    -0.00   0.19  -0.00     0.00  -0.11   0.00
  34   5    -0.02  -0.01  -0.02     0.03   0.01   0.03     0.01   0.00   0.01
  35   5     0.05   0.06  -0.00    -0.04  -0.06   0.00     0.02   0.03  -0.00
  36   5     0.16   0.19   0.02    -0.15  -0.17  -0.01     0.09   0.10   0.01
  37   5     0.06  -0.04   0.01    -0.06   0.04  -0.01     0.02  -0.02   0.01
  38   5     0.02   0.01  -0.01     0.01  -0.01   0.00     0.01   0.00   0.00
  39   5    -0.12  -0.03   0.00     0.12   0.02  -0.00    -0.06  -0.01  -0.00
  40   5    -0.01  -0.01  -0.00    -0.01  -0.01   0.01    -0.00  -0.00  -0.00
  41   1     0.11  -0.08   0.10     0.04  -0.02   0.04    -0.02   0.06  -0.06
  42   1     0.13   0.14  -0.16     0.05   0.08  -0.07    -0.05  -0.04   0.04
  43   1    -0.03  -0.03  -0.01    -0.06  -0.01  -0.04    -0.09   0.02  -0.08
  44   1    -0.00   0.01   0.01     0.00   0.00   0.00     0.01  -0.00  -0.00
  45   1    -0.00  -0.00   0.00     0.00   0.00   0.00     0.00   0.00   0.00
  46   1    -0.00   0.01   0.00    -0.01   0.01   0.01    -0.00   0.01   0.00
  47   1    -0.01  -0.08   0.01    -0.01  -0.00  -0.00     0.02   0.07  -0.01
  48   1     0.01  -0.02   0.00     0.04  -0.07   0.01    -0.01  -0.01   0.00
  49   1    -0.04  -0.06  -0.01     0.00   0.04   0.01     0.01  -0.02  -0.01
  50   1    -0.01   0.01  -0.00    -0.02   0.02  -0.01    -0.00   0.00   0.00
  51   1    -0.00   0.01  -0.01    -0.00  -0.01   0.01     0.00  -0.01   0.00
  52   1    -0.01  -0.00  -0.01     0.01   0.00   0.01     0.00   0.00   0.00
  53   1    -0.02  -0.05  -0.01     0.02   0.04   0.01    -0.01  -0.02  -0.01
  54   1    -0.04  -0.03   0.01     0.03   0.03  -0.01    -0.02  -0.02   0.01
  55   1    -0.00  -0.00  -0.00    -0.00  -0.00   0.00    -0.00  -0.00  -0.00
                    139                    140                    141
                        a                      a                      a 
 Frequencies --  1202.4466              1218.7335              1235.4613
 Red. masses --    10.3922                10.4298                10.7669
 Frc consts  --     0.0000                 0.0000                 0.0000
 IR Inten    --    74.9331                32.0324                11.7804
 Raman Activ --     0.0000                 0.0000                 0.0000
 Depolar     --     0.0000                 0.0000                 0.0000
 Atom AN      X      Y      Z        X      Y      Z        X      Y      Z
   1   5    -0.04  -0.03   0.04    -0.16  -0.12   0.17     0.03   0.03  -0.03
   2   5     0.00   0.03  -0.02     0.00   0.16  -0.12     0.00  -0.04   0.04
   3   5    -0.01  -0.00   0.00     0.03  -0.01   0.06    -0.05   0.01  -0.03
   4   5     0.07  -0.01  -0.03     0.27  -0.04  -0.12    -0.05   0.01   0.03
   5   5     0.02  -0.00   0.02    -0.03  -0.01   0.01     0.07   0.00   0.14
   6   5     0.01  -0.01  -0.00     0.02  -0.02  -0.03     0.18   0.00   0.01
   7   5    -0.00   0.00   0.00    -0.01   0.00   0.01    -0.00  -0.00   0.01
   8   5    -0.00  -0.00   0.00    -0.00  -0.00   0.00    -0.01  -0.01  -0.00
   9   5    -0.01  -0.00  -0.02    -0.06  -0.02  -0.04    -0.51  -0.11  -0.30
  10   5     0.00   0.00  -0.00     0.02   0.00  -0.01     0.05   0.00  -0.02
  11   5    -0.00   0.03   0.01    -0.01   0.16  -0.00     0.00  -0.03   0.00
  12   5    -0.03  -0.04   0.00    -0.12  -0.20   0.03     0.02   0.04  -0.00
  13   5    -0.04   0.01  -0.02    -0.03   0.04  -0.01    -0.02   0.01  -0.03
  14   5     0.04  -0.01   0.00     0.05  -0.02   0.01     0.01  -0.00  -0.00
  15   5     0.11   0.00  -0.00     0.10   0.00  -0.00    -0.01   0.01   0.05
  16   5    -0.02  -0.01   0.02    -0.04  -0.08   0.02     0.37  -0.10   0.09
  17   5     0.00   0.01   0.00    -0.00   0.12   0.01     0.09   0.51   0.09
  18   5    -0.01  -0.01   0.00    -0.03  -0.07   0.02    -0.06  -0.27   0.03
  19   5     0.01   0.01  -0.00     0.08   0.04   0.01    -0.15  -0.12  -0.05
  20   5    -0.00   0.01  -0.00     0.01   0.02  -0.01     0.04   0.03  -0.01
  21   5    -0.04   0.06  -0.01     0.05   0.23   0.04    -0.01  -0.02  -0.00
  22   5    -0.07  -0.18  -0.03    -0.04  -0.47  -0.03     0.00   0.05   0.00
  23   5     0.03   0.23   0.06     0.09   0.36   0.09    -0.00  -0.04  -0.01
  24   5     0.14   0.01   0.08    -0.21  -0.03  -0.10     0.01   0.00   0.01
  25   5    -0.05  -0.01   0.00    -0.15  -0.03  -0.01     0.01   0.00  -0.00
  26   5    -0.03  -0.09  -0.04    -0.01  -0.11  -0.06    -0.03  -0.01   0.00
  27   5    -0.01   0.02   0.01    -0.03   0.00   0.00     0.02   0.02   0.01
  28   5     0.01  -0.01   0.00     0.01  -0.01   0.01    -0.01   0.01  -0.01
  29   5     0.02   0.02  -0.01     0.01   0.00  -0.01     0.02   0.01  -0.00
  30   5     0.00  -0.00  -0.00    -0.00  -0.00   0.00     0.00   0.01  -0.00
  31   5     0.21   0.32  -0.10    -0.05  -0.11   0.07     0.00   0.00  -0.00
  32   5    -0.04  -0.46   0.37     0.08   0.17  -0.10    -0.00  -0.00   0.00
  33   5     0.11   0.31  -0.05    -0.04  -0.13   0.02     0.00   0.00  -0.00
  34   5    -0.29  -0.11  -0.23     0.07   0.03   0.05    -0.00  -0.00  -0.00
  35   5    -0.07   0.00   0.04     0.03   0.01  -0.01    -0.00  -0.00   0.00
  36   5     0.03  -0.09  -0.03     0.04   0.07   0.02    -0.00  -0.01  -0.00
  37   5    -0.01   0.01  -0.00     0.03  -0.02   0.00    -0.01   0.00   0.00
  38   5    -0.00  -0.00   0.00    -0.00   0.01  -0.00     0.00  -0.00   0.00
  39   5     0.01  -0.02   0.00    -0.04   0.01  -0.00     0.01  -0.00  -0.00
  40   5    -0.00  -0.00   0.00     0.00   0.00  -0.00    -0.00   0.00   0.00
  41   1     0.01  -0.01   0.02     0.01  -0.04   0.08    -0.01   0.01  -0.02
  42   1     0.02   0.03  -0.02     0.06   0.08  -0.04    -0.01  -0.02   0.00
  43   1    -0.00  -0.01  -0.00     0.01  -0.03   0.02    -0.02  -0.01  -0.01
  44   1    -0.00   0.00   0.00    -0.00   0.01   0.01     0.00   0.03   0.01
  45   1    -0.00  -0.00  -0.00    -0.00  -0.00  -0.00     0.00   0.00  -0.00
  46   1     0.00  -0.00  -0.00     0.00  -0.00  -0.00    -0.00  -0.02  -0.01
  47   1    -0.00   0.01  -0.01    -0.00   0.06  -0.01    -0.00  -0.01  -0.00
  48   1    -0.00   0.00  -0.00     0.01   0.01  -0.01     0.03   0.01  -0.01
  49   1    -0.01   0.02  -0.02     0.03   0.09  -0.00    -0.00  -0.01  -0.00
  50   1    -0.00   0.00  -0.00    -0.00  -0.00   0.00    -0.00  -0.00   0.00
  51   1     0.02   0.10  -0.09     0.01  -0.04   0.04    -0.00   0.00  -0.00
  52   1    -0.10  -0.03  -0.09     0.02   0.01   0.02    -0.00  -0.00  -0.00
  53   1    -0.03  -0.00   0.00     0.01  -0.01  -0.01     0.00   0.00   0.00
  54   1    -0.00   0.01  -0.01    -0.01  -0.02   0.01     0.00   0.00  -0.00
  55   1     0.00  -0.00   0.00     0.00  -0.00  -0.00    -0.00  -0.00   0.00
                    142                    143                    144
                        a                      a                      a 
 Frequencies --  1242.7653              1248.0524              1325.1024
 Red. masses --    10.7852                10.4097                10.3957
 Frc consts  --     0.0000                 0.0000                 0.0000
 IR Inten    --    22.6430                34.4945                89.3023
 Raman Activ --     0.0000                 0.0000                 0.0000
 Depolar     --     0.0000                 0.0000                 0.0000
 Atom AN      X      Y      Z        X      Y      Z        X      Y      Z
   1   5    -0.03  -0.03   0.03    -0.17  -0.11   0.16    -0.00   0.00   0.00
   2   5     0.00   0.04  -0.04    -0.00   0.15  -0.12    -0.00   0.00  -0.00
   3   5     0.09   0.02   0.06     0.04  -0.01   0.06    -0.00   0.00   0.00
   4   5     0.04  -0.01  -0.02     0.33  -0.07  -0.13     0.00   0.00  -0.00
   5   5    -0.14  -0.02  -0.09    -0.06  -0.00  -0.02    -0.00  -0.00  -0.00
   6   5    -0.01  -0.01  -0.02     0.00  -0.01  -0.02     0.00  -0.00  -0.00
   7   5    -0.00   0.01   0.00    -0.00   0.00   0.00    -0.00   0.00   0.00
   8   5     0.01   0.00   0.00    -0.00  -0.00   0.00    -0.00  -0.00   0.00
   9   5    -0.01   0.04   0.04    -0.02  -0.01  -0.01    -0.00   0.00  -0.00
  10   5    -0.03  -0.00   0.02     0.00   0.00  -0.00    -0.00   0.00  -0.00
  11   5    -0.00   0.02  -0.00     0.05   0.32  -0.03     0.00   0.00  -0.00
  12   5    -0.02  -0.03  -0.00    -0.09  -0.47   0.05    -0.00  -0.01   0.00
  13   5     0.04  -0.01   0.01     0.05   0.10   0.01     0.00   0.00   0.00
  14   5     0.01  -0.00   0.00    -0.29   0.05  -0.00    -0.00   0.00   0.00
  15   5    -0.04   0.02   0.08    -0.05   0.01   0.01    -0.01  -0.00   0.00
  16   5     0.40   0.36   0.03     0.03  -0.01  -0.01     0.02   0.01  -0.00
  17   5     0.10  -0.29   0.01     0.00   0.04   0.00     0.00  -0.01  -0.00
  18   5     0.05   0.16  -0.03    -0.00  -0.02   0.00     0.00   0.01   0.00
  19   5    -0.57  -0.36  -0.09     0.01   0.00   0.00    -0.02  -0.01  -0.00
  20   5    -0.02  -0.04   0.01     0.00   0.00  -0.00     0.00  -0.01   0.00
  21   5     0.00   0.03   0.01     0.01  -0.21  -0.02    -0.00   0.00  -0.00
  22   5    -0.01  -0.07  -0.01     0.08   0.36   0.03    -0.00   0.00   0.00
  23   5     0.04   0.07   0.02    -0.06  -0.22  -0.05    -0.00  -0.01  -0.01
  24   5    -0.02  -0.00  -0.01     0.12   0.02   0.05     0.01   0.00   0.00
  25   5    -0.07  -0.00  -0.00     0.07   0.01   0.00     0.01   0.01  -0.00
  26   5     0.02  -0.07  -0.05    -0.01   0.06   0.04    -0.00   0.02   0.00
  27   5     0.13   0.12   0.03    -0.00  -0.01  -0.00     0.02  -0.01  -0.01
  28   5    -0.00   0.01  -0.02    -0.00   0.00  -0.00    -0.01   0.02  -0.01
  29   5     0.02   0.01  -0.01    -0.00   0.00   0.01     0.00   0.02  -0.01
  30   5    -0.01   0.01  -0.00    -0.00   0.00   0.00     0.20  -0.00  -0.00
  31   5    -0.00  -0.01   0.01     0.00   0.03  -0.03    -0.00   0.00  -0.00
  32   5     0.01   0.01  -0.01    -0.04  -0.05   0.01    -0.00  -0.00   0.00
  33   5     0.00  -0.02  -0.00     0.01   0.03  -0.00     0.00   0.00   0.00
  34   5     0.00   0.00   0.00    -0.01  -0.01  -0.00    -0.00  -0.00  -0.00
  35   5     0.00   0.00   0.00    -0.01  -0.00   0.00    -0.00   0.01   0.00
  36   5     0.02   0.02   0.00    -0.02  -0.03  -0.01     0.01   0.01  -0.00
  37   5    -0.01   0.00  -0.00    -0.01   0.01  -0.00     0.04  -0.21   0.15
  38   5     0.02  -0.00   0.00     0.01  -0.00  -0.00    -0.74  -0.11   0.05
  39   5    -0.00  -0.00  -0.00     0.01  -0.00   0.00    -0.03   0.00   0.01
  40   5    -0.01  -0.01   0.00    -0.01  -0.00   0.00     0.44   0.25  -0.17
  41   1     0.00  -0.01   0.02     0.00  -0.03   0.08     0.00  -0.00   0.00
  42   1     0.01   0.02  -0.01     0.06   0.08  -0.03    -0.00   0.00   0.00
  43   1     0.02  -0.00   0.02     0.01  -0.02   0.02     0.00  -0.00  -0.00
  44   1    -0.00  -0.00  -0.00    -0.00   0.00   0.00    -0.00   0.00   0.00
  45   1    -0.00  -0.00  -0.00    -0.00  -0.00  -0.00     0.00   0.00  -0.00
  46   1     0.00   0.01   0.01    -0.00  -0.00  -0.00     0.00   0.00   0.00
  47   1    -0.00   0.01   0.00     0.02   0.12  -0.02     0.00   0.00   0.00
  48   1    -0.01  -0.01   0.01     0.00   0.00   0.00     0.00  -0.00   0.00
  49   1     0.01   0.01  -0.01     0.01  -0.08   0.00     0.00   0.00  -0.00
  50   1    -0.00  -0.00   0.00    -0.00   0.00   0.00     0.05  -0.00   0.01
  51   1     0.00  -0.00   0.00    -0.00   0.01  -0.02    -0.00   0.00  -0.00
  52   1     0.00   0.00   0.00    -0.00  -0.00  -0.00     0.00   0.00  -0.00
  53   1     0.00  -0.00   0.00    -0.00   0.00   0.00    -0.00  -0.01   0.00
  54   1    -0.00  -0.00  -0.00     0.00   0.01  -0.00    -0.01  -0.01  -0.00
  55   1    -0.01  -0.00   0.00    -0.00  -0.00   0.00     0.16   0.09  -0.07
                    145                    146                    147
                        a                      a                      a 
 Frequencies --  1766.9008              2429.5592              2469.5505
 Red. masses --     1.6400                 1.7940                 1.7958
 Frc consts  --     0.0000                 0.0000                 0.0000
 IR Inten    --   117.5965               584.8546               254.7812
 Raman Activ --     0.0000                 0.0000                 0.0000
 Depolar     --     0.0000                 0.0000                 0.0000
 Atom AN      X      Y      Z        X      Y      Z        X      Y      Z
   1   5     0.16  -0.10   0.12     0.00   0.00  -0.00     0.00   0.00  -0.00
   2   5     0.10   0.06  -0.03     0.00  -0.00  -0.00    -0.00  -0.00   0.00
   3   5    -0.02  -0.02   0.01     0.00  -0.00   0.00     0.00  -0.00   0.00
   4   5     0.01   0.00   0.01     0.00   0.00   0.00     0.00   0.00  -0.00
   5   5     0.01   0.00   0.00    -0.00   0.00   0.00     0.00   0.00  -0.00
   6   5    -0.00  -0.00  -0.00    -0.00  -0.00   0.00    -0.00  -0.00  -0.00
   7   5    -0.00  -0.00   0.00    -0.18  -0.09   0.20    -0.00  -0.00   0.00
   8   5    -0.00  -0.00   0.00    -0.00  -0.00   0.01     0.00  -0.00   0.00
   9   5     0.00  -0.00  -0.00     0.00   0.00   0.00     0.00  -0.00   0.00
  10   5    -0.00   0.00   0.00     0.00  -0.00  -0.02     0.00  -0.00  -0.01
  11   5     0.00   0.00  -0.00     0.00   0.00   0.00     0.00   0.00  -0.00
  12   5     0.00  -0.01  -0.00     0.00  -0.00  -0.00    -0.00  -0.00   0.00
  13   5    -0.00   0.00   0.00    -0.00   0.00   0.00    -0.00  -0.00   0.00
  14   5    -0.01   0.00  -0.00    -0.00  -0.00  -0.00    -0.00  -0.00   0.00
  15   5     0.00   0.00   0.00     0.00  -0.00  -0.00     0.00   0.00   0.00
  16   5    -0.00   0.00  -0.00    -0.00   0.00   0.00     0.00   0.00  -0.00
  17   5    -0.00  -0.00  -0.00    -0.00  -0.00   0.00     0.00   0.00  -0.00
  18   5     0.00   0.00   0.00    -0.00  -0.00  -0.00    -0.00   0.00   0.00
  19   5    -0.00  -0.00  -0.00    -0.00   0.00   0.00     0.00   0.00   0.00
  20   5    -0.00  -0.00  -0.00     0.00  -0.00   0.00     0.00  -0.01   0.00
  21   5     0.00  -0.00   0.00     0.00   0.00   0.00     0.00   0.00   0.00
  22   5     0.00   0.00  -0.00     0.00  -0.00  -0.00     0.00  -0.00  -0.00
  23   5    -0.00   0.00   0.00     0.00   0.00   0.00    -0.00   0.00   0.00
  24   5    -0.00   0.00  -0.00     0.00  -0.00   0.00     0.00  -0.00   0.00
  25   5    -0.00   0.00  -0.00    -0.00  -0.00   0.00    -0.00   0.00  -0.00
  26   5    -0.00  -0.00  -0.00     0.00  -0.00  -0.00    -0.00  -0.00  -0.00
  27   5     0.00   0.00  -0.00     0.00   0.00  -0.00    -0.00   0.00  -0.00
  28   5     0.00   0.00  -0.00     0.00   0.00   0.00    -0.00  -0.00  -0.00
  29   5    -0.00  -0.00   0.00    -0.00   0.00   0.00    -0.00  -0.00  -0.00
  30   5    -0.00  -0.00   0.00     0.00   0.00   0.00    -0.17  -0.08  -0.21
  31   5    -0.00  -0.00   0.00     0.00   0.00  -0.00     0.00   0.00  -0.00
  32   5    -0.00  -0.00   0.00    -0.00  -0.00   0.00    -0.00  -0.00   0.00
  33   5     0.00   0.00   0.00     0.00   0.00   0.00     0.00   0.00  -0.00
  34   5     0.00   0.00   0.00    -0.00  -0.00  -0.00    -0.00  -0.00  -0.00
  35   5    -0.00  -0.00  -0.00    -0.00   0.00   0.00    -0.00   0.00   0.00
  36   5    -0.00  -0.00   0.00    -0.00   0.00  -0.00     0.00  -0.00  -0.00
  37   5     0.00   0.00  -0.00    -0.00  -0.00  -0.00     0.00   0.00  -0.00
  38   5     0.00   0.00  -0.00    -0.00  -0.00   0.00     0.00   0.00  -0.01
  39   5     0.00   0.00  -0.00    -0.00  -0.00  -0.00    -0.00   0.00  -0.00
  40   5    -0.00  -0.00   0.00    -0.00  -0.00   0.00    -0.00  -0.00   0.00
  41   1     0.01  -0.02   0.02    -0.00  -0.01   0.01    -0.00  -0.00   0.00
  42   1    -0.87   0.20  -0.36     0.00   0.00   0.00     0.00   0.00   0.00
  43   1     0.01   0.01  -0.00    -0.01   0.00  -0.01    -0.01   0.00  -0.01
  44   1     0.00   0.00  -0.00     0.61   0.31  -0.67     0.01   0.00  -0.01
  45   1     0.00  -0.00   0.00    -0.01   0.02  -0.01    -0.01   0.01  -0.00
  46   1     0.00  -0.00  -0.00    -0.00   0.00   0.05    -0.00   0.00   0.02
  47   1     0.00   0.00   0.00    -0.00  -0.01   0.00    -0.00  -0.00   0.00
  48   1     0.00  -0.00   0.00    -0.00   0.01  -0.00    -0.00   0.03  -0.01
  49   1    -0.00   0.00  -0.00     0.00  -0.00  -0.00    -0.00  -0.00  -0.00
  50   1     0.00   0.00   0.00    -0.01  -0.00  -0.01     0.55   0.27   0.74
  51   1     0.00   0.00  -0.00    -0.00  -0.00   0.00    -0.00  -0.00   0.00
  52   1    -0.00  -0.00  -0.00     0.00   0.00   0.00     0.00   0.00   0.00
  53   1    -0.00   0.00   0.00     0.00  -0.00  -0.00     0.00  -0.00  -0.00
  54   1    -0.00  -0.00   0.00     0.00   0.00   0.00     0.00   0.00   0.00
  55   1    -0.00  -0.00   0.00     0.00   0.00  -0.00     0.01   0.00  -0.00
                    148                    149                    150
                        a                      a                      a 
 Frequencies --  2504.1295              2525.7109              2529.4577
 Red. masses --     1.8289                 1.8676                 1.8631
 Frc consts  --     0.0000                 0.0000                 0.0000
 IR Inten    --   394.2368               217.9508               897.7523
 Raman Activ --     0.0000                 0.0000                 0.0000
 Depolar     --     0.0000                 0.0000                 0.0000
 Atom AN      X      Y      Z        X      Y      Z        X      Y      Z
   1   5    -0.00  -0.00   0.00    -0.00   0.00  -0.00    -0.00  -0.00   0.01
   2   5    -0.00   0.00  -0.00    -0.00  -0.00  -0.00     0.00   0.00   0.00
   3   5    -0.01   0.00  -0.01    -0.15   0.02  -0.16     0.14  -0.02   0.15
   4   5    -0.00  -0.00  -0.00     0.00  -0.00   0.00    -0.00   0.00  -0.00
   5   5     0.00   0.00   0.00     0.01   0.00   0.00    -0.01  -0.00  -0.00
   6   5     0.00   0.00  -0.00    -0.00   0.00   0.00     0.00  -0.00  -0.00
   7   5     0.01   0.00  -0.01     0.00   0.00   0.00     0.01   0.00  -0.00
   8   5    -0.01   0.02  -0.01     0.12  -0.14   0.06     0.13  -0.15   0.06
   9   5     0.00   0.00   0.00     0.00  -0.00  -0.00     0.00   0.00   0.00
  10   5     0.01  -0.01  -0.29    -0.00  -0.00  -0.01    -0.00  -0.01  -0.02
  11   5    -0.00  -0.00   0.00     0.00   0.00  -0.00    -0.00  -0.01   0.00
  12   5     0.00   0.00  -0.00    -0.00   0.00   0.00     0.00   0.00  -0.00
  13   5    -0.00  -0.00  -0.00     0.00   0.00   0.00    -0.00   0.00  -0.00
  14   5     0.00  -0.00   0.00     0.00  -0.00  -0.00    -0.00   0.00   0.00
  15   5     0.00   0.00   0.00     0.00  -0.00  -0.00    -0.00   0.00   0.00
  16   5     0.00  -0.00   0.00     0.00  -0.00   0.00     0.00   0.00  -0.00
  17   5     0.00  -0.00  -0.00    -0.00  -0.00  -0.00     0.00  -0.00   0.00
  18   5    -0.01  -0.00  -0.00    -0.00   0.00   0.00    -0.00   0.00  -0.00
  19   5     0.00  -0.00   0.00    -0.00  -0.00   0.00     0.00  -0.00  -0.00
  20   5    -0.00   0.01  -0.00    -0.00   0.01  -0.00    -0.01   0.04  -0.01
  21   5     0.00  -0.00  -0.00    -0.00   0.00   0.00     0.00  -0.00  -0.00
  22   5    -0.00   0.00   0.00    -0.00  -0.00  -0.00     0.00   0.00  -0.00
  23   5     0.00  -0.00  -0.00     0.00   0.00   0.00    -0.00  -0.00  -0.00
  24   5    -0.00   0.00  -0.00     0.00   0.00   0.00    -0.00   0.00   0.00
  25   5     0.00  -0.00  -0.00    -0.00  -0.00   0.00     0.00  -0.00  -0.00
  26   5    -0.00  -0.00  -0.00    -0.00  -0.00  -0.00    -0.00   0.00   0.00
  27   5    -0.00  -0.00   0.00    -0.00  -0.00  -0.00    -0.00   0.00  -0.00
  28   5     0.00   0.00  -0.00     0.00   0.00  -0.00     0.00  -0.00  -0.00
  29   5    -0.00  -0.00   0.00    -0.00   0.00   0.00     0.00  -0.00  -0.00
  30   5     0.00   0.00   0.00    -0.00  -0.00  -0.00     0.00   0.00   0.00
  31   5    -0.00  -0.00   0.00     0.00   0.00  -0.00    -0.00  -0.00   0.00
  32   5     0.00   0.00  -0.00    -0.00  -0.00   0.00     0.00   0.00  -0.00
  33   5    -0.00  -0.00  -0.00     0.00   0.00   0.00    -0.00  -0.00  -0.00
  34   5     0.00   0.00   0.00    -0.00  -0.00  -0.00     0.00   0.00   0.00
  35   5     0.00  -0.00  -0.00    -0.00   0.00   0.00     0.00  -0.00  -0.00
  36   5    -0.00  -0.00   0.00     0.00  -0.00  -0.00    -0.00  -0.00   0.00
  37   5     0.00   0.00   0.00    -0.00  -0.00  -0.00     0.00   0.00   0.00
  38   5    -0.00   0.00   0.00    -0.00  -0.00   0.00    -0.00   0.00   0.00
  39   5     0.00   0.00   0.00    -0.00  -0.00  -0.00     0.00   0.00   0.00
  40   5     0.00   0.00  -0.00    -0.00  -0.00   0.00     0.00   0.00  -0.00
  41   1     0.00   0.01  -0.01     0.00   0.00   0.00     0.01   0.01  -0.02
  42   1    -0.00  -0.00  -0.00     0.00   0.00  -0.00    -0.00  -0.00   0.00
  43   1     0.02  -0.00   0.03     0.46  -0.09   0.51    -0.43   0.09  -0.48
  44   1    -0.03  -0.02   0.03    -0.00   0.00   0.00    -0.02  -0.01   0.02
  45   1     0.04  -0.05   0.03    -0.41   0.47  -0.20    -0.42   0.49  -0.21
  46   1    -0.02   0.04   0.95    -0.00   0.00   0.02    -0.00   0.00   0.07
  47   1     0.00   0.01  -0.00    -0.00  -0.01   0.00     0.01   0.03  -0.00
  48   1     0.00  -0.04   0.01     0.00  -0.03   0.01     0.02  -0.13   0.04
  49   1    -0.00   0.00   0.00     0.00  -0.00  -0.00    -0.00   0.01   0.00
  50   1    -0.01  -0.00  -0.01     0.00   0.00   0.00    -0.01  -0.00  -0.01
  51   1     0.00   0.01  -0.00    -0.00  -0.00   0.00     0.00   0.01  -0.01
  52   1    -0.00  -0.00  -0.00     0.00   0.00   0.00    -0.00  -0.00  -0.00
  53   1    -0.00   0.00   0.00     0.00  -0.00  -0.00    -0.01   0.00   0.00
  54   1    -0.01  -0.00  -0.00     0.00   0.00   0.00    -0.01  -0.00  -0.00
  55   1    -0.00  -0.00   0.00     0.00   0.00  -0.00    -0.01  -0.01   0.00
                    151                    152                    153
                        a                      a                      a 
 Frequencies --  2547.4078              2572.0890              2578.4449
 Red. masses --     1.8580                 1.9350                 1.9164
 Frc consts  --     0.0000                 0.0000                 0.0000
 IR Inten    --   851.6521               228.1689               172.1991
 Raman Activ --     0.0000                 0.0000                 0.0000
 Depolar     --     0.0000                 0.0000                 0.0000
 Atom AN      X      Y      Z        X      Y      Z        X      Y      Z
   1   5    -0.00  -0.00   0.01     0.02   0.03  -0.06    -0.02  -0.02   0.04
   2   5     0.00   0.00  -0.00     0.00  -0.00   0.00    -0.00   0.00  -0.00
   3   5     0.02  -0.00   0.02    -0.00   0.00  -0.01     0.00  -0.00   0.00
   4   5    -0.00  -0.00  -0.00    -0.01  -0.00   0.00     0.00  -0.00  -0.00
   5   5    -0.00  -0.00   0.00     0.00   0.00  -0.00     0.00  -0.00   0.00
   6   5     0.00   0.00  -0.00    -0.00  -0.00   0.00     0.00   0.00  -0.00
   7   5     0.00   0.00  -0.00    -0.00   0.00   0.00     0.00   0.00  -0.00
   8   5     0.02  -0.02   0.01    -0.00   0.00  -0.00     0.00  -0.00   0.00
   9   5     0.00  -0.00  -0.00    -0.00  -0.00  -0.00    -0.00   0.00  -0.00
  10   5     0.00  -0.00  -0.01    -0.00   0.00   0.00     0.00  -0.00  -0.00
  11   5    -0.00  -0.01   0.00    -0.05  -0.29   0.01     0.00  -0.00  -0.00
  12   5     0.00   0.00  -0.00     0.00   0.02  -0.00     0.00  -0.00   0.00
  13   5     0.00   0.00   0.00    -0.00  -0.00   0.00    -0.00   0.00   0.00
  14   5     0.00  -0.00   0.00     0.00  -0.00   0.00    -0.00  -0.00   0.00
  15   5    -0.00  -0.00   0.00     0.00  -0.00   0.00    -0.00   0.00  -0.00
  16   5     0.00  -0.00  -0.00     0.00  -0.00  -0.00     0.00  -0.00   0.00
  17   5    -0.00   0.00  -0.00    -0.00   0.00  -0.00    -0.00   0.00  -0.00
  18   5     0.01  -0.00   0.00     0.00  -0.00  -0.00     0.00  -0.00  -0.00
  19   5     0.00   0.00  -0.00     0.00  -0.00   0.00    -0.00  -0.00   0.00
  20   5     0.04  -0.28   0.08    -0.00   0.01  -0.00     0.00  -0.00   0.00
  21   5    -0.00  -0.00  -0.00     0.00   0.05   0.01    -0.00  -0.08  -0.02
  22   5    -0.00   0.00   0.00    -0.00  -0.00  -0.00    -0.00   0.01  -0.00
  23   5     0.00  -0.00  -0.00     0.00   0.00   0.00     0.00  -0.00  -0.00
  24   5    -0.00   0.00  -0.00    -0.00   0.00  -0.00     0.00   0.00   0.00
  25   5     0.00   0.00  -0.00     0.00   0.00   0.00    -0.00   0.00   0.00
  26   5    -0.00   0.00   0.00     0.00  -0.00  -0.00     0.00  -0.00  -0.00
  27   5     0.00  -0.00   0.00    -0.00  -0.00  -0.00     0.00   0.00   0.00
  28   5    -0.01   0.00   0.00     0.00  -0.00  -0.00    -0.00  -0.00   0.00
  29   5    -0.00   0.00  -0.00     0.00   0.00   0.00    -0.00  -0.00   0.00
  30   5     0.00   0.00   0.01    -0.00  -0.00  -0.00     0.00   0.00   0.00
  31   5    -0.00  -0.01   0.00     0.01   0.02  -0.01     0.07   0.24  -0.14
  32   5     0.00   0.00  -0.00    -0.00  -0.00   0.00    -0.00  -0.01   0.01
  33   5     0.00  -0.00  -0.00    -0.00   0.00   0.00     0.00   0.00  -0.00
  34   5     0.00   0.00   0.00    -0.00  -0.00  -0.00     0.01   0.00   0.01
  35   5     0.00  -0.00  -0.00    -0.00   0.00   0.00     0.00  -0.00  -0.00
  36   5    -0.00  -0.00   0.00     0.00  -0.00  -0.00    -0.00  -0.00  -0.00
  37   5     0.00  -0.00   0.00    -0.00  -0.00  -0.00     0.00   0.00   0.00
  38   5    -0.00   0.00  -0.00    -0.00  -0.00   0.00    -0.00   0.00  -0.00
  39   5     0.01   0.00   0.00    -0.00  -0.00  -0.00     0.01   0.00   0.00
  40   5     0.00   0.00  -0.00    -0.00  -0.00   0.00     0.00   0.00  -0.00
  41   1     0.01   0.01  -0.02    -0.07  -0.09   0.18     0.05   0.06  -0.12
  42   1    -0.00  -0.00   0.00     0.00   0.00  -0.00    -0.00  -0.00   0.00
  43   1    -0.05   0.01  -0.05     0.01  -0.00   0.02    -0.00   0.00  -0.01
  44   1    -0.01  -0.00   0.01     0.00   0.00  -0.00    -0.00  -0.00   0.00
  45   1    -0.07   0.08  -0.04     0.01  -0.01   0.00    -0.00   0.00  -0.00
  46   1    -0.00   0.00   0.05     0.00  -0.00  -0.01    -0.00   0.00   0.00
  47   1     0.01   0.03  -0.00     0.17   0.89  -0.02     0.00   0.00   0.00
  48   1    -0.11   0.90  -0.25     0.00  -0.02   0.00    -0.00   0.01  -0.00
  49   1     0.00   0.01   0.00     0.00  -0.17  -0.04     0.00   0.24   0.06
  50   1    -0.02  -0.01  -0.03     0.00   0.00   0.00    -0.00  -0.00  -0.00
  51   1     0.00   0.02  -0.01    -0.02  -0.07   0.04    -0.20  -0.76   0.44
  52   1    -0.01  -0.00  -0.00    -0.00  -0.00  -0.00    -0.05  -0.02  -0.04
  53   1    -0.01   0.00   0.00     0.01  -0.00  -0.00    -0.01   0.00   0.00
  54   1    -0.02  -0.01  -0.00     0.01   0.00   0.00    -0.03  -0.01  -0.01
  55   1    -0.01  -0.01   0.01     0.00   0.00  -0.00    -0.00  -0.00   0.00
                    154                    155                    156
                        a                      a                      a 
 Frequencies --  2582.5691              2588.5808              2591.1346
 Red. masses --     1.8968                 1.8893                 1.9097
 Frc consts  --     0.0000                 0.0000                 0.0000
 IR Inten    --   580.4314               438.2611               483.2783
 Raman Activ --     0.0000                 0.0000                 0.0000
 Depolar     --     0.0000                 0.0000                 0.0000
 Atom AN      X      Y      Z        X      Y      Z        X      Y      Z
   1   5     0.09   0.12  -0.23     0.00   0.00  -0.01    -0.02  -0.03   0.06
   2   5    -0.00  -0.01   0.01     0.00  -0.00   0.00    -0.00   0.00  -0.00
   3   5     0.00  -0.00   0.00    -0.00   0.00  -0.00    -0.01   0.00  -0.01
   4   5    -0.00   0.00   0.00    -0.00   0.00   0.00     0.00  -0.00  -0.00
   5   5    -0.00  -0.00  -0.00    -0.00   0.00  -0.00     0.00   0.00   0.00
   6   5     0.00  -0.00   0.00    -0.00  -0.00  -0.00     0.00   0.00   0.00
   7   5     0.00   0.00  -0.00    -0.00  -0.00   0.00    -0.00  -0.00   0.00
   8   5     0.00  -0.00   0.00    -0.00   0.00  -0.00    -0.00   0.00  -0.00
   9   5     0.00  -0.00   0.00     0.00  -0.00   0.00    -0.00   0.00  -0.00
  10   5     0.00  -0.00  -0.00    -0.00   0.00   0.00    -0.00   0.00   0.00
  11   5     0.01   0.05  -0.00     0.00   0.02  -0.00    -0.01  -0.07   0.00
  12   5    -0.00  -0.00   0.00    -0.00  -0.00   0.00     0.00   0.00  -0.00
  13   5    -0.00   0.00   0.00     0.00  -0.00  -0.00    -0.00   0.00   0.00
  14   5    -0.00   0.00  -0.00     0.00   0.00   0.00    -0.00  -0.00  -0.00
  15   5     0.00   0.00  -0.00    -0.00   0.00  -0.00    -0.00   0.00   0.00
  16   5    -0.00   0.00  -0.00    -0.00   0.00   0.00     0.00  -0.00  -0.00
  17   5     0.00   0.00  -0.00     0.00   0.00  -0.00    -0.00   0.00   0.00
  18   5    -0.00  -0.00  -0.00    -0.00  -0.00   0.00    -0.00  -0.00  -0.00
  19   5    -0.00  -0.00  -0.00     0.00  -0.00   0.00    -0.00  -0.00  -0.00
  20   5     0.00  -0.01   0.00    -0.00   0.00  -0.00    -0.00   0.01  -0.00
  21   5    -0.00  -0.09  -0.02     0.00   0.10   0.02    -0.00  -0.24  -0.06
  22   5     0.00   0.01  -0.00    -0.00  -0.01   0.00     0.00   0.02  -0.00
  23   5    -0.00  -0.00  -0.00    -0.00  -0.00   0.00     0.00  -0.00   0.00
  24   5     0.00  -0.00   0.00    -0.00   0.00  -0.00     0.00  -0.00   0.00
  25   5    -0.00  -0.00  -0.00     0.00   0.00   0.00    -0.00  -0.00  -0.00
  26   5     0.00   0.00   0.00     0.00   0.00  -0.00     0.00   0.00   0.00
  27   5     0.00   0.00   0.00    -0.00   0.00   0.00    -0.00   0.00   0.00
  28   5    -0.00  -0.00   0.00     0.00   0.00   0.00     0.00  -0.00   0.00
  29   5    -0.00  -0.00  -0.00    -0.00  -0.00   0.00     0.00   0.00  -0.00
  30   5     0.00   0.00   0.00     0.00  -0.00  -0.00    -0.00  -0.00  -0.00
  31   5     0.00   0.02  -0.01     0.00   0.02  -0.01    -0.02  -0.07   0.04
  32   5    -0.00  -0.00   0.00     0.00  -0.00   0.00     0.00   0.00  -0.00
  33   5     0.00  -0.00  -0.00    -0.00   0.00   0.00    -0.00   0.00   0.00
  34   5     0.00   0.00   0.00    -0.00  -0.00  -0.00    -0.01  -0.00  -0.01
  35   5     0.00  -0.00  -0.00    -0.04   0.02   0.02    -0.03   0.01   0.02
  36   5    -0.00  -0.00   0.00    -0.01  -0.01   0.00    -0.00  -0.00   0.00
  37   5     0.00   0.00   0.00     0.00   0.00   0.00    -0.00   0.00  -0.00
  38   5     0.00   0.00  -0.00     0.00   0.00   0.00     0.00  -0.00   0.00
  39   5     0.02   0.01   0.00     0.25   0.09   0.06     0.09   0.03   0.02
  40   5     0.00   0.00  -0.00    -0.01  -0.01   0.01    -0.01  -0.01   0.01
  41   1    -0.29  -0.38   0.75    -0.01  -0.01   0.02     0.07   0.10  -0.19
  42   1    -0.00   0.01  -0.02     0.00   0.00  -0.00     0.00  -0.00   0.00
  43   1    -0.01   0.00  -0.01     0.00  -0.00   0.00     0.02  -0.00   0.02
  44   1    -0.01  -0.01   0.01     0.00   0.00  -0.00     0.01   0.00  -0.01
  45   1    -0.01   0.01  -0.00     0.00  -0.00   0.00     0.01  -0.01   0.01
  46   1    -0.00   0.00   0.01    -0.00  -0.00  -0.00     0.00  -0.00  -0.02
  47   1    -0.03  -0.15   0.00    -0.01  -0.06   0.00     0.04   0.22  -0.00
  48   1    -0.00   0.02  -0.01     0.00  -0.01   0.00     0.00  -0.03   0.01
  49   1     0.00   0.28   0.08    -0.00  -0.31  -0.08     0.00   0.76   0.20
  50   1    -0.00  -0.00  -0.00     0.00   0.00   0.00     0.01   0.00   0.01
  51   1    -0.01  -0.05   0.03    -0.01  -0.05   0.03     0.06   0.22  -0.13
  52   1    -0.01  -0.00  -0.01     0.00   0.00   0.00     0.04   0.01   0.03
  53   1    -0.00   0.00   0.00     0.15  -0.06  -0.07     0.11  -0.04  -0.05
  54   1    -0.06  -0.02  -0.01    -0.81  -0.29  -0.19    -0.28  -0.10  -0.07
  55   1    -0.01  -0.00   0.00     0.04   0.03  -0.02     0.03   0.03  -0.02
                    157                    158                    159
                        a                      a                      a 
 Frequencies --  2614.9715              2647.2183              2655.4351
 Red. masses --     1.9102                 1.9828                 1.9706
 Frc consts  --     0.0000                 0.0000                 0.0000
 IR Inten    --   644.0449               805.8433               948.6154
 Raman Activ --     0.0000                 0.0000                 0.0000
 Depolar     --     0.0000                 0.0000                 0.0000
 Atom AN      X      Y      Z        X      Y      Z        X      Y      Z
   1   5     0.00   0.00  -0.01    -0.00  -0.00   0.00    -0.00  -0.00   0.00
   2   5     0.00  -0.00   0.00    -0.00  -0.00   0.00    -0.00  -0.00  -0.00
   3   5     0.00  -0.00   0.00    -0.00   0.00  -0.00    -0.00   0.00  -0.00
   4   5    -0.00   0.00   0.00     0.00  -0.00  -0.00     0.00   0.00  -0.00
   5   5    -0.00  -0.00  -0.00     0.00   0.00  -0.00     0.00   0.00   0.00
   6   5    -0.00   0.00  -0.00     0.00  -0.00   0.00     0.00  -0.00   0.00
   7   5     0.00   0.00  -0.00    -0.00  -0.00   0.00    -0.00  -0.00   0.00
   8   5     0.00  -0.00   0.00    -0.00   0.00  -0.00    -0.00   0.00  -0.00
   9   5     0.00  -0.00  -0.00    -0.00   0.00   0.00    -0.00   0.00   0.00
  10   5     0.00  -0.00  -0.00    -0.00   0.00   0.00    -0.00   0.00   0.00
  11   5     0.00   0.01  -0.00    -0.00  -0.00   0.00    -0.00  -0.01   0.00
  12   5    -0.00  -0.00   0.00    -0.00   0.00  -0.00     0.00   0.00   0.00
  13   5     0.00  -0.00  -0.00     0.00   0.00   0.00    -0.00   0.00  -0.00
  14   5     0.00   0.00   0.00    -0.00  -0.00  -0.00    -0.00  -0.00  -0.00
  15   5     0.00   0.00  -0.00    -0.00  -0.00  -0.00    -0.00   0.00  -0.00
  16   5     0.00   0.00   0.00     0.00   0.00   0.00    -0.00  -0.00  -0.00
  17   5     0.00  -0.00  -0.00    -0.00   0.00  -0.00    -0.00  -0.00   0.00
  18   5    -0.00   0.00   0.00    -0.00  -0.00   0.00    -0.00  -0.00   0.00
  19   5    -0.00  -0.00   0.00    -0.00  -0.00   0.00    -0.00  -0.00  -0.00
  20   5     0.00  -0.00   0.00    -0.00   0.00  -0.00    -0.00   0.00  -0.00
  21   5     0.00   0.01   0.00    -0.00  -0.00  -0.00     0.00  -0.01  -0.00
  22   5     0.00  -0.00   0.00     0.00   0.00  -0.00     0.00   0.00   0.00
  23   5    -0.00  -0.00   0.00    -0.00  -0.00   0.00    -0.00  -0.00  -0.00
  24   5    -0.00   0.00  -0.00     0.00  -0.00   0.00    -0.00   0.00  -0.00
  25   5     0.00  -0.00   0.00     0.00   0.00  -0.00     0.00  -0.00  -0.00
  26   5    -0.00   0.00  -0.00     0.00   0.00  -0.00    -0.00   0.00   0.00
  27   5     0.00  -0.00  -0.00     0.00  -0.00  -0.00     0.00  -0.00  -0.00
  28   5    -0.00   0.00  -0.00     0.00   0.00  -0.00     0.00   0.00  -0.00
  29   5    -0.00   0.00  -0.00    -0.00  -0.00   0.00     0.00   0.00   0.00
  30   5     0.00   0.00   0.00    -0.00  -0.00  -0.00    -0.00  -0.00  -0.00
  31   5     0.00   0.01  -0.00     0.00   0.00  -0.00    -0.01  -0.03   0.01
  32   5     0.00   0.00  -0.00     0.00  -0.00   0.00    -0.00   0.01  -0.02
  33   5    -0.00   0.01   0.00     0.00  -0.00   0.00    -0.00   0.00  -0.00
  34   5     0.02   0.01   0.01    -0.05  -0.02  -0.04     0.22   0.08   0.19
  35   5    -0.25   0.10   0.11     0.01  -0.00  -0.01     0.02  -0.01  -0.01
  36   5     0.01  -0.01  -0.01    -0.00  -0.00   0.00    -0.00   0.00   0.00
  37   5     0.00  -0.00   0.00     0.00  -0.01   0.01     0.00  -0.00   0.00
  38   5    -0.00   0.00  -0.00    -0.02  -0.00  -0.00    -0.01  -0.00  -0.00
  39   5    -0.06  -0.02  -0.01     0.02   0.01   0.00     0.01   0.00   0.00
  40   5     0.02   0.01  -0.01     0.22   0.17  -0.12     0.05   0.04  -0.03
  41   1    -0.01  -0.01   0.02     0.00   0.00  -0.01     0.01   0.01  -0.01
  42   1    -0.00   0.00  -0.00     0.00  -0.00   0.00     0.00   0.00   0.00
  43   1    -0.01   0.00  -0.01     0.01  -0.00   0.01     0.01  -0.00   0.01
  44   1    -0.00  -0.00   0.00     0.00   0.00  -0.00     0.00   0.00  -0.00
  45   1    -0.01   0.01  -0.00     0.00  -0.01   0.00     0.01  -0.01   0.00
  46   1    -0.00   0.00   0.01     0.00  -0.00  -0.01     0.00  -0.00  -0.01
  47   1    -0.00  -0.02   0.00     0.00   0.01  -0.00     0.00   0.02  -0.00
  48   1    -0.00   0.01  -0.00     0.00  -0.01   0.00     0.00  -0.01   0.00
  49   1     0.00  -0.04  -0.01    -0.00   0.01   0.00    -0.00   0.02   0.01
  50   1    -0.00  -0.00  -0.01     0.01   0.00   0.01     0.00   0.00   0.01
  51   1    -0.01  -0.02   0.01     0.00  -0.00   0.00     0.01   0.06  -0.04
  52   1    -0.05  -0.02  -0.04     0.15   0.05   0.13    -0.68  -0.24  -0.58
  53   1     0.79  -0.33  -0.35    -0.04   0.01   0.02    -0.06   0.02   0.02
  54   1     0.18   0.06   0.04    -0.07  -0.02  -0.02    -0.04  -0.02  -0.01
  55   1    -0.05  -0.04   0.03    -0.67  -0.52   0.37    -0.14  -0.11   0.08
