      -----------------------------------------------------------      
     |                   =====================                   |     
     |                           x T B                           |     
     |                   =====================                   |     
     |                         S. Grimme                         |     
     |          Mulliken Center for Theoretical Chemistry        |     
     |                    University of Bonn                     |     
      -----------------------------------------------------------      

   * xtb version 6.7.1 (edcfbbe) compiled by 'VssAdministrator@runnervm171ch' on 2026-06-10

   xtb is free software: you can redistribute it and/or modify it under
   the terms of the GNU Lesser General Public License as published by
   the Free Software Foundation, either version 3 of the License, or
   (at your option) any later version.
   
   xtb is distributed in the hope that it will be useful,
   but WITHOUT ANY WARRANTY; without even the implied warranty of
   MERCHANTABILITY or FITNESS FOR A PARTICULAR PURPOSE.  See the
   GNU Lesser General Public License for more details.
   
   Cite this work as:
   * C. Bannwarth, E. Caldeweyher, S. Ehlert, A. Hansen, P. Pracht,
     J. Seibert, S. Spicher, S. Grimme, WIREs Comput. Mol. Sci., 2020, 11,
     e01493. DOI: 10.1002/wcms.1493
   
   for GFN2-xTB:
   * C. Bannwarth, S. Ehlert and S. Grimme., J. Chem. Theory Comput., 2019,
     15, 1652-1671. DOI: 10.1021/acs.jctc.8b01176
   for GFN1-xTB:
   * S. Grimme, C. Bannwarth, P. Shushkov, J. Chem. Theory Comput., 2017,
     13, 1989-2009. DOI: 10.1021/acs.jctc.7b00118
   for GFN0-xTB:
   * P. Pracht, E. Caldeweyher, S. Ehlert, S. Grimme, ChemRxiv, 2019, preprint.
     DOI: 10.26434/chemrxiv.8326202.v1
   for GFN-FF:
   * S. Spicher and S. Grimme, Angew. Chem. Int. Ed., 2020, 59, 15665-15673.
     DOI: 10.1002/anie.202004239
   
   for ALPB and GBSA implicit solvation:
   * S. Ehlert, M. Stahn, S. Spicher, S. Grimme, J. Chem. Theory Comput.,
     2021, 17, 4250-4261. DOI: 10.1021/acs.jctc.1c00471
   
   for ddCOSMO and CPCM-X implicit solvation:
   * M. Stahn, S. Ehlert, S. Grimme, J. Phys. Chem. A,
     2023, XX, XXXX-XXXX. DOI: 10.1021/acs.jpca.3c04382
   
   for DFT-D4:
   * E. Caldeweyher, C. Bannwarth and S. Grimme, J. Chem. Phys., 2017,
     147, 034112. DOI: 10.1063/1.4993215
   * E. Caldeweyher, S. Ehlert, A. Hansen, H. Neugebauer, S. Spicher,
     C. Bannwarth and S. Grimme, J. Chem. Phys., 2019, 150, 154122.
     DOI: 10.1063/1.5090222
   * E. Caldeweyher, J.-M. Mewes, S. Ehlert and S. Grimme, Phys. Chem. Chem. Phys.
     2020, 22, 8499-8512. DOI: 10.1039/D0CP00502A
   
   for sTDA-xTB:
   * S. Grimme and C. Bannwarth, J. Chem. Phys., 2016, 145, 054103.
     DOI: 10.1063/1.4959605
   
   in the mass-spec context:
   * V. Asgeirsson, C. Bauer and S. Grimme, Chem. Sci., 2017, 8, 4879.
     DOI: 10.1039/c7sc00601b
   * J. Koopman and S. Grimme, ACS Omega 2019, 4, 12, 15120-15133.
     DOI: 10.1021/acsomega.9b02011
   
   for metadynamics refer to:
   * S. Grimme, J. Chem. Theory Comput., 2019, 155, 2847-2862
     DOI: 10.1021/acs.jctc.9b00143
   
   for SPH calculations refer to:
   * S. Spicher and S. Grimme, J. Chem. Theory Comput., 2021, 17, 1701-1714
     DOI: 10.1021/acs.jctc.0c01306
   
   for ONIOM refer to:
   * C. Plett, A. Katbashev, S. Ehlert, S. Grimme, M. Bursch,
     Phys. Chem. Chem. Phys., 2023, 25, 17860-17868. DOI: 10.1039/D3CP02178E
   
   for DIPRO refer to:
   * J. Kohn, N. Gildemeister, S. Grimme, D. Fazzi, A. Hansen,
     J. Chem. Phys., 2023, just accepted.
   
   for PTB refer to:
   * S. Grimme, M. Mueller, A. Hansen, J. Chem. Phys., 2023, 158, 124111.
     DOI: 10.1063/5.0137838
   
   with help from (in alphabetical order)
   P. Atkinson, C. Bannwarth, F. Bohle, G. Brandenburg, E. Caldeweyher
   M. Checinski, S. Dohm, S. Ehlert, S. Ehrlich, I. Gerasimov, C. Hölzer
   A. Katbashev, J. Kohn, J. Koopman, C. Lavigne, S. Lehtola, F. März, M. Müller,
   F. Musil, H. Neugebauer, J. Pisarek, C. Plett, P. Pracht, F. Pultar,
   J. Seibert, P. Shushkov, S. Spicher, M. Stahn, M. Steiner, T. Strunk,
   J. Stückrath, T. Rose, and J. Unsleber
   
 * started run on 2026/09/23 at 17:28:59.259     
   ID    Z sym.   atoms
    1    5 B      1-40
    2    1 H      41-55

           -------------------------------------------------
          |                Calculation Setup                |
           -------------------------------------------------

          program call               : C:\Users\Andre\mm\xtb\Library\bin\xtb.exe xtbopt.xyz --hess --gfn 2 --uhf 1 --etemp 1500
          coordinate file            : xtbopt.xyz
          omp threads                :                     4


molecular fragmentation (1/2 indicates fragments):
1111111111111111111111111111111111111111111111111211111
# atoms in fragment 1/2:    54     1
 fragment masses (1/2) :      446.55        1.01
CMA distance (Bohr)    :   5.992
constraining FC (au)   :  0.0500

           -------------------------------------------------
          |                 G F N 2 - x T B                 |
           -------------------------------------------------

        Reference                      10.1021/acs.jctc.8b01176
      * Hamiltonian:
        H0-scaling (s, p, d)           1.850000    2.230000    2.230000
        zeta-weighting                 0.500000
      * Dispersion:
        s8                             2.700000
        a1                             0.520000
        a2                             5.000000
        s9                             5.000000
      * Repulsion:
        kExp                           1.500000    1.000000
        rExp                           1.000000
      * Coulomb:
        alpha                          2.000000
        third order                    shell-resolved
        anisotropic                    true
        a3                             3.000000
        a5                             4.000000
        cn-shift                       1.200000
        cn-exp                         4.000000
        max-rad                        5.000000

q/qsh data taken from xtbrestart
CAMM data taken from xtbrestart

          ...................................................
          :                      SETUP                      :
          :.................................................:
          :  # basis functions                 175          :
          :  # atomic orbitals                 175          :
          :  # shells                           95          :
          :  # electrons                       135          :
          :  max. iterations                   250          :
          :  Hamiltonian                  GFN2-xTB          :
          :  restarted?                       true          :
          :  GBSA solvation                  false          :
          :  PC potential                    false          :
          :  electronic temp.         1500.0000000     K    :
          :  accuracy                    1.0000000          :
          :  -> integral cutoff          0.2500000E+02      :
          :  -> integral neglect         0.1000000E-07      :
          :  -> SCF convergence          0.1000000E-05 Eh   :
          :  -> wf. convergence          0.1000000E-03 e    :
          :  Broyden damping             0.4000000          :
          :  net charge                          0          :
          :  unpaired electrons                  1          :
          ...................................................

 iter      E             dE          RMSdq      gap      omega  full diag
   1    -56.9958897 -0.569959E+02  0.145E-05    0.39       0.0  T
   2    -56.9958897  0.622364E-10  0.230E-05    0.39     587.0  T
   3    -56.9958897 -0.532765E-10  0.116E-05    0.39    1162.4  T

   *** convergence criteria satisfied after 3 iterations ***

         #    Occupation            Energy/Eh            Energy/eV
      -------------------------------------------------------------
         1        2.0000           -0.4784281             -13.0187
       ...           ...                  ...                  ...
        62        1.9974           -0.2857101              -7.7746
        63        1.9921           -0.2804028              -7.6301
        64        1.9846           -0.2772060              -7.5432
        65        1.9701           -0.2740015              -7.4560
        66        1.9122           -0.2686390              -7.3100
        67        1.8316           -0.2651800              -7.2159
        68        1.0970           -0.2523962              -6.8680 (HOMO)
        69        0.2116           -0.2382039              -6.4819 (LUMO)
        70        0.0049           -0.2193583              -5.9690
        71        0.0011           -0.2121728              -5.7735
        72        0.0003           -0.2056594              -5.5963
        73        0.0000           -0.1936847              -5.2704
       ...           ...                  ...                  ...
       175                          1.0784937              29.3473
      -------------------------------------------------------------
                  HL-Gap            0.0141922 Eh            0.3862 eV
             Fermi-level           -0.2510463 Eh           -6.8313 eV

 SCC (total)                   0 d,  0 h,  0 min,  0.131 sec
 SCC setup                      ...        0 min,  0.001 sec (  0.424%)
 Dispersion                     ...        0 min,  0.001 sec (  0.696%)
 classical contributions        ...        0 min,  0.000 sec (  0.101%)
 integral evaluation            ...        0 min,  0.009 sec (  6.658%)
 iterations                     ...        0 min,  0.087 sec ( 66.207%)
 molecular gradient             ...        0 min,  0.031 sec ( 23.900%)
 printout                       ...        0 min,  0.003 sec (  1.994%)

         :::::::::::::::::::::::::::::::::::::::::::::::::::::
         ::                     SUMMARY                     ::
         :::::::::::::::::::::::::::::::::::::::::::::::::::::
         :: total energy             -56.197058230472 Eh    ::
         :: gradient norm              0.000373335665 Eh/a0 ::
         :: HOMO-LUMO gap              0.386189828615 eV    ::
         ::.................................................::
         :: SCC energy               -56.995241653699 Eh    ::
         :: -> isotropic ES            0.214465661279 Eh    ::
         :: -> anisotropic ES          0.006055125517 Eh    ::
         :: -> anisotropic XC         -0.015748344188 Eh    ::
         :: -> dispersion             -0.072127091189 Eh    ::
         :: repulsion energy           0.798183423227 Eh    ::
         :: add. restraining           0.000000000000 Eh    ::
         :: total charge               0.000000000151 e     ::
         :::::::::::::::::::::::::::::::::::::::::::::::::::::

           ------------------------------------------------- 
          |                Numerical Hessian                |
           ------------------------------------------------- 
step length          :   0.00500
SCC accuracy         :   0.30000
Hessian scale factor :   1.00000
frozen atoms in %    :   0.00000    0
RMS gradient         :   0.00037
estimated CPU  time      1.88 min
estimated wall time      1.19 min

writing file <hessian>.

 projected vibrational frequencies (cm⁻¹)
eigval :       -0.00    -0.00     0.00     0.00     0.00     0.00
eigval :       14.60    29.98    45.25    49.10    62.48    70.35
eigval :       74.08    90.35    97.55   107.15   123.20   134.95
eigval :      135.74   151.94   154.26   169.76   172.50   180.89
eigval :      191.60   197.02   202.88   207.01   211.80   219.63
eigval :      238.55   242.73   246.29   261.38   265.36   270.94
eigval :      277.35   286.50   291.70   296.53   300.04   305.86
eigval :      309.86   321.38   324.73   330.33   334.00   337.06
eigval :      349.42   359.02   364.55   372.24   380.29   382.27
eigval :      388.57   394.20   409.11   416.98   419.11   430.74
eigval :      437.12   447.31   454.88   464.37   478.08   484.39
eigval :      491.74   494.56   508.78   513.54   523.40   534.34
eigval :      543.42   553.95   555.80   565.85   568.67   574.94
eigval :      581.12   594.58   604.60   609.82   611.75   616.45
eigval :      620.67   628.29   629.35   632.59   639.79   645.28
eigval :      656.83   658.43   663.57   667.69   676.64   689.19
eigval :      694.97   698.26   715.25   720.94   730.35   739.01
eigval :      746.07   751.10   751.96   756.84   763.54   769.63
eigval :      773.46   787.30   790.03   797.44   797.69   807.42
eigval :      818.00   836.85   845.80   851.32   857.96   866.01
eigval :      868.97   874.16   893.87   898.03   904.82   914.24
eigval :      916.85   926.59   945.71   954.44   989.68  1003.82
eigval :     1026.97  1036.51  1046.24  1058.72  1081.03  1090.68
eigval :     1117.31  1141.58  1160.20  1161.67  1167.23  1188.58
eigval :     1202.45  1218.73  1235.46  1242.77  1248.05  1325.10
eigval :     1766.90  2429.56  2469.55  2504.13  2525.71  2529.46
eigval :     2547.41  2572.09  2578.44  2582.57  2588.58  2591.13
eigval :     2614.97  2647.22  2655.44
           -------------------------------------------------
          |                Property Printout                |
           -------------------------------------------------

    * Orbital Energies and Occupations

         #    Occupation            Energy/Eh            Energy/eV
      -------------------------------------------------------------
         1        2.0000           -0.4784292             -13.0187
       ...           ...                  ...                  ...
        56        1.9999           -0.3031164              -8.2482
        57        1.9999           -0.3001910              -8.1686
        58        1.9998           -0.2975146              -8.0958
        59        1.9998           -0.2971360              -8.0855
        60        1.9992           -0.2912919              -7.9265
        61        1.9988           -0.2894648              -7.8767
        62        1.9974           -0.2857091              -7.7745
        63        1.9921           -0.2804025              -7.6301
        64        1.9846           -0.2772062              -7.5432
        65        1.9701           -0.2740012              -7.4560
        66        1.9122           -0.2686387              -7.3100
        67        1.8316           -0.2651810              -7.2159
        68        1.0969           -0.2523952              -6.8680 (HOMO)
        69        0.2117           -0.2382044              -6.4819 (LUMO)
        70        0.0049           -0.2193579              -5.9690
        71        0.0011           -0.2121726              -5.7735
        72        0.0003           -0.2056593              -5.5963
        73        0.0000           -0.1936838              -5.2704
        74        0.0000           -0.1884682              -5.1285
        75        0.0000           -0.1840260              -5.0076
        76        0.0000           -0.1756490              -4.7797
        77        0.0000           -0.1718332              -4.6758
        78                         -0.1680115              -4.5718
        79                         -0.1635743              -4.4511
       ...                                ...                  ...
       175                          1.0784915              29.3472
      -------------------------------------------------------------
                  HL-Gap            0.0141908 Eh            0.3862 eV
             Fermi-level           -0.2510462 Eh           -6.8313 eV

     #   Z          covCN         q      C6AA      α(0)
     1   5 B        3.728     0.063    21.501     7.492
     2   5 B        4.532     0.067    21.534     7.477
     3   5 B        3.758     0.030    22.124     7.591
     4   5 B        3.810     0.036    22.052     7.571
     5   5 B        3.865     0.058    21.682     7.504
     6   5 B        4.605     0.024    22.299     7.609
     7   5 B        2.880     0.052    20.527     7.562
     8   5 B        2.866     0.085    19.987     7.463
     9   5 B        4.665     0.031    22.171     7.587
    10   5 B        2.918     0.070    20.205     7.501
    11   5 B        3.819     0.056    21.713     7.512
    12   5 B        3.871     0.023    22.317     7.613
    13   5 B        4.535    -0.006    22.858     7.703
    14   5 B        3.834     0.039    22.008     7.562
    15   5 B        4.718     0.059    21.682     7.503
    16   5 B        4.708     0.047    21.892     7.539
    17   5 B        3.883     0.047    21.875     7.537
    18   5 B        2.932     0.019    21.069     7.659
    19   5 B        4.644     0.017    22.436     7.632
    20   5 B        2.877     0.055    20.478     7.554
    21   5 B        3.827     0.063    21.593     7.490
    22   5 B        3.861     0.019    22.376     7.623
    23   5 B        3.858    -0.007    22.870     7.707
    24   5 B        3.839     0.050    21.824     7.530
    25   5 B        4.547     0.025    22.277     7.605
    26   5 B        5.667     0.105    20.895     7.365
    27   5 B        4.127     0.006    22.633     7.665
    28   5 B        2.927     0.029    20.898     7.628
    29   5 B        5.453     0.062    21.619     7.492
    30   5 B        3.659     0.065    21.243     7.491
    31   5 B        3.826     0.041    21.976     7.557
    32   5 B        3.876     0.026    22.252     7.602
    33   5 B        3.861     0.020    22.361     7.621
    34   5 B        2.905     0.081    20.031     7.469
    35   5 B        3.774     0.073    21.386     7.460
    36   5 B        5.219     0.095    21.059     7.394
    37   5 B        4.735     0.046    21.910     7.542
    38   5 B        3.812     0.011    22.512     7.649
    39   5 B        3.786     0.074    21.379     7.457
    40   5 B        2.895     0.050    20.548     7.565
    41   1 H        0.938    -0.129     6.690     4.044
    42   1 H        1.518     0.024     2.662     2.547
    43   1 H        0.935    -0.152     7.799     4.366
    44   1 H        0.931    -0.143     7.357     4.241
    45   1 H        0.935    -0.128     6.647     4.031
    46   1 H        0.935    -0.128     6.650     4.032
    47   1 H        0.938    -0.114     6.090     3.858
    48   1 H        0.936    -0.143     7.345     4.237
    49   1 H        0.939    -0.098     5.479     3.660
    50   1 H        0.933    -0.156     7.996     4.421
    51   1 H        0.938    -0.106     5.785     3.760
    52   1 H        0.940    -0.145     7.426     4.260
    53   1 H        0.939    -0.117     6.198     3.892
    54   1 H        0.938    -0.121     6.340     3.937
    55   1 H        0.940    -0.148     7.582     4.305

 Mol. C6AA /au·bohr⁶  :      50257.589169
 Mol. C8AA /au·bohr⁸  :    1708449.386336
 Mol. α(0) /au        :        361.674529


Wiberg/Mayer (AO) data.
largest (>0.10) Wiberg bond orders for each atom

 ---------------------------------------------------------------------------
     #   Z sym  total        # sym  WBO       # sym  WBO       # sym  WBO
 ---------------------------------------------------------------------------
     1   5 B    3.556 --    41 H    0.950     4 B    0.937     2 B    0.855
                            42 H    0.539
     2   5 B    3.518 --     1 B    0.855     3 B    0.763     4 B    0.605
                             6 B    0.555    42 H    0.425     5 B    0.127
     3   5 B    3.555 --     5 B    1.114    43 H    0.948     2 B    0.763
                             6 B    0.442
     4   5 B    3.532 --     1 B    0.937    11 B    0.840    12 B    0.798
                             2 B    0.605
     5   5 B    3.379 --     3 B    1.114    13 B    0.800     9 B    0.639
                             6 B    0.432     2 B    0.127
     6   5 B    3.580 --     7 B    1.076     9 B    0.760     2 B    0.555
                             3 B    0.442     5 B    0.432
     7   5 B    3.419 --     6 B    1.076     8 B    0.999    44 H    0.913
                             9 B    0.154    10 B    0.100
     8   5 B    3.246 --    10 B    1.018     7 B    0.999    45 H    0.937
                            18 B    0.105
     9   5 B    3.660 --    17 B    0.769     6 B    0.760    16 B    0.703
                             5 B    0.639    13 B    0.377     7 B    0.154
    10   5 B    3.401 --     8 B    1.018    18 B    0.981    46 H    0.925
                            17 B    0.189     7 B    0.100
    11   5 B    3.611 --    47 H    0.929    12 B    0.841     4 B    0.840
                            14 B    0.786
    12   5 B    3.585 --    11 B    0.841    14 B    0.838    13 B    0.830
                             4 B    0.798
    13   5 B    3.617 --    12 B    0.830    15 B    0.825     5 B    0.800
                            16 B    0.430     9 B    0.377
    14   5 B    3.540 --    12 B    0.838    21 B    0.791    11 B    0.786
                            22 B    0.738
    15   5 B    3.569 --    13 B    0.825    23 B    0.678    16 B    0.639
                            26 B    0.579    19 B    0.459
    16   5 B    3.588 --    19 B    0.944     9 B    0.703    15 B    0.639
                            17 B    0.598    13 B    0.430
    17   5 B    3.526 --    18 B    0.975     9 B    0.769    19 B    0.656
                            16 B    0.598    10 B    0.189
    18   5 B    3.435 --    10 B    0.981    17 B    0.975    20 B    0.959
                            28 B    0.182     8 B    0.105
    19   5 B    3.624 --    16 B    0.944    27 B    0.789    17 B    0.656
                            15 B    0.459    26 B    0.427
    20   5 B    3.410 --    28 B    1.139    18 B    0.959    48 H    0.951
                            30 B    0.116
    21   5 B    3.540 --    49 H    0.921    24 B    0.834    14 B    0.791
                            22 B    0.786
    22   5 B    3.556 --    23 B    1.001    21 B    0.786    14 B    0.738
                            24 B    0.701
    23   5 B    3.611 --    22 B    1.001    25 B    0.895    15 B    0.678
                            26 B    0.612
    24   5 B    3.569 --    32 B    0.840    21 B    0.834    31 B    0.750
                            22 B    0.701    34 B    0.141
    25   5 B    3.640 --    23 B    0.895    33 B    0.694    26 B    0.691
                            36 B    0.623    29 B    0.372
    26   5 B    3.656 --    25 B    0.691    23 B    0.612    29 B    0.591
                            15 B    0.579    27 B    0.502    19 B    0.427
    27   5 B    3.493 --    28 B    0.955    19 B    0.789    29 B    0.783
                            26 B    0.502    30 B    0.200
    28   5 B    3.391 --    20 B    1.139    27 B    0.955    30 B    0.783
                            18 B    0.182
    29   5 B    3.610 --    27 B    0.783    37 B    0.632    26 B    0.591
                            38 B    0.490    25 B    0.372    30 B    0.270
                            36 B    0.257
    30   5 B    3.483 --    38 B    0.960    50 H    0.937    28 B    0.783
                            29 B    0.270    27 B    0.200    20 B    0.116
    31   5 B    3.594 --    34 B    1.040    51 H    0.917    24 B    0.750
                            32 B    0.747
    32   5 B    3.586 --    34 B    0.924    33 B    0.903    24 B    0.840
                            31 B    0.747
    33   5 B    3.598 --    32 B    0.903    35 B    0.852    25 B    0.694
                            36 B    0.646    34 B    0.213
    34   5 B    3.435 --    31 B    1.040    52 H    0.970    32 B    0.924
                            33 B    0.213    24 B    0.141
    35   5 B    3.482 --    53 H    0.952    33 B    0.852    36 B    0.769
                            39 B    0.694
    36   5 B    3.645 --    35 B    0.769    39 B    0.764    33 B    0.646
                            25 B    0.623    37 B    0.446    29 B    0.257
    37   5 B    3.604 --    40 B    0.918    39 B    0.766    38 B    0.693
                            29 B    0.632    36 B    0.446
    38   5 B    3.541 --    40 B    1.174    30 B    0.960    37 B    0.693
                            29 B    0.490
    39   5 B    3.557 --    54 H    0.952    37 B    0.766    36 B    0.764
                            35 B    0.694    40 B    0.187
    40   5 B    3.460 --    38 B    1.174    55 H    0.967    37 B    0.918
                            39 B    0.187
    41   1 H    0.977 --     1 B    0.950
    42   1 H    0.994 --     1 B    0.539     2 B    0.425
    43   1 H    0.975 --     3 B    0.948
    44   1 H    0.976 --     7 B    0.913
    45   1 H    0.981 --     8 B    0.937
    46   1 H    0.978 --    10 B    0.925
    47   1 H    0.973 --    11 B    0.929
    48   1 H    0.976 --    20 B    0.951
    49   1 H    0.977 --    21 B    0.921
    50   1 H    0.974 --    30 B    0.937
    51   1 H    0.977 --    31 B    0.917
    52   1 H    0.978 --    34 B    0.970
    53   1 H    0.983 --    35 B    0.952
    54   1 H    0.980 --    39 B    0.952
    55   1 H    0.977 --    40 B    0.967
 ---------------------------------------------------------------------------

Topologies differ in total number of bonds
Writing topology from bond orders to xtbtopo.mol

molecular dipole:
                 x           y           z       tot (Debye)
 q only:        0.932      -0.930      -0.182
   full:        0.439      -1.547       0.570       4.336
molecular quadrupole (traceless):
                xx          xy          yy          xz          yz          zz
 q only:      -27.377       7.736      -6.436       6.729       8.525      33.813
  q+dip:       -3.478      13.860     -14.824       6.209       6.107      18.302
   full:      -12.614       9.933     -17.989       5.364       6.829      30.604

           -------------------------------------------------
          |               Frequency Printout                |
           -------------------------------------------------
 projected vibrational frequencies (cm⁻¹)
eigval :       -0.00    -0.00     0.00     0.00     0.00     0.00
eigval :       14.60    29.98    45.25    49.10    62.48    70.35
eigval :       74.08    90.35    97.55   107.15   123.20   134.95
eigval :      135.74   151.94   154.26   169.76   172.50   180.89
eigval :      191.60   197.02   202.88   207.01   211.80   219.63
eigval :      238.55   242.73   246.29   261.38   265.36   270.94
eigval :      277.35   286.50   291.70   296.53   300.04   305.86
eigval :      309.86   321.38   324.73   330.33   334.00   337.06
eigval :      349.42   359.02   364.55   372.24   380.29   382.27
eigval :      388.57   394.20   409.11   416.98   419.11   430.74
eigval :      437.12   447.31   454.88   464.37   478.08   484.39
eigval :      491.74   494.56   508.78   513.54   523.40   534.34
eigval :      543.42   553.95   555.80   565.85   568.67   574.94
eigval :      581.12   594.58   604.60   609.82   611.75   616.45
eigval :      620.67   628.29   629.35   632.59   639.79   645.28
eigval :      656.83   658.43   663.57   667.69   676.64   689.19
eigval :      694.97   698.26   715.25   720.94   730.35   739.01
eigval :      746.07   751.10   751.96   756.84   763.54   769.63
eigval :      773.46   787.30   790.03   797.44   797.69   807.42
eigval :      818.00   836.85   845.80   851.32   857.96   866.01
eigval :      868.97   874.16   893.87   898.03   904.82   914.24
eigval :      916.85   926.59   945.71   954.44   989.68  1003.82
eigval :     1026.97  1036.51  1046.24  1058.72  1081.03  1090.68
eigval :     1117.31  1141.58  1160.20  1161.67  1167.23  1188.58
eigval :     1202.45  1218.73  1235.46  1242.77  1248.05  1325.10
eigval :     1766.90  2429.56  2469.55  2504.13  2525.71  2529.46
eigval :     2547.41  2572.09  2578.44  2582.57  2588.58  2591.13
eigval :     2614.97  2647.22  2655.44
 reduced masses (amu)
   1: 10.44   2: 10.27   3: 10.33   4: 10.35   5: 10.16   6: 10.20   7:  9.71   8:  9.71
   9:  9.58  10:  9.34  11:  9.48  12:  9.44  13:  9.23  14:  9.24  15:  9.13  16:  9.42
  17:  9.33  18:  8.93  19:  8.97  20:  9.50  21:  9.05  22:  9.42  23:  9.39  24:  9.77
  25:  9.52  26:  9.70  27:  9.60  28:  9.60  29:  9.88  30:  9.60  31:  9.79  32:  9.87
  33:  9.46  34:  9.76  35:  8.97  36:  8.98  37: 10.10  38:  9.48  39:  9.82  40:  9.95
  41:  9.97  42: 10.38  43:  9.96  44:  9.99  45: 10.50  46: 10.01  47:  9.52  48: 10.16
  49: 10.30  50: 10.13  51:  9.93  52: 10.26  53: 10.36  54: 10.41  55: 10.35  56: 10.36
  57: 10.24  58: 10.33  59: 10.28  60: 10.14  61: 10.48  62: 10.30  63: 10.17  64: 10.53
  65:  9.82  66:  9.89  67:  9.46  68:  9.62  69:  9.62  70:  7.33  71:  7.84  72:  8.90
  73:  7.20  74:  7.61  75:  9.11  76:  7.69  77:  5.99  78:  6.31  79:  6.75  80:  7.60
  81:  7.63  82:  6.04  83:  6.40  84:  8.06  85:  7.55  86:  5.67  87:  7.83  88:  6.21
  89:  4.45  90:  6.93  91:  5.06  92:  6.70  93:  5.45  94:  8.43  95:  4.75  96:  8.58
  97:  8.15  98:  8.89  99:  8.56 100:  7.13 101:  7.62 102:  9.77 103:  4.79 104:  8.20
 105:  7.20 106:  6.18 107:  5.74 108:  7.37 109:  7.93 110:  6.84 111:  6.93 112:  6.72
 113:  7.19 114:  7.96 115:  7.12 116:  6.05 117:  5.81 118:  5.72 119:  7.18 120:  5.63
 121:  6.89 122:  7.48 123:  6.61 124:  7.08 125:  5.40 126:  9.99 127:  7.97 128:  7.33
 129:  7.64 130: 10.21 131: 10.27 132:  9.59 133: 10.53 134: 10.23 135:  9.97 136: 10.19
 137:  5.55 138:  9.95 139: 10.56 140: 10.52 141: 10.21 142:  9.75 143: 10.44 144: 10.46
 145: 10.39 146: 10.43 147: 10.77 148: 10.79 149: 10.41 150: 10.40 151:  1.64 152:  1.79
 153:  1.80 154:  1.83 155:  1.87 156:  1.86 157:  1.86 158:  1.94 159:  1.92 160:  1.90
 161:  1.89 162:  1.91 163:  1.91 164:  1.98 165:  1.97
 IR intensities (km·mol⁻¹)
   1:  1.46   2:  3.32   3:  0.80   4:  0.43   5:  8.90   6:  5.21   7: 17.01   8:  1.06
   9: 11.80  10: 12.58  11:  6.47  12: 21.03  13: 29.37  14:  6.89  15:  1.47  16:  3.33
  17:  5.15  18: 13.13  19:  8.67  20:  3.40  21:  5.56  22: 20.60  23:  7.00  24:  8.08
  25:  4.96  26:  9.09  27: 13.72  28: 18.65  29:  2.12  30: 33.19  31: 15.21  32:  7.77
  33:  4.27  34:  4.04  35: 15.20  36: 18.70  37:  7.41  38: 12.73  39:  5.42  40: 26.27
  41:  9.25  42: 13.80  43:  6.90  44: 31.81  45:  2.15  46: 74.12  47:  9.08  48:  8.12
  49: 12.37  50: 16.39  51: 10.52  52: 16.14  53:  0.07  54: 13.33  55: 13.25  56:  3.92
  57:  0.69  58:  6.26  59:  3.50  60: 15.06  61: 11.97  62: 21.93  63:  2.94  64: 10.25
  65: 22.44  66: 15.27  67:  2.59  68: 11.88  69:  6.18  70:  3.57  71: 33.79  72: 11.33
  73: 13.37  74: 76.02  75: 14.50  76: 31.31  77:182.01  78: 38.98  79: 25.43  80: 36.42
  81: 58.89  82: 41.44  83: 43.20  84: 28.68  85: 16.65  86: 38.31  87:  2.64  88: 25.29
  89: 28.13  90: 61.47  91: 24.39  92:  9.31  93: 88.80  94:  7.04  95: 25.39  96: 16.23
  97:107.90  98: 27.77  99: 21.54 100:  9.69 101: 16.40 102:  6.91 103:  3.74 104:  6.79
 105:  9.60 106: 72.08 107: 39.40 108: 25.01 109: 93.81 110: 34.73 111:  2.73 112: 41.46
 113: 25.28 114: 16.23 115:  6.36 116:  2.53 117:109.26 118: 23.65 119:  5.53 120:  2.14
 121:  3.98 122: 13.98 123: 67.10 124: 18.82 125:198.39 126:  9.93 127: 10.39 128:  2.76
 129: 26.48 130:115.68 131: 30.01 132: 77.37 133: 42.34 134:  9.93 135: 35.00 136: 29.06
 137: 68.81 138: 10.37 139: 30.08 140: 59.51 141:  5.54 142:  7.23 143: 21.79 144: 29.74
 145: 74.93 146: 32.03 147: 11.78 148: 22.64 149: 34.49 150: 89.30 151:117.60 152:584.85
 153:254.78 154:394.24 155:217.95 156:897.75 157:851.65 158:228.17 159:172.20 160:580.43
 161:438.26 162:483.28 163:644.04 164:805.84 165:948.62
 Raman intensities (Ä⁴*amu⁻¹)
   1:  0.00   2:  0.00   3:  0.00   4:  0.00   5:  0.00   6:  0.00   7:  0.00   8:  0.00
   9:  0.00  10:  0.00  11:  0.00  12:  0.00  13:  0.00  14:  0.00  15:  0.00  16:  0.00
  17:  0.00  18:  0.00  19:  0.00  20:  0.00  21:  0.00  22:  0.00  23:  0.00  24:  0.00
  25:  0.00  26:  0.00  27:  0.00  28:  0.00  29:  0.00  30:  0.00  31:  0.00  32:  0.00
  33:  0.00  34:  0.00  35:  0.00  36:  0.00  37:  0.00  38:  0.00  39:  0.00  40:  0.00
  41:  0.00  42:  0.00  43:  0.00  44:  0.00  45:  0.00  46:  0.00  47:  0.00  48:  0.00
  49:  0.00  50:  0.00  51:  0.00  52:  0.00  53:  0.00  54:  0.00  55:  0.00  56:  0.00
  57:  0.00  58:  0.00  59:  0.00  60:  0.00  61:  0.00  62:  0.00  63:  0.00  64:  0.00
  65:  0.00  66:  0.00  67:  0.00  68:  0.00  69:  0.00  70:  0.00  71:  0.00  72:  0.00
Molecule has no symmetry elements
It seems to be the C1 point group
  73:  0.00  74:  0.00  75:  0.00  76:  0.00  77:  0.00  78:  0.00  79:  0.00  80:  0.00
  81:  0.00  82:  0.00  83:  0.00  84:  0.00  85:  0.00  86:  0.00  87:  0.00  88:  0.00
  89:  0.00  90:  0.00  91:  0.00  92:  0.00  93:  0.00  94:  0.00  95:  0.00  96:  0.00
  97:  0.00  98:  0.00  99:  0.00 100:  0.00 101:  0.00 102:  0.00 103:  0.00 104:  0.00
 105:  0.00 106:  0.00 107:  0.00 108:  0.00 109:  0.00 110:  0.00 111:  0.00 112:  0.00
 113:  0.00 114:  0.00 115:  0.00 116:  0.00 117:  0.00 118:  0.00 119:  0.00 120:  0.00
 121:  0.00 122:  0.00 123:  0.00 124:  0.00 125:  0.00 126:  0.00 127:  0.00 128:  0.00
 129:  0.00 130:  0.00 131:  0.00 132:  0.00 133:  0.00 134:  0.00 135:  0.00 136:  0.00
 137:  0.00 138:  0.00 139:  0.00 140:  0.00 141:  0.00 142:  0.00 143:  0.00 144:  0.00
 145:  0.00 146:  0.00 147:  0.00 148:  0.00 149:  0.00 150:  0.00 151:  0.00 152:  0.00
 153:  0.00 154:  0.00 155:  0.00 156:  0.00 157:  0.00 158:  0.00 159:  0.00 160:  0.00
 161:  0.00 162:  0.00 163:  0.00 164:  0.00 165:  0.00
 output can be read by thermo (or use thermo option).
 writing <g98.out> molden fake output.
 recommended (thermochemical) frequency scaling factor: 1.0
           -------------------------------------------------
          |             Thermodynamic Functions             |
           -------------------------------------------------

c1  symmetry found (for desy threshold:  0.10E+00) used in thermo

          ...................................................
          :                      SETUP                      :
          :.................................................:
          :  # frequencies                         159      :
          :  # imaginary freq.                       0      :
          :  linear?                             false      :
          :  only rotor calc.                    false      :
          :  symmetry                               c1      :
          :  rotational number                       1      :
          :  scaling factor                  1.0000000      :
          :  rotor cutoff                   50.0000000 cm⁻¹ :
          :  imag. cutoff                  -20.0000000 cm⁻¹ :
          :.................................................:

    mode    ω/cm⁻¹     T·S(HO)/kcal·mol⁻¹    T·S(FR)/kcal·mol⁻¹   T·S(vib)
   ------------------------------------------------------------------------
       1     14.60    -2.16422 (  0.72%)    -1.42110 ( 99.28%)    -1.42646
       2     29.98    -1.73837 ( 11.45%)    -1.20801 ( 88.55%)    -1.26874
       3     45.25    -1.49515 ( 40.15%)    -1.08608 ( 59.85%)    -1.25034
       4     49.10    -1.44703 ( 48.18%)    -1.06192 ( 51.82%)    -1.24747
       5     62.48    -1.30511 ( 70.91%)    -0.99054 ( 29.09%)    -1.21361
       6     70.35    -1.23537 ( 79.67%)    -0.95537 ( 20.33%)    -1.17846
       7     74.08    -1.20511 ( 82.81%)    -0.94009 ( 17.19%)    -1.15956
       8     90.35    -1.08895 ( 91.43%)    -0.88125 (  8.57%)    -1.07115
       9     97.55    -1.04430 ( 93.54%)    -0.85854 (  6.46%)    -1.03231
      10    107.15    -0.98984 ( 95.47%)    -0.83075 (  4.53%)    -0.98264
      11    123.20    -0.90922 ( 97.36%)    -0.78939 (  2.64%)    -0.90605
      12    134.95    -0.85697 ( 98.15%)    -0.76242 (  1.85%)    -0.85522
      13    135.74    -0.85362 ( 98.19%)    -0.76068 (  1.81%)    -0.85194
      14    151.94    -0.78943 ( 98.84%)    -0.72728 (  1.16%)    -0.78871
      15    154.26    -0.78087 ( 98.91%)    -0.72280 (  1.09%)    -0.78024
      16    169.76    -0.72694 ( 99.25%)    -0.69443 (  0.75%)    -0.72670
      17    172.50    -0.71795 ( 99.30%)    -0.68968 (  0.70%)    -0.71775
      18    180.89    -0.69146 ( 99.42%)    -0.67561 (  0.58%)    -0.69137
      19    191.60    -0.65960 ( 99.54%)    -0.65858 (  0.46%)    -0.65959
      20    197.02    -0.64422 ( 99.59%)    -0.65031 (  0.41%)    -0.64424
      21    202.88    -0.62816 ( 99.63%)    -0.64164 (  0.37%)    -0.62821
      22    207.01    -0.61712 ( 99.66%)    -0.63565 (  0.34%)    -0.61718
Note: The following floating-point exceptions are signalling: IEEE_DIVIDE_BY_ZERO IEEE_UNDERFLOW_FLAG IEEE_DENORMAL
normal termination of xtb
      23    211.80    -0.60469 ( 99.69%)    -0.62889 (  0.31%)    -0.60476
      24    219.63    -0.58500 ( 99.73%)    -0.61813 (  0.27%)    -0.58509
      25    238.55    -0.54075 ( 99.81%)    -0.59365 (  0.19%)    -0.54085
      26    242.73    -0.53154 ( 99.82%)    -0.58851 (  0.18%)    -0.53164
      27    246.29    -0.52383 ( 99.83%)    -0.58419 (  0.17%)    -0.52394
      28    261.38    -0.49271 ( 99.87%)    -0.56658 (  0.13%)    -0.49281
      29    265.36    -0.48486 ( 99.87%)    -0.56210 (  0.13%)    -0.48496
      30    270.94    -0.47412 ( 99.88%)    -0.55593 (  0.12%)    -0.47421
      31    277.35    -0.46213 ( 99.89%)    -0.54901 (  0.11%)    -0.46222
      32    286.50    -0.44560 ( 99.91%)    -0.53940 (  0.09%)    -0.44569
      33    291.70    -0.43651 ( 99.91%)    -0.53406 (  0.09%)    -0.43659
      34    296.53    -0.42827 ( 99.92%)    -0.52920 (  0.08%)    -0.42835
   ------------------------------------------------------------------------

   temp. (K)  partition function   enthalpy   heat capacity  entropy
                                   cal/mol     cal/K/mol   cal/K/mol   J/K/mol
 298.15  VIB  0.247E+15            23651.418    156.284    138.850
         ROT  0.246E+08              888.752      2.981     36.798
         INT  0.606E+22            24540.170    159.265    175.648
         TR   0.916E+28             1481.254      4.968     44.165
         TOT                       26021.4239   164.2329   219.8132   919.6983

       T/K    H(0)-H(T)+PV         H(T)/Eh          T*S/Eh         G(T)/Eh
   ------------------------------------------------------------------------
    298.15    0.414678E-01    0.318798E+00    0.104440E+00    0.214357E+00
   ------------------------------------------------------------------------

         :::::::::::::::::::::::::::::::::::::::::::::::::::::
         ::                  THERMODYNAMIC                  ::
         :::::::::::::::::::::::::::::::::::::::::::::::::::::
         :: total free energy         -55.982700836814 Eh   ::
         ::.................................................::
         :: total energy              -56.197058227329 Eh   ::
         :: zero point energy           0.277329947393 Eh   ::
         :: G(RRHO) w/o ZPVE           -0.062972556879 Eh   ::
         :: G(RRHO) contrib.            0.214357390514 Eh   ::
         :::::::::::::::::::::::::::::::::::::::::::::::::::::

           -------------------------------------------------
          | TOTAL ENERGY              -56.197058227329 Eh   |
          | TOTAL ENTHALPY            -55.878260501467 Eh   |
          | TOTAL FREE ENERGY         -55.982700836814 Eh   |
          | GRADIENT NORM               0.000373173090 Eh/α |
          | HOMO-LUMO GAP               0.386152232842 eV   |
           -------------------------------------------------

------------------------------------------------------------------------
 * finished run on 2026/09/23 at 17:30:35.021     
------------------------------------------------------------------------
 total:
 * wall-time:     0 d,  0 h,  1 min, 35.762 sec
 *  cpu-time:     0 d,  0 h,  2 min, 20.469 sec
 * ratio c/w:     1.467 speedup
 SCF:
 * wall-time:     0 d,  0 h,  0 min,  0.133 sec
 *  cpu-time:     0 d,  0 h,  0 min,  0.266 sec
 * ratio c/w:     2.003 speedup
 analytical hessian:
 * wall-time:     0 d,  0 h,  1 min, 35.383 sec
 *  cpu-time:     0 d,  0 h,  2 min, 20.062 sec
 * ratio c/w:     1.468 speedup

