55
 energy: -56.192155575565 gnorm: 0.000976219986 xtb: 6.7.1pre (5071a88)
B           -4.78060212810516       -2.60451272195463        0.31726640248521
B           -4.56946542092356       -1.35668310629316       -0.64800408778613
B           -4.46386071152997       -0.24738064342288       -1.88294476080549
B           -3.39653114248309       -2.66197939132667       -0.50282669022160
B           -3.03800920083139        0.17760662861752       -1.40477344873187
B           -4.39087183354180        0.34264421095904       -0.19239656817369
B           -5.03101221778247        1.40307827763977        0.81922154762237
B           -4.62009379700083        2.98638801988285        0.99756218559343
B           -2.80885069062964        0.51280288442160        0.19951255105648
B           -3.21855148714788        3.22753972795357        1.79323591828874
B           -2.16113324658195       -3.77582077655871       -0.58434349954053
B           -1.87692794552205       -2.24808369264506       -0.93341418929023
B           -1.69716384472834       -0.61333441376661       -0.83575132982930
B           -0.58444330516177       -3.21898361694770       -0.83504891282733
B           -0.21975092725657       -0.14844847925055       -0.31180258094942
B           -1.39498476128340        0.03581797169566        0.85208716556541
B           -1.77568622987171        1.66210958889842        0.75922379686051
B           -1.89750204291225        3.23698929716018        0.88258394155037
B           -0.21529165187858        1.03720020997037        1.06969465184616
B           -0.75211800983287        4.34800190182793        0.55841652979380
B            0.82650101803648       -4.11286966761294       -0.74004862749685
B            0.92514420166808       -2.50540356116467       -0.74972269459984
B            1.21436371257911       -0.94897940926379       -0.58697226135702
B            2.20066499946930       -3.40258613372449       -0.16816732856770
B            2.62204627016677       -0.19565142754108       -0.29297700878279
B            1.23408058935036        0.55156215911385        0.14260040767122
B            1.12484403237610        2.00092310887610        1.04298608876754
B            0.53659962080180        3.43722902666625        0.61800662574485
B            2.45801542319631        1.67264560951496        0.08749490363520
B            1.21364618475935        3.01707291317090       -0.85296287728410
B            3.22024415102024       -3.85082033065175        1.10442777006576
B            3.62404573810086       -2.65348636785488        0.06373706531976
B            4.02502698037712       -1.12193031110703       -0.23655244980638
B            4.41737557651182       -2.83547431437302        1.42032928397897
B            5.36364045778391       -0.24189778967238       -0.68977775138453
B            4.10411869328249        0.53100897266082       -0.01347678266902
B            4.01809304252315        2.32177466124435       -0.03381032896725
B            2.82183825740384        3.09683305905196       -0.91293012984188
B            5.42200667767386        1.45825389621061       -0.18528822632111
B            4.29611779141166        3.55008998152080       -1.01397913324797
H           -5.16873366508543       -3.09485622778306        1.31067667783779
H           -5.71606329046330       -2.07639163894128       -0.39350853388090
H           -5.26403353577053       -0.12071679270246       -2.74169031368908
H           -5.77109694150905        1.00744334297935        1.66460415930107
H           -5.36451415141942        3.84312534383261        0.67204394189903
H           -3.23429953466606        3.22497389599614        2.97567413799208
H           -2.35929683556703       -4.92623667158374       -0.47322520319924
H           -0.89648183974698        5.47548043557243        0.24425271060269
H            0.82234616480696       -5.24979409681697       -1.02332921113679
H            0.55369522925264        2.69429372385459       -1.78368562955645
H            2.97032308813556       -4.81755633185315        1.71725026552226
H            5.26307405215498       -2.51245427310269        2.15654244454774
H            6.38477771008240       -0.64668560311096       -1.09559042958942
H            6.50319703006137        1.83816888324287        0.06501209723081
H            5.13888969624262        4.25241405851201       -1.41544228122805
