114
 energy: -162.472040053111 gnorm: 0.000918727448 xtb: 6.7.1 (edcfbbe)
O           11.06573552484516       -2.09147763057153        3.37964815009817
C            9.88079032903682       -1.96598561246437        3.66251291776576
O            9.18356400695994       -3.01404889503432        4.12483978002821
C            9.12166914270996       -0.73051769407029        3.53433695043912
C            7.76909486983235       -0.69092433623010        3.86710309909262
C            7.02459405435318        0.48113794941364        3.72754065201574
N            5.70346064172330        0.41676265568450        4.04008082545315
N            5.00010869320696        1.50208936059852        3.81674177550407
C            3.68216553948803        1.42198767146783        4.07797769600340
C            2.87232405598436        2.52771312175956        3.74258098263881
C            1.51544427962912        2.48235538248432        3.90043112781739
C            0.85488990476101        1.34041548653425        4.40505467888507
C           -0.58130643992290        1.26171812578118        4.49778460455460
C           -1.22939825956999        0.22610747099043        5.20735013562109
C           -2.58911173082417        0.10232762828806        5.23206307651140
C           -3.41836928328337        1.01284864076306        4.54183124741501
N           -4.74012587863466        0.77609678545788        4.55000404601837
N           -5.50026070071713        1.58862297273400        3.85111366555556
C           -6.82767641705492        1.29078766255572        3.84923165580739
C           -7.67810254688994        2.11686543690881        3.08603112504896
C           -9.02400297242237        1.86538198544989        3.00325558559046
C           -9.59881918490640        0.78739514226896        3.68302047258384
O          -10.92254146572016        0.58283365773581        3.56277202205245
C           -8.76847070025334       -0.03653454469495        4.47438116041910
C           -9.35739367056155       -1.14165887067451        5.21731183219454
O          -10.54182248498931       -1.45177352925537        5.18764300554739
O           -8.49817893292053       -1.83552384926773        5.97914359509670
C           -7.40048623334260        0.21750190965318        4.54209944974853
C           -2.78239835967512        2.08961151817518        3.87942323181558
C           -1.42157314551802        2.20240848448569        3.86500180828262
C            1.68174861396938        0.26509153930496        4.79567842675157
C            3.03729001667220        0.29671359594826        4.64261954946525
C            7.68778975736377        1.64067434975789        3.26121066402324
C            9.01996047281614        1.61202293061355        2.93992585088706
C            9.76441423681664        0.43486023580609        3.05889840602257
O           11.06505863392614        0.45811358371226        2.71722208537416
H            9.76432697416792       -3.78840828926751        4.16830643433085
H            7.28312287003423       -1.58259387733830        4.22560519184709
H            3.35346544409572        3.41409902398677        3.35619056658099
H            0.94488358729619        3.36251209134603        3.64764669038262
H           -0.64455574298474       -0.48247020072199        5.77264424505687
H           -3.06124608429862       -0.69467842584389        5.78716492859747
H           -7.24413904231499        2.95444516178944        2.56421660902455
H           -9.67440060948172        2.49270160162358        2.41403458240406
H          -11.15725602289990       -0.20261556901513        4.10355127946862
H           -8.97744620401567       -2.54508459914050        6.43284318607520
H           -6.76570496612717       -0.40744906394067        5.14776449796510
H           -3.41222304213221        2.82090705377311        3.39751290437786
H           -0.98441048547733        3.03505476648107        3.33555881667062
H            1.23727171991665       -0.62175834741703        5.21933393226132
H            3.65837325023780       -0.52997150586555        4.94912116312011
H            7.11221443790547        2.54839163868141        3.16949629383340
H            9.52913076749466        2.49447676349863        2.58370756304538
H           11.43186993030768       -0.44149953213756        2.85886454854830
B           -5.65778538907444        3.08207067070082       -0.02283674322079
B           -5.81215517945901        1.44745048214065        0.47705761649383
B           -4.14211127527971        3.53316562609787       -0.68918335993528
B           -4.28494576209240        2.11999651500802        0.22722507763757
B           -4.42775099772938        0.66164198346718        1.08084473223105
B           -6.10404887017429       -1.51719054409459        2.09798665331865
B           -6.23902860249489       -2.82815843007836        3.19606342223693
B           -4.57252693592035       -0.81184477917500        1.87319133267638
B           -4.72123618131107       -2.31499941853078        2.64331175337381
B           -4.86815607882285       -3.84980455779121        3.33635339213557
B           -2.74698412584924        2.72530203007085       -0.17226479211713
B           -2.89247016370752        1.28308083435862        0.72731791354245
B           -1.21505190821494        3.41289202960326       -0.38264334249473
B           -1.36315078125587        1.88688587575986        0.32644810333986
B           -1.51281656962424        0.34742490321793        1.02550367390879
B           -3.18243058555632       -1.66617719761617        2.32740196319900
B           -3.32964283849573       -3.19693093584850        3.06428971775559
B           -1.65765389235872       -1.12521928655708        1.82928533999534
B           -1.79923413425175       -2.54573702285472        2.74767256905633
B           -1.94137904679882       -3.97306378519550        3.63935613811538
B            0.17276789398711        2.53245121268583        0.00789012476449
B            0.01985875014047        0.94877140232630        0.63696148007769
B            1.70391554642202        3.14438013073599       -0.34868276484420
B            1.55514322677045        1.62145572928082        0.36627081312050
B            1.40515964076376        0.08090921248738        1.06295282151182
B           -0.27011433777648       -1.99855634026037        2.24571779923178
B           -0.40950757269649       -3.38733434039182        3.23468735682189
B            1.26037032156982       -1.39140184779005        1.86748835364722
B            1.11919221870057       -2.81003080681453        2.78903304731326
B            0.97798990965083       -4.23617963448378        3.68264771034839
B            3.08271227658563        2.19488056903402       -0.09371243627715
B            2.94105440966960        0.74386956779189        0.79048691116144
B            4.61065536326035        2.73067536267525       -0.58214358927774
B            4.47178443776991        1.31362853997228        0.32835204764253
B            4.32577762819905       -0.15067867883755        1.17021149973190
B            2.65149450860310       -2.19954003586140        2.40154783570732
B            2.49941981299942       -3.73505151033038        3.12896276805803
B            4.18186643793539       -1.61193588210640        1.98476732354877
B            4.03582529480425       -3.11684173239953        2.75262116625939
B            3.88454025431238       -4.65167052378782        3.44456067405468
B            6.00508016202324        2.01242055822922        0.11957148957550
B            5.84706623252798        0.37485379833857        0.61295234573920
B            5.55535364305310       -2.59072980845709        2.23339720122783
B            5.42412076843072       -3.89607511472290        3.34027598698723
H           -6.53739070637997        3.84911475608735        0.04469201511588
H           -6.79838718113994        0.87197250103894        0.23834294077831
H           -4.11023486608127        4.31800738049764       -1.55817976739067
H           -7.02066313164127       -1.25092900326466        1.42643721502925
H           -7.22868996554819       -3.05733354289088        3.77036847477955
H           -5.02674368211896       -5.00000082042601        3.49328273249205
H           -1.12091124133072        4.51426992570287       -0.77221138641688
H           -2.04532028057925       -4.90830902558255        4.33802444382037
H            1.82045936346490        4.23720634626599       -0.75559099962259
H            0.89924755489215       -5.15208861155080        4.40991844617932
H            4.74355750548202        3.48591028209145       -1.46763729886984
H            3.82839872150972       -5.80594556936972        3.63679551712116
H            7.01389553726118        2.59290755997704        0.20833961708144
H            6.73176661453216       -0.35930425810023        0.41448319771377
H            6.49887760471343       -2.51651318070399        1.55122969006573
H            6.32782951515642       -4.28007856257809        3.97346613305866
