114
 energy: -162.521581512296 gnorm: 0.000819377102 xtb: 6.7.1 (edcfbbe)
O            1.21871643534475       10.76335612199789        3.27938594331656
C            1.31999379753595        9.58532021691942        3.59892015261144
O            2.52674191521801        9.05999472809092        3.86112191528812
C            0.20424158419829        8.65843401436456        3.72247287725622
C            0.41797899628036        7.33298713103182        4.09262760365842
C           -0.64254088462119        6.43121800648659        4.19675472946018
N           -0.33423251652905        5.15386126631070        4.53660103401525
N           -1.31261219834181        4.28106665157455        4.46747623651384
C           -0.98031586269175        3.00084298219860        4.75602966094106
C           -1.97446324364841        2.01636930708110        4.60104935884587
C           -1.67686476584251        0.68674015606145        4.74317087842801
C           -0.38009366263477        0.23927896203175        5.05716627840717
C           -0.02781305082185       -1.16861990358403        4.97656863113776
C            1.30739980679818       -1.61046623297320        5.00897696128833
C            1.67559994398074       -2.84081294321681        4.52640571539714
C            0.71884184400808       -3.69396209500756        3.94763478005736
N            1.10312087115669       -4.65095584961782        3.04421822073426
N            0.09396460146308       -5.19922007442868        2.24322386037948
C           -0.66073036590104       -6.25213575223097        2.61704766258093
C           -1.50014257320071       -6.89468179113321        1.68177468657887
C           -2.29300726430840       -7.95225656475374        2.05036362650868
C           -2.29026198508303       -8.43904741706273        3.35972615910762
O           -3.09737595280584       -9.47630353397765        3.66428140534889
C           -1.43641623591070       -7.83017242102395        4.30063798624755
C           -1.39473491267449       -8.33552752882374        5.66400763829037
O           -2.06326273116350       -9.27046892322565        6.08497135125835
O           -0.54385964655627       -7.69333686922835        6.48261254995958
C           -0.63519015254358       -6.75050235379682        3.92256781326279
C           -0.63090164102218       -3.38853490820535        4.19802045119504
C           -0.98334867418601       -2.15807657641244        4.69807745177999
C            0.58563632342547        1.23511621794590        5.29194034484620
C            0.30578658093069        2.56735747688464        5.14508010689161
C           -1.95070650146870        6.90348601660707        3.93276995525924
C           -2.17031554068607        8.21166159350674        3.58204059016896
C           -1.10986024556121        9.11220809531601        3.45924087906918
O           -1.37904632973803       10.37937779459543        3.09700337631460
H            3.20132202816072        9.74749444887631        3.75547264185963
H            1.41919388675887        6.98783287251337        4.28925477495347
H           -2.97474444582277        2.33155859252001        4.34628979202581
H           -2.46820047056207       -0.02704239241576        4.58231116913852
H            2.08667195028986       -0.95967590451903        5.36923143884553
H            2.71447947319433       -3.12854954980941        4.51532868971604
H           -1.50199748747104       -6.54487219456187        0.66302228393354
H           -2.93568688128055       -8.43828944812290        1.33342944995913
H           -2.95872011158467       -9.69728756984319        4.60922424086673
H           -0.58539509246560       -8.10035710341348        7.36094057189157
H            0.02121786353720       -6.31060454333335        4.65586549295981
H           -1.40175877489953       -4.09487471592977        3.93144926562807
H           -2.03390048336735       -1.95057247091056        4.82472007894806
H            1.58380411880985        0.95449334847954        5.59122186868057
H            1.06020705951658        3.32085114404598        5.30985854221991
H           -2.77085813320778        6.21192418678330        4.04068587559300
H           -3.16597644583533        8.57776327115662        3.38560983125298
H           -0.53030247550465       10.87197203780001        3.06401089533481
B           -3.76325901100373        5.19672936523724        1.22355020074864
B           -4.27822383460122        3.65506929125521        0.67307892280253
B           -2.06950171205903        5.48051663874257        1.20804364847108
B           -2.67142643928253        3.90323911556846        1.12057018430867
B           -3.26170109756392        2.32074036325439        0.96360717880127
B           -5.43971469362665        0.49964999507958        0.23804761777257
B           -6.06676246659833       -1.08711592126518        0.29120700511127
B           -3.83793041304924        0.75760527903056        0.75545303932269
B           -4.40506957429445       -0.81376507046082        0.45533622180704
B           -4.95243546155338       -2.37232569683251        0.09167504006309
B           -1.01763959337571        4.16962358687083        1.40988818158538
B           -1.62646962083854        2.57711573908784        1.32722247839372
B            0.62501262102076        4.42590343170365        1.69010976897751
B            0.03806835803169        2.85320055463065        1.51315944731649
B           -0.54121196352843        1.27651077408276        1.29068265159222
B           -2.77363067302108       -0.55637276144588        0.85752065856761
B           -3.32546072703301       -2.12987052691919        0.48748173188639
B           -1.12528792720055       -0.29185657930317        1.11296823254696
B           -1.72335055394870       -1.87497924433370        0.99393912216052
B           -2.30698330413151       -3.44771656999978        0.81694818787245
B            1.65271714450915        3.10613146495813        1.98294931761777
B            1.09979566755542        1.53457292040486        1.61185579426856
B            3.27320180249482        3.35143282355084        2.38627454917545
B            2.71932754861701        1.79193644321467        2.04656186826110
B            2.16174679732366        0.22474931489341        1.71129120881586
B           -0.05683981102562       -1.60446799912491        1.19356483567194
B           -0.63570825283867       -3.18050768072608        0.94731672510492
B            1.58377313049917       -1.34346081329861        1.49981883989935
B            1.02427477843805       -2.90830234718949        1.18835991569046
B            0.45094443290213       -4.48163720328683        0.93392270789060
B            4.37156817694535        2.06346899343086        2.30910648793143
B            3.78100626221195        0.47432291604048        2.13726932194405
B            6.03285389590269        2.32143560998666        2.50001059530169
B            5.43964281136653        0.74482630764231        2.37872566923806
B            4.85611195151318       -0.83329824399387        2.16520610660275
B            2.63412436800169       -2.65911378314474        1.66335630814682
B            1.99454631321533       -4.25097693634352        1.73974043678786
B            4.27492210705704       -2.39785942868580        1.98344115147694
B            3.69138963168770       -3.97795433182449        1.79261161247964
B            3.11262443936779       -5.54733500721113        1.56709371871965
B            7.03325297514716        0.98901386835012        2.91730918951166
B            6.51759262192703       -0.55381033252405        2.37857261338856
B            5.28977470624400       -3.73316853204557        2.28445313307454
B            4.78381241275296       -5.27288173878902        1.71037987882612
H           -4.52681859436428        6.01829475349883        1.54975861969657
H           -5.25817648646536        3.57797705546495        0.04421189793991
H           -1.67332332664522        6.51915026269719        0.84242004486063
H           -6.07550790362306        1.35473212959403       -0.23729700253740
H           -7.20544029873440       -1.31547171306437        0.43507532886423
H           -5.32439172242928       -3.38505253820931       -0.36415256016250
H            1.06754429911943        5.50482166210737        1.59502225603057
H           -2.78711347654744       -4.47995045530308        1.08713434538435
H            3.64581874805185        4.41854242201676        2.69045565184335
H            0.44489660170659       -5.16283635420253       -0.04776266407791
H            6.52374864110167        3.36844959410305        2.30956086523862
H            2.70703829575134       -6.64523934884141        1.59481337495119
H            8.01862635089167        1.15777326708308        3.52504930961227
H            7.30956760181619       -1.32968529032158        2.00810179554702
H            6.25170130499468       -3.63883742285958        2.94123011905073
H            5.54907084066784       -6.12704507115230        1.47519020577916
