57
RDKit ETKDG+MMFF
C      -7.46886327     -0.86770584     -0.03625097
O      -6.94957780      0.44597048      0.10918853
C      -5.58352729      0.59486154      0.14266343
C      -4.67386297     -0.46819303      0.02020349
C      -3.31580984     -0.19418926      0.07198332
C      -2.88161538      1.11244104      0.23323146
C      -3.74180876      2.18846209      0.35149024
C      -5.11432084      1.92848759      0.30719237
O      -6.08538453      2.89508616      0.41475641
C      -5.65789684      4.24174627      0.56678051
C      -1.42568142      1.11306743      0.26163499
O      -0.75182970      2.12592685      0.32516965
C      -0.92224144     -0.32090539      0.24572741
C       0.22801131     -0.49855751     -0.75013810
C       0.76167725     -1.94381699     -0.87577266
C       1.34689995     -2.50377672      0.43006931
C       2.69588168     -1.87295752      0.78790110
N       3.64869554     -2.04752847     -0.30994416
C       5.02423213     -1.66368808      0.04310085
C       5.27044394     -0.20492056      0.36711863
C       5.14993470      0.26634643      1.68314253
C       5.37401378      1.61174203      1.98047540
C       5.72537276      2.50108561      0.96727008
C       5.85561162      2.04615429     -0.34307830
C       5.63157486      0.70101141     -0.64157758
C       3.17528468     -1.43518008     -1.55310650
C       1.83235015     -2.03901241     -1.97749403
C      -2.18060667     -1.15716480     -0.08351156
H      -7.17213543     -1.50551664      0.80284102
H      -7.16933842     -1.30668549     -0.99354095
H      -8.56093142     -0.79834632     -0.03033971
H      -4.99891984     -1.49261838     -0.11928300
H      -3.32689965      3.18113276      0.47608457
H      -6.55108491      4.87080288      0.62961060
H      -5.07868651      4.57299645     -0.30139977
H      -5.09249759      4.37405143      1.49506582
H      -0.59131727     -0.54045046      1.26804105
H       1.03997713      0.18340624     -0.47074085
H      -0.10811071     -0.15946598     -1.73974041
H      -0.07401759     -2.58783057     -1.17588761
H       0.64770193     -2.38277947      1.26340800
H       1.48697124     -3.58735254      0.31304682
H       3.07067807     -2.37242742      1.68958888
H       2.55251485     -0.81538740      1.03703488
H       5.69727845     -1.96196115     -0.77237596
H       5.35674193     -2.27420657      0.89379303
H       4.87667343     -0.41514201      2.48535634
H       5.27192660      1.96629501      3.00269398
H       5.89630274      3.54901898      1.19866896
H       6.12947323      2.73951906     -1.13383258
H       5.73710635      0.36159320     -1.66940235
H       3.07356949     -0.34853282     -1.45462429
H       3.89594569     -1.62167797     -2.35866654
H       1.98496864     -3.09714848     -2.22985723
H       1.48166077     -1.55109448     -2.89467735
H      -2.16671664     -1.53389030     -1.11188159
H      -2.27579216     -2.00109411      0.60731285
