57
Donepezil GFN2 opt
C      -7.48537630     -0.68054630     -0.18892903
O      -6.89112170      0.57392606      0.03726282
C      -5.53943036      0.65457772      0.08360179
C      -4.67439827     -0.41331422     -0.11561146
C      -3.30955468     -0.20420148     -0.02414989
C      -2.81267184      1.05920123      0.26921131
C      -3.66385080      2.14780733      0.45242717
C      -5.02729687      1.95200663      0.35935400
O      -5.97173998      2.91828258      0.51832047
C      -5.53663784      4.23026379      0.77923272
C      -1.35322921      1.02539689      0.35512767
O      -0.59813273      1.95491992      0.52532205
C      -0.93482085     -0.44010718      0.21001744
C       0.26325740     -0.57627709     -0.72978633
C       0.81475308     -2.00283261     -0.83597498
C       1.43450448     -2.52769218      0.46168006
C       2.75632641     -1.83667054      0.78454083
N       3.68783493     -2.03323555     -0.30891829
C       5.05698789     -1.65583224      0.01474648
C       5.24208667     -0.19471332      0.34740046
C       5.10221788      0.25619912      1.65475284
C       5.19762272      1.60389766      1.95256687
C       5.43475008      2.52245250      0.94452744
C       5.58542310      2.08421902     -0.35980733
C       5.48985586      0.73570541     -0.65493501
C       3.18421076     -1.42782099     -1.52601197
C       1.87887796     -2.10710374     -1.93355036
C      -2.20220079     -1.19249520     -0.22519655
H      -7.21067009     -1.40153124      0.58798042
H      -7.21623844     -1.08365634     -1.17069711
H      -8.55942358     -0.50624787     -0.15430482
H      -5.05289459     -1.39832482     -0.33837106
H      -3.23455739      3.11199569      0.66974697
H      -6.44258885      4.82880101      0.85851260
H      -4.91580063      4.61742804     -0.03523541
H      -4.97887874      4.29028488      1.71942712
H      -0.63777122     -0.76420830      1.21290682
H       1.03548054      0.10998657     -0.38142055
H      -0.04092845     -0.24587909     -1.72715080
H      -0.01905837     -2.66170900     -1.10702693
H       0.74813636     -2.40547671      1.30055003
H       1.62972006     -3.59520175      0.34099784
H       3.18559669     -2.28979552      1.68257765
H       2.58201832     -0.76775821      0.99496882
H       5.67676013     -1.92365409     -0.84624252
H       5.36659788     -2.27156707      0.86495651
H       4.92303116     -0.45641120      2.44781538
H       5.08577953      1.93800343      2.97394851
H       5.50621506      3.57512301      1.17529582
H       5.77816843      2.79505835     -1.15040416
H       5.61618245      0.39992251     -1.67478941
H       3.02385111     -0.34206718     -1.41481777
H       3.92664638     -1.57963336     -2.31460016
H       2.08854797     -3.16228656     -2.11945121
H       1.51357663     -1.66223948     -2.86119435
H      -2.14156176     -1.46656742     -1.28174624
H      -2.36418356     -2.10840146      0.34506927
