60
 energy: -61.506050642011 gnorm: 0.000965792296 xtb: 6.7.1 (edcfbbe)
B           -5.89084763688137        2.91590577326718        0.41804871600746
B           -5.82002534823657        1.27030225001488       -0.09640883142400
B           -4.45634777516891        3.82998651862119        0.14795954873124
B           -4.39977300908804        2.14528100241090        0.11798303216494
B           -4.33890671547339        0.44973181371670        0.04938727911594
B           -5.70889822879769       -2.14438172934687        0.09899549073994
B           -5.64270465878573       -3.79437482277005       -0.37613840840348
B           -4.28098318473540       -1.22386410545564        0.01045950320427
B           -4.22356332676671       -2.92109243368874       -0.03975165524812
B           -4.16306406101278       -4.60683178729499       -0.04376743109381
B           -2.96047083667165        3.04600089127293        0.25441381870298
B           -2.90537287999197        1.33421293880878        0.25599094012632
B           -1.53700557794041        3.90919819017051        0.55374556864960
B           -1.47444885551596        2.23524544614801        0.34628731253260
B           -1.41264309264973        0.54878041795261        0.18481550075277
B           -2.78321621649483       -2.01332982934512       -0.05751804318789
B           -2.72021724036711       -3.71986623146249       -0.13109627711884
B           -1.35287672024532       -1.12739838733680        0.08216128895576
B           -1.29114662088978       -2.81168427387773       -0.11402909478472
B           -1.22704885129879       -4.47878453142847       -0.38203759952187
B           -0.04125083253479        3.12705443088178        0.53369014902873
B            0.02483412861287        1.44581917898100        0.18446243933007
B            1.39080289751969        3.99870633757329        0.71330499125671
B            1.45336427849213        2.33266244458159        0.44156181333688
B            1.51759833892039        0.65645046527387        0.16227411213377
B            0.14392493746774       -1.91312330347118        0.00689767514952
B            0.20404607473670       -3.61700637668831       -0.08596969127600
B            1.57784881506786       -1.01905101685423        0.03726177735391
B            1.63607311747671       -2.71752719539531        0.03802705567255
B            1.69202181232099       -4.40706225649727        0.07713184816644
B            2.88556656005282        3.24467639540213        0.42075956038046
B            2.94768324531922        1.53343757838808        0.40515610081231
B            4.32654597668419        4.12837837815587        0.38859104919561
B            4.38564187960413        2.44086042983769        0.40846686371348
B            4.44315866466255        0.74349647595864        0.35424553561481
B            3.06864802675564       -1.81714503741687        0.13477870905737
B            3.12857623143194       -3.51501054118746       -0.05941018501465
B            4.50292021654400       -0.92505857734122        0.23677239717989
B            4.56754669950577       -2.61224793861749        0.04694633232283
B            4.62855276237648       -4.27860483666323       -0.22643766774091
B            5.80620426383371        3.31208015212432        0.74427787802262
B            5.87447559794886        1.66715038609888        0.26269705550507
B            5.99635122499850       -1.72128761368226        0.02642322547325
B            6.04856007585241       -3.41884050603983        0.23949397847695
H           -6.86074377245386        3.40783425097530        0.85849060563740
H           -6.74671008985288        0.79449378848280       -0.63461326189653
H           -4.54732303999435        4.95947245855330       -0.16706210674484
H           -6.68064995021030       -1.71912172515492        0.59696135673599
H           -6.55150042539166       -4.37303736635369       -0.83974599629304
H           -4.18478371027297       -5.74132126524086        0.26333755230067
H           -1.59141351454885        5.06465809053967        0.77094174208405
H           -1.18335334653451       -5.60502086639943       -0.71792296953002
H            1.36490567162891        5.11373289424812        1.08723711025902
H            1.73812812213532       -5.56871855572808        0.25518357727639
H            4.35891769646417        5.26320723745082        0.08431201707838
H            4.73566105134581       -5.36639827613234       -0.65809681931105
H            6.70907273183137        3.88391245688735        1.22878482886527
H            6.86099675687293        1.24691671331220       -0.20589083632590
H            6.94374594700877       -1.15496737078515       -0.36012712921114
H            6.98960290533366       -4.00098241843439        0.63012741702240
