29
RDKit ETKDG+MMFF
O       6.15916857      0.01414966     -0.07717364
C       4.79926462     -0.07791626     -0.06595959
C       4.04661331      0.42733257      0.98813311
C       2.65350776      0.30963186      0.95672990
C       2.01121427     -0.30189939     -0.12966148
C       0.55223769     -0.47183521     -0.18368267
C      -0.32327870      0.45708271      0.23369301
C      -1.78245456      0.28635359      0.18246153
C      -2.55736143      0.78071896      1.23995425
C      -3.94446178      0.65933786      1.20915744
O      -4.64844248      1.15004103      2.26995074
C      -4.58505284      0.06010745      0.13176220
C      -3.81768264     -0.41457017     -0.92519893
O      -4.47512169     -0.98663497     -1.97568984
C      -2.42739851     -0.30415683     -0.91393537
C       2.79174337     -0.81814474     -1.17282932
C       4.18342880     -0.70081904     -1.14369588
H       6.44526300      0.46939916      0.73155865
H       4.51874337      0.90676424      1.83955873
H       2.07679456      0.69016786      1.79638508
H       0.20912015     -1.41740135     -0.59624881
H       0.01976521      1.40157485      0.64972918
H      -2.08834361      1.25508897      2.09833621
H      -5.59409580      0.99262465      2.11065918
H      -5.66429698     -0.03968871      0.09433707
H      -3.82156579     -1.25991462     -2.64069807
H      -1.84431502     -0.66262998     -1.75652622
H       2.32389135     -1.30902519     -2.02282361
H       4.78311578     -1.09573894     -1.95867783
