35
Azure A GFN2 opt
C      -5.99694126     -1.36134246      0.60567308
N      -5.56501179     -0.15698262     -0.05575280
C      -4.29272533      0.23125383     -0.20220930
C      -4.01234052      1.45515071     -0.87553307
C      -2.73803992      1.88553109     -1.04399788
C      -1.62862278      1.13544239     -0.55962812
N      -0.42440577      1.63723248     -0.76943479
C       0.69458399      1.05536323     -0.38546053
C       1.91654107      1.72056707     -0.68562920
C       3.12060181      1.20291752     -0.33900053
C       3.22538835     -0.04547174      0.34855587
N       4.41970419     -0.55613940      0.68367800
C       5.64362807      0.15067507      0.38194230
C       4.51334472     -1.82361195      1.36996536
C       2.02375253     -0.71521867      0.65699010
C       0.80112155     -0.19099389      0.30795468
S      -0.63188711     -1.09032308      0.73719969
C      -1.91846744     -0.09358018      0.11111616
C      -3.21530963     -0.52612092      0.28304784
H      -5.57953178     -2.24427370      0.11717551
H      -7.08029298     -1.42169915      0.56243635
H      -5.68939594     -1.36256105      1.65382806
H      -6.27909050      0.45036908     -0.42807299
H      -4.83954932      2.03838529     -1.25167709
H      -2.51379216      2.81025933     -1.55057420
H       1.83919471      2.66152638     -1.20618204
H       4.01228918      1.74960630     -0.59285832
H       6.49342410     -0.42197998      0.74188662
H       5.66185637      1.12713486      0.87032167
H       5.76086402      0.29056717     -0.69447569
H       4.06036533     -2.62132032      0.77769872
H       5.55673891     -2.07582049      1.53417974
H       4.01684438     -1.77951418      2.34183666
H       2.03690727     -1.65755518      1.17871689
H      -3.39174635     -1.45747287      0.79646532
