42
drug @complex
C      -4.35188618     -2.42385838      4.26575267
O      -3.43658821     -1.40155639      3.94655618
C      -2.12544642     -1.58950887      4.27994047
C      -1.56752546     -2.78117571      4.73738276
C      -0.22197221     -2.86640471      5.06293457
C       0.62697782     -1.76795086      4.99597742
C       0.07492380     -0.58596991      4.53480324
C      -1.26054712     -0.50707773      4.15243049
O      -1.60961778      0.72291255      3.68093557
C      -0.38531023      1.46285082      3.50456922
C      -0.60962484      2.94320706      3.77416141
C      -1.06743291      3.17065797      5.21782506
O      -2.42587709      2.81600355      5.38690602
C      -0.17924530      2.41252349      6.17147427
C       0.58982345      1.39216744      5.81917430
C       0.65763077      0.80263649      4.43354712
C       2.06098837      0.85340866      3.82537540
C       3.15290124      0.11699995      4.59995375
N       3.03507713     -1.33178461      4.52416901
C       4.32585189     -1.96550608      4.72502472
C       2.05525342     -1.88341118      5.44982324
H      -5.33138347     -2.03349191      3.99549160
H      -4.33295862     -2.65380216      5.33574898
H      -4.15702885     -3.33295461      3.68766859
H      -2.17948936     -3.66149226      4.83408816
H       0.16647512     -3.81594226      5.39615058
H      -0.08094683      1.31748217      2.45688241
H       0.32446332      3.47582897      3.59700381
H      -1.37136084      3.32787139      3.09564986
H      -1.02437424      4.23957525      5.46129284
H      -2.54053643      1.94016040      4.98790448
H      -0.22980547      2.72679132      7.20358646
H       1.17633811      0.88305214      6.56931810
H       2.35746676      1.90126891      3.74460770
H       2.01958689      0.41789772      2.82422531
H       4.10147018      0.38633600      4.12998771
H       3.19376829      0.46314084      5.64687331
H       4.72527808     -1.80494319      5.73891711
H       5.03598787     -1.56982842      4.00186466
H       4.23003166     -3.03622063      4.55316263
H       2.27504907     -2.94571969      5.57401828
H       2.15101861     -1.41442845      6.44926066
