102
 energy: -123.784017961445 gnorm: 0.000801184443 xtb: 6.7.1 (edcfbbe)
C           -4.35188617975011       -2.42385838440099        4.26575267494526
O           -3.43658820559370       -1.40155639028360        3.94655617952643
C           -2.12544641708980       -1.58950887016134        4.27994047451627
C           -1.56752545944753       -2.78117571041047        4.73738275636024
C           -0.22197220729639       -2.86640471230927        5.06293456730161
C            0.62697782496250       -1.76795086036924        4.99597742230634
C            0.07492379768917       -0.58596991356716        4.53480323573024
C           -1.26054711933679       -0.50707773032022        4.15243049080160
O           -1.60961778319033        0.72291255309133        3.68093556868119
C           -0.38531022706730        1.46285082336474        3.50456922163555
C           -0.60962483514761        2.94320705716570        3.77416140740467
C           -1.06743291293888        3.17065796627531        5.21782505610887
O           -2.42587708818848        2.81600355133576        5.38690601518065
C           -0.17924529682197        2.41252348747443        6.17147427406845
C            0.58982345428046        1.39216743861588        5.81917430147073
C            0.65763077269909        0.80263649307230        4.43354711537706
C            2.06098836906291        0.85340865959865        3.82537539745579
C            3.15290124182121        0.11699994566008        4.59995374858781
N            3.03507713362935       -1.33178460805266        4.52416900993763
C            4.32585189421082       -1.96550608184338        4.72502472499719
C            2.05525341660677       -1.88341117739495        5.44982323715921
H           -5.33138347196379       -2.03349191175626        3.99549159625849
H           -4.33295861515039       -2.65380216095669        5.33574897689204
H           -4.15702885180205       -3.33295460578037        3.68766858638190
H           -2.17948935902331       -3.66149225829769        4.83408815568229
H            0.16647512170878       -3.81594226303500        5.39615057991361
H           -0.08094683223661        1.31748216779510        2.45688241431021
H            0.32446332090528        3.47582896840717        3.59700380908922
H           -1.37136084275694        3.32787139368625        3.09564986339565
H           -1.02437423759256        4.23957524940438        5.46129284256321
H           -2.54053642784607        1.94016040415566        4.98790447800243
H           -0.22980546950362        2.72679132049589        7.20358645566970
H            1.17633810959712        0.88305214011356        6.56931810198292
H            2.35746676205914        1.90126890899148        3.74460770249067
H            2.01958688629538        0.41789772243282        2.82422530665021
H            4.10147018190135        0.38633600229990        4.12998771363834
H            3.19376828853108        0.46314084137261        5.64687330603097
H            4.72527807807515       -1.80494318709961        5.73891710906832
H            5.03598787277987       -1.56982841617499        4.00186465669479
H            4.23003165537974       -3.03622063497741        4.55316262853920
H            2.27504906618590       -2.94571969380564        5.57401828355658
H            2.15101860803819       -1.41442844737512        6.44926065718831
B           -5.87470824995259        3.60136551960048       -0.34413631186291
B           -5.91501837470245        1.89101819865295       -0.30951510961550
B           -4.37572720296465        4.32772512054566       -0.75162577993058
B           -4.43835843658243        2.70428426251702       -0.28483024026747
B           -4.49477696486563        1.05748883166914        0.11982711285991
B           -6.02640732480332       -1.42540444214935        0.38917857054540
B           -6.09409910350080       -3.01393678950657        1.01190454656560
B           -4.54947835808029       -0.58435239677286        0.46315548319271
B           -4.60289373337761       -2.25990756308962        0.72849382998173
B           -4.64980338007186       -3.93480916606944        0.95106973313487
B           -2.94035551261916        3.50011799928605       -0.40571367964533
B           -3.00277171739229        1.85576866420393        0.04452514814237
B           -1.46454468988676        4.32451836812206       -0.30029882831389
B           -1.51416229692724        2.65190563279970       -0.06794176194232
B           -1.56339660918272        0.96906405435585        0.14962388218614
B           -3.11119176863917       -1.44735452888401        0.69807127058703
B           -3.16074077974195       -3.12993256455813        0.96496054273085
B           -1.61823741852779       -0.67821732146345        0.49306545461570
B           -1.67858629874559       -2.31393217422197        0.93971925823812
B           -1.73933529138407       -3.93569296453994        1.41382479378282
B           -0.02444671317081        3.46083735951211       -0.11470414850814
B           -0.07107326357355        1.75726987025229        0.03590367750669
B            1.46442999548365        4.24897202145991       -0.20341779011567
B            1.41342023592269        2.58013470040889        0.05242637230482
B            1.36006804091082        0.91334108906781        0.35187362000053
B           -0.18487103767136       -1.52184087153126        0.80902908158964
B           -0.24153679365144       -3.18074321838076        1.18417272858303
B            1.30326677225738       -0.72507342861607        0.73485531964853
B            1.24928742103250       -2.38617697270955        1.06329202328159
B            1.20019040640850       -4.06471719750467        1.26812240634706
B            2.90541459867806        3.36475623942771       -0.11930220397153
B            2.84788759698871        1.71822274378287        0.31787483935984
B            4.40181345858202        4.12325300836607       -0.32717879177233
B            4.34490783500999        2.49178325506542        0.10253525824310
B            4.28613119142905        0.84241783410657        0.49351194904533
B            2.74040421094171       -1.58938061362450        0.95309678435812
B            2.68073468062848       -3.24559429539728        1.34449576533387
B            4.22890938628931       -0.78751076013982        0.89006278551653
B            4.17368222863704       -2.43924144663606        1.27174875360450
B            4.11130611210448       -4.06517660814322        1.72473879352311
B            5.82073125143271        3.33032022343919        0.22291031437136
B            5.77944790004129        1.61687906202469        0.25335408711787
B            5.65310534052995       -1.62685748031508        1.28649426154778
B            5.61320443521646       -3.33857673016038        1.32590360971546
H           -6.82387474711590        4.25897690686756       -0.13471453029509
H           -6.87210172313687        1.33667425515395       -0.69157839015373
H           -4.37083134560550        5.34665540361920       -1.33694793520496
H           -6.95127923421689       -0.98738807885554       -0.17685777501275
H           -7.06761597123197       -3.48146617346487        1.47373079453226
H           -4.71711467915777       -5.10687047102739        0.87987314428435
H           -1.44959171077546        5.49988873718460       -0.29751052957124
H           -1.79909666179780       -5.01718678374073        1.87269855572597
H            1.50581274199724        5.41580639519448       -0.34159605733391
H            1.17263533898295       -5.23948652229143        1.30866200766635
H            4.50296273821884        5.14244278572701       -0.90493108656129
H            4.10779420456760       -5.09810490874026        2.28687348867152
H            6.77370939724675        3.94530362115003        0.52662322282042
H            6.74555949565747        1.01415884047960       -0.02564371415544
H            6.59822471118564       -1.05931114554031        1.68612683435740
H            6.55558161969426       -4.00685246216355        1.11877355520498
