102
 energy: -123.782151153902 gnorm: 0.000852834219 xtb: 6.7.1 (edcfbbe)
C            4.61920144729254        2.30776889592595        4.26257764944517
O            3.71514856914704        1.27410045889983        3.94953696980338
C            2.39062212789031        1.48052276163241        4.20781905296224
C            1.80813381025611        2.70346651890693        4.53401066792711
C            0.44965034223314        2.80589978817187        4.79754460938445
C           -0.38978149478848        1.69843150828920        4.79716442225938
C            0.18670440148490        0.48547443897136        4.46292261800328
C            1.53592979753958        0.38454474783844        4.13981045284044
O            1.90791822625010       -0.87868993973704        3.78964639524911
C            0.69392990233875       -1.63749918164696        3.62667625785790
C            0.91191981385760       -3.09047131378606        4.01997181382331
C            1.30422017664446       -3.20151984086849        5.49635446244332
O            2.65205259608558       -2.82583089500904        5.70013080169603
C            0.37214228195335       -2.37662370905756        6.34717854802119
C           -0.38023132244057       -1.38863742746297        5.88384728292430
C           -0.38761574761242       -0.91001633757965        4.45495984956597
C           -1.76120066364053       -1.01333617997175        3.78879254863893
C           -2.89002631432341       -0.23136683387814        4.45791414149575
N           -2.77790052488138        1.20820752978594        4.27472967006811
C           -4.08004388644426        1.84186949605760        4.37954689522378
C           -1.83460079111769        1.83791538985076        5.18872924572778
H            5.60847549583910        1.89633756592996        4.07155163891935
H            4.54084517878220        2.59800590544572        5.31516867321220
H            4.47017230752230        3.18533809133874        3.62549753290188
H            2.41166638216571        3.59411369270848        4.57719151168909
H            0.04399595015626        3.77821564159706        5.02904834404426
H            0.42932121833875       -1.57327811430147        2.56054075163975
H           -0.01021203220674       -3.64337922153759        3.84175506151395
H            1.70510318189921       -3.52135558449098        3.40812518448406
H            1.25328619724882       -4.24863281697835        5.81982919610901
H            2.78406910587794       -1.98311200771675        5.24017298392530
H            0.37685953629184       -2.61045656817339        7.40168093086343
H           -0.99919665563594       -0.82530085835600        6.56608048774359
H           -2.04894326037967       -2.06675312385515        3.76693225334933
H           -1.67722539508030       -0.64394272355279        2.76223172835012
H           -3.81617403121759       -0.54453962705899        3.97075958710956
H           -2.97329359362233       -0.49647295145202        5.52567661595193
H           -4.51862262306279        1.74899862526909        5.38564438891566
H           -4.75784610229847        1.38740630728011        3.65963891838810
H           -3.98636243578083        2.89926609752727        4.13796117156334
H           -2.06409712435053        2.90490486088291        5.22255017973598
H           -1.96363643068990        1.44685481898358        6.21731727137068
B           -5.88948063364394        3.31837536410289        0.89740476621490
B           -5.89242448263912        1.60706499567644        0.97660091905629
B           -4.42229958499366        4.10508721645836        1.30210357054204
B           -4.43344746839485        2.45177971841280        0.95556540342616
B           -4.43952357902494        0.77637080895457        0.69112224395544
B           -5.91145922781740       -1.70118361001483        0.16465134959554
B           -5.91592240816690       -3.41365776870027        0.25302052153121
B           -4.44757313591055       -0.87758211375428        0.40564689930132
B           -4.45696139828871       -2.55100706992062        0.12945152912806
B           -4.46341466698452       -4.20893685642414       -0.18794230609476
B           -2.95883577458689        3.29522862083996        1.03150907322435
B           -2.96890194853877        1.61491466331266        0.75553150929275
B           -1.49615497321332        4.14121060264795        0.95727792749189
B           -1.50253290015517        2.45161795484988        0.86848266695580
B           -1.50927859936323        0.77045055166710        0.65902482680339
B           -2.98321220129019       -1.72969106609366        0.34556639174506
B           -2.98968107043332       -3.40299032099522        0.02081167792062
B           -1.51731579005490       -0.89064636117669        0.38521480435669
B           -1.52447249827029       -2.57436022264558        0.19636106867326
B           -1.53094201132024       -4.25741928761088        0.05457501760246
B           -0.03170962582620        3.28676190625604        0.99226810693652
B           -0.03939613571419        1.60476674816057        0.73441277995063
B            1.43755078692669        4.08950888267741        1.22856434039696
B            1.42890888218077        2.43810254492241        0.86796823516444
B            1.41951021251724        0.77689202705480        0.52024543844154
B           -0.05552719795529       -1.71915011067194        0.17237744212511
B           -0.06079420149365       -3.42963268893797        0.13572404771925
B            1.41202734488012       -0.88944200456398        0.28026823561694
B            1.40609233336388       -2.58216125465015        0.16010562686106
B            1.40043461676317       -4.27011512982238        0.06446705951213
B            2.89431626537170        3.28852685794513        0.89256480283014
B            2.88978663778649        1.59314832619436        0.72345484668381
B            4.36288738255523        4.12641094898318        0.87070998352644
B            4.35936581605296        2.44088883854079        0.75032903833944
B            4.35107705599417        0.75049463417717        0.59834775469732
B            2.87514619360287       -1.74783679882271        0.29074319091659
B            2.86444567683819       -3.42133436176242       -0.03739374289216
B            4.34373954060853       -0.91197329016028        0.36936907802796
B            4.33737585179999       -2.58455933911027        0.08633621747488
B            4.32659690128207       -4.23727110986838       -0.26869048683948
B            5.82557974407623        3.24664297245086        1.03807303388250
B            5.81442851784191        1.61888301325687        0.52232719659690
B            5.79930040264300       -1.74064308423109        0.05871808045767
B            5.79571680447998       -3.44983337450561        0.14323633678867
H           -6.83801617651304        3.94600584819232        0.60788446504623
H           -6.84084395003968        1.05026104528059        1.38223719242286
H           -4.46095670494110        5.17059939052394        1.79820394921583
H           -6.88078827544657       -1.14369459513607       -0.18778272726642
H           -6.86927608424443       -4.02493550329767        0.56312121325178
H           -4.51954108588715       -5.26798788322272       -0.69585941899958
H           -1.49294675453431        5.31645957777609        0.91759518975236
H           -1.54156227050570       -5.43216124537540        0.01083662263093
H            1.45911449290901        5.20102148137037        1.61160648049767
H            1.40965080301964       -5.44326653649739        0.13599261103608
H            4.40807933779320        5.29232019154080        0.72334295401830
H            4.36712370143535       -5.29532776309443       -0.77805320330541
H            6.77089885502276        3.76763089176869        1.50157585821095
H            6.76655006912541        1.16611786145354        0.01631286165508
H            6.75809827004738       -1.19044238769966       -0.32478636402030
H            6.74703279179143       -4.07072919176987        0.43720614488782
