40
RDKit ETKDG+MMFF
C       5.00676677      0.58327602     -0.00093800
C       4.16140057      0.19293511      1.20138532
N       3.55027757     -1.12360595      1.04355693
C       4.34184938     -2.28180502      1.41449526
C       2.36683599     -1.31664876      0.33541235
O       1.90372706     -2.42543367      0.08564560
O       1.78495293     -0.11185803     -0.05528941
C       0.59893807     -0.19994707     -0.79553936
C       0.58477692     -0.77087641     -2.06595163
C      -0.60581964     -0.79046232     -2.78929005
C      -1.76540034     -0.22741965     -2.24764035
C      -1.74928415      0.36712485     -0.97371626
C      -3.02036601      0.99714939     -0.40404549
C      -2.85999926      2.52578351     -0.50279856
N      -3.31501677      0.52323110      0.97464462
C      -4.45181980      1.22232754      1.57898894
C      -3.58735530     -0.92190150      0.98800450
C      -0.54387860      0.38500776     -0.25359231
H       5.43986871      1.57736162      0.14658883
H       4.40815703      0.60353564     -0.91731992
H       5.82652607     -0.12585257     -0.15393644
H       4.77269967      0.18687734      2.11070453
H       3.37700154      0.94250557      1.35145881
H       4.71951456     -2.14702243      2.43215626
H       3.75436067     -3.20311389      1.37938501
H       5.18187274     -2.37357422      0.72018298
H       1.48556055     -1.20692558     -2.48632229
H      -0.63256245     -1.24602469     -3.77559676
H      -2.68434696     -0.25451992     -2.82898445
H      -3.86521858      0.72207243     -1.05148853
H      -2.53696574      2.82354372     -1.50767948
H      -3.80567586      3.04301485     -0.31063449
H      -2.11457717      2.90238096      0.20725863
H      -4.68354528      0.80522075      2.56621168
H      -5.35392923      1.15530425      0.96038006
H      -4.22073192      2.27739253      1.75618344
H      -3.78989439     -1.26370667      2.00981603
H      -4.44973774     -1.18263436      0.36354985
H      -2.72435814     -1.50273732      0.64730198
H      -0.50460350      0.84002508      0.73280431
