      -----------------------------------------------------------      
     |                   =====================                   |     
     |                           x T B                           |     
     |                   =====================                   |     
     |                         S. Grimme                         |     
     |          Mulliken Center for Theoretical Chemistry        |     
     |                    University of Bonn                     |     
      -----------------------------------------------------------      

   * xtb version 6.7.1pre (5071a88) compiled by 'Marcel@Raven' on 2024-07-23

   xtb is free software: you can redistribute it and/or modify it under
   the terms of the GNU Lesser General Public License as published by
   the Free Software Foundation, either version 3 of the License, or
   (at your option) any later version.
   
   xtb is distributed in the hope that it will be useful,
   but WITHOUT ANY WARRANTY; without even the implied warranty of
   MERCHANTABILITY or FITNESS FOR A PARTICULAR PURPOSE.  See the
   GNU Lesser General Public License for more details.
   
   Cite this work as:
   * C. Bannwarth, E. Caldeweyher, S. Ehlert, A. Hansen, P. Pracht,
     J. Seibert, S. Spicher, S. Grimme, WIREs Comput. Mol. Sci., 2020, 11,
     e01493. DOI: 10.1002/wcms.1493
   
   for GFN2-xTB:
   * C. Bannwarth, S. Ehlert and S. Grimme., J. Chem. Theory Comput., 2019,
     15, 1652-1671. DOI: 10.1021/acs.jctc.8b01176
   for GFN1-xTB:
   * S. Grimme, C. Bannwarth, P. Shushkov, J. Chem. Theory Comput., 2017,
     13, 1989-2009. DOI: 10.1021/acs.jctc.7b00118
   for GFN0-xTB:
   * P. Pracht, E. Caldeweyher, S. Ehlert, S. Grimme, ChemRxiv, 2019, preprint.
     DOI: 10.26434/chemrxiv.8326202.v1
   for GFN-FF:
   * S. Spicher and S. Grimme, Angew. Chem. Int. Ed., 2020, 59, 15665-15673.
     DOI: 10.1002/anie.202004239
   
   for ALPB and GBSA implicit solvation:
   * S. Ehlert, M. Stahn, S. Spicher, S. Grimme, J. Chem. Theory Comput.,
     2021, 17, 4250-4261. DOI: 10.1021/acs.jctc.1c00471
   
   for ddCOSMO and CPCM-X implicit solvation:
   * M. Stahn, S. Ehlert, S. Grimme, J. Phys. Chem. A,
     2023, XX, XXXX-XXXX. DOI: 10.1021/acs.jpca.3c04382
   
   for DFT-D4:
   * E. Caldeweyher, C. Bannwarth and S. Grimme, J. Chem. Phys., 2017,
     147, 034112. DOI: 10.1063/1.4993215
   * E. Caldeweyher, S. Ehlert, A. Hansen, H. Neugebauer, S. Spicher,
     C. Bannwarth and S. Grimme, J. Chem. Phys., 2019, 150, 154122.
     DOI: 10.1063/1.5090222
   * E. Caldeweyher, J.-M. Mewes, S. Ehlert and S. Grimme, Phys. Chem. Chem. Phys.
     2020, 22, 8499-8512. DOI: 10.1039/D0CP00502A
   
   for sTDA-xTB:
   * S. Grimme and C. Bannwarth, J. Chem. Phys., 2016, 145, 054103.
     DOI: 10.1063/1.4959605
   
   in the mass-spec context:
   * V. Asgeirsson, C. Bauer and S. Grimme, Chem. Sci., 2017, 8, 4879.
     DOI: 10.1039/c7sc00601b
   * J. Koopman and S. Grimme, ACS Omega 2019, 4, 12, 15120-15133.
     DOI: 10.1021/acsomega.9b02011
   
   for metadynamics refer to:
   * S. Grimme, J. Chem. Theory Comput., 2019, 155, 2847-2862
     DOI: 10.1021/acs.jctc.9b00143
   
   for SPH calculations refer to:
   * S. Spicher and S. Grimme, J. Chem. Theory Comput., 2021, 17, 1701-1714
     DOI: 10.1021/acs.jctc.0c01306
   
   for ONIOM refer to:
   * C. Plett, A. Katbashev, S. Ehlert, S. Grimme, M. Bursch,
     Phys. Chem. Chem. Phys., 2023, 25, 17860-17868. DOI: 10.1039/D3CP02178E
   
   for DIPRO refer to:
   * J. Kohn, N. Gildemeister, S. Grimme, D. Fazzi, A. Hansen,
     J. Chem. Phys., 2023, just accepted.
   
   for PTB refer to:
   * S. Grimme, M. Mueller, A. Hansen, J. Chem. Phys., 2023, 158, 124111.
     DOI: 10.1063/5.0137838
   
   with help from (in alphabetical order)
   P. Atkinson, C. Bannwarth, F. Bohle, G. Brandenburg, E. Caldeweyher
   M. Checinski, S. Dohm, S. Ehlert, S. Ehrlich, I. Gerasimov, C. Hölzer
   A. Katbashev, J. Kohn, J. Koopman, C. Lavigne, S. Lehtola, F. März, M. Müller,
   F. Musil, H. Neugebauer, J. Pisarek, C. Plett, P. Pracht, F. Pultar,
   J. Seibert, P. Shushkov, S. Spicher, M. Stahn, M. Steiner, T. Strunk,
   J. Stückrath, T. Rose, and J. Unsleber
   
 * started run on 2026/09/01 at 16:36:46.686     
   ID    Z sym.   atoms
    1    8 O      1, 4, 10, 12, 14, 18, 21
    2    6 C      2, 3, 5-9, 11, 13, 15-17, 19, 20, 22
    3    1 H      23-32, 81-92
    4    5 B      33-80

           -------------------------------------------------
          |                Calculation Setup                |
           -------------------------------------------------

          program call               : "c:\Users\Andre\Proyectos doctorado\kras-pancreatic-gC3N4-ai\tools\xtb\xtb-6.7.1\bin\xtb.exe" "c:\Users\Andre\Proyectos doctorado\borophene-alzheimer-tau-ai\calculations\tau\Quercetin\Quercetin_opt_0deg.xyz" --opt vloose --gfn 2 --chrg 0 --uhf 0 --etemp 300 --iterations 500 --cycles 15 --norestart
          coordinate file            : c:\Users\Andre\Proyectos doctorado\borophene-alzheimer-tau-ai\calculations\tau\Quercetin\Quercetin_opt_0deg.xyz
          omp threads                :                    16


molecular fragmentation (1/2 indicates fragments):
111111111111111111111111111111112222222222222222222222222222222222222222
22222222222222222222
# atoms in fragment 1/2:    32    60
 fragment masses (1/2) :      302.24      531.02
CMA distance (Bohr)    :  14.233
constraining FC (au)   :  0.0500

           -------------------------------------------------
          |                 G F N 2 - x T B                 |
           -------------------------------------------------

        Reference                      10.1021/acs.jctc.8b01176
      * Hamiltonian:
        H0-scaling (s, p, d)           1.850000    2.230000    2.230000
        zeta-weighting                 0.500000
      * Dispersion:
        s8                             2.700000
        a1                             0.520000
        a2                             5.000000
        s9                             5.000000
      * Repulsion:
        kExp                           1.500000    1.000000
        rExp                           1.000000
      * Coulomb:
        alpha                          2.000000
        third order                    shell-resolved
        anisotropic                    true
        a3                             3.000000
        a5                             4.000000
        cn-shift                       1.200000
        cn-exp                         4.000000
        max-rad                        5.000000


          ...................................................
          :                      SETUP                      :
          :.................................................:
          :  # basis functions                 302          :
          :  # atomic orbitals                 302          :
          :  # shells                          162          :
          :  # electrons                       268          :
          :  max. iterations                   500          :
          :  Hamiltonian                  GFN2-xTB          :
          :  restarted?                      false          :
          :  GBSA solvation                  false          :
          :  PC potential                    false          :
          :  electronic temp.          300.0000000     K    :
          :  accuracy                    1.0000000          :
          :  -> integral cutoff          0.2500000E+02      :
          :  -> integral neglect         0.1000000E-07      :
          :  -> SCF convergence          0.1000000E-05 Eh   :
          :  -> wf. convergence          0.1000000E-03 e    :
          :  Broyden damping             0.4000000          :
          :  net charge                          0          :
          :  unpaired electrons                  0          :
          ...................................................

 iter      E             dE          RMSdq      gap      omega  full diag
   1   -131.0707996 -0.131071E+03  0.154E+01    0.41       0.0  T
   2   -126.7683711  0.430243E+01  0.998E+00    0.25       1.0  T
   3    -36.4055067  0.903629E+02  0.176E+01    0.08       1.0  T
   4    -75.9984079 -0.395929E+02  0.123E+01    0.08       1.0  T
   5    -97.9961443 -0.219977E+02  0.932E+00    0.06       1.0  T
   6   -107.1228909 -0.912675E+01  0.805E+00    0.06       1.0  T
   7   -103.4662384  0.365665E+01  0.725E+00    0.08       1.0  T
   8   -123.7657040 -0.202995E+02  0.466E+00    0.12       1.0  T
   9   -131.2398931 -0.747419E+01  0.262E+00    0.30       1.0  T
  10   -131.5073809 -0.267488E+00  0.229E+00    0.17       1.0  T
  11   -131.5747673 -0.673864E-01  0.196E+00    0.37       1.0  T
  12   -131.6502506 -0.754833E-01  0.181E+00    0.38       1.0  T
  13   -131.6017281  0.485224E-01  0.144E+00    0.42       1.0  T
  14   -131.2758378  0.325890E+00  0.154E+00    0.25       1.0  T
  15   -131.6770813 -0.401243E+00  0.880E-01    0.09       1.0  T
  16   -131.3109887  0.366093E+00  0.150E+00    0.25       1.0  T
  17   -131.3241130 -0.131243E-01  0.144E+00    0.24       1.0  T
  18   -131.4772470 -0.153134E+00  0.116E+00    0.10       1.0  T
  19   -131.7100890 -0.232842E+00  0.628E-01    0.24       1.0  T
  20   -131.7317695 -0.216805E-01  0.524E-01    0.19       1.0  T
  21   -131.7356497 -0.388022E-02  0.483E-01    0.17       1.0  T
  22   -131.7460872 -0.104375E-01  0.400E-01    0.13       1.0  T
  23   -131.7552381 -0.915087E-02  0.251E-01    0.07       1.0  T
  24   -131.7582211 -0.298303E-02  0.155E-01    0.08       1.0  T
  25   -131.7548729  0.334822E-02  0.176E-01    0.14       1.0  T
  26   -131.7524317  0.244119E-02  0.200E-01    0.17       1.0  T
  27   -131.7526840 -0.252354E-03  0.192E-01    0.17       1.0  T
  28   -131.7536963 -0.101224E-02  0.171E-01    0.16       1.0  T
  29   -131.7587708 -0.507447E-02  0.865E-02    0.11       1.0  T
  30   -131.7593966 -0.625812E-03  0.704E-02    0.10       1.0  T
  31   -131.7592498  0.146763E-03  0.696E-02    0.10       1.0  T
  32   -131.7596532 -0.403369E-03  0.537E-02    0.10       1.0  T
  33   -131.7599802 -0.327047E-03  0.358E-02    0.09       1.0  T
  34   -131.7600025 -0.222780E-04  0.293E-02    0.09       1.0  T
  35   -131.7600657 -0.632372E-04  0.210E-02    0.09       1.0  T
  36   -131.7600929 -0.271887E-04  0.124E-02    0.09       1.0  T
  37   -131.7601225 -0.295754E-04  0.550E-03    0.09       1.9  T
  38   -131.7601259 -0.345432E-05  0.301E-03    0.09       3.5  T
  39   -131.7601269 -0.939716E-06  0.254E-03    0.09       4.1  T
  40   -131.7601272 -0.317662E-06  0.226E-03    0.09       4.6  T
  41   -131.7601281 -0.907325E-06  0.182E-03    0.09       5.7  T
  42   -131.7601284 -0.267691E-06  0.127E-03    0.09       8.2  T
  43   -131.7601285 -0.132833E-06  0.102E-03    0.09      10.3  T
  44   -131.7601286 -0.767703E-07  0.750E-04    0.09      13.9  T
  45   -131.7601286  0.376929E-07  0.772E-04    0.09      13.5  T

   *** convergence criteria satisfied after 45 iterations ***

         #    Occupation            Energy/Eh            Energy/eV
      -------------------------------------------------------------
         1        2.0000           -0.7206735             -19.6105
       ...           ...                  ...                  ...
       128        2.0000           -0.2873573              -7.8194
       129        2.0000           -0.2838211              -7.7232
       130        2.0000           -0.2832000              -7.7063
       131        2.0000           -0.2794368              -7.6039
       132        2.0000           -0.2763429              -7.5197
       133        2.0000           -0.2734334              -7.4405
       134        1.6911           -0.2620241              -7.1300 (HOMO)
       135        0.3089           -0.2587938              -7.0421 (LUMO)
       136        0.0000           -0.2492676              -6.7829
       137                         -0.2351451              -6.3986
       138                         -0.2314591              -6.2983
       139                         -0.2285895              -6.2202
       ...                                ...                  ...
       302                          1.2092998              32.9067
      -------------------------------------------------------------
                  HL-Gap            0.0032303 Eh            0.0879 eV
             Fermi-level           -0.2604090 Eh           -7.0861 eV

 SCC (total)                   0 d,  0 h,  0 min,  0.976 sec
 SCC setup                      ...        0 min,  0.001 sec (  0.102%)
 Dispersion                     ...        0 min,  0.002 sec (  0.205%)
 classical contributions        ...        0 min,  0.000 sec (  0.000%)
 integral evaluation            ...        0 min,  0.008 sec (  0.820%)
 iterations                     ...        0 min,  0.945 sec ( 96.824%)
 molecular gradient             ...        0 min,  0.018 sec (  1.844%)
 printout                       ...        0 min,  0.002 sec (  0.205%)

         :::::::::::::::::::::::::::::::::::::::::::::::::::::
         ::                     SUMMARY                     ::
         :::::::::::::::::::::::::::::::::::::::::::::::::::::
         :: total energy            -129.992180759412 Eh    ::
         :: gradient norm              0.089404582167 Eh/a0 ::
         :: HOMO-LUMO gap              0.087900252503 eV    ::
         ::.................................................::
         :: SCC energy              -131.758738006663 Eh    ::
         :: -> isotropic ES            0.415657097733 Eh    ::
         :: -> anisotropic ES          0.001143447701 Eh    ::
         :: -> anisotropic XC         -0.038620232583 Eh    ::
         :: -> dispersion             -0.106230461328 Eh    ::
         :: repulsion energy           1.766557247251 Eh    ::
         :: add. restraining           0.000000000000 Eh    ::
         :: total charge              -0.000000000001 e     ::
         :::::::::::::::::::::::::::::::::::::::::::::::::::::

      ----------------------------------------------------------- 
     |                   =====================                   |
     |                        A N C O P T                        |
     |                   =====================                   |
     |               Approximate Normal Coordinate               |
     |                Rational Function Optimizer                |
      ----------------------------------------------------------- 
      ----------------------------------------------------------- 
     |                   =====================                   |
     |                        A N C O P T                        |
     |                   =====================                   |
     |               Approximate Normal Coordinate               |
     |                Rational Function Optimizer                |
      ----------------------------------------------------------- 

          ...................................................
          :                      SETUP                      :
          :.................................................:
          :   optimization level            normal          :
          :   max. optcycles                    15          :
          :   ANC micro-cycles                  15          :
          :   degrees of freedom               270          :
          :.................................................:
          :   RF solver                   davidson          :
          :   write xtbopt.log                true          :
          :   linear?                        false          :
          :   energy convergence         0.5000000E-05 Eh   :
          :   grad. convergence          0.1000000E-02 Eh/α :
          :   maxmium RF displ.          1.0000000          :
          :   Hlow (freq-cutoff)         0.1000000E-01      :
          :   Hmax (freq-cutoff)         5.0000000          :
          :   S6 in model hess.         20.0000000          :
          ...................................................

generating ANC from exact Hessian ...
Using Lindh-Hessian (1995)
 Shifting diagonal of input Hessian by   1.033877287834845E-002
 Lowest  eigenvalues of input Hessian
    0.010000    0.010059    0.010079    0.010106    0.010169    0.010232
    0.010238    0.010283    0.000000    0.000000    0.000000    0.000000
    0.000000    0.010369    0.000000    0.010401    0.010432    0.010445
 Highest eigenvalues
    1.993100    2.066247    2.078859    2.121625    2.149398    2.251057
 

........................................................................
.............................. CYCLE    1 ..............................
........................................................................

 iter      E             dE          RMSdq      gap      omega  full diag
   1   -131.7601287 -0.131760E+03  0.310E-04    0.09       0.0  T
   2   -131.7601281  0.601110E-06  0.154E-03    0.09       6.7  T
   3   -131.7601286 -0.559936E-06  0.533E-04    0.09      19.6  T
   4   -131.7601287 -0.407374E-07  0.309E-04    0.09      33.7  T
     SCC iter.                  ...        0 min,  0.076 sec
     gradient                   ...        0 min,  0.019 sec
 * total energy  :  -129.9921809 Eh     change       -0.1004058E-06 Eh
   gradient norm :     0.0893401 Eh/α   predicted     0.0000000E+00 (-100.00%)
   displ. norm   :     0.2561041 α      lambda       -0.9920602E-02
   maximum displ.:     0.1113167 α      in ANC's #125, #62, #67, ...

........................................................................
.............................. CYCLE    2 ..............................
........................................................................

 iter      E             dE          RMSdq      gap      omega  full diag
   1   -131.7176469 -0.131718E+03  0.533E-01    0.00       0.0  T
   2   -131.6723289  0.453181E-01  0.736E-01    0.46       1.0  T
   3   -131.7243618 -0.520329E-01  0.550E-01    0.23       1.0  T
   4   -131.7547075 -0.303457E-01  0.360E-01    0.36       1.0  T
   5   -131.7652742 -0.105667E-01  0.287E-01    0.35       1.0  T
   6   -131.7697290 -0.445476E-02  0.239E-01    0.27       1.0  T
   7   -131.7786389 -0.890997E-02  0.138E-01    0.06       1.0  T
   8   -131.7280224  0.506165E-01  0.451E-01    0.00       1.0  T
   9   -131.7722749 -0.442525E-01  0.202E-01    0.20       1.0  T
  10   -131.7756224 -0.334752E-02  0.168E-01    0.16       1.0  T
  11   -131.7794097 -0.378724E-02  0.115E-01    0.13       1.0  T
  12   -131.7827387 -0.332899E-02  0.230E-02    0.09       1.0  T
  13   -131.7828481 -0.109404E-03  0.874E-03    0.09       1.2  T
  14   -131.7828455  0.260253E-05  0.907E-03    0.09       1.1  T
  15   -131.7828582 -0.127587E-04  0.541E-03    0.09       1.9  T
  16   -131.7828650 -0.675361E-05  0.161E-03    0.09       6.5  T
  17   -131.7828648  0.213774E-06  0.175E-03    0.08       6.0  T
  18   -131.7828651 -0.374007E-06  0.132E-03    0.08       7.9  T
  19   -131.7828655 -0.353672E-06  0.622E-04    0.09      16.8  T
  20   -131.7828656 -0.667340E-07  0.359E-04    0.09      29.0  T
     SCC iter.                  ...        0 min,  0.369 sec
     gradient                   ...        0 min,  0.018 sec
 * total energy  :  -129.9991768 Eh     change       -0.6995962E-02 Eh
   gradient norm :     0.0406661 Eh/α   predicted    -0.5289288E-02 ( -24.40%)
   displ. norm   :     0.2749989 α      lambda       -0.3753711E-02
   maximum displ.:     0.0922839 α      in ANC's #62, #29, #58, ...

........................................................................
.............................. CYCLE    3 ..............................
........................................................................

 iter      E             dE          RMSdq      gap      omega  full diag
   1   -131.7713218 -0.131771E+03  0.352E-01    0.02       0.0  T
   2   -131.7371224  0.341994E-01  0.526E-01    0.41       1.0  T
   3   -131.7662537 -0.291313E-01  0.389E-01    0.25       1.0  T
   4   -131.7781173 -0.118636E-01  0.273E-01    0.33       1.0  T
   5   -131.7867878 -0.867049E-02  0.199E-01    0.18       1.0  T
   6   -131.7688568  0.179310E-01  0.326E-01    0.02       1.0  T
   7   -131.7897674 -0.209106E-01  0.159E-01    0.15       1.0  T
   8   -131.7941479 -0.438050E-02  0.102E-01    0.12       1.0  T
   9   -131.7965937 -0.244584E-02  0.177E-02    0.09       1.0  T
  10   -131.7961836  0.410085E-03  0.441E-02    0.10       1.0  T
  11   -131.7965048 -0.321162E-03  0.254E-02    0.09       1.0  T
  12   -131.7966418 -0.137077E-03  0.101E-02    0.08       1.0  T
  13   -131.7966682 -0.263369E-04  0.304E-03    0.08       3.4  T
  14   -131.7966699 -0.168070E-05  0.117E-03    0.08       8.9  T
  15   -131.7966698  0.429391E-07  0.112E-03    0.08       9.3  T
  16   -131.7966701 -0.312054E-06  0.344E-04    0.08      30.3  T
  17   -131.7966701  0.706638E-07  0.604E-04    0.08      17.3  T
     SCC iter.                  ...        0 min,  0.308 sec
     gradient                   ...        0 min,  0.017 sec
 * total energy  :  -130.0013322 Eh     change       -0.2155428E-02 Eh
   gradient norm :     0.0109075 Eh/α   predicted    -0.2019343E-02 (  -6.31%)
   displ. norm   :     0.2506573 α      lambda       -0.1006561E-02
   maximum displ.:     0.0900255 α      in ANC's #29, #19, #34, ...

........................................................................
.............................. CYCLE    4 ..............................
........................................................................

 iter      E             dE          RMSdq      gap      omega  full diag
   1   -131.7909303 -0.131791E+03  0.226E-01    0.05       0.0  T
   2   -131.7671559  0.237744E-01  0.373E-01    0.36       1.0  T
   3   -131.7846340 -0.174781E-01  0.252E-01    0.19       1.0  T
   4   -131.7952881 -0.106541E-01  0.118E-01    0.10       1.0  T
   5   -131.6070691  0.188219E+00  0.838E-01    0.07       1.0  T
   6   -131.7874735 -0.180404E+00  0.200E-01    0.17       1.0  T
   7   -131.7891183 -0.164480E-02  0.181E-01    0.16       1.0  T
   8   -131.7932840 -0.416568E-02  0.130E-01    0.13       1.0  T
   9   -131.7957256 -0.244165E-02  0.864E-02    0.11       1.0  T
  10   -131.7973578 -0.163221E-02  0.349E-02    0.09       1.0  T
  11   -131.7975157 -0.157882E-03  0.248E-02    0.09       1.0  T
  12   -131.7976217 -0.105967E-03  0.136E-02    0.09       1.0  T
  13   -131.7976684 -0.467222E-04  0.216E-03    0.08       4.8  T
  14   -131.7976637  0.475140E-05  0.468E-03    0.08       2.2  T
  15   -131.7976690 -0.537016E-05  0.116E-03    0.08       9.0  T
  16   -131.7976693 -0.298672E-06  0.243E-04    0.08      42.9  T
  17   -131.7976693  0.169350E-07  0.336E-04    0.08      31.0  T
     SCC iter.                  ...        0 min,  0.297 sec
     gradient                   ...        0 min,  0.016 sec
 * total energy  :  -130.0016893 Eh     change       -0.3570897E-03 Eh
   gradient norm :     0.0115053 Eh/α   predicted    -0.5349074E-03 (  49.80%)
   displ. norm   :     0.2941321 α      lambda       -0.1102226E-02
   maximum displ.:     0.1221710 α      in ANC's #29, #19, #2, ...

........................................................................
.............................. CYCLE    5 ..............................
........................................................................

 iter      E             dE          RMSdq      gap      omega  full diag
   1   -131.7887234 -0.131789E+03  0.221E-01    0.05       0.0  T
   2   -131.7631996  0.255238E-01  0.382E-01    0.36       1.0  T
   3   -131.7814152 -0.182155E-01  0.260E-01    0.21       1.0  T
   4   -131.7921006 -0.106854E-01  0.132E-01    0.11       1.0  T
   5   -131.6287341  0.163367E+00  0.784E-01    0.06       1.0  T
   6   -131.7862420 -0.157508E+00  0.192E-01    0.16       1.0  T
   7   -131.7875902 -0.134825E-02  0.177E-01    0.15       1.0  T
   8   -131.7914069 -0.381661E-02  0.128E-01    0.13       1.0  T
   9   -131.7937739 -0.236703E-02  0.870E-02    0.11       1.0  T
  10   -131.7954309 -0.165703E-02  0.349E-02    0.09       1.0  T
  11   -131.7956144 -0.183510E-03  0.230E-02    0.09       1.0  T
  12   -131.7956781 -0.636335E-04  0.162E-02    0.08       1.0  T
  13   -131.7957457 -0.675926E-04  0.275E-03    0.08       3.8  T
  14   -131.7957462 -0.542302E-06  0.245E-03    0.08       4.2  T
  15   -131.7957476 -0.140671E-05  0.656E-04    0.08      15.9  T
  16   -131.7957476 -0.473325E-07  0.411E-04    0.08      25.4  T
  17   -131.7957477 -0.370031E-07  0.149E-04    0.08      70.0  T
     SCC iter.                  ...        0 min,  0.291 sec
     gradient                   ...        0 min,  0.017 sec
 * total energy  :  -130.0023613 Eh     change       -0.6720021E-03 Eh
   gradient norm :     0.0117188 Eh/α   predicted    -0.5987924E-03 ( -10.89%)
   displ. norm   :     0.3316061 α      lambda       -0.7983169E-03
   maximum displ.:     0.1511121 α      in ANC's #19, #29, #17, ...

........................................................................
.............................. CYCLE    6 ..............................
........................................................................

 iter      E             dE          RMSdq      gap      omega  full diag
   1   -131.7880481 -0.131788E+03  0.186E-01    0.05       0.0  T
   2   -131.7632828  0.247653E-01  0.350E-01    0.35       1.0  T
   3   -131.7848361 -0.215534E-01  0.191E-01    0.13       1.0  T
   4   -131.7888267 -0.399059E-02  0.133E-01    0.06       1.0  T
   5   -131.7603682  0.284585E-01  0.337E-01    0.02       1.0  T
   6   -131.7886645 -0.282963E-01  0.113E-01    0.11       1.0  T
   7   -131.7901590 -0.149447E-02  0.795E-02    0.10       1.0  T
   8   -131.7918007 -0.164169E-02  0.162E-02    0.08       1.0  T
   9   -131.7918340 -0.332690E-04  0.101E-02    0.08       1.0  T
  10   -131.7918448 -0.107916E-04  0.768E-03    0.08       1.4  T
  11   -131.7918585 -0.137132E-04  0.197E-03    0.08       5.3  T
  12   -131.7918591 -0.623228E-06  0.988E-04    0.08      10.6  T
  13   -131.7918591 -0.812611E-08  0.873E-04    0.08      11.9  T
     SCC iter.                  ...        0 min,  0.217 sec
     gradient                   ...        0 min,  0.018 sec
 * total energy  :  -130.0027654 Eh     change       -0.4040453E-03 Eh
   gradient norm :     0.0104772 Eh/α   predicted    -0.4430570E-03 (   9.66%)
   displ. norm   :     0.3622680 α      lambda       -0.7460405E-03
   maximum displ.:     0.1795522 α      in ANC's #19, #29, #13, ...

........................................................................
.............................. CYCLE    7 ..............................
........................................................................

 iter      E             dE          RMSdq      gap      omega  full diag
   1   -131.7866512 -0.131787E+03  0.161E-01    0.06       0.0  T
   2   -131.7637372  0.229140E-01  0.329E-01    0.35       1.0  T
   3   -131.7858231 -0.220858E-01  0.141E-01    0.11       1.0  T
   4   -131.7835885  0.223458E-02  0.165E-01    0.05       1.0  T
   5   -131.7768994  0.668903E-02  0.211E-01    0.04       1.0  T
   6   -131.7877447 -0.108453E-01  0.789E-02    0.10       1.0  T
   7   -131.7886217 -0.876982E-03  0.514E-02    0.09       1.0  T
   8   -131.7892958 -0.674092E-03  0.109E-02    0.08       1.0  T
   9   -131.7893077 -0.119320E-04  0.746E-03    0.08       1.4  T
  10   -131.7893209 -0.131971E-04  0.244E-03    0.08       4.3  T
  11   -131.7893202  0.758828E-06  0.258E-03    0.08       4.0  T
  12   -131.7893216 -0.146027E-05  0.101E-03    0.08      10.3  T
  13   -131.7893218 -0.136874E-06  0.688E-04    0.08      15.2  T
  14   -131.7893218 -0.430047E-07  0.535E-04    0.08      19.5  T
     SCC iter.                  ...        0 min,  0.249 sec
     gradient                   ...        0 min,  0.018 sec
 * total energy  :  -130.0032907 Eh     change       -0.5252659E-03 Eh
   gradient norm :     0.0099130 Eh/α   predicted    -0.4219781E-03 ( -19.66%)
   displ. norm   :     0.4471693 α      lambda       -0.8280645E-03
   maximum displ.:     0.2287612 α      in ANC's #19, #29, #9, ...

........................................................................
.............................. CYCLE    8 ..............................
........................................................................

 iter      E             dE          RMSdq      gap      omega  full diag
   1   -131.7872507 -0.131787E+03  0.170E-01    0.06       0.0  T
   2   -131.7646434  0.226073E-01  0.327E-01    0.34       1.0  T
   3   -131.7880399 -0.233965E-01  0.112E-01    0.09       1.0  T
   4   -131.7802015  0.783834E-02  0.207E-01    0.05       1.0  T
   5   -131.7871104 -0.690890E-02  0.989E-02    0.06       1.0  T
   6   -131.7886182 -0.150777E-02  0.658E-02    0.09       1.0  T
   7   -131.7896420 -0.102377E-02  0.173E-02    0.08       1.0  T
   8   -131.7896883 -0.462902E-04  0.800E-03    0.08       1.3  T
   9   -131.7896613  0.270080E-04  0.129E-02    0.08       1.0  T
  10   -131.7897050 -0.437402E-04  0.274E-03    0.08       3.8  T
  11   -131.7897058 -0.779422E-06  0.167E-03    0.08       6.2  T
  12   -131.7897062 -0.451329E-06  0.784E-04    0.08      13.3  T
  13   -131.7897063 -0.263116E-07  0.623E-04    0.08      16.7  T
     SCC iter.                  ...        0 min,  0.251 sec
     gradient                   ...        0 min,  0.023 sec
 * total energy  :  -130.0038958 Eh     change       -0.6051377E-03 Eh
   gradient norm :     0.0105887 Eh/α   predicted    -0.4968228E-03 ( -17.90%)
   displ. norm   :     0.5546091 α      lambda       -0.9588118E-03
   maximum displ.:     0.2903364 α      in ANC's #19, #9, #13, ...

........................................................................
.............................. CYCLE    9 ..............................
........................................................................

 iter      E             dE          RMSdq      gap      omega  full diag
   1   -131.7903117 -0.131790E+03  0.188E-01    0.06       0.0  T
   2   -131.7673770  0.229347E-01  0.328E-01    0.34       1.0  T
   3   -131.7849877 -0.176108E-01  0.182E-01    0.05       1.0  T
   4   -131.7704194  0.145684E-01  0.282E-01    0.13       1.0  T
   5   -131.7893698 -0.189505E-01  0.106E-01    0.10       1.0  T
   6   -131.7920091 -0.263932E-02  0.376E-02    0.07       1.0  T
   7   -131.7920368 -0.277087E-04  0.369E-02    0.08       1.0  T
   8   -131.7923701 -0.333258E-03  0.719E-03    0.08       1.5  T
   9   -131.7921897  0.180381E-03  0.277E-02    0.08       1.0  T
  10   -131.7923766 -0.186873E-03  0.428E-03    0.08       2.4  T
  11   -131.7923747  0.189065E-05  0.493E-03    0.08       2.1  T
  12   -131.7923779 -0.323090E-05  0.291E-03    0.08       3.6  T
  13   -131.7923795 -0.157629E-05  0.142E-03    0.08       7.3  T
  14   -131.7923797 -0.159999E-06  0.123E-03    0.08       8.5  T
  15   -131.7923800 -0.335054E-06  0.522E-04    0.08      20.0  T
  16   -131.7923801 -0.635725E-07  0.156E-04    0.08      66.7  T
     SCC iter.                  ...        0 min,  0.291 sec
     gradient                   ...        0 min,  0.018 sec
 * total energy  :  -130.0045617 Eh     change       -0.6659244E-03 Eh
   gradient norm :     0.0128350 Eh/α   predicted    -0.6268661E-03 (  -5.87%)
   displ. norm   :     0.5995795 α      lambda       -0.9813427E-03
   maximum displ.:     0.3162403 α      in ANC's #19, #9, #13, ...

........................................................................
.............................. CYCLE   10 ..............................
........................................................................

 iter      E             dE          RMSdq      gap      omega  full diag
   1   -131.7909356 -0.131791E+03  0.203E-01    0.05       0.0  T
   2   -131.7650797  0.258560E-01  0.347E-01    0.35       1.0  T
   3   -131.7870341 -0.219544E-01  0.177E-01    0.06       1.0  T
   4   -131.7796777  0.735644E-02  0.233E-01    0.08       1.0  T
   5   -131.7906247 -0.109470E-01  0.107E-01    0.10       1.0  T
   6   -131.7928502 -0.222550E-02  0.470E-02    0.07       1.0  T
   7   -131.7929995 -0.149251E-03  0.429E-02    0.09       1.0  T
   8   -131.7934405 -0.441027E-03  0.810E-03    0.08       1.3  T
   9   -131.7932820  0.158549E-03  0.263E-02    0.08       1.0  T
  10   -131.7934478 -0.165831E-03  0.420E-03    0.08       2.5  T
  11   -131.7934493 -0.152078E-05  0.287E-03    0.07       3.6  T
  12   -131.7934455  0.379839E-05  0.472E-03    0.08       2.2  T
  13   -131.7934503 -0.478584E-05  0.197E-03    0.07       5.3  T
  14   -131.7934510 -0.707347E-06  0.121E-03    0.08       8.6  T
  15   -131.7934514 -0.350401E-06  0.373E-04    0.08      28.0  T
  16   -131.7934514 -0.328244E-07  0.897E-05    0.08     116.2  T
     SCC iter.                  ...        0 min,  0.268 sec
     gradient                   ...        0 min,  0.018 sec
 * total energy  :  -130.0052668 Eh     change       -0.7050512E-03 Eh
   gradient norm :     0.0133277 Eh/α   predicted    -0.6670683E-03 (  -5.39%)
   displ. norm   :     0.6002193 α      lambda       -0.1020072E-02
   maximum displ.:     0.3168885 α      in ANC's #19, #9, #13, ...

........................................................................
.............................. CYCLE   11 ..............................
........................................................................

 iter      E             dE          RMSdq      gap      omega  full diag
   1   -131.7927692 -0.131793E+03  0.185E-01    0.06       0.0  T
   2   -131.7695990  0.231702E-01  0.321E-01    0.34       1.0  T
   3   -131.7710021 -0.140310E-02  0.298E-01    0.02       1.0  T
   4   -131.7707518  0.250263E-03  0.299E-01    0.23       1.0  T
   5   -131.7782208 -0.746896E-02  0.243E-01    0.20       1.0  T
   6   -131.7821434 -0.392262E-02  0.209E-01    0.16       1.0  T
   7   -131.7899699 -0.782649E-02  0.124E-01    0.11       1.0  T
   8   -131.7937065 -0.373659E-02  0.451E-02    0.09       1.0  T
   9   -131.7940279 -0.321370E-03  0.280E-02    0.08       1.0  T
  10   -131.7941206 -0.927003E-04  0.208E-02    0.08       1.0  T
  11   -131.7942273 -0.106783E-03  0.599E-03    0.07       1.7  T
  12   -131.7941706  0.567729E-04  0.160E-02    0.08       1.0  T
  13   -131.7942315 -0.609052E-04  0.428E-03    0.07       2.4  T
  14   -131.7942348 -0.336612E-05  0.209E-03    0.07       5.0  T
  15   -131.7942359 -0.104373E-05  0.831E-04    0.08      12.5  T
  16   -131.7942361 -0.170161E-06  0.179E-04    0.07      58.2  T
  17   -131.7942360  0.235197E-07  0.335E-04    0.07      31.1  T
     SCC iter.                  ...        0 min,  0.279 sec
     gradient                   ...        0 min,  0.017 sec
 * total energy  :  -130.0060121 Eh     change       -0.7453804E-03 Eh
   gradient norm :     0.0109345 Eh/α   predicted    -0.6937839E-03 (  -6.92%)
   displ. norm   :     0.6067219 α      lambda       -0.9719273E-03
   maximum displ.:     0.3160915 α      in ANC's #19, #9, #13, ...

........................................................................
.............................. CYCLE   12 ..............................
........................................................................

 iter      E             dE          RMSdq      gap      omega  full diag
   1   -131.7964489 -0.131796E+03  0.159E-01    0.06       0.0  T
   2   -131.7768024  0.196465E-01  0.286E-01    0.25       1.0  T
   3   -131.7403372  0.364652E-01  0.458E-01    0.00       1.0  T
   4   -131.7811214 -0.407842E-01  0.263E-01    0.20       1.0  T
   5   -131.7811844 -0.630230E-04  0.241E-01    0.20       1.0  T
   6   -131.7858081 -0.462365E-02  0.207E-01    0.16       1.0  T
   7   -131.7882381 -0.243001E-02  0.182E-01    0.14       1.0  T
   8   -131.7928898 -0.465172E-02  0.127E-01    0.11       1.0  T
   9   -131.7953305 -0.244069E-02  0.821E-02    0.10       1.0  T
  10   -131.7963869 -0.105638E-02  0.523E-02    0.09       1.0  T
  11   -131.7969485 -0.561634E-03  0.249E-02    0.08       1.0  T
  12   -131.7970224 -0.739207E-04  0.181E-02    0.08       1.0  T
  13   -131.7971048 -0.823797E-04  0.363E-03    0.08       2.9  T
  14   -131.7971043  0.465838E-06  0.361E-03    0.08       2.9  T
  15   -131.7971073 -0.295985E-05  0.127E-03    0.07       8.2  T
  16   -131.7971077 -0.390415E-06  0.450E-04    0.07      23.2  T
  17   -131.7971076  0.598961E-07  0.630E-04    0.07      16.5  T
     SCC iter.                  ...        0 min,  0.352 sec
     gradient                   ...        0 min,  0.016 sec
 * total energy  :  -130.0067492 Eh     change       -0.7370760E-03 Eh
   gradient norm :     0.0105507 Eh/α   predicted    -0.6648528E-03 (  -9.80%)
   displ. norm   :     0.7393064 α      lambda       -0.9563868E-03
   maximum displ.:     0.3932188 α      in ANC's #19, #9, #13, ...

........................................................................
.............................. CYCLE   13 ..............................
........................................................................

 iter      E             dE          RMSdq      gap      omega  full diag
   1   -131.7888103 -0.131789E+03  0.214E-01    0.05       0.0  T
   2   -131.7601170  0.286934E-01  0.374E-01    0.36       1.0  T
   3   -131.7874543 -0.273373E-01  0.179E-01    0.11       1.0  T
   4   -131.7708181  0.166362E-01  0.303E-01    0.02       1.0  T
   5   -131.7881218 -0.173037E-01  0.141E-01    0.11       1.0  T
   6   -131.7907364 -0.261459E-02  0.856E-02    0.10       1.0  T
   7   -131.7924630 -0.172661E-02  0.248E-02    0.07       1.0  T
   8   -131.7925359 -0.729062E-04  0.196E-02    0.08       1.0  T
   9   -131.7925833 -0.473817E-04  0.128E-02    0.08       1.0  T
  10   -131.7926236 -0.403507E-04  0.410E-03    0.07       2.5  T
  11   -131.7926250 -0.135145E-05  0.281E-03    0.07       3.7  T
  12   -131.7926262 -0.124572E-05  0.122E-03    0.07       8.5  T
  13   -131.7926264 -0.206422E-06  0.639E-04    0.07      16.3  T
  14   -131.7926265 -0.215809E-07  0.503E-04    0.07      20.7  T
     SCC iter.                  ...        0 min,  0.227 sec
     gradient                   ...        0 min,  0.017 sec
 * total energy  :  -130.0075167 Eh     change       -0.7674428E-03 Eh
   gradient norm :     0.0136600 Eh/α   predicted    -0.7395611E-03 (  -3.63%)
   displ. norm   :     0.6363291 α      lambda       -0.1312910E-02
   maximum displ.:     0.3391035 α      in ANC's #9, #19, #10, ...

........................................................................
.............................. CYCLE   14 ..............................
........................................................................

 iter      E             dE          RMSdq      gap      omega  full diag
   1   -131.8054419 -0.131805E+03  0.159E-01    0.08       0.0  T
   2   -131.7471414  0.583005E-01  0.474E-01    0.01       1.0  T
   3   -131.7931556 -0.460142E-01  0.231E-01    0.16       1.0  T
   4   -131.7926797  0.475920E-03  0.238E-01    0.10       1.0  T
   5   -131.7983030 -0.562328E-02  0.166E-01    0.13       1.0  T
   6   -131.8013958 -0.309281E-02  0.126E-01    0.11       1.0  T
   7   -131.8035860 -0.219020E-02  0.888E-02    0.10       1.0  T
   8   -131.8046733 -0.108731E-02  0.608E-02    0.09       1.0  T
   9   -131.8054578 -0.784516E-03  0.279E-02    0.08       1.0  T
  10   -131.8056487 -0.190890E-03  0.607E-03    0.08       1.7  T
  11   -131.8056566 -0.789245E-05  0.194E-03    0.07       5.4  T
  12   -131.8056572 -0.658840E-06  0.943E-04    0.07      11.1  T
  13   -131.8056573 -0.260932E-07  0.792E-04    0.07      13.2  T
     SCC iter.                  ...        0 min,  0.214 sec
     gradient                   ...        0 min,  0.016 sec
 * total energy  :  -130.0079603 Eh     change       -0.4436018E-03 Eh
   gradient norm :     0.0195046 Eh/α   predicted    -0.9222675E-03 ( 107.90%)
   displ. norm   :     0.5736367 α      lambda       -0.1523516E-02
   maximum displ.:     0.3003490 α      in ANC's #19, #9, #13, ...

........................................................................
.............................. CYCLE   15 ..............................
........................................................................

 iter      E             dE          RMSdq      gap      omega  full diag
   1   -131.7893124 -0.131789E+03  0.218E-01    0.04       0.0  T
   2   -131.7577170  0.315954E-01  0.409E-01    0.37       1.0  T
   3   -131.7800758 -0.223587E-01  0.275E-01    0.19       1.0  T
   4   -131.7924480 -0.123723E-01  0.134E-01    0.10       1.0  T
   5   -131.5927275  0.199721E+00  0.861E-01    0.09       1.0  T
   6   -131.7879740 -0.195246E+00  0.176E-01    0.13       1.0  T
   7   -131.7892803 -0.130629E-02  0.158E-01    0.13       1.0  T
   8   -131.7937156 -0.443530E-02  0.909E-02    0.10       1.0  T
   9   -131.7953372 -0.162161E-02  0.463E-02    0.09       1.0  T
  10   -131.7957870 -0.449860E-03  0.206E-02    0.08       1.0  T
  11   -131.7958411 -0.540760E-04  0.148E-02    0.08       1.0  T
  12   -131.7958710 -0.299079E-04  0.948E-03    0.08       1.1  T
  13   -131.7958936 -0.225743E-04  0.202E-03    0.07       5.2  T
  14   -131.7958946 -0.103733E-05  0.635E-04    0.07      16.4  T
  15   -131.7958946  0.120199E-07  0.580E-04    0.07      18.0  T
  16   -131.7958947 -0.749798E-07  0.248E-04    0.07      42.0  T
     SCC iter.                  ...        0 min,  0.278 sec
     gradient                   ...        0 min,  0.018 sec
 * total energy  :  -130.0088983 Eh     change       -0.9380007E-03 Eh
   gradient norm :     0.0134515 Eh/α   predicted    -0.1012423E-02 (   7.93%)
   displ. norm   :     0.6170596 α      lambda       -0.1005170E-02
   maximum displ.:     0.3158713 α      in ANC's #9, #19, #13, ...

   *** FAILED TO CONVERGE GEOMETRY OPTIMIZATION IN 15 ITERATIONS ***


 ANCopt (total)                0 d,  0 h,  0 min,  4.418 sec
 optimizer setup                ...        0 min,  0.001 sec (  0.023%)
 model hessian                  ...        0 min,  0.019 sec (  0.430%)
 ANC generation                 ...        0 min,  0.010 sec (  0.226%)
 coordinate transformation      ...        0 min,  0.001 sec (  0.023%)
 single point calculation       ...        0 min,  4.360 sec ( 98.687%)
 optimization log               ...        0 min,  0.021 sec (  0.475%)
 hessian update                 ...        0 min,  0.000 sec (  0.000%)
 rational function              ...        0 min,  0.002 sec (  0.045%)

================
 final structure:
================
92
 xtb: 6.7.1pre (5071a88)
O           -2.30399683377279        1.59890280577645        9.64607733589770
C           -1.75336814252288        0.98412298291261        8.69006979984013
C           -0.31739697264426        1.01739574819324        8.56781635380796
O            0.30399213282929        1.74769220319453        9.53154434948907
C            0.33968080981189        0.33257248536027        7.57497547873199
C            1.77152353349014        0.24173950645638        7.38313467450195
C            2.66297192632239        1.15121982230081        7.97341611261413
C            4.02084984940085        1.03058225262118        7.75711332834314
C            4.52109289165397        0.00865670982853        6.95924038029206
O            5.86560183666519       -0.16867998818472        6.71348640802280
C            3.64286950597099       -0.91071899513957        6.35892999301969
O            4.12681349891451       -1.91683352536683        5.56937920690286
C            2.28567947142213       -0.78583365560935        6.56870545805926
O           -0.37709841906035       -0.38521221973024        6.64365050652841
C           -1.72318238161918       -0.40691989015813        6.67559916246553
C           -2.37629206364650       -1.09218286984401        5.65846060053707
C           -3.76550141190643       -1.13876317419174        5.64534209382049
O           -4.36581193634554       -1.78305242723176        4.60451214798596
C           -4.50843806614302       -0.53026686612433        6.65030105341132
C           -3.86684696007901        0.16027380361458        7.66957236655994
O           -4.57875934917368        0.76001781606518        8.63314340635543
C           -2.45606356637240        0.23924967496193        7.68006540112857
H           -0.44085473371750        2.05667273962392       10.09598564480727
H            2.28593445780607        1.95200330176035        8.59107190417881
H            4.70465280110156        1.73927076174655        8.21346271220674
H            6.36195198128729        0.53604366206719        7.15199014855546
H            5.08968129707364       -1.83314404569248        5.56231428370992
H            1.62361726083459       -1.50717313085633        6.10932328509844
H           -1.80667408854352       -1.58618889962240        4.89118869510168
H           -5.32088039748160       -1.78774186128821        4.74171921267119
H           -5.58804134505868       -0.57606854980377        6.65790570132068
H           -3.92435970509868        1.19916431374835        9.23905479258171
B           -6.86152117794696       -4.67477274827553        0.57291802846194
B           -5.11238148496303       -2.21022860941229        0.58413279967534
B           -3.59069164950418       -2.18661686740766        0.44985276648580
B            1.00200350824425       -2.86581537375233        0.38433847573596
B            2.47681789328784       -3.02471783381605        0.03000054571886
B            5.25758797278593       -3.79636393477866       -0.61055412029619
B            6.17522508258815       -4.73682128633989       -1.35646924092117
B           -6.41264441339163       -3.16610890301775        0.55810281932885
B           -6.76300727065197       -1.65068216408440        0.54098302842579
B           -2.05966465998640       -2.32748855853771        0.56990902434050
B           -0.49259879408890       -2.47313248219582        0.52057100000319
B            4.01436347021767       -2.87897048070348       -0.05720625934160
B            5.75038784996597       -2.30206253669454       -0.10995996628762
B            6.79353401302101       -3.20667586227478       -0.99139129142537
B           -7.63672607281821       -0.26628202794427        0.58513338191944
B           -6.02682330241771       -0.16417549797829        0.35728800913318
B           -4.42000056807009       -0.55727152638158        0.40581353802246
B           -2.72034087163501       -0.66660322711277        0.45594560849156
B           -1.04101563154656       -0.89940725751932        0.79260942021354
B            0.52462467726017       -1.17624407409704        0.92019993199686
B            3.10707294550288       -1.46105354450613        0.06433381289478
B            4.67982547029864       -1.16868634976273        0.53529440219451
B            6.25087397189147       -0.80325335726921        0.42917582947030
B            7.68060811964769       -0.35803720045187        1.14852207142620
B           -6.89019711767510        1.18738016789355        0.29224064336021
B           -3.40391312530875        0.76117617922677        0.16832060179148
B           -1.65523545958657        0.53798119604332        0.23027639512045
B            1.84825188500046       -0.38164538851574        0.45635212655934
B            3.58042139931840       -0.14269111246839        0.93460724882843
B            6.95693687566671        0.59183603720622        0.02647770794371
B            8.32112479801821        1.03750889564954        0.67879393513092
B           -7.55061922846970        2.79389325987704        0.44355838297034
B           -6.17133720925689        2.46333639602083       -0.28198517409479
B           -3.59242986158614        2.28103920576040       -0.25354671133749
B           -0.89526417154627        1.81327127433806       -0.33100037541766
B            1.60890782782364        1.03379704632232       -0.27240196251895
B            2.98747716692083        1.30626533004387        0.68638534884357
B            6.34456638517028        1.84691855478706       -0.77669948610287
B           -6.52408186138860        4.00270945374948       -0.19886277125858
B           -4.89732329291475        3.40899323025725       -0.48699065183634
B           -3.44176345488487        3.81802563271065       -0.67928303113568
B           -2.03257382155496        3.19718311551351       -0.67230770487950
B           -0.50148308620687        3.28106012669871       -0.81568386514561
B            0.71334907494397        2.35402381140796       -0.62462159403910
B            2.32996270834207        2.49296089374013       -0.31744041786225
B            3.80672371688965        2.61840182584245        0.07417145706229
B            5.36192144993739        2.85311379476226        0.01175020292138
B            6.04459949908682        4.05814258207841        0.80983397300805
H            6.18489705422530        5.13899725768641        0.35786908646988
H            8.26829895862127       -1.10315184301073        1.83351845403040
H            6.57148774953487        1.96918130230849       -1.93199907140952
H           -6.91224592655174       -5.33754697990852       -0.40882975995384
H           -6.78197317088204        5.13386481446049       -0.35686372941058
H            9.19964909977528        1.79617011119675        0.76946177476061
H           -8.80659523911632       -0.32267375327184        0.66377637276542
H            6.55541029751072       -5.69914374423046       -1.90575400212651
H           -8.58942024519415        3.00557238286880        0.93893571783570
H            7.88777267881266       -2.88980519454317       -1.28299429588650
H            6.43829929370332        3.93439182771019        1.91552883304883
H           -7.24407860627299       -5.24680747732850        1.53595872778602
 
 Bond Distances (Angstroems)
 ---------------------------
O1-C2=1.2630         C2-O1=1.2630         C2-C3=1.4416         C2-C22=1.4383        C3-C2=1.4416         C3-O4=1.3595         
C3-C5=1.3735         O4-C3=1.3595         O4-H23=0.9843        C5-C3=1.3735         C5-C6=1.4475         C5-O14=1.3771        
C6-C5=1.4475         C6-C7=1.4037         C6-C13=1.4084        C7-C6=1.4037         C7-C8=1.3803         C7-H24=1.0793        
C8-C7=1.3803         C8-C9=1.3897         C8-H25=1.0854        C9-C8=1.3897         C9-O10=1.3782        C9-C11=1.4060        
O10-C9=1.3782        O10-H26=0.9671       C11-C9=1.4060        C11-O12=1.3674       C11-C13=1.3790       O12-C11=1.3674       
O12-H27=0.9665       C13-C6=1.4084        C13-C11=1.3790       C13-H28=1.0815       O14-C5=1.3771        O14-C15=1.3466       
C15-O14=1.3466       C15-C16=1.3895       C15-C22=1.4013       C16-C15=1.3895       C16-C17=1.3901       C16-H29=1.0757       
C17-C16=1.3901       C17-O18=1.3634       C17-C19=1.3900       O18-C17=1.3634       O18-H30=0.9649       C19-C17=1.3900       
C19-C20=1.3883       C19-H31=1.0806       C20-C19=1.3883       C20-O21=1.3398       C20-C22=1.4130       O21-C20=1.3398       
O21-H32=0.9941       C22-C2=1.4383        C22-C15=1.4013       C22-C20=1.4130       H23-O4=0.9843        H24-C7=1.0793        
H25-C8=1.0854        H26-O10=0.9671       H27-O12=0.9665       H28-C13=1.0815       H29-C16=1.0757       H30-O18=0.9649       
H31-C19=1.0806       H32-O21=0.9941       B33-B40=1.5741       B33-H84=1.1856       B33-H92=1.1836       B34-B35=1.5278       
B34-B40=1.6140       B34-B41=1.7434       B34-B49=1.8010       B35-B34=1.5278       B35-B42=1.5422       B35-B49=1.8288       
B35-B50=1.7516       B36-B37=1.5251       B36-B43=1.5513       B36-B52=1.8357       B37-B36=1.5251       B37-B44=1.5469       
B37-B53=1.6863       B38-B39=1.5109       B38-B44=1.6412       B38-B45=1.6512       B38-B46=1.6888       B39-B38=1.5109       
B39-B46=1.6902       B39-H88=1.1715       B40-B33=1.5741       B40-B34=1.6140       B40-B41=1.5555       B41-B34=1.7434       
B41-B40=1.5555       B41-B47=1.6377       B41-B48=1.6690       B42-B35=1.5422       B42-B43=1.5746       B42-B50=1.7911       
B42-B51=1.7682       B43-B36=1.5513       B43-B42=1.5746       B43-B51=1.6886       B43-B52=1.6960       B44-B37=1.5469       
B44-B38=1.6412       B44-B45=1.8301       B44-B53=1.6877       B44-B54=1.9285       B45-B38=1.6512       B45-B44=1.8301       
B45-B46=1.6381       B45-B54=1.6873       B45-B55=1.6696       B46-B38=1.6888       B46-B39=1.6902       B46-B45=1.6381       
B46-H90=1.1759       B47-B41=1.6377       B47-B48=1.6291       B47-B57=1.6602       B47-H87=1.1739       B48-B41=1.6690       
B48-B47=1.6291       B48-B49=1.6549       B48-B57=1.6051       B49-B34=1.8010       B49-B35=1.8288       B49-B48=1.6549       
B49-B50=1.7039       B49-B58=1.6814       B50-B35=1.7516       B50-B42=1.7911       B50-B49=1.7039       B50-B51=1.7285       
B50-B58=1.6089       B50-B59=1.6237       B51-B42=1.7682       B51-B43=1.6886       B51-B50=1.7285       B51-B52=1.5950       
B51-B59=1.6612       B52-B36=1.8357       B52-B43=1.6960       B52-B51=1.5950       B52-B60=1.6120       B53-B37=1.6863       
B53-B44=1.6877       B53-B54=1.6676       B53-B60=1.7039       B53-B61=1.6491       B54-B44=1.9285       B54-B45=1.6873       
B54-B53=1.6676       B54-B55=1.6165       B54-B61=1.5559       B55-B45=1.6696       B55-B54=1.6165       B55-B56=1.6613       
B55-B62=1.6146       B56-B55=1.6613       B56-B62=1.6386       B56-B63=1.6058       B56-H82=1.1704       B57-B47=1.6602       
B57-B48=1.6051       B57-B64=1.7435       B57-B65=1.5731       B58-B49=1.6814       B58-B50=1.6089       B58-B59=1.7640       
B58-B66=1.5886       B59-B50=1.6237       B59-B51=1.6612       B59-B58=1.7640       B59-B67=1.5871       B60-B52=1.6120       
B60-B53=1.7039       B60-B61=1.8128       B60-B68=1.6099       B60-B69=2.0493       B61-B53=1.6491       B61-B54=1.5559       
B61-B60=1.8128       B61-B69=1.5851       B62-B55=1.6146       B62-B56=1.6386       B62-B63=1.5764       B62-B70=1.6110       
B63-B56=1.6058       B63-B62=1.5764       B63-H86=1.1643       B64-B57=1.7435       B64-B65=1.5931       B64-B71=1.7111       
B64-H89=1.1702       B65-B57=1.5731       B65-B64=1.5931       B65-B71=1.5815       B65-B72=1.5998       B66-B58=1.5886       
B66-B72=1.7406       B66-B73=1.6020       B66-B74=1.8568       B67-B59=1.5871       B67-B74=1.8235       B67-B75=1.5951       
B67-B76=1.7223       B68-B60=1.6099       B68-B69=1.7012       B68-B76=1.6337       B68-B77=1.6282       B69-B60=2.0493       
B69-B61=1.5851       B69-B68=1.7012       B69-B77=1.6877       B69-B78=1.6636       B70-B62=1.6110       B70-B79=1.6124       
B70-H83=1.1837       B71-B64=1.7111       B71-B65=1.5815       B71-B72=1.7555       B71-H85=1.1709       B72-B65=1.5998       
B72-B66=1.7406       B72-B71=1.7555       B72-B73=1.5241       B73-B66=1.6020       B73-B72=1.5241       B73-B74=1.5399       
B74-B66=1.8568       B74-B67=1.8235       B74-B73=1.5399       B74-B75=1.5401       B75-B67=1.5951       B75-B74=1.5401       
B75-B76=1.5400       B76-B67=1.7223       B76-B68=1.6337       B76-B75=1.5400       B76-B77=1.6514       B77-B68=1.6282       
B77-B69=1.6877       B77-B76=1.6514       B77-B78=1.5329       B78-B69=1.6636       B78-B77=1.5329       B78-B79=1.5740       
B79-B70=1.6124       B79-B78=1.5740       B79-B80=1.5985       B80-B79=1.5985       B80-H81=1.1799       B80-H91=1.1802       
H81-B80=1.1799       H82-B56=1.1704       H83-B70=1.1837       H84-B33=1.1856       H85-B71=1.1709       H86-B63=1.1643       
H87-B47=1.1739       H88-B39=1.1715       H89-B64=1.1702       H90-B46=1.1759       H91-B80=1.1802       H92-B33=1.1836       
 B  H  Rav=1.1758 sigma=0.0064  Rmin=1.1643  Rmax=1.1856    12
 B  B  Rav=1.6575 sigma=0.0966  Rmin=1.5109  Rmax=2.0493    89
 C  H  Rav=1.0805 sigma=0.0031  Rmin=1.0757  Rmax=1.0854     5
 C  C  Rav=1.4025 sigma=0.0220  Rmin=1.3735  Rmax=1.4475    16
 O  H  Rav=0.9754 sigma=0.0117  Rmin=0.9649  Rmax=0.9941     5
 O  C  Rav=1.3494 sigma=0.0350  Rmin=1.2630  Rmax=1.3782     8
 
 selected bond angles (degree)
 --------------------
C3-C2-O1=119.16                C22-C2-O1=124.79               C22-C2-C3=116.04               O4-C3-C2=114.05                
C5-C3-C2=121.76                C5-C3-O4=124.17                H23-O4-C3=103.25               C6-C5-C3=126.89                
O14-C5-C3=119.98               O14-C5-C6=113.11               C7-C6-C5=122.13                C13-C6-C5=118.92               
C13-C6-C7=118.95               C8-C7-C6=120.15                H24-C7-C6=119.97               H24-C7-C8=119.88               
C9-C8-C7=120.56                H25-C8-C7=119.79               H25-C8-C9=119.65               O10-C9-C8=123.24               
C11-C9-C8=120.08               C11-C9-O10=116.68              H26-O10-C9=109.03              
 
 selected dihedral angles (degree)
 ---------------------------------
O4-C3-C2-O1=359.46            O4-C3-C2-C22=179.10           C5-C3-C2-O1=177.85            C5-C3-C2-C22=357.49           
H23-O4-C3-C2=  1.30           H23-O4-C3-C5=182.95           C6-C5-C3-C2=182.84            C6-C5-C3-O4=  1.06            
O14-C5-C3-C2=  1.55           O14-C5-C3-O4=179.77           C7-C6-C5-C3=341.56            C7-C6-C5-O14=162.77           
C13-C6-C5-C3=162.10           C13-C6-C5-O14=343.32          C8-C7-C6-C5=180.35            C8-C7-C6-C13=359.80           
H24-C7-C6-C5=359.82           H24-C7-C6-C13=179.28          C9-C8-C7-C6=359.78            C9-C8-C7-H24=180.30           
H25-C8-C7-C6=179.77           H25-C8-C7-H24=  0.30          O10-C9-C8-C7=180.44           O10-C9-C8-H25=  0.44          
C11-C9-C8-C7=  0.28           C11-C9-C8-H25=180.28          H26-O10-C9-C8=357.99          H26-O10-C9-C11=178.14         
 
 CMA Distance (Angstroems)
 ---------------------------
R(CMA):  7.1191
           -------------------------------------------------
          |                Final Singlepoint                |
           -------------------------------------------------

          ...................................................
          :                      SETUP                      :
          :.................................................:
          :  # basis functions                 302          :
          :  # atomic orbitals                 302          :
          :  # shells                          162          :
          :  # electrons                       268          :
          :  max. iterations                   500          :
          :  Hamiltonian                  GFN2-xTB          :
          :  restarted?                      false          :
          :  GBSA solvation                  false          :
          :  PC potential                    false          :
          :  electronic temp.          300.0000000     K    :
          :  accuracy                    1.0000000          :
          :  -> integral cutoff          0.2500000E+02      :
          :  -> integral neglect         0.1000000E-07      :
          :  -> SCF convergence          0.1000000E-05 Eh   :
          :  -> wf. convergence          0.1000000E-03 e    :
          :  Broyden damping             0.4000000          :
          :  net charge                          0          :
          :  unpaired electrons                  0          :
          ...................................................

 iter      E             dE          RMSdq      gap      omega  full diag
   1   -131.7885036 -0.131789E+03  0.194E-01    0.05       0.0  T
   2   -131.7600252  0.284784E-01  0.372E-01    0.35       1.0  T
   3   -131.7864263 -0.264011E-01  0.178E-01    0.11       1.0  T
   4   -131.7835106  0.291574E-02  0.201E-01    0.04       1.0  T
   5   -131.7873813 -0.387074E-02  0.132E-01    0.05       1.0  T
   6   -131.7896962 -0.231488E-02  0.978E-02    0.10       1.0  T
   7   -131.7918240 -0.212781E-02  0.375E-02    0.08       1.0  T
   8   -131.7921698 -0.345822E-03  0.689E-03    0.07       1.5  T
   9   -131.7921454  0.244229E-04  0.115E-02    0.07       1.0  T
  10   -131.7921777 -0.323383E-04  0.294E-03    0.07       3.6  T
  11   -131.7921783 -0.620739E-06  0.210E-03    0.07       5.0  T
  12   -131.7921786 -0.301178E-06  0.158E-03    0.07       6.6  T
  13   -131.7921791 -0.439091E-06  0.890E-04    0.07      11.7  T
  14   -131.7921793 -0.178600E-06  0.278E-04    0.07      37.5  T

   *** convergence criteria satisfied after 14 iterations ***

         #    Occupation            Energy/Eh            Energy/eV
      -------------------------------------------------------------
         1        2.0000           -0.7197309             -19.5849
       ...           ...                  ...                  ...
       128        2.0000           -0.2895837              -7.8800
       129        2.0000           -0.2852170              -7.7611
       130        2.0000           -0.2849007              -7.7525
       131        2.0000           -0.2832904              -7.7087
       132        2.0000           -0.2788833              -7.5888
       133        2.0000           -0.2769093              -7.5351
       134        1.6016           -0.2621002              -7.1321 (HOMO)
       135        0.3984           -0.2594568              -7.0602 (LUMO)
       136        0.0000           -0.2505804              -6.8186
       137                         -0.2375677              -6.4645
       138                         -0.2337698              -6.3612
       139                         -0.2299351              -6.2569
       ...                                ...                  ...
       302                          1.2026156              32.7248
      -------------------------------------------------------------
                  HL-Gap            0.0026434 Eh            0.0719 eV
             Fermi-level           -0.2607785 Eh           -7.0961 eV

 SCC (total)                   0 d,  0 h,  0 min,  0.303 sec
 SCC setup                      ...        0 min,  0.000 sec (  0.000%)
 Dispersion                     ...        0 min,  0.001 sec (  0.330%)
 classical contributions        ...        0 min,  0.000 sec (  0.000%)
 integral evaluation            ...        0 min,  0.007 sec (  2.310%)
 iterations                     ...        0 min,  0.272 sec ( 89.769%)
 molecular gradient             ...        0 min,  0.022 sec (  7.261%)
 printout                       ...        0 min,  0.001 sec (  0.330%)

         :::::::::::::::::::::::::::::::::::::::::::::::::::::
         ::                     SUMMARY                     ::
         :::::::::::::::::::::::::::::::::::::::::::::::::::::
         :: total energy            -130.009608939604 Eh    ::
         :: gradient norm              0.013259057334 Eh/a0 ::
         :: HOMO-LUMO gap              0.071931231742 eV    ::
         ::.................................................::
         :: SCC energy              -131.790778797573 Eh    ::
         :: -> isotropic ES            0.413388368576 Eh    ::
         :: -> anisotropic ES         -0.001979860049 Eh    ::
         :: -> anisotropic XC         -0.039798570105 Eh    ::
         :: -> dispersion             -0.108170101202 Eh    ::
         :: repulsion energy           1.781169857969 Eh    ::
         :: add. restraining           0.000000000000 Eh    ::
         :: total charge              -0.000000000000 e     ::
         :::::::::::::::::::::::::::::::::::::::::::::::::::::

           -------------------------------------------------
          |                Property Printout                |
           -------------------------------------------------

    * Orbital Energies and Occupations

         #    Occupation            Energy/Eh            Energy/eV
      -------------------------------------------------------------
         1        2.0000           -0.7197309             -19.5849
       ...           ...                  ...                  ...
       122        2.0000           -0.3077366              -8.3739
       123        2.0000           -0.3052394              -8.3060
       124        2.0000           -0.3018101              -8.2127
       125        2.0000           -0.3010757              -8.1927
       126        2.0000           -0.2970006              -8.0818
       127        2.0000           -0.2946335              -8.0174
       128        2.0000           -0.2895837              -7.8800
       129        2.0000           -0.2852170              -7.7611
       130        2.0000           -0.2849007              -7.7525
       131        2.0000           -0.2832904              -7.7087
       132        2.0000           -0.2788833              -7.5888
       133        2.0000           -0.2769093              -7.5351
       134        1.6016           -0.2621002              -7.1321 (HOMO)
       135        0.3984           -0.2594568              -7.0602 (LUMO)
       136        0.0000           -0.2505804              -6.8186
       137                         -0.2375677              -6.4645
       138                         -0.2337698              -6.3612
       139                         -0.2299351              -6.2569
       140                         -0.2237270              -6.0879
       141                         -0.2222462              -6.0476
       142                         -0.2113442              -5.7510
       143                         -0.2073631              -5.6426
       144                         -0.2060151              -5.6060
       145                         -0.2056910              -5.5971
       ...                                ...                  ...
       302                          1.2026156              32.7248
      -------------------------------------------------------------
                  HL-Gap            0.0026434 Eh            0.0719 eV
             Fermi-level           -0.2607785 Eh           -7.0961 eV

     #   Z          covCN         q      C6AA      α(0)
     1   8 O        0.858    -0.524    24.323     6.612
     2   6 C        2.836     0.169    24.350     8.086
     3   6 C        2.828     0.080    26.199     8.387
     4   8 O        1.657    -0.401    20.861     6.166
     5   6 C        2.856     0.091    25.973     8.353
     6   6 C        2.969    -0.003    28.106     8.696
     7   6 C        2.918    -0.053    29.319     8.879
     8   6 C        2.912    -0.073    29.814     8.954
     9   6 C        2.844     0.096    25.856     8.333
    10   8 O        1.658    -0.417    21.173     6.212
    11   6 C        2.839     0.121    25.337     8.249
    12   8 O        1.659    -0.401    20.869     6.167
    13   6 C        2.922    -0.072    29.783     8.950
    14   8 O        1.710    -0.219    17.627     5.669
    15   6 C        2.875     0.131    25.138     8.219
    16   6 C        2.915    -0.111    30.799     9.100
    17   6 C        2.845     0.137    25.006     8.195
    18   8 O        1.660    -0.397    20.788     6.155
    19   6 C        2.913    -0.118    31.006     9.131
    20   6 C        2.845     0.153    24.673     8.141
    21   8 O        1.656    -0.396    20.767     6.152
    22   6 C        2.975    -0.092    30.313     9.031
    23   1 H        0.803     0.334     0.627     1.244
    24   1 H        0.926     0.068     2.103     2.268
    25   1 H        0.925     0.032     2.557     2.501
    26   1 H        0.805     0.300     0.720     1.333
    27   1 H        0.805     0.320     0.664     1.280
    28   1 H        0.925     0.068     2.109     2.271
    29   1 H        0.926     0.066     2.125     2.279
    30   1 H        0.805     0.308     0.698     1.312
    31   1 H        0.926     0.048     2.349     2.397
    32   1 H        0.801     0.354     0.579     1.196
    33   5 B        2.842     0.116    19.510     7.376
    34   5 B        3.910     0.039    22.022     7.562
    35   5 B        3.737    -0.010    22.829     7.717
    36   5 B        2.813     0.019    21.122     7.678
    37   5 B        2.907    -0.031    21.969     7.822
    38   5 B        3.857     0.019    22.377     7.624
    39   5 B        2.868     0.064    20.333     7.528
    40   5 B        2.920     0.006    21.292     7.700
    41   5 B        3.829     0.053    21.757     7.519
    42   5 B        3.758     0.025    22.214     7.606
    43   5 B        3.851     0.010    22.550     7.653
    44   5 B        4.478     0.053    21.783     7.520
    45   5 B        4.696     0.093    21.094     7.400
    46   5 B        3.805     0.067    21.516     7.479
    47   5 B        3.830     0.063    21.593     7.490
    48   5 B        4.006     0.053    21.784     7.520
    49   5 B        4.611     0.067    21.536     7.477
    50   5 B        5.636     0.113    20.749     7.339
    51   5 B        4.730     0.042    21.970     7.552
    52   5 B        3.744     0.044    21.868     7.550
    53   5 B        4.777     0.083    21.254     7.428
    54   5 B        4.582     0.032    22.158     7.584
    55   5 B        3.856     0.047    21.883     7.539
    56   5 B        3.834     0.043    21.943     7.550
    57   5 B        3.832     0.015    22.448     7.637
    58   5 B        3.812    -0.018    23.059     7.742
    59   5 B        3.816     0.004    22.650     7.672
    60   5 B        4.262    -0.012    22.978     7.724
    61   5 B        3.790     0.026    22.235     7.604
    62   5 B        3.879     0.031    22.165     7.587
    63   5 B        2.889     0.106    19.640     7.397
    64   5 B        3.781     0.081    21.260     7.437
    65   5 B        3.895     0.053    21.776     7.520
    66   5 B        3.706     0.040    21.846     7.562
    67   5 B        3.751     0.035    22.036     7.577
    68   5 B        3.855     0.046    21.887     7.540
    69   5 B        4.330     0.048    21.864     7.534
    70   5 B        2.877     0.086    19.961     7.458
    71   5 B        3.775     0.081    21.244     7.435
    72   5 B        3.798     0.011    22.511     7.650
    73   5 B        2.926     0.015    21.146     7.673
    74   5 B        3.648     0.007    22.208     7.670
    75   5 B        2.926     0.025    20.961     7.639
    76   5 B        3.843     0.001    22.714     7.682
    77   5 B        3.859     0.017    22.412     7.630
    78   5 B        2.911     0.009    21.247     7.692
    79   5 B        2.916     0.011    21.220     7.687
    80   5 B        2.843     0.138    19.160     7.310
    81   1 H        0.935    -0.133     6.880     4.101
    82   1 H        0.939    -0.098     5.485     3.661
    83   1 H        0.934    -0.130     6.746     4.061
    84   1 H        0.933    -0.145     7.445     4.266
    85   1 H        0.939    -0.127     6.617     4.022
    86   1 H        0.941    -0.138     7.111     4.169
    87   1 H        0.938    -0.110     5.924     3.805
    88   1 H        0.939    -0.147     7.514     4.286
    89   1 H        0.939    -0.125     6.502     3.987
    90   1 H        0.937    -0.135     6.950     4.122
    91   1 H        0.935    -0.135     6.965     4.126
    92   1 H        0.934    -0.145     7.413     4.257

 Mol. C6AA /au·bohr⁶  :     141343.305479
 Mol. C8AA /au·bohr⁸  :    4499930.674642
 Mol. α(0) /au        :        602.053664


Wiberg/Mayer (AO) data.
largest (>0.10) Wiberg bond orders for each atom

 ---------------------------------------------------------------------------
     #   Z sym  total        # sym  WBO       # sym  WBO       # sym  WBO
 ---------------------------------------------------------------------------
     1   8 O    1.858 --     2 C    1.469
     2   6 C    3.855 --     1 O    1.469     3 C    1.142    22 C    1.134
     3   6 C    3.911 --     5 C    1.446     2 C    1.142     4 O    1.086
     4   8 O    2.105 --     3 C    1.086    23 H    0.840
     5   6 C    3.804 --     3 C    1.446     6 C    1.119    14 O    1.024
     6   6 C    3.965 --     7 C    1.345    13 C    1.329     5 C    1.119
     7   6 C    3.954 --     8 C    1.458     6 C    1.345    24 H    0.962
     8   6 C    3.983 --     7 C    1.458     9 C    1.383    25 H    0.965
     9   6 C    3.883 --     8 C    1.383    11 C    1.288    10 O    1.036
    10   8 O    2.072 --     9 C    1.036    26 H    0.889
    11   6 C    3.941 --    13 C    1.426     9 C    1.288    12 O    1.067
    12   8 O    2.104 --    11 C    1.067    27 H    0.876
    13   6 C    3.945 --    11 C    1.426     6 C    1.329    28 H    0.963
    14   8 O    2.339 --    15 C    1.087     5 C    1.024
    15   6 C    3.919 --    16 C    1.366    22 C    1.287    14 O    1.087
    16   6 C    3.954 --    15 C    1.366    17 C    1.364    29 H    0.965
    17   6 C    3.907 --    19 C    1.364    16 C    1.364    18 O    1.069
    18   8 O    2.101 --    17 C    1.069    30 H    0.885
    19   6 C    3.966 --    20 C    1.379    17 C    1.364    31 H    0.963
    20   6 C    3.910 --    19 C    1.379    22 C    1.251    21 O    1.148
    21   8 O    2.148 --    20 C    1.148    32 H    0.787
    22   6 C    3.976 --    15 C    1.287    20 C    1.251     2 C    1.134
    23   1 H    0.888 --     4 O    0.840
    24   1 H    0.995 --     7 C    0.962
    25   1 H    0.999 --     8 C    0.965
    26   1 H    0.910 --    10 O    0.889
    27   1 H    0.897 --    12 O    0.876
    28   1 H    0.995 --    13 C    0.963
    29   1 H    0.995 --    16 C    0.965
    30   1 H    0.905 --    18 O    0.885
    31   1 H    0.997 --    19 C    0.963
    32   1 H    0.874 --    21 O    0.787
    33   5 B    3.273 --    40 B    1.201    92 H    0.945    84 H    0.942
    34   5 B    3.547 --    35 B    1.156    40 B    0.836    41 B    0.538
                            49 B    0.524    48 B    0.164
    35   5 B    3.566 --    34 B    1.156    42 B    1.146    49 B    0.470
                            50 B    0.457
    36   5 B    3.352 --    37 B    1.355    43 B    1.072    52 B    0.476
    37   5 B    3.499 --    36 B    1.355    44 B    1.123    53 B    0.605
    38   5 B    3.567 --    39 B    1.310    44 B    0.722    46 B    0.701
                            45 B    0.695
    39   5 B    3.389 --    38 B    1.310    88 H    0.969    46 B    0.818
                            45 B    0.126
    40   5 B    3.386 --    33 B    1.201    41 B    1.081    34 B    0.836
    41   5 B    3.510 --    40 B    1.081    47 B    0.840    48 B    0.683
                            34 B    0.538
    42   5 B    3.427 --    35 B    1.146    43 B    1.000    51 B    0.522
                            50 B    0.440
    43   5 B    3.540 --    36 B    1.072    42 B    1.000    52 B    0.647
                            51 B    0.617
    44   5 B    3.534 --    37 B    1.123    38 B    0.722    53 B    0.642
                            45 B    0.461    54 B    0.359
    45   5 B    3.613 --    46 B    0.893    55 B    0.697    38 B    0.695
                            54 B    0.569    44 B    0.461    39 B    0.126
    46   5 B    3.576 --    90 H    0.939    45 B    0.893    39 B    0.818
                            38 B    0.701
    47   5 B    3.559 --    87 H    0.923    41 B    0.840    57 B    0.805
                            48 B    0.797
    48   5 B    3.643 --    57 B    0.871    49 B    0.802    47 B    0.797
                            41 B    0.683    34 B    0.164
    49   5 B    3.559 --    48 B    0.802    58 B    0.763    50 B    0.639
                            34 B    0.524    35 B    0.470
    50   5 B    3.668 --    58 B    0.730    59 B    0.706    49 B    0.639
                            51 B    0.527    35 B    0.457    42 B    0.440
    51   5 B    3.553 --    52 B    0.945    59 B    0.714    43 B    0.617
                            50 B    0.527    42 B    0.522
    52   5 B    3.496 --    60 B    1.008    51 B    0.945    43 B    0.647
                            36 B    0.476
    53   5 B    3.607 --    61 B    0.681    60 B    0.650    54 B    0.645
                            44 B    0.642    37 B    0.605
    54   5 B    3.608 --    61 B    1.019    55 B    0.753    53 B    0.645
                            45 B    0.569    44 B    0.359
    55   5 B    3.670 --    62 B    0.834    56 B    0.814    54 B    0.753
                            45 B    0.697    63 B    0.163
    56   5 B    3.628 --    63 B    1.006    82 H    0.909    55 B    0.814
                            62 B    0.737
    57   5 B    3.594 --    65 B    0.878    48 B    0.871    47 B    0.805
                            64 B    0.718
    58   5 B    3.621 --    66 B    1.107    49 B    0.763    50 B    0.730
                            59 B    0.627
    59   5 B    3.542 --    67 B    1.085    51 B    0.714    50 B    0.706
                            58 B    0.627
    60   5 B    3.590 --    52 B    1.008    68 B    0.923    53 B    0.650
                            61 B    0.448    69 B    0.278
    61   5 B    3.579 --    54 B    1.019    69 B    0.978    53 B    0.681
                            60 B    0.448
    62   5 B    3.605 --    63 B    0.964    70 B    0.896    55 B    0.834
                            56 B    0.737
    63   5 B    3.433 --    56 B    1.006    86 H    0.972    62 B    0.964
                            70 B    0.186    55 B    0.163
    64   5 B    3.541 --    89 H    0.954    71 B    0.863    65 B    0.827
                            57 B    0.718
    65   5 B    3.629 --    57 B    0.878    71 B    0.870    64 B    0.827
                            72 B    0.773
    66   5 B    3.594 --    58 B    1.107    73 B    0.831    72 B    0.688
                            74 B    0.546
    67   5 B    3.597 --    59 B    1.085    75 B    0.849    76 B    0.705
                            74 B    0.574
    68   5 B    3.549 --    60 B    0.923    76 B    0.776    77 B    0.700
                            69 B    0.658
    69   5 B    3.576 --    61 B    0.978    78 B    0.743    77 B    0.682
                            68 B    0.658    60 B    0.278
    70   5 B    3.438 --    79 B    0.992    83 H    0.935    62 B    0.896
                            63 B    0.186    80 B    0.156
    71   5 B    3.541 --    85 H    0.958    65 B    0.870    64 B    0.863
                            72 B    0.655
    72   5 B    3.577 --    73 B    1.248    65 B    0.773    66 B    0.688
                            71 B    0.655
    73   5 B    3.540 --    72 B    1.248    74 B    1.116    66 B    0.831
    74   5 B    3.543 --    75 B    1.126    73 B    1.116    67 B    0.574
                            66 B    0.546
    75   5 B    3.517 --    76 B    1.165    74 B    1.126    67 B    0.849
    76   5 B    3.589 --    75 B    1.165    68 B    0.776    77 B    0.743
                            67 B    0.705
    77   5 B    3.575 --    78 B    1.203    76 B    0.743    68 B    0.700
                            69 B    0.682
    78   5 B    3.512 --    77 B    1.203    79 B    1.055    69 B    0.743
                            80 B    0.122
    79   5 B    3.389 --    80 B    1.064    78 B    1.055    70 B    0.992
    80   5 B    3.280 --    79 B    1.064    81 H    0.954    91 H    0.952
                            70 B    0.156    78 B    0.122
    81   1 H    0.980 --    80 B    0.954
    82   1 H    0.984 --    56 B    0.909
    83   1 H    0.981 --    70 B    0.935
    84   1 H    0.970 --    33 B    0.942
    85   1 H    0.980 --    71 B    0.958
    86   1 H    0.980 --    63 B    0.972
    87   1 H    0.978 --    47 B    0.923
    88   1 H    0.977 --    39 B    0.969
    89   1 H    0.979 --    64 B    0.954
    90   1 H    0.974 --    46 B    0.939
    91   1 H    0.978 --    80 B    0.952
    92   1 H    0.971 --    33 B    0.945
 ---------------------------------------------------------------------------

Topologies differ in total number of bonds
Writing topology from bond orders to xtbtopo.mol

molecular dipole:
                 x           y           z       tot (Debye)
 q only:       -0.228       0.094      -5.652
   full:        0.329       1.087      -4.611      12.069
molecular quadrupole (traceless):
                xx          xy          yy          xz          yz          zz
 q only:      -10.699     -19.484      47.691      48.939     -17.859     -36.992
  q+dip:       41.380     -18.647      18.671      48.026     -12.023     -60.051
   full:       22.455     -19.584      10.198      51.291     -12.352     -32.653

           -------------------------------------------------
          |                Geometry Summary                 |
           -------------------------------------------------

      molecular mass/u    :      833.2609158
   center of mass at/Å    :        0.0095231       0.0047133       2.7049139
  moments of inertia/u·Å² :        0.1395650E+05   0.1974882E+05   0.2668023E+05
rotational constants/cm⁻¹ :        0.1207869E-02   0.8536022E-03   0.6318399E-03

 * 115 selected distances

     #   Z          #   Z                                           value/Å
     3   6 C        4   8 O                                       1.3594960
     3   6 C        5   6 C                                       1.3734873
     6   6 C        7   6 C                                       1.4036621
     7   6 C        8   6 C                                       1.3802801
     8   6 C        9   6 C                                       1.3896678
     9   6 C       10   8 O                                       1.3782409
     9   6 C       11   6 C                                       1.4060231
    11   6 C       12   8 O                                       1.3674279
     6   6 C       13   6 C                                       1.4083885
    11   6 C       13   6 C                                       1.3789733
     5   6 C       14   8 O                                       1.3770817
    14   8 O       15   6 C                                       1.3466382
    15   6 C       16   6 C                                       1.3894995
    16   6 C       17   6 C                                       1.3900521
    17   6 C       18   8 O                                       1.3633813
    17   6 C       19   6 C                                       1.3900236
    19   6 C       20   6 C                                       1.3883083
    20   6 C       21   8 O                                       1.3397692
    15   6 C       22   6 C                                       1.4012861
    20   6 C       22   6 C                                       1.4130313
     4   8 O       23   1 H                                       0.9843069
     7   6 C       24   1 H                                       1.0793101
     8   6 C       25   1 H                                       1.0853943
    10   8 O       26   1 H                                       0.9671011
    12   8 O       27   1 H                                       0.9665239
    13   6 C       28   1 H                                       1.0815217
    16   6 C       29   1 H                                       1.0757383
    18   8 O       30   1 H                                       0.9648853 (min)
    19   6 C       31   1 H                                       1.0806013
    21   8 O       32   1 H                                       0.9940912
    34   5 B       35   5 B                                       1.5277857
    36   5 B       37   5 B                                       1.5250847
    38   5 B       39   5 B                                       1.5109294
    33   5 B       40   5 B                                       1.5740956
    34   5 B       40   5 B                                       1.6140226
    40   5 B       41   5 B                                       1.5554954
    35   5 B       42   5 B                                       1.5421746
    36   5 B       43   5 B                                       1.5513206
    42   5 B       43   5 B                                       1.5745927
    37   5 B       44   5 B                                       1.5468982
    38   5 B       44   5 B                                       1.6411619
    38   5 B       45   5 B                                       1.6511764
    38   5 B       46   5 B                                       1.6887569
    39   5 B       46   5 B                                       1.6902465
    45   5 B       46   5 B                                       1.6381089
    41   5 B       47   5 B                                       1.6376502
    41   5 B       48   5 B                                       1.6689557
    47   5 B       48   5 B                                       1.6291491
    48   5 B       49   5 B                                       1.6549196
    35   5 B       50   5 B                                       1.7515678 (max)
    49   5 B       50   5 B                                       1.7039103
    43   5 B       51   5 B                                       1.6886022
    50   5 B       51   5 B                                       1.7284890
    43   5 B       52   5 B                                       1.6959855
    51   5 B       52   5 B                                       1.5950386
    37   5 B       53   5 B                                       1.6862523
    44   5 B       53   5 B                                       1.6877313
    45   5 B       54   5 B                                       1.6873053
    53   5 B       54   5 B                                       1.6675831
    45   5 B       55   5 B                                       1.6696057
    54   5 B       55   5 B                                       1.6164765
    55   5 B       56   5 B                                       1.6612696
    47   5 B       57   5 B                                       1.6601885
    48   5 B       57   5 B                                       1.6051008
    49   5 B       58   5 B                                       1.6814106
    50   5 B       58   5 B                                       1.6088983
    50   5 B       59   5 B                                       1.6236996
    51   5 B       59   5 B                                       1.6611955
    52   5 B       60   5 B                                       1.6119961
    53   5 B       60   5 B                                       1.7039458
    53   5 B       61   5 B                                       1.6490951
    54   5 B       61   5 B                                       1.5558942
    55   5 B       62   5 B                                       1.6146100
    56   5 B       62   5 B                                       1.6385797
    56   5 B       63   5 B                                       1.6057570
    62   5 B       63   5 B                                       1.5764358
    57   5 B       65   5 B                                       1.5730733
    64   5 B       65   5 B                                       1.5931418
    58   5 B       66   5 B                                       1.5885511
    59   5 B       67   5 B                                       1.5871210
    60   5 B       68   5 B                                       1.6099211
    61   5 B       69   5 B                                       1.5851411
    68   5 B       69   5 B                                       1.7011661
    62   5 B       70   5 B                                       1.6110009
    64   5 B       71   5 B                                       1.7110585
    65   5 B       71   5 B                                       1.5814576
    65   5 B       72   5 B                                       1.5998144
    66   5 B       73   5 B                                       1.6019612
    72   5 B       73   5 B                                       1.5241190
    73   5 B       74   5 B                                       1.5399058
    67   5 B       75   5 B                                       1.5951132
    74   5 B       75   5 B                                       1.5400751
    67   5 B       76   5 B                                       1.7222845
    68   5 B       76   5 B                                       1.6337330
    75   5 B       76   5 B                                       1.5400386
    68   5 B       77   5 B                                       1.6282224
    69   5 B       77   5 B                                       1.6876725
    76   5 B       77   5 B                                       1.6513945
    69   5 B       78   5 B                                       1.6636326
    77   5 B       78   5 B                                       1.5329445
    70   5 B       79   5 B                                       1.6123502
    78   5 B       79   5 B                                       1.5740478
    79   5 B       80   5 B                                       1.5984623
    80   5 B       81   1 H                                       1.1799164
    56   5 B       82   1 H                                       1.1703831
    70   5 B       83   1 H                                       1.1837056
    33   5 B       84   1 H                                       1.1856102
    71   5 B       85   1 H                                       1.1708907
    63   5 B       86   1 H                                       1.1642992
    47   5 B       87   1 H                                       1.1738649
    39   5 B       88   1 H                                       1.1714603
    64   5 B       89   1 H                                       1.1701771
    46   5 B       90   1 H                                       1.1759243
    80   5 B       91   1 H                                       1.1802013
    33   5 B       92   1 H                                       1.1836476

 * 6 distinct bonds (by element types)

   Z      Z             #   av. dist./Å        max./Å        min./Å
   1 H    5 B          12     1.1758401     1.1856102     1.1642992
   5 B    5 B          73     1.6225555     1.7515678     1.5109294
   1 H    6 C           5     1.0805132     1.0853943     1.0757383
   6 C    6 C          13     1.3932833     1.4130313     1.3734873
   1 H    8 O           5     0.9753817     0.9940912     0.9648853
   6 C    8 O           7     1.3617193     1.3782409     1.3397692


optimized geometry written to: xtbopt.xyz


           -------------------------------------------------
          | TOTAL ENERGY             -130.009608939604 Eh   |
          | GRADIENT NORM               0.013259057334 Eh/α |
          | HOMO-LUMO GAP               0.071931231742 eV   |
           -------------------------------------------------

------------------------------------------------------------------------
 * finished run on 2026/09/01 at 16:36:52.447     
------------------------------------------------------------------------
 total:
 * wall-time:     0 d,  0 h,  0 min,  5.759 sec
 *  cpu-time:     0 d,  0 h,  0 min, 49.922 sec
 * ratio c/w:     8.668 speedup
 SCF:
 * wall-time:     0 d,  0 h,  0 min,  0.977 sec
 *  cpu-time:     0 d,  0 h,  0 min,  7.469 sec
 * ratio c/w:     7.645 speedup
 ANC optimizer:
 * wall-time:     0 d,  0 h,  0 min,  4.731 sec
 *  cpu-time:     0 d,  0 h,  0 min, 42.172 sec
 * ratio c/w:     8.914 speedup

