92
Drug@B48H12 complex
O     -2.200418      1.574541      6.131975
C     -1.675496      0.986415      5.188726
C     -0.200934      0.937743      5.059509
O      0.538308      1.564209      6.046058
C      0.330367      0.280959      4.011676
C      1.786612      0.152620      3.789175
C      2.646796      1.263924      3.867421
C      4.021119      1.133896      3.633930
C      4.536450     -0.113857      3.312281
O      5.868487     -0.307456      3.073122
C      3.694351     -1.217863      3.221370
O      4.209140     -2.441854      2.900349
C      2.330155     -1.096735      3.452318
O     -0.423791     -0.367098      3.040244
C     -1.791800     -0.333987      3.129503
C     -2.509585     -0.988248      2.128975
C     -3.901385     -0.987131      2.170487
O     -4.564366     -1.638232      1.172819
C     -4.589246     -0.343100      3.195675
C     -3.866787      0.308419      4.192486
O     -4.592320      0.924706      5.176010
C     -2.468449      0.313032      4.159130
H     -0.121566      1.913714      6.681230
H      2.249239      2.246887      4.113297
H      4.657296      2.009677      3.707682
H      6.321953      0.545836      3.184669
H      5.167419     -2.282054      2.787892
H      1.700585     -1.978902      3.373331
H     -1.990249     -1.496697      1.321025
H     -5.521204     -1.562969      1.328138
H     -5.674010     -0.337769      3.235266
H     -3.966670      1.337373      5.812429
B     -7.500000     -4.500000      0.000000
B     -4.500000     -4.500000      0.000000
B     -1.500000     -4.500000      0.000000
B      1.500000     -4.500000      0.000000
B      4.500000     -4.500000      0.000000
B      7.500000     -4.500000      0.000000
B     -7.500000     -3.000000      0.000000
B     -4.500000     -3.000000      0.000000
B     -1.500000     -3.000000      0.000000
B      1.500000     -3.000000      0.000000
B      4.500000     -3.000000      0.000000
B      7.500000     -3.000000      0.000000
B     -7.500000     -1.500000      0.000000
B     -4.500000     -1.500000      0.000000
B     -1.500000     -1.500000      0.000000
B      1.500000     -1.500000      0.000000
B      4.500000     -1.500000      0.000000
B      7.500000     -1.500000      0.000000
B     -7.500000      0.000000      0.000000
B     -4.500000      0.000000      0.000000
B     -1.500000      0.000000      0.000000
B      1.500000      0.000000      0.000000
B      4.500000      0.000000      0.000000
B      7.500000      0.000000      0.000000
B     -7.500000      1.500000      0.000000
B     -4.500000      1.500000      0.000000
B     -1.500000      1.500000      0.000000
B      1.500000      1.500000      0.000000
B      4.500000      1.500000      0.000000
B      7.500000      1.500000      0.000000
B     -7.500000      3.000000      0.000000
B     -4.500000      3.000000      0.000000
B     -1.500000      3.000000      0.000000
B      1.500000      3.000000      0.000000
B      4.500000      3.000000      0.000000
B      7.500000      3.000000      0.000000
B     -7.500000      4.500000      0.000000
B     -4.500000      4.500000      0.000000
B     -1.500000      4.500000      0.000000
B      1.500000      4.500000      0.000000
B      4.500000      4.500000      0.000000
B      7.500000      4.500000      0.000000
B     -6.000000     -3.750000      0.000000
B     -3.000000     -3.750000      0.000000
B      0.000000     -3.750000      0.000000
B      3.000000     -3.750000      0.000000
B      6.000000     -3.750000      0.000000
B     -6.000000      3.750000      0.000000
B     -3.000000      3.750000      0.000000
B      0.000000      3.750000      0.000000
B      3.000000      3.750000      0.000000
B      6.000000      3.750000      0.000000
B     -6.000000      0.000000      0.000000
H     -8.600000     -4.500000      0.000000
H     -8.600000     -1.500000      0.000000
H     -8.600000      1.500000      0.000000
H     -8.600000      4.500000      0.000000
H      8.600000     -4.500000      0.000000
H      8.600000     -1.500000      0.000000
H      8.600000      1.500000      0.000000
