      -----------------------------------------------------------      
     |                   =====================                   |     
     |                           x T B                           |     
     |                   =====================                   |     
     |                         S. Grimme                         |     
     |          Mulliken Center for Theoretical Chemistry        |     
     |                    University of Bonn                     |     
      -----------------------------------------------------------      

   * xtb version 6.7.1pre (5071a88) compiled by 'Marcel@Raven' on 2024-07-23

   xtb is free software: you can redistribute it and/or modify it under
   the terms of the GNU Lesser General Public License as published by
   the Free Software Foundation, either version 3 of the License, or
   (at your option) any later version.
   
   xtb is distributed in the hope that it will be useful,
   but WITHOUT ANY WARRANTY; without even the implied warranty of
   MERCHANTABILITY or FITNESS FOR A PARTICULAR PURPOSE.  See the
   GNU Lesser General Public License for more details.
   
   Cite this work as:
   * C. Bannwarth, E. Caldeweyher, S. Ehlert, A. Hansen, P. Pracht,
     J. Seibert, S. Spicher, S. Grimme, WIREs Comput. Mol. Sci., 2020, 11,
     e01493. DOI: 10.1002/wcms.1493
   
   for GFN2-xTB:
   * C. Bannwarth, S. Ehlert and S. Grimme., J. Chem. Theory Comput., 2019,
     15, 1652-1671. DOI: 10.1021/acs.jctc.8b01176
   for GFN1-xTB:
   * S. Grimme, C. Bannwarth, P. Shushkov, J. Chem. Theory Comput., 2017,
     13, 1989-2009. DOI: 10.1021/acs.jctc.7b00118
   for GFN0-xTB:
   * P. Pracht, E. Caldeweyher, S. Ehlert, S. Grimme, ChemRxiv, 2019, preprint.
     DOI: 10.26434/chemrxiv.8326202.v1
   for GFN-FF:
   * S. Spicher and S. Grimme, Angew. Chem. Int. Ed., 2020, 59, 15665-15673.
     DOI: 10.1002/anie.202004239
   
   for ALPB and GBSA implicit solvation:
   * S. Ehlert, M. Stahn, S. Spicher, S. Grimme, J. Chem. Theory Comput.,
     2021, 17, 4250-4261. DOI: 10.1021/acs.jctc.1c00471
   
   for ddCOSMO and CPCM-X implicit solvation:
   * M. Stahn, S. Ehlert, S. Grimme, J. Phys. Chem. A,
     2023, XX, XXXX-XXXX. DOI: 10.1021/acs.jpca.3c04382
   
   for DFT-D4:
   * E. Caldeweyher, C. Bannwarth and S. Grimme, J. Chem. Phys., 2017,
     147, 034112. DOI: 10.1063/1.4993215
   * E. Caldeweyher, S. Ehlert, A. Hansen, H. Neugebauer, S. Spicher,
     C. Bannwarth and S. Grimme, J. Chem. Phys., 2019, 150, 154122.
     DOI: 10.1063/1.5090222
   * E. Caldeweyher, J.-M. Mewes, S. Ehlert and S. Grimme, Phys. Chem. Chem. Phys.
     2020, 22, 8499-8512. DOI: 10.1039/D0CP00502A
   
   for sTDA-xTB:
   * S. Grimme and C. Bannwarth, J. Chem. Phys., 2016, 145, 054103.
     DOI: 10.1063/1.4959605
   
   in the mass-spec context:
   * V. Asgeirsson, C. Bauer and S. Grimme, Chem. Sci., 2017, 8, 4879.
     DOI: 10.1039/c7sc00601b
   * J. Koopman and S. Grimme, ACS Omega 2019, 4, 12, 15120-15133.
     DOI: 10.1021/acsomega.9b02011
   
   for metadynamics refer to:
   * S. Grimme, J. Chem. Theory Comput., 2019, 155, 2847-2862
     DOI: 10.1021/acs.jctc.9b00143
   
   for SPH calculations refer to:
   * S. Spicher and S. Grimme, J. Chem. Theory Comput., 2021, 17, 1701-1714
     DOI: 10.1021/acs.jctc.0c01306
   
   for ONIOM refer to:
   * C. Plett, A. Katbashev, S. Ehlert, S. Grimme, M. Bursch,
     Phys. Chem. Chem. Phys., 2023, 25, 17860-17868. DOI: 10.1039/D3CP02178E
   
   for DIPRO refer to:
   * J. Kohn, N. Gildemeister, S. Grimme, D. Fazzi, A. Hansen,
     J. Chem. Phys., 2023, just accepted.
   
   for PTB refer to:
   * S. Grimme, M. Mueller, A. Hansen, J. Chem. Phys., 2023, 158, 124111.
     DOI: 10.1063/5.0137838
   
   with help from (in alphabetical order)
   P. Atkinson, C. Bannwarth, F. Bohle, G. Brandenburg, E. Caldeweyher
   M. Checinski, S. Dohm, S. Ehlert, S. Ehrlich, I. Gerasimov, C. Hölzer
   A. Katbashev, J. Kohn, J. Koopman, C. Lavigne, S. Lehtola, F. März, M. Müller,
   F. Musil, H. Neugebauer, J. Pisarek, C. Plett, P. Pracht, F. Pultar,
   J. Seibert, P. Shushkov, S. Spicher, M. Stahn, M. Steiner, T. Strunk,
   J. Stückrath, T. Rose, and J. Unsleber
   
 * started run on 2026/08/31 at 20:22:09.286     
   ID    Z sym.   atoms
    1    8 O      1, 4, 10, 12, 14, 18, 21
    2    6 C      2, 3, 5-9, 11, 13, 15-17, 19, 20, 22
    3    1 H      23-32, 86-92
    4    5 B      33-85

           -------------------------------------------------
          |                Calculation Setup                |
           -------------------------------------------------

          program call               : "c:\Users\Andre\Proyectos doctorado\kras-pancreatic-gC3N4-ai\tools\xtb\xtb-6.7.1\bin\xtb.exe" "c:\Users\Andre\Proyectos doctorado\borophene-alzheimer-tau-ai\calculations\tau\Quercetin\Quercetin_B48H12_complex.xyz" --gfn 2 --sp --chrg 0 --uhf 0 --iterations 500 --norestart
          coordinate file            : c:\Users\Andre\Proyectos doctorado\borophene-alzheimer-tau-ai\calculations\tau\Quercetin\Quercetin_B48H12_complex.xyz
          omp threads                :                    16


molecular fragmentation (1/2 indicates fragments):
111111111111111111111111111111111111111111111111111111111111111111111111
11111111111111221111
# atoms in fragment 1/2:    90     2
 fragment masses (1/2) :      880.26        2.02
CMA distance (Bohr)    :  16.237
constraining FC (au)   :  0.0500

           -------------------------------------------------
          |                 G F N 2 - x T B                 |
           -------------------------------------------------

        Reference                      10.1021/acs.jctc.8b01176
      * Hamiltonian:
        H0-scaling (s, p, d)           1.850000    2.230000    2.230000
        zeta-weighting                 0.500000
      * Dispersion:
        s8                             2.700000
        a1                             0.520000
        a2                             5.000000
        s9                             5.000000
      * Repulsion:
        kExp                           1.500000    1.000000
        rExp                           1.000000
      * Coulomb:
        alpha                          2.000000
        third order                    shell-resolved
        anisotropic                    true
        a3                             3.000000
        a5                             4.000000
        cn-shift                       1.200000
        cn-exp                         4.000000
        max-rad                        5.000000


          ...................................................
          :                      SETUP                      :
          :.................................................:
          :  # basis functions                 317          :
          :  # atomic orbitals                 317          :
          :  # shells                          167          :
          :  # electrons                       278          :
          :  max. iterations                   500          :
          :  Hamiltonian                  GFN2-xTB          :
          :  restarted?                      false          :
          :  GBSA solvation                  false          :
          :  PC potential                    false          :
          :  electronic temp.          300.0000000     K    :
          :  accuracy                    1.0000000          :
          :  -> integral cutoff          0.2500000E+02      :
          :  -> integral neglect         0.1000000E-07      :
          :  -> SCF convergence          0.1000000E-05 Eh   :
          :  -> wf. convergence          0.1000000E-03 e    :
          :  Broyden damping             0.4000000          :
          :  net charge                          0          :
          :  unpaired electrons                  0          :
          ...................................................

 iter      E             dE          RMSdq      gap      omega  full diag
   1   -131.0386520 -0.131039E+03  0.178E+01    0.27       0.0  T
   2     14.6457358  0.145684E+03  0.180E+01    0.10       1.0  T
   3    497.7902225  0.483144E+03  0.298E+01    0.23       1.0  T
   4    -11.6248715 -0.509415E+03  0.158E+01    0.12       1.0  T
   5     84.3777546  0.960026E+02  0.187E+01    0.11       1.0  T
   6    -39.7339414 -0.124112E+03  0.131E+01    0.07       1.0  T
   7    -29.0659233  0.106680E+02  0.144E+01    0.17       1.0  T
   8    -94.1718942 -0.651060E+02  0.103E+01    0.12       1.0  T
   9    -86.7635620  0.740833E+01  0.101E+01    0.05       1.0  T
  10   -112.3751977 -0.256116E+02  0.925E+00    0.02       1.0  T
  11   -131.5647487 -0.191896E+02  0.724E+00    0.03       1.0  T
  12   -130.8887837  0.675965E+00  0.713E+00    0.01       1.0  T
  13   -131.3420301 -0.453246E+00  0.687E+00    0.29       1.0  T
  14   -130.8385847  0.503445E+00  0.661E+00    0.18       1.0  T
  15   -131.2204634 -0.381879E+00  0.643E+00    0.19       1.0  T
  16   -131.1136462  0.106817E+00  0.638E+00    0.19       1.0  T
  17   -131.4718375 -0.358191E+00  0.605E+00    0.16       1.0  T
  18   -133.3795683 -0.190773E+01  0.442E+00    0.20       1.0  T
  19   -133.4764091 -0.968409E-01  0.415E+00    0.12       1.0  T
  20   -133.4936689 -0.172598E-01  0.414E+00    0.13       1.0  T
  21   -133.4360343  0.576346E-01  0.407E+00    0.13       1.0  T
  22   -133.4241230  0.119114E-01  0.397E+00    0.10       1.0  T
  23   -133.6976749 -0.273552E+00  0.319E+00    0.09       1.0  T
  24   -133.7939192 -0.962443E-01  0.276E+00    0.16       1.0  T
  25   -133.0902604  0.703659E+00  0.278E+00    0.16       1.0  T
  26   -133.1063829 -0.161225E-01  0.276E+00    0.16       1.0  T
  27   -133.1114731 -0.509022E-02  0.276E+00    0.16       1.0  T
  28   -133.1931207 -0.816475E-01  0.268E+00    0.14       1.0  T
  29   -133.6981016 -0.504981E+00  0.212E+00    0.04       1.0  T
  30   -133.8597052 -0.161604E+00  0.181E+00    0.06       1.0  T
  31   -134.0306183 -0.170913E+00  0.161E+00    0.09       1.0  T
  32   -134.0760042 -0.453859E-01  0.146E+00    0.13       1.0  T
  33   -134.1194931 -0.434889E-01  0.143E+00    0.15       1.0  T
  34   -134.2047233 -0.852302E-01  0.127E+00    0.13       1.0  T
  35   -134.2579941 -0.532708E-01  0.118E+00    0.11       1.0  T
  36   -134.2774229 -0.194289E-01  0.116E+00    0.11       1.0  T
  37   -134.2808039 -0.338099E-02  0.116E+00    0.11       1.0  T
  38   -134.2961613 -0.153574E-01  0.114E+00    0.10       1.0  T
  39   -134.2423998  0.537614E-01  0.117E+00    0.10       1.0  T
  40   -134.3416828 -0.992830E-01  0.962E-01    0.06       1.0  T
  41   -134.3663922 -0.247094E-01  0.835E-01    0.06       1.0  T
  42   -134.3736552 -0.726300E-02  0.805E-01    0.06       1.0  T
  43   -134.3722871  0.136811E-02  0.794E-01    0.07       1.0  T
  44   -134.4033492 -0.310621E-01  0.648E-01    0.05       1.0  T
  45   -134.4097082 -0.635898E-02  0.599E-01    0.06       1.0  T
  46   -134.4088736  0.834613E-03  0.568E-01    0.06       1.0  T
  47   -134.4089035 -0.299198E-04  0.567E-01    0.06       1.0  T
  48   -134.4088972  0.631716E-05  0.568E-01    0.06       1.0  T
  49   -134.4200150 -0.111178E-01  0.449E-01    0.07       1.0  T
  50   -134.4241245 -0.410954E-02  0.340E-01    0.07       1.0  T
  51   -134.4291536 -0.502910E-02  0.238E-01    0.08       1.0  T
  52   -134.4297712 -0.617579E-03  0.227E-01    0.08       1.0  T
  53   -134.4273501  0.242110E-02  0.243E-01    0.08       1.0  T
  54   -134.4330047 -0.565458E-02  0.148E-01    0.08       1.0  T
  55   -134.4321729  0.831844E-03  0.163E-01    0.08       1.0  T
  56   -134.4334228 -0.124990E-02  0.122E-01    0.08       1.0  T
  57   -134.4336742 -0.251448E-03  0.106E-01    0.08       1.0  T
  58   -134.4339925 -0.318246E-03  0.813E-02    0.09       1.0  T
  59   -134.4340500 -0.575760E-04  0.623E-02    0.09       1.0  T
  60   -134.4342239 -0.173913E-03  0.510E-02    0.08       1.0  T
  61   -134.4342653 -0.413996E-04  0.398E-02    0.09       1.0  T
  62   -134.4343048 -0.395007E-04  0.336E-02    0.09       1.0  T
  63   -134.4344039 -0.990366E-04  0.268E-02    0.09       1.0  T
  64   -134.4344637 -0.597713E-04  0.202E-02    0.09       1.0  T
  65   -134.4344802 -0.165523E-04  0.177E-02    0.08       1.0  T
  66   -134.4344830 -0.277026E-05  0.149E-02    0.09       1.0  T
  67   -134.4344834 -0.424670E-06  0.138E-02    0.09       1.0  T
  68   -134.4344890 -0.564495E-05  0.134E-02    0.09       1.0  T
  69   -134.4344956 -0.653388E-05  0.106E-02    0.09       1.0  T
  70   -134.4345080 -0.124360E-04  0.678E-03    0.09       1.5  T
  71   -134.4345090 -0.951023E-06  0.632E-03    0.08       1.7  T
  72   -134.4345105 -0.154527E-05  0.535E-03    0.08       1.9  T
  73   -134.4345138 -0.334044E-05  0.427E-03    0.08       2.4  T
  74   -134.4345138  0.467533E-07  0.516E-03    0.08       2.0  T
  75   -134.4345135  0.315083E-06  0.512E-03    0.08       2.0  T
  76   -134.4345145 -0.101110E-05  0.384E-03    0.08       2.7  T
  77   -134.4345156 -0.105859E-05  0.223E-03    0.08       4.7  T
  78   -134.4345156 -0.647992E-08  0.194E-03    0.08       5.4  T
  79   -134.4345157 -0.124933E-06  0.165E-03    0.08       6.3  T
  80   -134.4345158 -0.109651E-06  0.108E-03    0.08       9.6  T
  81   -134.4345159 -0.127774E-06  0.529E-04    0.08      19.7  T
  82   -134.4345159 -0.417938E-08  0.455E-04    0.08      22.9  T

   *** convergence criteria satisfied after 82 iterations ***

         #    Occupation            Energy/Eh            Energy/eV
      -------------------------------------------------------------
         1        2.0000           -0.7281361             -19.8136
       ...           ...                  ...                  ...
       133        2.0000           -0.2342688              -6.3748
       134        2.0000           -0.2289647              -6.2304
       135        2.0000           -0.2279012              -6.2015
       136        2.0000           -0.2227388              -6.0610
       137        1.9998           -0.2211949              -6.0190
       138        1.9971           -0.2187218              -5.9517
       139        1.5488           -0.2137013              -5.8151 (HOMO)
       140        0.2299           -0.2105903              -5.7305 (LUMO)
       141        0.1658           -0.2102460              -5.7211
       142        0.0586           -0.2092044              -5.6927
       143        0.0001           -0.2030180              -5.5244
       144        0.0000           -0.2023152              -5.5053
       ...           ...                  ...                  ...
       317                          1.6486552              44.8622
      -------------------------------------------------------------
                  HL-Gap            0.0031109 Eh            0.0847 eV
             Fermi-level           -0.2125296 Eh           -5.7832 eV

 SCC (total)                   0 d,  0 h,  0 min,  1.336 sec
 SCC setup                      ...        0 min,  0.001 sec (  0.075%)
 Dispersion                     ...        0 min,  0.003 sec (  0.225%)
 classical contributions        ...        0 min,  0.000 sec (  0.000%)
 integral evaluation            ...        0 min,  0.008 sec (  0.599%)
 iterations                     ...        0 min,  1.303 sec ( 97.530%)
 molecular gradient             ...        0 min,  0.019 sec (  1.422%)
 printout                       ...        0 min,  0.002 sec (  0.150%)

         :::::::::::::::::::::::::::::::::::::::::::::::::::::
         ::                     SUMMARY                     ::
         :::::::::::::::::::::::::::::::::::::::::::::::::::::
         :: total energy            -132.206778537714 Eh    ::
         :: gradient norm              0.666270471746 Eh/a0 ::
         :: HOMO-LUMO gap              0.084652709825 eV    ::
         ::.................................................::
         :: SCC energy              -134.429531540649 Eh    ::
         :: -> isotropic ES            0.482961806763 Eh    ::
         :: -> anisotropic ES         -0.003092435554 Eh    ::
         :: -> anisotropic XC         -0.081810307806 Eh    ::
         :: -> dispersion             -0.145521600120 Eh    ::
         :: repulsion energy           2.222753002935 Eh    ::
         :: add. restraining           0.000000000000 Eh    ::
         :: total charge              -0.000000000093 e     ::
         :::::::::::::::::::::::::::::::::::::::::::::::::::::

           -------------------------------------------------
          |                Property Printout                |
           -------------------------------------------------

    * Orbital Energies and Occupations

         #    Occupation            Energy/Eh            Energy/eV
      -------------------------------------------------------------
         1        2.0000           -0.7281361             -19.8136
       ...           ...                  ...                  ...
       127        2.0000           -0.2496994              -6.7947
       128        2.0000           -0.2485002              -6.7620
       129        2.0000           -0.2473935              -6.7319
       130        2.0000           -0.2452745              -6.6743
       131        2.0000           -0.2380058              -6.4765
       132        2.0000           -0.2357155              -6.4141
       133        2.0000           -0.2342688              -6.3748
       134        2.0000           -0.2289647              -6.2304
       135        2.0000           -0.2279012              -6.2015
       136        2.0000           -0.2227388              -6.0610
       137        1.9998           -0.2211949              -6.0190
       138        1.9971           -0.2187218              -5.9517
       139        1.5488           -0.2137013              -5.8151 (HOMO)
       140        0.2299           -0.2105903              -5.7305 (LUMO)
       141        0.1658           -0.2102460              -5.7211
       142        0.0586           -0.2092044              -5.6927
       143        0.0001           -0.2030180              -5.5244
       144        0.0000           -0.2023152              -5.5053
       145        0.0000           -0.2002797              -5.4499
       146                         -0.1955394              -5.3209
       147                         -0.1933096              -5.2602
       148                         -0.1878779              -5.1124
       149                         -0.1864953              -5.0748
       150                         -0.1830990              -4.9824
       ...                                ...                  ...
       317                          1.6486552              44.8622
      -------------------------------------------------------------
                  HL-Gap            0.0031109 Eh            0.0847 eV
             Fermi-level           -0.2125296 Eh           -5.7832 eV

     #   Z          covCN         q      C6AA      α(0)
     1   8 O        0.858    -0.538    24.634     6.654
     2   6 C        2.836     0.158    24.578     8.124
     3   6 C        2.820     0.066    26.520     8.438
     4   8 O        1.655    -0.417    21.187     6.214
     5   6 C        2.851     0.075    26.328     8.410
     6   6 C        2.966    -0.003    28.108     8.696
     7   6 C        2.917    -0.057    29.406     8.892
     8   6 C        2.909    -0.086    30.152     9.004
     9   6 C        2.843     0.097    25.848     8.332
    10   8 O        1.658    -0.416    21.165     6.210
    11   6 C        2.843     0.116    25.442     8.266
    12   8 O        1.658    -0.409    21.016     6.189
    13   6 C        2.917    -0.074    29.837     8.957
    14   8 O        1.707    -0.234    17.871     5.708
    15   6 C        2.871     0.120    25.363     8.256
    16   6 C        2.937    -0.174    32.527     9.354
    17   6 C        2.919     0.034    27.243     8.559
    18   8 O        3.118    -0.065    15.313     5.285
    19   6 C        2.912    -0.133    31.400     9.189
    20   6 C        2.846     0.124    25.282     8.241
    21   8 O        1.657    -0.433    21.506     6.260
    22   6 C        2.971    -0.097    30.444     9.050
    23   1 H        0.803     0.318     0.671     1.286
    24   1 H        0.925     0.048     2.349     2.397
    25   1 H        0.925     0.033     2.542     2.493
    26   1 H        0.804     0.308     0.698     1.312
    27   1 H        0.804     0.332     0.633     1.250
    28   1 H        0.925     0.065     2.146     2.291
    29   1 H        1.525     0.188     1.156     1.678
    30   1 H        0.854     0.356     0.569     1.182
    31   1 H        0.925     0.024     2.680     2.560
    32   1 H        0.802     0.335     0.625     1.242
    33   5 B        2.887    -0.003    21.468     7.733
    34   5 B        2.890    -0.001    21.428     7.726
    35   5 B        2.890     0.029    20.901     7.630
    36   5 B        2.890     0.026    20.960     7.641
    37   5 B        2.890     0.033    20.833     7.618
    38   5 B        2.887     0.010    21.245     7.693
    39   5 B        2.916    -0.009    21.563     7.749
    40   5 B        4.382     0.023    22.311     7.611
    41   5 B        3.868     0.000    22.735     7.684
    42   5 B        3.868     0.010    22.555     7.654
    43   5 B        3.868     0.012    22.517     7.647
    44   5 B        2.916     0.051    20.531     7.561
    45   5 B        3.266    -0.058    22.430     7.898
    46   5 B        3.216     0.101    19.688     7.400
    47   5 B        2.578     0.013    22.211     8.035
    48   5 B        1.958     0.034    42.885    13.772
    49   5 B        1.958     0.035    42.856    13.767
    50   5 B        2.911    -0.060    22.508     7.917
    51   5 B        2.939     0.004    21.322     7.704
    52   5 B        3.104    -0.072    22.707     7.948
    53   5 B        1.960    -0.051    46.028    14.267
    54   5 B        1.958    -0.049    45.950    14.255
    55   5 B        1.958    -0.046    45.837    14.238
    56   5 B        1.960     0.023    43.288    13.835
    57   5 B        3.266    -0.009    21.549     7.742
    58   5 B        2.314     0.026    31.905    11.005
    59   5 B        1.958     0.016    43.552    13.878
    60   5 B        1.958     0.033    42.953    13.782
    61   5 B        1.958     0.031    43.018    13.793
    62   5 B        2.911    -0.047    22.266     7.874
    63   5 B        2.916     0.008    21.263     7.695
    64   5 B        3.868    -0.002    22.777     7.691
    65   5 B        3.868     0.005    22.650     7.670
    66   5 B        3.868     0.005    22.640     7.668
    67   5 B        3.868     0.001    22.719     7.681
    68   5 B        2.914    -0.013    21.642     7.763
    69   5 B        2.887    -0.002    21.446     7.729
    70   5 B        2.890     0.024    21.001     7.649
    71   5 B        2.890     0.032    20.858     7.622
    72   5 B        2.890     0.024    20.995     7.648
    73   5 B        2.890     0.019    21.083     7.664
    74   5 B        1.934    -0.009    44.553    14.044
    75   5 B        3.822     0.001    22.706     7.681
    76   5 B        3.822     0.013    22.492     7.645
    77   5 B        3.822     0.041    21.979     7.557
    78   5 B        3.822     0.049    21.834     7.532
    79   5 B        3.822     0.047    21.874     7.539
    80   5 B        3.822     0.043    21.941     7.551
    81   5 B        3.822     0.035    22.091     7.577
    82   5 B        3.822     0.043    21.940     7.551
    83   5 B        3.822     0.038    22.026     7.565
    84   5 B        3.822     0.032    22.140     7.585
    85   5 B        3.381     0.061    20.349     7.520
    86   1 H        0.954    -0.086     5.084     3.525
    87   1 H        0.956     0.010     2.888     2.656
    88   1 H        0.956     0.010     2.889     2.657
    89   1 H        0.954    -0.081     4.921     3.467
    90   1 H        0.954    -0.079     4.861     3.446
    91   1 H        0.956    -0.008     3.190     2.792
    92   1 H        0.956    -0.021     3.437     2.898

 Mol. C6AA /au·bohr⁶  :     161514.100920
 Mol. C8AA /au·bohr⁸  :    5457562.713704
 Mol. α(0) /au        :        684.307365


Wiberg/Mayer (AO) data.
largest (>0.10) Wiberg bond orders for each atom

 ---------------------------------------------------------------------------
     #   Z sym  total        # sym  WBO       # sym  WBO       # sym  WBO
 ---------------------------------------------------------------------------
     1   8 O    1.801 --     2 C    1.485
     2   6 C    3.837 --     1 O    1.485    22 C    1.117     3 C    1.093
     3   6 C    3.907 --     5 C    1.529     2 C    1.093     4 O    1.053
     4   8 O    2.073 --     3 C    1.053    23 H    0.869
     5   6 C    3.822 --     3 C    1.529     6 C    1.056    14 O    1.013
     6   6 C    3.966 --     7 C    1.370    13 C    1.363     5 C    1.056
     7   6 C    3.963 --     8 C    1.440     6 C    1.370    24 H    0.970
     8   6 C    3.980 --     7 C    1.440     9 C    1.386    25 H    0.966
     9   6 C    3.902 --     8 C    1.386    11 C    1.301    10 O    1.041
    10   8 O    2.079 --     9 C    1.041    26 H    0.881
    11   6 C    3.943 --    13 C    1.404     9 C    1.301    12 O    1.068
    12   8 O    2.101 --    11 C    1.068    27 H    0.862
    13   6 C    3.960 --    11 C    1.404     6 C    1.363    28 H    0.965
    14   8 O    2.310 --    15 C    1.066     5 C    1.013
    15   6 C    3.909 --    16 C    1.346    22 C    1.306    14 O    1.066
    16   6 C    3.881 --    15 C    1.346    17 C    1.290    29 H    0.755
    17   6 C    3.823 --    19 C    1.349    16 C    1.290    18 O    0.905
    18   8 O    2.744 --    17 C    0.905    46 B    0.779    30 H    0.746
                            40 B    0.136
    19   6 C    3.960 --    20 C    1.385    17 C    1.349    31 H    0.964
    20   6 C    3.867 --    19 C    1.385    22 C    1.240    21 O    1.081
    21   8 O    2.069 --    20 C    1.081    32 H    0.822
    22   6 C    3.960 --    15 C    1.306    20 C    1.240     2 C    1.117
    23   1 H    0.899 --     4 O    0.869
    24   1 H    0.998 --     7 C    0.970
    25   1 H    0.998 --     8 C    0.966
    26   1 H    0.905 --    10 O    0.881
    27   1 H    0.890 --    12 O    0.862
    28   1 H    0.996 --    13 C    0.965
    29   1 H    0.965 --    16 C    0.755    47 B    0.139
    30   1 H    0.871 --    18 O    0.746
    31   1 H    0.998 --    19 C    0.964
    32   1 H    0.887 --    21 O    0.822
    33   5 B    3.275 --    39 B    1.073    75 B    0.952    86 H    0.871
                            34 B    0.111    45 B    0.101
    34   5 B    3.458 --    75 B    1.009    76 B    0.998    40 B    0.909
                            35 B    0.141    33 B    0.111
    35   5 B    3.513 --    77 B    1.027    76 B    0.979    41 B    0.961
                            34 B    0.141    36 B    0.134
    36   5 B    3.418 --    78 B    0.999    77 B    0.970    42 B    0.923
                            37 B    0.136    35 B    0.134
    37   5 B    3.422 --    78 B    0.992    79 B    0.952    43 B    0.915
                            38 B    0.165    36 B    0.136
    38   5 B    3.377 --    79 B    1.083    44 B    1.004    90 H    0.861
                            37 B    0.165    50 B    0.106
    39   5 B    3.449 --    45 B    1.213    33 B    1.073    75 B    0.718
                            87 H    0.110
    40   5 B    3.603 --    34 B    0.909    46 B    0.906    76 B    0.718
                            75 B    0.704    18 O    0.136
    41   5 B    3.648 --    47 B    1.093    35 B    0.961    77 B    0.676
                            76 B    0.664
    42   5 B    3.635 --    48 B    1.146    36 B    0.923    77 B    0.668
                            78 B    0.663
    43   5 B    3.629 --    49 B    1.146    37 B    0.915    78 B    0.669
                            79 B    0.653
    44   5 B    3.468 --    50 B    1.243    38 B    1.004    79 B    0.695
                            91 H    0.155    56 B    0.107
    45   5 B    3.590 --    39 B    1.213    51 B    0.966    87 H    0.687
                            85 B    0.346    33 B    0.101
    46   5 B    3.209 --    52 B    0.958    40 B    0.906    18 O    0.779
                            85 B    0.218
    47   5 B    3.277 --    53 B    1.398    41 B    1.093    59 B    0.179
                            29 H    0.139
    48   5 B    3.308 --    54 B    1.440    42 B    1.146    60 B    0.227
    49   5 B    3.292 --    55 B    1.425    43 B    1.146    61 B    0.216
    50   5 B    3.537 --    56 B    1.254    44 B    1.243    91 H    0.663
                            62 B    0.106    38 B    0.106
    51   5 B    3.588 --    85 B    1.037    45 B    0.966    57 B    0.935
                            87 H    0.147    88 H    0.143
    52   5 B    3.566 --    58 B    1.340    85 B    0.961    46 B    0.958
    53   5 B    3.355 --    59 B    1.435    47 B    1.398
    54   5 B    3.431 --    48 B    1.440    60 B    1.435    55 B    0.128
    55   5 B    3.330 --    49 B    1.425    61 B    1.420    54 B    0.128
    56   5 B    3.284 --    62 B    1.328    50 B    1.254    92 H    0.161
                            91 H    0.135    44 B    0.107
    57   5 B    3.584 --    63 B    1.200    51 B    0.935    88 H    0.695
                            85 B    0.393    69 B    0.122
    58   5 B    3.409 --    52 B    1.340    64 B    1.171    85 B    0.407
    59   5 B    3.306 --    53 B    1.435    65 B    1.180    47 B    0.179
    60   5 B    3.307 --    54 B    1.435    66 B    1.159    48 B    0.227
    61   5 B    3.306 --    55 B    1.420    67 B    1.169    49 B    0.216
    62   5 B    3.462 --    56 B    1.328    68 B    1.051    92 H    0.690
                            50 B    0.106
    63   5 B    3.415 --    57 B    1.200    69 B    1.072    80 B    0.717
                            88 H    0.107
    64   5 B    3.653 --    58 B    1.171    70 B    0.896    80 B    0.682
                            81 B    0.667
    65   5 B    3.629 --    59 B    1.180    71 B    0.909    82 B    0.660
                            81 B    0.644
    66   5 B    3.639 --    60 B    1.159    72 B    0.919    82 B    0.669
                            83 B    0.660
    67   5 B    3.648 --    61 B    1.169    73 B    0.919    83 B    0.683
                            84 B    0.636
    68   5 B    3.630 --    74 B    1.586    62 B    1.051    84 B    0.689
    69   5 B    3.257 --    63 B    1.072    80 B    0.944    89 H    0.866
                            57 B    0.122    70 B    0.106
    70   5 B    3.422 --    81 B    1.014    80 B    0.989    64 B    0.896
                            71 B    0.152    69 B    0.106
    71   5 B    3.501 --    82 B    1.015    81 B    1.007    65 B    0.909
                            70 B    0.152    72 B    0.150
    72   5 B    3.467 --    83 B    1.021    82 B    0.976    66 B    0.919
                            71 B    0.150    73 B    0.133
    73   5 B    3.481 --    84 B    0.991    83 B    0.956    67 B    0.919
                            74 B    0.197    72 B    0.133
    74   5 B    3.170 --    68 B    1.586    84 B    1.129    73 B    0.197
    75   5 B    3.620 --    34 B    1.009    33 B    0.952    39 B    0.718
                            40 B    0.704
    76   5 B    3.638 --    34 B    0.998    35 B    0.979    40 B    0.718
                            41 B    0.664
    77   5 B    3.604 --    35 B    1.027    36 B    0.970    41 B    0.676
                            42 B    0.668
    78   5 B    3.600 --    36 B    0.999    37 B    0.992    43 B    0.669
                            42 B    0.663
    79   5 B    3.601 --    38 B    1.083    37 B    0.952    44 B    0.695
                            43 B    0.653
    80   5 B    3.597 --    70 B    0.989    69 B    0.944    63 B    0.717
                            64 B    0.682
    81   5 B    3.615 --    70 B    1.014    71 B    1.007    64 B    0.667
                            65 B    0.644
    82   5 B    3.587 --    71 B    1.015    72 B    0.976    66 B    0.669
                            65 B    0.660
    83   5 B    3.603 --    72 B    1.021    73 B    0.956    67 B    0.683
                            66 B    0.660
    84   5 B    3.624 --    74 B    1.129    73 B    0.991    68 B    0.689
                            67 B    0.636
    85   5 B    3.623 --    51 B    1.037    52 B    0.961    58 B    0.407
                            57 B    0.393    45 B    0.346    46 B    0.218
    86   1 H    0.979 --    33 B    0.871
    87   1 H    0.993 --    45 B    0.687    51 B    0.147    39 B    0.110
    88   1 H    0.992 --    57 B    0.695    51 B    0.143    63 B    0.107
    89   1 H    0.980 --    69 B    0.866
    90   1 H    0.987 --    38 B    0.861
    91   1 H    0.986 --    50 B    0.663    44 B    0.155    56 B    0.135
    92   1 H    0.972 --    62 B    0.690    56 B    0.161
 ---------------------------------------------------------------------------

Topologies differ in total number of bonds
Writing topology from bond orders to xtbtopo.mol

molecular dipole:
                 x           y           z       tot (Debye)
 q only:        0.452      -1.066      -5.465
   full:       -0.057      -0.333      -3.506       8.952
molecular quadrupole (traceless):
                xx          xy          yy          xz          yz          zz
 q only:       -8.848      17.683      60.031      27.603     -14.052     -51.183
  q+dip:       54.313      15.925      73.129      13.599     -16.699    -127.442
   full:       45.504      15.299      40.046      13.564     -18.547     -85.550


           -------------------------------------------------
          | TOTAL ENERGY             -132.206778537714 Eh   |
          | GRADIENT NORM               0.666270471746 Eh/α |
          | HOMO-LUMO GAP               0.084652709825 eV   |
           -------------------------------------------------

------------------------------------------------------------------------
 * finished run on 2026/08/31 at 20:22:10.671     
------------------------------------------------------------------------
 total:
 * wall-time:     0 d,  0 h,  0 min,  1.384 sec
 *  cpu-time:     0 d,  0 h,  0 min, 14.781 sec
 * ratio c/w:    10.680 speedup
 SCF:
 * wall-time:     0 d,  0 h,  0 min,  1.337 sec
 *  cpu-time:     0 d,  0 h,  0 min, 14.328 sec
 * ratio c/w:    10.717 speedup

normal termination of xtb
