      -----------------------------------------------------------      
     |                   =====================                   |     
     |                           x T B                           |     
     |                   =====================                   |     
     |                         S. Grimme                         |     
     |          Mulliken Center for Theoretical Chemistry        |     
     |                    University of Bonn                     |     
      -----------------------------------------------------------      

   * xtb version 6.7.1pre (5071a88) compiled by 'Marcel@Raven' on 2024-07-23

   xtb is free software: you can redistribute it and/or modify it under
   the terms of the GNU Lesser General Public License as published by
   the Free Software Foundation, either version 3 of the License, or
   (at your option) any later version.
   
   xtb is distributed in the hope that it will be useful,
   but WITHOUT ANY WARRANTY; without even the implied warranty of
   MERCHANTABILITY or FITNESS FOR A PARTICULAR PURPOSE.  See the
   GNU Lesser General Public License for more details.
   
   Cite this work as:
   * C. Bannwarth, E. Caldeweyher, S. Ehlert, A. Hansen, P. Pracht,
     J. Seibert, S. Spicher, S. Grimme, WIREs Comput. Mol. Sci., 2020, 11,
     e01493. DOI: 10.1002/wcms.1493
   
   for GFN2-xTB:
   * C. Bannwarth, S. Ehlert and S. Grimme., J. Chem. Theory Comput., 2019,
     15, 1652-1671. DOI: 10.1021/acs.jctc.8b01176
   for GFN1-xTB:
   * S. Grimme, C. Bannwarth, P. Shushkov, J. Chem. Theory Comput., 2017,
     13, 1989-2009. DOI: 10.1021/acs.jctc.7b00118
   for GFN0-xTB:
   * P. Pracht, E. Caldeweyher, S. Ehlert, S. Grimme, ChemRxiv, 2019, preprint.
     DOI: 10.26434/chemrxiv.8326202.v1
   for GFN-FF:
   * S. Spicher and S. Grimme, Angew. Chem. Int. Ed., 2020, 59, 15665-15673.
     DOI: 10.1002/anie.202004239
   
   for ALPB and GBSA implicit solvation:
   * S. Ehlert, M. Stahn, S. Spicher, S. Grimme, J. Chem. Theory Comput.,
     2021, 17, 4250-4261. DOI: 10.1021/acs.jctc.1c00471
   
   for ddCOSMO and CPCM-X implicit solvation:
   * M. Stahn, S. Ehlert, S. Grimme, J. Phys. Chem. A,
     2023, XX, XXXX-XXXX. DOI: 10.1021/acs.jpca.3c04382
   
   for DFT-D4:
   * E. Caldeweyher, C. Bannwarth and S. Grimme, J. Chem. Phys., 2017,
     147, 034112. DOI: 10.1063/1.4993215
   * E. Caldeweyher, S. Ehlert, A. Hansen, H. Neugebauer, S. Spicher,
     C. Bannwarth and S. Grimme, J. Chem. Phys., 2019, 150, 154122.
     DOI: 10.1063/1.5090222
   * E. Caldeweyher, J.-M. Mewes, S. Ehlert and S. Grimme, Phys. Chem. Chem. Phys.
     2020, 22, 8499-8512. DOI: 10.1039/D0CP00502A
   
   for sTDA-xTB:
   * S. Grimme and C. Bannwarth, J. Chem. Phys., 2016, 145, 054103.
     DOI: 10.1063/1.4959605
   
   in the mass-spec context:
   * V. Asgeirsson, C. Bauer and S. Grimme, Chem. Sci., 2017, 8, 4879.
     DOI: 10.1039/c7sc00601b
   * J. Koopman and S. Grimme, ACS Omega 2019, 4, 12, 15120-15133.
     DOI: 10.1021/acsomega.9b02011
   
   for metadynamics refer to:
   * S. Grimme, J. Chem. Theory Comput., 2019, 155, 2847-2862
     DOI: 10.1021/acs.jctc.9b00143
   
   for SPH calculations refer to:
   * S. Spicher and S. Grimme, J. Chem. Theory Comput., 2021, 17, 1701-1714
     DOI: 10.1021/acs.jctc.0c01306
   
   for ONIOM refer to:
   * C. Plett, A. Katbashev, S. Ehlert, S. Grimme, M. Bursch,
     Phys. Chem. Chem. Phys., 2023, 25, 17860-17868. DOI: 10.1039/D3CP02178E
   
   for DIPRO refer to:
   * J. Kohn, N. Gildemeister, S. Grimme, D. Fazzi, A. Hansen,
     J. Chem. Phys., 2023, just accepted.
   
   for PTB refer to:
   * S. Grimme, M. Mueller, A. Hansen, J. Chem. Phys., 2023, 158, 124111.
     DOI: 10.1063/5.0137838
   
   with help from (in alphabetical order)
   P. Atkinson, C. Bannwarth, F. Bohle, G. Brandenburg, E. Caldeweyher
   M. Checinski, S. Dohm, S. Ehlert, S. Ehrlich, I. Gerasimov, C. Hölzer
   A. Katbashev, J. Kohn, J. Koopman, C. Lavigne, S. Lehtola, F. März, M. Müller,
   F. Musil, H. Neugebauer, J. Pisarek, C. Plett, P. Pracht, F. Pultar,
   J. Seibert, P. Shushkov, S. Spicher, M. Stahn, M. Steiner, T. Strunk,
   J. Stückrath, T. Rose, and J. Unsleber
   
 * started run on 2026/09/01 at 20:37:18.643     
   ID    Z sym.   atoms
    1    8 O      1, 4, 10, 12, 14, 18, 21
    2    6 C      2, 3, 5-9, 11, 13, 15-17, 19, 20, 22
    3    1 H      23-32, 73-87
    4    5 B      33-72

           -------------------------------------------------
          |                Calculation Setup                |
           -------------------------------------------------

          program call               : "c:\Users\Andre\Proyectos doctorado\nano-qsar-ai-papers\kras-pancreatic-gC3N4-ai\tools\xtb\xtb-6.7.1\bin\xtb.exe" "c:\Users\Andre\Proyectos doctorado\borophene-alzheimer-tau-ai\calculations\tau\Quercetin\Quercetin_opt_270deg_input.xyz" --opt vloose --gfn 2 --chrg 0 --uhf 0 --iterations 500 --cycles 100 --norestart
          coordinate file            : c:\Users\Andre\Proyectos doctorado\borophene-alzheimer-tau-ai\calculations\tau\Quercetin\Quercetin_opt_270deg_input.xyz
          omp threads                :                    16


molecular fragmentation (1/2 indicates fragments):
111111111111111111111111111111112222222222222222222222222222222222222222
222222222222222
# atoms in fragment 1/2:    32    55
 fragment masses (1/2) :      302.24      447.56
CMA distance (Bohr)    :  16.606
constraining FC (au)   :  0.0500

           -------------------------------------------------
          |                 G F N 2 - x T B                 |
           -------------------------------------------------

        Reference                      10.1021/acs.jctc.8b01176
      * Hamiltonian:
        H0-scaling (s, p, d)           1.850000    2.230000    2.230000
        zeta-weighting                 0.500000
      * Dispersion:
        s8                             2.700000
        a1                             0.520000
        a2                             5.000000
        s9                             5.000000
      * Repulsion:
        kExp                           1.500000    1.000000
        rExp                           1.000000
      * Coulomb:
        alpha                          2.000000
        third order                    shell-resolved
        anisotropic                    true
        a3                             3.000000
        a5                             4.000000
        cn-shift                       1.200000
        cn-exp                         4.000000
        max-rad                        5.000000


          ...................................................
          :                      SETUP                      :
          :.................................................:
          :  # basis functions                 273          :
          :  # atomic orbitals                 273          :
          :  # shells                          149          :
          :  # electrons                       247          :
          :  max. iterations                   500          :
          :  Hamiltonian                  GFN2-xTB          :
          :  restarted?                      false          :
          :  GBSA solvation                  false          :
          :  PC potential                    false          :
          :  electronic temp.          300.0000000     K    :
          :  accuracy                    1.0000000          :
          :  -> integral cutoff          0.2500000E+02      :
          :  -> integral neglect         0.1000000E-07      :
          :  -> SCF convergence          0.1000000E-05 Eh   :
          :  -> wf. convergence          0.1000000E-03 e    :
          :  Broyden damping             0.4000000          :
          :  net charge                          0          :
          :  unpaired electrons                  0          :
          ...................................................

 iter      E             dE          RMSdq      gap      omega  full diag
   1   -122.7525023 -0.122753E+03  0.138E+01    0.02       0.0  T
   2   -121.4772002  0.127530E+01  0.911E+00    0.37       1.0  T
   3    -61.8796173  0.595976E+02  0.140E+01    0.02       1.0  T
   4    -63.4981323 -0.161851E+01  0.119E+01    0.11       1.0  T
   5   -114.0588463 -0.505607E+02  0.555E+00    0.04       1.0  T
   6   -112.3055608  0.175329E+01  0.568E+00    0.09       1.0  T
   7   -121.9737240 -0.966816E+01  0.298E+00    0.41       1.0  T
   8   -122.9599989 -0.986275E+00  0.202E+00    0.09       1.0  T
   9   -123.3631487 -0.403150E+00  0.165E+00    0.57       1.0  T
  10   -123.4042483 -0.410996E-01  0.145E+00    0.44       1.0  T
  11   -123.3835857  0.206626E-01  0.119E+00    0.49       1.0  T
  12   -123.4024310 -0.188453E-01  0.715E-01    0.39       1.0  T
  13   -123.4219355 -0.195045E-01  0.571E-01    0.09       1.0  T
  14   -123.4335722 -0.116366E-01  0.508E-01    0.14       1.0  T
  15   -123.4362494 -0.267725E-02  0.501E-01    0.01       1.0  T
  16   -123.4314143  0.483508E-02  0.530E-01    0.00       1.0  T
  17   -123.3851155  0.462988E-01  0.687E-01    0.10       1.0  T
  18   -123.3914999 -0.638433E-02  0.643E-01    0.09       1.0  T
  19   -123.4233066 -0.318068E-01  0.466E-01    0.04       1.0  T
  20   -123.4569052 -0.335986E-01  0.145E-01    0.04       1.0  T
  21   -123.4593649 -0.245969E-02  0.668E-02    0.06       1.0  T
  22   -123.4589023  0.462598E-03  0.808E-02    0.05       1.0  T
  23   -123.4591291 -0.226819E-03  0.598E-02    0.05       1.0  T
  24   -123.4594077 -0.278570E-03  0.389E-02    0.06       1.0  T
  25   -123.4595552 -0.147520E-03  0.285E-02    0.06       1.0  T
  26   -123.4595759 -0.206469E-04  0.246E-02    0.06       1.0  T
  27   -123.4596090 -0.331002E-04  0.158E-02    0.06       1.0  T
  28   -123.4596325 -0.235891E-04  0.452E-03    0.07       2.4  T
  29   -123.4596312  0.135356E-05  0.430E-03    0.07       2.5  T
  30   -123.4596312 -0.146937E-08  0.420E-03    0.07       2.6  T
  31   -123.4596336 -0.239454E-05  0.281E-03    0.07       3.8  T
  32   -123.4596346 -0.100706E-05  0.184E-03    0.07       5.8  T
  33   -123.4596348 -0.164558E-06  0.166E-03    0.07       6.5  T
  34   -123.4596350 -0.212309E-06  0.134E-03    0.07       8.0  T
  35   -123.4596352 -0.229619E-06  0.888E-04    0.07      12.1  T
  36   -123.4596353 -0.150015E-06  0.272E-04    0.07      39.4  T

   *** convergence criteria satisfied after 36 iterations ***

         #    Occupation            Energy/Eh            Energy/eV
      -------------------------------------------------------------
         1        2.0000           -0.7237336             -19.6938
       ...           ...                  ...                  ...
       118        2.0000           -0.2989455              -8.1347
       119        2.0000           -0.2923340              -7.9548
       120        2.0000           -0.2892967              -7.8722
       121        2.0000           -0.2861547              -7.7867
       122        2.0000           -0.2814272              -7.6580
       123        1.9990           -0.2781892              -7.5699
       124        0.7848           -0.2649539              -7.2098 (HOMO)
       125        0.2162           -0.2625058              -7.1431 (LUMO)
       126        0.0000           -0.2490040              -6.7757
       127                         -0.2312714              -6.2932
       128                         -0.2281319              -6.2078
       129                         -0.2248002              -6.1171
       ...                                ...                  ...
       273                          1.0642835              28.9606
      -------------------------------------------------------------
                  HL-Gap            0.0024481 Eh            0.0666 eV
             Fermi-level           -0.2676603 Eh           -7.2834 eV

 SCC (total)                   0 d,  0 h,  0 min,  0.482 sec
 SCC setup                      ...        0 min,  0.000 sec (  0.000%)
 Dispersion                     ...        0 min,  0.002 sec (  0.415%)
 classical contributions        ...        0 min,  0.000 sec (  0.000%)
 integral evaluation            ...        0 min,  0.006 sec (  1.245%)
 iterations                     ...        0 min,  0.447 sec ( 92.739%)
 molecular gradient             ...        0 min,  0.021 sec (  4.357%)
 printout                       ...        0 min,  0.005 sec (  1.037%)

         :::::::::::::::::::::::::::::::::::::::::::::::::::::
         ::                     SUMMARY                     ::
         :::::::::::::::::::::::::::::::::::::::::::::::::::::
         :: total energy            -121.908173861698 Eh    ::
         :: gradient norm              0.087604485130 Eh/a0 ::
         :: HOMO-LUMO gap              0.066617323875 eV    ::
         ::.................................................::
         :: SCC energy              -123.458103575775 Eh    ::
         :: -> isotropic ES            0.341540296266 Eh    ::
         :: -> anisotropic ES          0.006135918257 Eh    ::
         :: -> anisotropic XC         -0.015392290800 Eh    ::
         :: -> dispersion             -0.107656154695 Eh    ::
         :: repulsion energy           1.549929714077 Eh    ::
         :: add. restraining           0.000000000000 Eh    ::
         :: total charge              -0.000000000000 e     ::
         :::::::::::::::::::::::::::::::::::::::::::::::::::::

      ----------------------------------------------------------- 
     |                   =====================                   |
     |                        A N C O P T                        |
     |                   =====================                   |
     |               Approximate Normal Coordinate               |
     |                Rational Function Optimizer                |
      ----------------------------------------------------------- 
      ----------------------------------------------------------- 
     |                   =====================                   |
     |                        A N C O P T                        |
     |                   =====================                   |
     |               Approximate Normal Coordinate               |
     |                Rational Function Optimizer                |
      ----------------------------------------------------------- 

          ...................................................
          :                      SETUP                      :
          :.................................................:
          :   optimization level            normal          :
          :   max. optcycles                   100          :
          :   ANC micro-cycles                  20          :
          :   degrees of freedom               255          :
          :.................................................:
          :   RF solver                   davidson          :
          :   write xtbopt.log                true          :
          :   linear?                        false          :
          :   energy convergence         0.5000000E-05 Eh   :
          :   grad. convergence          0.1000000E-02 Eh/α :
          :   maxmium RF displ.          1.0000000          :
          :   Hlow (freq-cutoff)         0.1000000E-01      :
          :   Hmax (freq-cutoff)         5.0000000          :
          :   S6 in model hess.         20.0000000          :
          ...................................................

generating ANC from exact Hessian ...
Using Lindh-Hessian (1995)
 Shifting diagonal of input Hessian by   1.030201908213381E-002
 Lowest  eigenvalues of input Hessian
    0.010000    0.010099    0.010115    0.010120    0.010266    0.000000
    0.000000    0.000000    0.000000    0.000000    0.000000    0.010337
    0.010356    0.010359    0.010434    0.010724    0.010821    0.011039
 Highest eigenvalues
    1.993061    2.066212    2.078810    2.121588    2.149360    2.251017
 

........................................................................
.............................. CYCLE    1 ..............................
........................................................................

 iter      E             dE          RMSdq      gap      omega  full diag
   1   -123.4596354 -0.123460E+03  0.107E-04    0.07       0.0  T
   2   -123.4596352  0.130933E-06  0.745E-04    0.07      14.4  T
   3   -123.4596354 -0.130472E-06  0.103E-04    0.07     104.2  T
     SCC iter.                  ...        0 min,  0.045 sec
     gradient                   ...        0 min,  0.016 sec
 * total energy  :  -121.9081739 Eh     change       -0.1158472E-07 Eh
   gradient norm :     0.0876151 Eh/α   predicted     0.0000000E+00 (-100.00%)
   displ. norm   :     0.2456379 α      lambda       -0.9548543E-02
   maximum displ.:     0.1094890 α      in ANC's #116, #54, #60, ...

........................................................................
.............................. CYCLE    2 ..............................
........................................................................

 iter      E             dE          RMSdq      gap      omega  full diag
   1   -123.4699260 -0.123470E+03  0.288E-01    0.00       0.0  T
   2   -123.4487619  0.211641E-01  0.404E-01    0.53       1.0  T
   3   -123.4701015 -0.213396E-01  0.271E-01    0.33       1.0  T
   4   -123.4750185 -0.491702E-02  0.195E-01    0.22       1.0  T
   5   -123.4825430 -0.752445E-02  0.847E-02    0.05       1.0  T
   6   -123.4748311  0.771184E-02  0.196E-01    0.01       1.0  T
   7   -123.4805102 -0.567910E-02  0.115E-01    0.12       1.0  T
   8   -123.4832576 -0.274743E-02  0.316E-02    0.08       1.0  T
   9   -123.4834700 -0.212342E-03  0.872E-03    0.06       1.2  T
  10   -123.4834521  0.179385E-04  0.122E-02    0.07       1.0  T
  11   -123.4834851 -0.330414E-04  0.225E-03    0.06       4.8  T
  12   -123.4834853 -0.252949E-06  0.158E-03    0.06       6.8  T
  13   -123.4834855 -0.166213E-06  0.116E-03    0.06       9.2  T
  14   -123.4834857 -0.211874E-06  0.623E-04    0.06      17.2  T
  15   -123.4834858 -0.664574E-07  0.289E-04    0.06      37.1  T
     SCC iter.                  ...        0 min,  0.220 sec
     gradient                   ...        0 min,  0.015 sec
 * total energy  :  -121.9149038 Eh     change       -0.6729939E-02 Eh
   gradient norm :     0.0402416 Eh/α   predicted    -0.5064947E-02 ( -24.74%)
   displ. norm   :     0.2495864 α      lambda       -0.3468487E-02
   maximum displ.:     0.0867133 α      in ANC's #54, #50, #21, ...

........................................................................
.............................. CYCLE    3 ..............................
........................................................................

 iter      E             dE          RMSdq      gap      omega  full diag
   1   -123.4931811 -0.123493E+03  0.193E-01    0.02       0.0  T
   2   -123.4788685  0.143127E-01  0.290E-01    0.47       1.0  T
   3   -123.4928640 -0.139956E-01  0.161E-01    0.13       1.0  T
   4   -123.4974962 -0.463214E-02  0.624E-02    0.07       1.0  T
   5   -123.4887523  0.874390E-02  0.201E-01    0.01       1.0  T
   6   -123.4962946 -0.754235E-02  0.844E-02    0.10       1.0  T
   7   -123.4978497 -0.155509E-02  0.196E-02    0.07       1.0  T
   8   -123.4979055 -0.557544E-04  0.923E-03    0.06       1.2  T
   9   -123.4978963  0.918038E-05  0.108E-02    0.07       1.0  T
  10   -123.4979156 -0.193070E-04  0.487E-03    0.06       2.2  T
  11   -123.4979200 -0.445517E-05  0.163E-03    0.06       6.6  T
  12   -123.4979201 -0.246748E-07  0.135E-03    0.06       7.9  T
  13   -123.4979204 -0.306797E-06  0.615E-04    0.06      17.4  T
  14   -123.4979203  0.105452E-06  0.892E-04    0.06      12.0  T
     SCC iter.                  ...        0 min,  0.167 sec
     gradient                   ...        0 min,  0.014 sec
 * total energy  :  -121.9168803 Eh     change       -0.1976440E-02 Eh
   gradient norm :     0.0101742 Eh/α   predicted    -0.1842612E-02 (  -6.77%)
   displ. norm   :     0.1800004 α      lambda       -0.5921330E-03
   maximum displ.:     0.0779267 α      in ANC's #21, #14, #12, ...

........................................................................
.............................. CYCLE    4 ..............................
........................................................................

 iter      E             dE          RMSdq      gap      omega  full diag
   1   -123.4973084 -0.123497E+03  0.116E-01    0.04       0.0  T
   2   -123.4862575  0.110509E-01  0.231E-01    0.32       1.0  T
   3   -123.4974891 -0.112316E-01  0.754E-02    0.05       1.0  T
   4   -123.4974011  0.879692E-04  0.737E-02    0.06       1.0  T
   5   -123.4972496  0.151586E-03  0.789E-02    0.04       1.0  T
   6   -123.4984997 -0.125012E-02  0.216E-02    0.07       1.0  T
   7   -123.4985726 -0.729594E-04  0.854E-03    0.06       1.3  T
   8   -123.4985838 -0.111127E-04  0.313E-03    0.06       3.4  T
   9   -123.4985837  0.594434E-07  0.281E-03    0.06       3.8  T
  10   -123.4985846 -0.907767E-06  0.194E-03    0.06       5.5  T
  11   -123.4985853 -0.722632E-06  0.770E-04    0.06      13.9  T
  12   -123.4985854 -0.541434E-07  0.564E-04    0.06      19.0  T
     SCC iter.                  ...        0 min,  0.135 sec
     gradient                   ...        0 min,  0.016 sec
 * total energy  :  -121.9172719 Eh     change       -0.3916431E-03 Eh
   gradient norm :     0.0073647 Eh/α   predicted    -0.3056666E-03 ( -21.95%)
   displ. norm   :     0.3610737 α      lambda       -0.8226548E-03
   maximum displ.:     0.1690559 α      in ANC's #21, #14, #12, ...

........................................................................
.............................. CYCLE    5 ..............................
........................................................................

 iter      E             dE          RMSdq      gap      omega  full diag
   1   -123.4919298 -0.123492E+03  0.198E-01    0.02       0.0  T
   2   -123.4763406  0.155892E-01  0.303E-01    0.45       1.0  T
   3   -123.4911520 -0.148114E-01  0.170E-01    0.13       1.0  T
   4   -123.4954857 -0.433371E-02  0.863E-02    0.05       1.0  T
   5   -123.4708489  0.246369E-01  0.325E-01    0.03       1.0  T
   6   -123.4942083 -0.233594E-01  0.956E-02    0.10       1.0  T
   7   -123.4955029 -0.129455E-02  0.575E-02    0.08       1.0  T
   8   -123.4961355 -0.632642E-03  0.221E-02    0.07       1.0  T
   9   -123.4962312 -0.957317E-04  0.645E-03    0.06       1.7  T
  10   -123.4962226  0.862144E-05  0.868E-03    0.06       1.2  T
  11   -123.4962383 -0.156749E-04  0.218E-03    0.06       4.9  T
  12   -123.4962389 -0.626387E-06  0.116E-03    0.06       9.3  T
  13   -123.4962390 -0.132644E-06  0.728E-04    0.06      14.7  T
  14   -123.4962391 -0.938869E-07  0.285E-04    0.06      37.6  T
     SCC iter.                  ...        0 min,  0.160 sec
     gradient                   ...        0 min,  0.013 sec
 * total energy  :  -121.9176556 Eh     change       -0.3837231E-03 Eh
   gradient norm :     0.0120105 Eh/α   predicted    -0.4649520E-03 (  21.17%)
   displ. norm   :     0.2810051 α      lambda       -0.5954324E-03
   maximum displ.:     0.1451165 α      in ANC's #14, #21, #12, ...

........................................................................
.............................. CYCLE    6 ..............................
........................................................................

 iter      E             dE          RMSdq      gap      omega  full diag
   1   -123.4918340 -0.123492E+03  0.155E-01    0.03       0.0  T
   2   -123.4788071  0.130269E-01  0.262E-01    0.37       1.0  T
   3   -123.4922931 -0.134861E-01  0.948E-02    0.05       1.0  T
   4   -123.4908271  0.146605E-02  0.115E-01    0.05       1.0  T
   5   -123.4902277  0.599432E-03  0.121E-01    0.02       1.0  T
   6   -123.4933464 -0.311876E-02  0.367E-02    0.07       1.0  T
   7   -123.4936115 -0.265078E-03  0.121E-02    0.06       1.0  T
   8   -123.4936314 -0.199296E-04  0.469E-03    0.06       2.3  T
   9   -123.4936308  0.659227E-06  0.458E-03    0.06       2.3  T
  10   -123.4936341 -0.328807E-05  0.253E-03    0.06       4.2  T
  11   -123.4936351 -0.108044E-05  0.127E-03    0.06       8.4  T
  12   -123.4936352 -0.109557E-06  0.101E-03    0.06      10.6  T
  13   -123.4936355 -0.221425E-06  0.279E-04    0.06      38.4  T
  14   -123.4936355 -0.115931E-07  0.134E-04    0.06      80.2  T
     SCC iter.                  ...        0 min,  0.167 sec
     gradient                   ...        0 min,  0.015 sec
 * total energy  :  -121.9179429 Eh     change       -0.2872478E-03 Eh
   gradient norm :     0.0117354 Eh/α   predicted    -0.3212247E-03 (  11.83%)
   displ. norm   :     0.2174142 α      lambda       -0.4794268E-03
   maximum displ.:     0.1237556 α      in ANC's #14, #21, #12, ...

........................................................................
.............................. CYCLE    7 ..............................
........................................................................

 iter      E             dE          RMSdq      gap      omega  full diag
   1   -123.4932533 -0.123493E+03  0.767E-02    0.05       0.0  T
   2   -123.4858279  0.742547E-02  0.182E-01    0.16       1.0  T
   3   -123.4907296 -0.490173E-02  0.110E-01    0.03       1.0  T
   4   -123.4906276  0.101997E-03  0.102E-01    0.10       1.0  T
   5   -123.4930160 -0.238840E-02  0.463E-02    0.07       1.0  T
   6   -123.4933881 -0.372145E-03  0.199E-02    0.06       1.0  T
   7   -123.4934789 -0.907811E-04  0.470E-03    0.06       2.3  T
   8   -123.4934819 -0.300419E-05  0.241E-03    0.06       4.5  T
   9   -123.4934826 -0.704697E-06  0.163E-03    0.06       6.6  T
  10   -123.4934826  0.240798E-07  0.151E-03    0.06       7.1  T
  11   -123.4934831 -0.467820E-06  0.503E-04    0.06      21.3  T
  12   -123.4934831 -0.310217E-07  0.332E-04    0.06      32.3  T
     SCC iter.                  ...        0 min,  0.168 sec
     gradient                   ...        0 min,  0.016 sec
 * total energy  :  -121.9183163 Eh     change       -0.3734837E-03 Eh
   gradient norm :     0.0072010 Eh/α   predicted    -0.2510448E-03 ( -32.78%)
   displ. norm   :     0.4176167 α      lambda       -0.6232606E-03
   maximum displ.:     0.2448207 α      in ANC's #14, #21, #12, ...

........................................................................
.............................. CYCLE    8 ..............................
........................................................................

 iter      E             dE          RMSdq      gap      omega  full diag
   1   -123.4935679 -0.123494E+03  0.128E-01    0.04       0.0  T
   2   -123.4819290  0.116389E-01  0.237E-01    0.27       1.0  T
   3   -123.4890218 -0.709277E-02  0.154E-01    0.02       1.0  T
   4   -123.4856627  0.335915E-02  0.176E-01    0.13       1.0  T
   5   -123.4924606 -0.679790E-02  0.906E-02    0.09       1.0  T
   6   -123.4943232 -0.186262E-02  0.185E-02    0.06       1.0  T
   7   -123.4943880 -0.647820E-04  0.817E-03    0.05       1.3  T
   8   -123.4943690  0.189889E-04  0.117E-02    0.06       1.0  T
   9   -123.4943995 -0.305126E-04  0.245E-03    0.06       4.4  T
  10   -123.4943974  0.203978E-05  0.359E-03    0.06       3.0  T
  11   -123.4944004 -0.300636E-05  0.797E-04    0.05      13.4  T
  12   -123.4944005 -0.438674E-07  0.553E-04    0.06      19.4  T
  13   -123.4944005 -0.414095E-07  0.286E-04    0.06      37.5  T
     SCC iter.                  ...        0 min,  0.169 sec
     gradient                   ...        0 min,  0.013 sec
 * total energy  :  -121.9187989 Eh     change       -0.4825533E-03 Eh
   gradient norm :     0.0075669 Eh/α   predicted    -0.3659848E-03 ( -24.16%)
   displ. norm   :     0.5241210 α      lambda       -0.5373374E-03
   maximum displ.:     0.3139685 α      in ANC's #14, #21, #12, ...

........................................................................
.............................. CYCLE    9 ..............................
........................................................................

 iter      E             dE          RMSdq      gap      omega  full diag
   1   -123.4915666 -0.123492E+03  0.163E-01    0.03       0.0  T
   2   -123.4776341  0.139326E-01  0.268E-01    0.36       1.0  T
   3   -123.4903412 -0.127072E-01  0.123E-01    0.03       1.0  T
   4   -123.4873223  0.301898E-02  0.148E-01    0.08       1.0  T
   5   -123.4924105 -0.508819E-02  0.672E-02    0.04       1.0  T
   6   -123.4931800 -0.769592E-03  0.267E-02    0.06       1.0  T
   7   -123.4933025 -0.122481E-03  0.885E-03    0.05       1.2  T
   8   -123.4933105 -0.793266E-05  0.494E-03    0.05       2.2  T
   9   -123.4933125 -0.201934E-05  0.342E-03    0.05       3.1  T
  10   -123.4933132 -0.741218E-06  0.250E-03    0.05       4.3  T
  11   -123.4933142 -0.943537E-06  0.158E-03    0.05       6.8  T
  12   -123.4933146 -0.477481E-06  0.663E-04    0.05      16.2  T
  13   -123.4933147 -0.589032E-07  0.343E-04    0.05      31.2  T
     SCC iter.                  ...        0 min,  0.156 sec
     gradient                   ...        0 min,  0.017 sec
 * total energy  :  -121.9192379 Eh     change       -0.4389750E-03 Eh
   gradient norm :     0.0095980 Eh/α   predicted    -0.3424732E-03 ( -21.98%)
   displ. norm   :     0.5187323 α      lambda       -0.5441957E-03
   maximum displ.:     0.3250985 α      in ANC's #14, #12, #5, ...

........................................................................
.............................. CYCLE   10 ..............................
........................................................................

 iter      E             dE          RMSdq      gap      omega  full diag
   1   -123.4940467 -0.123494E+03  0.149E-01    0.03       0.0  T
   2   -123.4824261  0.116206E-01  0.235E-01    0.24       1.0  T
   3   -123.4708318  0.115943E-01  0.314E-01    0.03       1.0  T
   4   -123.4832724 -0.124406E-01  0.210E-01    0.19       1.0  T
   5   -123.4871308 -0.385840E-02  0.178E-01    0.16       1.0  T
   6   -123.4889242 -0.179349E-02  0.153E-01    0.13       1.0  T
   7   -123.4919818 -0.305760E-02  0.106E-01    0.10       1.0  T
   8   -123.4943119 -0.233010E-02  0.402E-02    0.07       1.0  T
   9   -123.4946661 -0.354147E-03  0.143E-02    0.06       1.0  T
  10   -123.4947043 -0.382446E-04  0.612E-03    0.05       1.8  T
  11   -123.4947130 -0.869110E-05  0.139E-03    0.05       7.7  T
  12   -123.4947080  0.499621E-05  0.470E-03    0.05       2.3  T
  13   -123.4947124 -0.438015E-05  0.199E-03    0.05       5.4  T
  14   -123.4947132 -0.801149E-06  0.606E-04    0.05      17.7  T
  15   -123.4947133 -0.750428E-07  0.159E-04    0.05      67.6  T
     SCC iter.                  ...        0 min,  0.178 sec
     gradient                   ...        0 min,  0.016 sec
 * total energy  :  -121.9196774 Eh     change       -0.4395045E-03 Eh
   gradient norm :     0.0087859 Eh/α   predicted    -0.3453385E-03 ( -21.43%)
   displ. norm   :     0.5445056 α      lambda       -0.5307528E-03
   maximum displ.:     0.3570417 α      in ANC's #14, #12, #5, ...

........................................................................
.............................. CYCLE   11 ..............................
........................................................................

 iter      E             dE          RMSdq      gap      omega  full diag
   1   -123.4951005 -0.123495E+03  0.150E-01    0.03       0.0  T
   2   -123.4835624  0.115381E-01  0.234E-01    0.23       1.0  T
   3   -123.4682879  0.152745E-01  0.335E-01    0.04       1.0  T
   4   -123.4846126 -0.163247E-01  0.207E-01    0.19       1.0  T
   5   -123.4885238 -0.391120E-02  0.174E-01    0.15       1.0  T
   6   -123.4901951 -0.167133E-02  0.150E-01    0.12       1.0  T
   7   -123.4931005 -0.290538E-02  0.103E-01    0.09       1.0  T
   8   -123.4953144 -0.221388E-02  0.404E-02    0.07       1.0  T
   9   -123.4956468 -0.332396E-03  0.169E-02    0.06       1.0  T
  10   -123.4957075 -0.606787E-04  0.508E-03    0.05       2.1  T
  11   -123.4957132 -0.569253E-05  0.171E-03    0.05       6.3  T
  12   -123.4957121  0.103458E-05  0.254E-03    0.05       4.2  T
  13   -123.4957133 -0.118688E-05  0.123E-03    0.05       8.7  T
  14   -123.4957136 -0.294538E-06  0.466E-04    0.05      23.0  T
  15   -123.4957137 -0.381855E-07  0.183E-04    0.05      58.6  T
     SCC iter.                  ...        0 min,  0.178 sec
     gradient                   ...        0 min,  0.015 sec
 * total energy  :  -121.9200977 Eh     change       -0.4203221E-03 Eh
   gradient norm :     0.0072588 Eh/α   predicted    -0.3440580E-03 ( -18.14%)
   displ. norm   :     0.5461356 α      lambda       -0.4824880E-03
   maximum displ.:     0.3753806 α      in ANC's #14, #12, #5, ...

........................................................................
.............................. CYCLE   12 ..............................
........................................................................

 iter      E             dE          RMSdq      gap      omega  full diag
   1   -123.4959443 -0.123496E+03  0.149E-01    0.04       0.0  T
   2   -123.4852332  0.107111E-01  0.224E-01    0.20       1.0  T
   3   -123.4625513  0.226819E-01  0.371E-01    0.05       1.0  T
   4   -123.4867832 -0.242319E-01  0.195E-01    0.17       1.0  T
   5   -123.4899245 -0.314125E-02  0.162E-01    0.14       1.0  T
   6   -123.4919521 -0.202758E-02  0.134E-01    0.11       1.0  T
   7   -123.4944018 -0.244969E-02  0.887E-02    0.09       1.0  T
   8   -123.4961199 -0.171819E-02  0.335E-02    0.06       1.0  T
   9   -123.4963401 -0.220129E-03  0.136E-02    0.05       1.0  T
  10   -123.4963744 -0.342822E-04  0.702E-03    0.05       1.5  T
  11   -123.4963855 -0.111079E-04  0.162E-03    0.05       6.6  T
  12   -123.4963857 -0.200930E-06  0.118E-03    0.05       9.1  T
  13   -123.4963857 -0.208765E-07  0.107E-03    0.05      10.0  T
  14   -123.4963859 -0.201309E-06  0.532E-04    0.05      20.1  T
  15   -123.4963859 -0.452538E-07  0.264E-04    0.05      40.7  T
     SCC iter.                  ...        0 min,  0.185 sec
     gradient                   ...        0 min,  0.016 sec
 * total energy  :  -121.9204797 Eh     change       -0.3819504E-03 Eh
   gradient norm :     0.0075164 Eh/α   predicted    -0.3132026E-03 ( -18.00%)
   displ. norm   :     0.5451601 α      lambda       -0.4443376E-03
   maximum displ.:     0.3917229 α      in ANC's #14, #12, #5, ...

........................................................................
.............................. CYCLE   13 ..............................
........................................................................

 iter      E             dE          RMSdq      gap      omega  full diag
   1   -123.4990798 -0.123499E+03  0.133E-01    0.04       0.0  T
   2   -123.4930465  0.603331E-02  0.172E-01    0.13       1.0  T
   3   -123.4521826  0.408639E-01  0.435E-01    0.08       1.0  T
   4   -123.4946106 -0.424280E-01  0.139E-01    0.10       1.0  T
   5   -123.4967859 -0.217538E-02  0.970E-02    0.09       1.0  T
   6   -123.4983198 -0.153386E-02  0.606E-02    0.07       1.0  T
   7   -123.4988463 -0.526501E-03  0.381E-02    0.06       1.0  T
   8   -123.4991484 -0.302057E-03  0.163E-02    0.06       1.0  T
   9   -123.4992065 -0.581772E-04  0.438E-03    0.05       2.4  T
  10   -123.4992092 -0.263394E-05  0.235E-03    0.05       4.6  T
  11   -123.4992102 -0.105661E-05  0.854E-04    0.05      12.6  T
  12   -123.4992103 -0.528392E-07  0.589E-04    0.05      18.2  T
  13   -123.4992103 -0.485987E-07  0.368E-04    0.05      29.1  T
     SCC iter.                  ...        0 min,  0.187 sec
     gradient                   ...        0 min,  0.017 sec
 * total energy  :  -121.9208344 Eh     change       -0.3547512E-03 Eh
   gradient norm :     0.0076661 Eh/α   predicted    -0.2881972E-03 ( -18.76%)
   displ. norm   :     0.7385615 α      lambda       -0.4951541E-03
   maximum displ.:     0.5292389 α      in ANC's #14, #12, #5, ...

........................................................................
.............................. CYCLE   14 ..............................
........................................................................

 iter      E             dE          RMSdq      gap      omega  full diag
   1   -123.4889773 -0.123489E+03  0.205E-01    0.02       0.0  T
   2   -123.4728399  0.161374E-01  0.296E-01    0.39       1.0  T
   3   -123.4851904 -0.123505E-01  0.169E-01    0.02       1.0  T
   4   -123.4783328  0.685756E-02  0.215E-01    0.11       1.0  T
   5   -123.4909259 -0.125930E-01  0.449E-02    0.05       1.0  T
   6   -123.4911476 -0.221758E-03  0.243E-02    0.05       1.0  T
   7   -123.4911580 -0.103297E-04  0.203E-02    0.05       1.0  T
   8   -123.4912211 -0.631857E-04  0.111E-02    0.05       1.0  T
   9   -123.4912283 -0.719157E-05  0.948E-03    0.05       1.1  T
  10   -123.4912460 -0.177118E-04  0.289E-03    0.05       3.7  T
  11   -123.4912456  0.421738E-06  0.303E-03    0.05       3.5  T
  12   -123.4912477 -0.209775E-05  0.978E-04    0.05      11.0  T
  13   -123.4912479 -0.171410E-06  0.336E-04    0.05      31.9  T
  14   -123.4912479  0.106947E-07  0.360E-04    0.05      29.7  T
     SCC iter.                  ...        0 min,  0.179 sec
     gradient                   ...        0 min,  0.015 sec
 * total energy  :  -121.9210879 Eh     change       -0.2535066E-03 Eh
   gradient norm :     0.0125868 Eh/α   predicted    -0.3826247E-03 (  50.93%)
   displ. norm   :     0.3349858 α      lambda       -0.5547871E-03
   maximum displ.:     0.2348103 α      in ANC's #14, #21, #8, ...

........................................................................
.............................. CYCLE   15 ..............................
........................................................................

 iter      E             dE          RMSdq      gap      omega  full diag
   1   -123.4990268 -0.123499E+03  0.787E-02    0.05       0.0  T
   2   -123.4978972  0.112962E-02  0.838E-02    0.03       1.0  T
   3   -123.4907843  0.711295E-02  0.186E-01    0.14       1.0  T
   4   -123.4981114 -0.732712E-02  0.718E-02    0.05       1.0  T
   5   -123.4981251 -0.136927E-04  0.594E-02    0.07       1.0  T
   6   -123.4989139 -0.788796E-03  0.231E-02    0.06       1.0  T
   7   -123.4990420 -0.128161E-03  0.672E-03    0.05       1.6  T
   8   -123.4990519 -0.990278E-05  0.220E-03    0.05       4.9  T
   9   -123.4990513  0.578952E-06  0.260E-03    0.05       4.1  T
  10   -123.4990529 -0.153696E-05  0.794E-04    0.05      13.5  T
  11   -123.4990528  0.830539E-07  0.936E-04    0.05      11.4  T
  12   -123.4990530 -0.176359E-06  0.306E-04    0.05      35.1  T
     SCC iter.                  ...        0 min,  0.147 sec
     gradient                   ...        0 min,  0.014 sec
 * total energy  :  -121.9213995 Eh     change       -0.3116040E-03 Eh
   gradient norm :     0.0061367 Eh/α   predicted    -0.3085266E-03 (  -0.99%)
   displ. norm   :     0.4596128 α      lambda       -0.2375273E-03
   maximum displ.:     0.3322534 α      in ANC's #14, #12, #5, ...

........................................................................
.............................. CYCLE   16 ..............................
........................................................................

 iter      E             dE          RMSdq      gap      omega  full diag
   1   -123.4971951 -0.123497E+03  0.117E-01    0.04       0.0  T
   2   -123.4869163  0.102788E-01  0.214E-01    0.17       1.0  T
   3   -123.4839277  0.298859E-02  0.236E-01    0.02       1.0  T
   4   -123.4911900 -0.726229E-02  0.163E-01    0.12       1.0  T
   5   -123.4932749 -0.208488E-02  0.128E-01    0.10       1.0  T
   6   -123.4959636 -0.268874E-02  0.782E-02    0.08       1.0  T
   7   -123.4972062 -0.124263E-02  0.339E-02    0.06       1.0  T
   8   -123.4974214 -0.215142E-03  0.186E-02    0.05       1.0  T
   9   -123.4974963 -0.749803E-04  0.603E-03    0.05       1.8  T
  10   -123.4975031 -0.673387E-05  0.286E-03    0.05       3.7  T
  11   -123.4975048 -0.174331E-05  0.880E-04    0.05      12.2  T
  12   -123.4975047  0.790489E-07  0.964E-04    0.05      11.1  T
  13   -123.4975047  0.246959E-07  0.103E-03    0.05      10.4  T
  14   -123.4975050 -0.246400E-06  0.199E-04    0.05      53.8  T
     SCC iter.                  ...        0 min,  0.163 sec
     gradient                   ...        0 min,  0.015 sec
 * total energy  :  -121.9215617 Eh     change       -0.1621828E-03 Eh
   gradient norm :     0.0056877 Eh/α   predicted    -0.1438543E-03 ( -11.30%)
   displ. norm   :     0.3676444 α      lambda       -0.1776325E-03
   maximum displ.:     0.2539598 α      in ANC's #14, #8, #12, ...

........................................................................
.............................. CYCLE   17 ..............................
........................................................................

 iter      E             dE          RMSdq      gap      omega  full diag
   1   -123.4968222 -0.123497E+03  0.993E-02    0.04       0.0  T
   2   -123.4860588  0.107634E-01  0.215E-01    0.18       1.0  T
   3   -123.4912912 -0.523246E-02  0.157E-01    0.00       1.0  T
   4   -123.4921019 -0.810626E-03  0.140E-01    0.10       1.0  T
   5   -123.4951259 -0.302403E-02  0.889E-02    0.08       1.0  T
   6   -123.4967456 -0.161975E-02  0.399E-02    0.06       1.0  T
   7   -123.4971302 -0.384504E-03  0.100E-02    0.05       1.1  T
   8   -123.4971343 -0.416354E-05  0.896E-03    0.05       1.2  T
   9   -123.4971503 -0.160006E-04  0.388E-03    0.05       2.8  T
  10   -123.4971538 -0.343725E-05  0.113E-03    0.05       9.5  T
  11   -123.4971540 -0.200530E-06  0.556E-04    0.05      19.3  T
  12   -123.4971539  0.598617E-07  0.625E-04    0.05      17.1  T
     SCC iter.                  ...        0 min,  0.146 sec
     gradient                   ...        0 min,  0.014 sec
 * total energy  :  -121.9216747 Eh     change       -0.1130091E-03 Eh
   gradient norm :     0.0051079 Eh/α   predicted    -0.1008218E-03 ( -10.78%)
   displ. norm   :     0.2890602 α      lambda       -0.1954394E-03
   maximum displ.:     0.1759645 α      in ANC's #14, #8, #16, ...

........................................................................
.............................. CYCLE   18 ..............................
........................................................................

 iter      E             dE          RMSdq      gap      omega  full diag
   1   -123.5004481 -0.123500E+03  0.825E-02    0.04       0.0  T
   2   -123.4899160  0.105321E-01  0.210E-01    0.17       1.0  T
   3   -123.4982578 -0.834182E-02  0.106E-01    0.02       1.0  T
   4   -123.4984285 -0.170640E-03  0.941E-02    0.08       1.0  T
   5   -123.5001227 -0.169422E-02  0.503E-02    0.06       1.0  T
   6   -123.5006720 -0.549307E-03  0.162E-02    0.05       1.0  T
   7   -123.5007370 -0.650414E-04  0.493E-03    0.05       2.2  T
   8   -123.5007404 -0.336905E-05  0.340E-03    0.05       3.2  T
   9   -123.5007409 -0.485128E-06  0.278E-03    0.05       3.9  T
  10   -123.5007425 -0.158270E-05  0.977E-04    0.05      11.0  T
  11   -123.5007426 -0.116737E-06  0.669E-04    0.05      16.0  T
  12   -123.5007426 -0.370898E-07  0.519E-04    0.05      20.7  T
     SCC iter.                  ...        0 min,  0.143 sec
     gradient                   ...        0 min,  0.014 sec
 * total energy  :  -121.9217508 Eh     change       -0.7613223E-04 Eh
   gradient norm :     0.0070798 Eh/α   predicted    -0.1058885E-03 (  39.09%)
   displ. norm   :     0.2503637 α      lambda       -0.1386421E-03
   maximum displ.:     0.1590057 α      in ANC's #14, #16, #8, ...

........................................................................
.............................. CYCLE   19 ..............................
........................................................................

 iter      E             dE          RMSdq      gap      omega  full diag
   1   -123.4986474 -0.123499E+03  0.729E-02    0.04       0.0  T
   2   -123.4886460  0.100013E-01  0.204E-01    0.16       1.0  T
   3   -123.4977966 -0.915060E-02  0.738E-02    0.03       1.0  T
   4   -123.4976637  0.132917E-03  0.675E-02    0.06       1.0  T
   5   -123.4987024 -0.103866E-02  0.291E-02    0.06       1.0  T
   6   -123.4988715 -0.169121E-03  0.986E-03    0.05       1.1  T
   7   -123.4988937 -0.221791E-04  0.328E-03    0.05       3.3  T
   8   -123.4988954 -0.177200E-05  0.152E-03    0.05       7.1  T
   9   -123.4988954  0.490137E-07  0.148E-03    0.05       7.2  T
  10   -123.4988955 -0.726037E-07  0.116E-03    0.05       9.3  T
  11   -123.4988958 -0.315745E-06  0.423E-04    0.05      25.3  T
  12   -123.4988958  0.635775E-08  0.426E-04    0.05      25.2  T
     SCC iter.                  ...        0 min,  0.149 sec
     gradient                   ...        0 min,  0.015 sec
 * total energy  :  -121.9218387 Eh     change       -0.8781866E-04 Eh
   gradient norm :     0.0053004 Eh/α   predicted    -0.7366880E-04 ( -16.11%)
   displ. norm   :     0.2052971 α      lambda       -0.1371628E-03
   maximum displ.:     0.0916186 α      in ANC's #16, #14, #8, ...

........................................................................
.............................. CYCLE   20 ..............................
........................................................................

 iter      E             dE          RMSdq      gap      omega  full diag
   1   -123.4989286 -0.123499E+03  0.646E-02    0.04       0.0  T
   2   -123.4942289  0.469971E-02  0.142E-01    0.10       1.0  T
   3   -123.4961349 -0.190601E-02  0.111E-01    0.01       1.0  T
   4   -123.4985602 -0.242533E-02  0.452E-02    0.06       1.0  T
   5   -123.4988313 -0.271106E-03  0.270E-02    0.05       1.0  T
   6   -123.4989144 -0.830801E-04  0.176E-02    0.05       1.0  T
   7   -123.4989887 -0.742787E-04  0.625E-03    0.05       1.7  T
   8   -123.4989972 -0.855534E-05  0.122E-03    0.05       8.8  T
   9   -123.4989966  0.607509E-06  0.182E-03    0.05       5.9  T
  10   -123.4989974 -0.744974E-06  0.595E-04    0.05      18.0  T
  11   -123.4989974 -0.553276E-07  0.286E-04    0.05      37.5  T
     SCC iter.                  ...        0 min,  0.152 sec
     gradient                   ...        0 min,  0.017 sec
 * total energy  :  -121.9219193 Eh     change       -0.8067686E-04 Eh
   gradient norm :     0.0061344 Eh/α   predicted    -0.7147540E-04 ( -11.41%)
   displ. norm   :     0.3189601 α      lambda       -0.1626808E-03
   maximum displ.:     0.1468173 α      in ANC's #16, #14, #8, ...
 * RMSD in coord.:     0.7175227 α      energy gain  -0.1374548E-01 Eh

generating ANC from exact Hessian ...
Using Lindh-Hessian (1995)
 Shifting diagonal of input Hessian by   1.030449628595384E-002
 Lowest  eigenvalues of input Hessian
    0.010000    0.010072    0.010108    0.010122    0.000000    0.000000
    0.000000    0.000000    0.000000    0.000000    0.010322    0.010341
    0.010361    0.010377    0.010453    0.010684    0.010820    0.011047
 Highest eigenvalues
    1.988181    2.074700    2.110309    2.157832    2.197617    2.262518
 

........................................................................
.............................. CYCLE   21 ..............................
........................................................................

 iter      E             dE          RMSdq      gap      omega  full diag
   1   -123.4979935 -0.123498E+03  0.877E-02    0.04       0.0  T
   2   -123.4898900  0.810349E-02  0.187E-01    0.14       1.0  T
   3   -123.4940890 -0.419900E-02  0.133E-01    0.01       1.0  T
   4   -123.4966962 -0.260720E-02  0.791E-02    0.07       1.0  T
   5   -123.4975928 -0.896572E-03  0.487E-02    0.06       1.0  T
   6   -123.4978999 -0.307133E-03  0.309E-02    0.06       1.0  T
   7   -123.4981359 -0.235995E-03  0.860E-03    0.05       1.2  T
   8   -123.4981511 -0.151678E-04  0.251E-03    0.04       4.3  T
   9   -123.4981519 -0.859095E-06  0.134E-03    0.05       8.0  T
  10   -123.4981520 -0.870019E-07  0.114E-03    0.05       9.4  T
  11   -123.4981522 -0.198580E-06  0.580E-04    0.05      18.5  T
  12   -123.4981522 -0.347346E-07  0.432E-04    0.05      24.8  T
     SCC iter.                  ...        0 min,  0.146 sec
     gradient                   ...        0 min,  0.015 sec
 * total energy  :  -121.9220034 Eh     change       -0.8404490E-04 Eh
   gradient norm :     0.0088758 Eh/α   predicted     0.0000000E+00 (-100.00%)
   displ. norm   :     0.0519765 α      lambda       -0.1207703E-03
   maximum displ.:     0.0227833 α      in ANC's #9, #5, #25, ...

........................................................................
.............................. CYCLE   22 ..............................
........................................................................

 iter      E             dE          RMSdq      gap      omega  full diag
   1   -123.5000040 -0.123500E+03  0.249E-02    0.05       0.0  T
   2   -123.4952862  0.471779E-02  0.137E-01    0.01       1.0  T
   3   -123.4999840 -0.469779E-02  0.192E-02    0.05       1.0  T
   4   -123.4999385  0.455004E-04  0.220E-02    0.05       1.0  T
   5   -123.5000020 -0.634845E-04  0.112E-02    0.05       1.0  T
   6   -123.5000336 -0.316369E-04  0.313E-03    0.05       3.4  T
   7   -123.5000356 -0.197127E-05  0.122E-03    0.05       8.8  T
   8   -123.5000358 -0.225840E-06  0.633E-04    0.05      16.9  T
   9   -123.5000358 -0.346802E-07  0.429E-04    0.05      25.0  T
     SCC iter.                  ...        0 min,  0.100 sec
     gradient                   ...        0 min,  0.014 sec
 * total energy  :  -121.9220919 Eh     change       -0.8852376E-04 Eh
   gradient norm :     0.0032900 Eh/α   predicted    -0.6574362E-04 ( -25.73%)
   displ. norm   :     0.0953568 α      lambda       -0.9090528E-04
   maximum displ.:     0.0459548 α      in ANC's #9, #5, #25, ...

........................................................................
.............................. CYCLE   23 ..............................
........................................................................

 iter      E             dE          RMSdq      gap      omega  full diag
   1   -123.5014499 -0.123501E+03  0.435E-02    0.05       0.0  T
   2   -123.4958251  0.562487E-02  0.151E-01    0.00       1.0  T
   3   -123.5010091 -0.518399E-02  0.495E-02    0.06       1.0  T
   4   -123.5013736 -0.364511E-03  0.232E-02    0.05       1.0  T
   5   -123.5014035 -0.299532E-04  0.174E-02    0.05       1.0  T
   6   -123.5014759 -0.723297E-04  0.707E-03    0.05       1.5  T
   7   -123.5014856 -0.974457E-05  0.320E-03    0.05       3.4  T
   8   -123.5014877 -0.206732E-05  0.980E-04    0.05      10.9  T
   9   -123.5014878 -0.118740E-06  0.560E-04    0.05      19.1  T
  10   -123.5014878 -0.145278E-07  0.468E-04    0.05      22.9  T
     SCC iter.                  ...        0 min,  0.115 sec
     gradient                   ...        0 min,  0.016 sec
 * total energy  :  -121.9221272 Eh     change       -0.3533960E-04 Eh
   gradient norm :     0.0036377 Eh/α   predicted    -0.4589824E-04 (  29.88%)
   displ. norm   :     0.0984025 α      lambda       -0.7583428E-04
   maximum displ.:     0.0479772 α      in ANC's #9, #5, #13, ...

........................................................................
.............................. CYCLE   24 ..............................
........................................................................

 iter      E             dE          RMSdq      gap      omega  full diag
   1   -123.5015278 -0.123502E+03  0.470E-02    0.05       0.0  T
   2   -123.4984310  0.309681E-02  0.114E-01    0.01       1.0  T
   3   -123.4998208 -0.138982E-02  0.862E-02    0.08       1.0  T
   4   -123.5010058 -0.118495E-02  0.528E-02    0.04       1.0  T
   5   -123.5014092 -0.403480E-03  0.234E-02    0.05       1.0  T
   6   -123.5015133 -0.104063E-03  0.125E-02    0.05       1.0  T
   7   -123.5015455 -0.321434E-04  0.559E-03    0.05       1.9  T
   8   -123.5015532 -0.773597E-05  0.745E-04    0.05      14.4  T
   9   -123.5015528  0.372420E-06  0.136E-03    0.05       7.9  T
  10   -123.5015530 -0.184198E-06  0.105E-03    0.05      10.2  T
  11   -123.5015532 -0.216919E-06  0.448E-04    0.05      23.9  T
  12   -123.5015533 -0.476867E-07  0.141E-04    0.05      75.8  T
     SCC iter.                  ...        0 min,  0.137 sec
     gradient                   ...        0 min,  0.014 sec
 * total energy  :  -121.9221611 Eh     change       -0.3381009E-04 Eh
   gradient norm :     0.0052171 Eh/α   predicted    -0.3828442E-04 (  13.23%)
   displ. norm   :     0.0985710 α      lambda       -0.7429748E-04
   maximum displ.:     0.0505754 α      in ANC's #9, #5, #13, ...

........................................................................
.............................. CYCLE   25 ..............................
........................................................................

 iter      E             dE          RMSdq      gap      omega  full diag
   1   -123.5006574 -0.123501E+03  0.325E-02    0.05       0.0  T
   2   -123.5006083  0.491484E-04  0.242E-02    0.05       1.0  T
   3   -123.4923858  0.822247E-02  0.178E-01    0.01       1.0  T
   4   -123.5005046 -0.811875E-02  0.279E-02    0.05       1.0  T
   5   -123.5006452 -0.140672E-03  0.750E-03    0.05       1.4  T
   6   -123.5006574 -0.121629E-04  0.310E-03    0.05       3.5  T
   7   -123.5006589 -0.145751E-05  0.172E-03    0.05       6.2  T
   8   -123.5006595 -0.609708E-06  0.619E-04    0.05      17.3  T
   9   -123.5006595 -0.268314E-07  0.448E-04    0.05      23.9  T
     SCC iter.                  ...        0 min,  0.148 sec
     gradient                   ...        0 min,  0.014 sec
 * total energy  :  -121.9222139 Eh     change       -0.5285842E-04 Eh
   gradient norm :     0.0037118 Eh/α   predicted    -0.3751177E-04 ( -29.03%)
   displ. norm   :     0.1996672 α      lambda       -0.1010508E-03
   maximum displ.:     0.1041249 α      in ANC's #9, #5, #13, ...

........................................................................
.............................. CYCLE   26 ..............................
........................................................................

 iter      E             dE          RMSdq      gap      omega  full diag
   1   -123.4994116 -0.123499E+03  0.443E-02    0.04       0.0  T
   2   -123.4982054  0.120613E-02  0.739E-02    0.07       1.0  T
   3   -123.4968572  0.134824E-02  0.102E-01    0.02       1.0  T
   4   -123.4992201 -0.236293E-02  0.335E-02    0.05       1.0  T
   5   -123.4993766 -0.156496E-03  0.139E-02    0.05       1.0  T
   6   -123.4994100 -0.333916E-04  0.815E-03    0.05       1.3  T
   7   -123.4994216 -0.115444E-04  0.403E-03    0.05       2.7  T
   8   -123.4994252 -0.367358E-05  0.122E-03    0.05       8.8  T
   9   -123.4994251  0.168082E-06  0.148E-03    0.05       7.2  T
  10   -123.4994254 -0.379026E-06  0.782E-04    0.05      13.7  T
  11   -123.4994256 -0.147995E-06  0.211E-04    0.05      50.7  T
     SCC iter.                  ...        0 min,  0.142 sec
     gradient                   ...        0 min,  0.014 sec
 * total energy  :  -121.9222923 Eh     change       -0.7837070E-04 Eh
   gradient norm :     0.0025712 Eh/α   predicted    -0.5254155E-04 ( -32.96%)
   displ. norm   :     0.3028409 α      lambda       -0.1044917E-03
   maximum displ.:     0.1586331 α      in ANC's #9, #5, #13, ...

........................................................................
.............................. CYCLE   27 ..............................
........................................................................

 iter      E             dE          RMSdq      gap      omega  full diag
   1   -123.4985286 -0.123499E+03  0.664E-02    0.04       0.0  T
   2   -123.4961847  0.234391E-02  0.104E-01    0.08       1.0  T
   3   -123.4909828  0.520185E-02  0.174E-01    0.00       1.0  T
   4   -123.4980239 -0.704107E-02  0.541E-02    0.05       1.0  T
   5   -123.4983451 -0.321231E-03  0.290E-02    0.06       1.0  T
   6   -123.4984763 -0.131163E-03  0.184E-02    0.05       1.0  T
   7   -123.4985401 -0.637780E-04  0.864E-03    0.05       1.2  T
   8   -123.4985582 -0.181150E-04  0.153E-03    0.05       7.0  T
   9   -123.4985578  0.375745E-06  0.194E-03    0.05       5.5  T
  10   -123.4985584 -0.595327E-06  0.112E-03    0.05       9.6  T
  11   -123.4985587 -0.271811E-06  0.417E-04    0.05      25.7  T
  12   -123.4985587 -0.266221E-07  0.260E-04    0.05      41.3  T
     SCC iter.                  ...        0 min,  0.152 sec
     gradient                   ...        0 min,  0.017 sec
 * total energy  :  -121.9223743 Eh     change       -0.8201583E-04 Eh
   gradient norm :     0.0036433 Eh/α   predicted    -0.5703810E-04 ( -30.45%)
   displ. norm   :     0.3227536 α      lambda       -0.1015612E-03
   maximum displ.:     0.1719105 α      in ANC's #9, #5, #13, ...

........................................................................
.............................. CYCLE   28 ..............................
........................................................................

 iter      E             dE          RMSdq      gap      omega  full diag
   1   -123.4983761 -0.123498E+03  0.693E-02    0.04       0.0  T
   2   -123.4940603  0.431586E-02  0.136E-01    0.10       1.0  T
   3   -123.4943572 -0.296898E-03  0.130E-01    0.01       1.0  T
   4   -123.4979291 -0.357192E-02  0.525E-02    0.06       1.0  T
   5   -123.4981315 -0.202408E-03  0.347E-02    0.06       1.0  T
   6   -123.4983296 -0.198048E-03  0.209E-02    0.05       1.0  T
   7   -123.4984215 -0.919156E-04  0.767E-03    0.05       1.4  T
   8   -123.4984349 -0.134265E-04  0.227E-03    0.05       4.7  T
   9   -123.4984359 -0.989255E-06  0.117E-03    0.05       9.2  T
  10   -123.4984361 -0.207794E-06  0.632E-04    0.05      17.0  T
  11   -123.4984362 -0.677168E-07  0.351E-04    0.05      30.6  T
     SCC iter.                  ...        0 min,  0.130 sec
     gradient                   ...        0 min,  0.015 sec
 * total energy  :  -121.9224591 Eh     change       -0.8479798E-04 Eh
   gradient norm :     0.0038324 Eh/α   predicted    -0.5607133E-04 ( -33.88%)
   displ. norm   :     0.4020048 α      lambda       -0.1425955E-03
   maximum displ.:     0.2173910 α      in ANC's #9, #5, #14, ...

........................................................................
.............................. CYCLE   29 ..............................
........................................................................

 iter      E             dE          RMSdq      gap      omega  full diag
   1   -123.4989254 -0.123499E+03  0.862E-02    0.04       0.0  T
   2   -123.4906304  0.829502E-02  0.188E-01    0.14       1.0  T
   3   -123.4950322 -0.440180E-02  0.132E-01    0.01       1.0  T
   4   -123.4978033 -0.277105E-02  0.777E-02    0.07       1.0  T
   5   -123.4982380 -0.434698E-03  0.575E-02    0.07       1.0  T
   6   -123.4989018 -0.663847E-03  0.275E-02    0.05       1.0  T
   7   -123.4990808 -0.179027E-03  0.537E-03    0.05       2.0  T
   8   -123.4990870 -0.615175E-05  0.204E-03    0.05       5.3  T
   9   -123.4990866  0.331520E-06  0.213E-03    0.05       5.0  T
  10   -123.4990876 -0.969419E-06  0.656E-04    0.05      16.3  T
  11   -123.4990876  0.942937E-08  0.629E-04    0.05      17.0  T
     SCC iter.                  ...        0 min,  0.137 sec
     gradient                   ...        0 min,  0.014 sec
 * total energy  :  -121.9225799 Eh     change       -0.1208124E-03 Eh
   gradient norm :     0.0036295 Eh/α   predicted    -0.8282068E-04 ( -31.45%)
   displ. norm   :     0.5136055 α      lambda       -0.2017665E-03
   maximum displ.:     0.2814257 α      in ANC's #9, #5, #14, ...

........................................................................
.............................. CYCLE   30 ..............................
........................................................................

 iter      E             dE          RMSdq      gap      omega  full diag
   1   -123.4998100 -0.123500E+03  0.106E-01    0.03       0.0  T
   2   -123.4882226  0.115874E-01  0.225E-01    0.18       1.0  T
   3   -123.4953866 -0.716396E-02  0.144E-01    0.01       1.0  T
   4   -123.4969568 -0.157025E-02  0.115E-01    0.09       1.0  T
   5   -123.4985103 -0.155344E-02  0.797E-02    0.07       1.0  T
   6   -123.4998598 -0.134955E-02  0.328E-02    0.06       1.0  T
   7   -123.5001323 -0.272474E-03  0.624E-03    0.05       1.7  T
   8   -123.5001313  0.983930E-06  0.615E-03    0.05       1.7  T
   9   -123.5001356 -0.428053E-05  0.415E-03    0.05       2.6  T
  10   -123.5001396 -0.400686E-05  0.864E-04    0.04      12.4  T
  11   -123.5001394  0.225315E-06  0.127E-03    0.04       8.5  T
  12   -123.5001396 -0.233324E-06  0.681E-04    0.04      15.7  T
  13   -123.5001397 -0.849954E-07  0.410E-04    0.04      26.1  T
     SCC iter.                  ...        0 min,  0.151 sec
     gradient                   ...        0 min,  0.014 sec
 * total energy  :  -121.9227502 Eh     change       -0.1703312E-03 Eh
   gradient norm :     0.0042163 Eh/α   predicted    -0.1274961E-03 ( -25.15%)
   displ. norm   :     0.5984173 α      lambda       -0.2428190E-03
   maximum displ.:     0.3302337 α      in ANC's #9, #5, #14, ...

........................................................................
.............................. CYCLE   31 ..............................
........................................................................

 iter      E             dE          RMSdq      gap      omega  full diag
   1   -123.5003603 -0.123500E+03  0.119E-01    0.03       0.0  T
   2   -123.4878992  0.124611E-01  0.236E-01    0.19       1.0  T
   3   -123.4940620 -0.616274E-02  0.170E-01    0.00       1.0  T
   4   -123.4956054 -0.154345E-02  0.144E-01    0.10       1.0  T
   5   -123.4982809 -0.267552E-02  0.989E-02    0.08       1.0  T
   6   -123.5000748 -0.179383E-02  0.510E-02    0.06       1.0  T
   7   -123.5007287 -0.653877E-03  0.119E-02    0.05       1.0  T
   8   -123.5007323 -0.364423E-05  0.105E-02    0.05       1.0  T
   9   -123.5007519 -0.195710E-04  0.505E-03    0.05       2.1  T
  10   -123.5007579 -0.599163E-05  0.131E-03    0.04       8.2  T
  11   -123.5007577  0.116008E-06  0.139E-03    0.04       7.7  T
  12   -123.5007580 -0.265140E-06  0.794E-04    0.04      13.5  T
  13   -123.5007581 -0.867436E-07  0.557E-04    0.04      19.3  T
     SCC iter.                  ...        0 min,  0.161 sec
     gradient                   ...        0 min,  0.015 sec
 * total energy  :  -121.9229587 Eh     change       -0.2084805E-03 Eh
   gradient norm :     0.0051996 Eh/α   predicted    -0.1648890E-03 ( -20.91%)
   displ. norm   :     0.6356034 α      lambda       -0.2683531E-03
   maximum displ.:     0.3521711 α      in ANC's #9, #5, #14, ...

........................................................................
.............................. CYCLE   32 ..............................
........................................................................

 iter      E             dE          RMSdq      gap      omega  full diag
   1   -123.5011642 -0.123501E+03  0.117E-01    0.03       0.0  T
   2   -123.4909000  0.102642E-01  0.216E-01    0.15       1.0  T
   3   -123.4906543  0.245733E-03  0.211E-01    0.01       1.0  T
   4   -123.4972750 -0.662072E-02  0.131E-01    0.10       1.0  T
   5   -123.4990469 -0.177191E-02  0.970E-02    0.08       1.0  T
   6   -123.5004578 -0.141088E-02  0.609E-02    0.06       1.0  T
   7   -123.5012760 -0.818237E-03  0.229E-02    0.05       1.0  T
   8   -123.5013872 -0.111160E-03  0.788E-03    0.05       1.4  T
   9   -123.5013944 -0.723635E-05  0.571E-03    0.05       1.9  T
  10   -123.5014016 -0.724346E-05  0.150E-03    0.04       7.1  T
  11   -123.5014019 -0.255028E-06  0.102E-03    0.04      10.5  T
  12   -123.5014018  0.127228E-06  0.120E-03    0.04       8.9  T
  13   -123.5014021 -0.336742E-06  0.341E-04    0.04      31.4  T
  14   -123.5014021 -0.177895E-07  0.218E-04    0.04      49.2  T
     SCC iter.                  ...        0 min,  0.217 sec
     gradient                   ...        0 min,  0.016 sec
 * total energy  :  -121.9231860 Eh     change       -0.2272615E-03 Eh
   gradient norm :     0.0050163 Eh/α   predicted    -0.1883879E-03 ( -17.11%)
   displ. norm   :     0.7152333 α      lambda       -0.2576412E-03
   maximum displ.:     0.4028417 α      in ANC's #9, #5, #14, ...

........................................................................
.............................. CYCLE   33 ..............................
........................................................................

 iter      E             dE          RMSdq      gap      omega  full diag
   1   -123.4987139 -0.123499E+03  0.126E-01    0.04       0.0  T
   2   -123.4914377  0.727622E-02  0.189E-01    0.12       1.0  T
   3   -123.4761341  0.153036E-01  0.302E-01    0.04       1.0  T
   4   -123.4964541 -0.203200E-01  0.103E-01    0.08       1.0  T
   5   -123.4971999 -0.745775E-03  0.805E-02    0.07       1.0  T
   6   -123.4982337 -0.103376E-02  0.497E-02    0.06       1.0  T
   7   -123.4986993 -0.465683E-03  0.240E-02    0.05       1.0  T
   8   -123.4988312 -0.131884E-03  0.587E-03    0.04       1.8  T
   9   -123.4988384 -0.712646E-05  0.192E-03    0.04       5.6  T
  10   -123.4988387 -0.336249E-06  0.124E-03    0.04       8.6  T
  11   -123.4988389 -0.185814E-06  0.701E-04    0.04      15.3  T
  12   -123.4988388  0.301573E-07  0.820E-04    0.04      13.1  T
     SCC iter.                  ...        0 min,  0.168 sec
     gradient                   ...        0 min,  0.018 sec
 * total energy  :  -121.9233888 Eh     change       -0.2028067E-03 Eh
   gradient norm :     0.0059757 Eh/α   predicted    -0.1947207E-03 (  -3.99%)
   displ. norm   :     0.5696012 α      lambda       -0.3607948E-03
   maximum displ.:     0.3125992 α      in ANC's #5, #9, #8, ...

........................................................................
.............................. CYCLE   34 ..............................
........................................................................

 iter      E             dE          RMSdq      gap      omega  full diag
   1   -123.5055256 -0.123506E+03  0.886E-02    0.05       0.0  T
   2   -123.4809644  0.245613E-01  0.316E-01    0.05       1.0  T
   3   -123.5036135 -0.226491E-01  0.104E-01    0.08       1.0  T
   4   -123.5050347 -0.142122E-02  0.560E-02    0.06       1.0  T
   5   -123.5054265 -0.391847E-03  0.338E-02    0.05       1.0  T
   6   -123.5056564 -0.229825E-03  0.133E-02    0.05       1.0  T
   7   -123.5056835 -0.271490E-04  0.761E-03    0.05       1.4  T
   8   -123.5056968 -0.133373E-04  0.195E-03    0.04       5.5  T
   9   -123.5056967  0.119668E-06  0.187E-03    0.04       5.7  T
  10   -123.5056973 -0.549906E-06  0.113E-03    0.04       9.5  T
  11   -123.5056974 -0.155495E-06  0.621E-04    0.04      17.3  T
  12   -123.5056975 -0.812067E-07  0.254E-04    0.04      42.2  T
     SCC iter.                  ...        0 min,  0.174 sec
     gradient                   ...        0 min,  0.017 sec
 * total energy  :  -121.9234490 Eh     change       -0.6023650E-04 Eh
   gradient norm :     0.0094253 Eh/α   predicted    -0.2389328E-03 ( 296.66%)
   displ. norm   :     0.4425839 α      lambda       -0.3644472E-03
   maximum displ.:     0.2524205 α      in ANC's #9, #5, #14, ...

........................................................................
.............................. CYCLE   35 ..............................
........................................................................

 iter      E             dE          RMSdq      gap      omega  full diag
   1   -123.4995980 -0.123500E+03  0.937E-02    0.04       0.0  T
   2   -123.4914779  0.812002E-02  0.192E-01    0.13       1.0  T
   3   -123.4965934 -0.511545E-02  0.119E-01    0.01       1.0  T
   4   -123.4989069 -0.231354E-02  0.671E-02    0.06       1.0  T
   5   -123.4991536 -0.246639E-03  0.480E-02    0.06       1.0  T
   6   -123.4996667 -0.513180E-03  0.188E-02    0.05       1.0  T
   7   -123.4997384 -0.716588E-04  0.709E-03    0.05       1.5  T
   8   -123.4997484 -0.999691E-05  0.302E-03    0.04       3.5  T
   9   -123.4997501 -0.166000E-05  0.162E-03    0.04       6.6  T
  10   -123.4997504 -0.380230E-06  0.965E-04    0.04      11.1  T
  11   -123.4997506 -0.114124E-06  0.692E-04    0.04      15.5  T
     SCC iter.                  ...        0 min,  0.130 sec
     gradient                   ...        0 min,  0.014 sec
 * total energy  :  -121.9236690 Eh     change       -0.2200222E-03 Eh
   gradient norm :     0.0049221 Eh/α   predicted    -0.2179170E-03 (  -0.96%)
   displ. norm   :     0.3578104 α      lambda       -0.1422124E-03
   maximum displ.:     0.2084332 α      in ANC's #9, #5, #8, ...

........................................................................
.............................. CYCLE   36 ..............................
........................................................................

 iter      E             dE          RMSdq      gap      omega  full diag
   1   -123.4990259 -0.123499E+03  0.551E-02    0.04       0.0  T
   2   -123.4989034  0.122537E-03  0.392E-02    0.04       1.0  T
   3   -123.4911202  0.778322E-02  0.182E-01    0.13       1.0  T
   4   -123.4986748 -0.755463E-02  0.397E-02    0.04       1.0  T
   5   -123.4989200 -0.245223E-03  0.208E-02    0.05       1.0  T
   6   -123.4990148 -0.948184E-04  0.784E-03    0.05       1.4  T
   7   -123.4990295 -0.146626E-04  0.154E-03    0.04       7.0  T
   8   -123.4990290  0.513362E-06  0.193E-03    0.04       5.6  T
   9   -123.4990297 -0.744110E-06  0.936E-04    0.04      11.4  T
  10   -123.4990299 -0.144028E-06  0.503E-04    0.04      21.3  T
     SCC iter.                  ...        0 min,  0.121 sec
     gradient                   ...        0 min,  0.015 sec
 * total energy  :  -121.9237826 Eh     change       -0.1135614E-03 Eh
   gradient norm :     0.0063993 Eh/α   predicted    -0.8021411E-04 ( -29.36%)
   displ. norm   :     0.3821914 α      lambda       -0.2670906E-03
   maximum displ.:     0.2297611 α      in ANC's #5, #9, #8, ...

........................................................................
.............................. CYCLE   37 ..............................
........................................................................

 iter      E             dE          RMSdq      gap      omega  full diag
   1   -123.5025652 -0.123503E+03  0.609E-02    0.05       0.0  T
   2   -123.4841636  0.184016E-01  0.275E-01    0.03       1.0  T
   3   -123.5015143 -0.173507E-01  0.757E-02    0.07       1.0  T
   4   -123.5019399 -0.425585E-03  0.632E-02    0.04       1.0  T
   5   -123.5025206 -0.580681E-03  0.260E-02    0.05       1.0  T
   6   -123.5026628 -0.142190E-03  0.117E-02    0.05       1.0  T
   7   -123.5026861 -0.232482E-04  0.582E-03    0.05       1.8  T
   8   -123.5026929 -0.682465E-05  0.218E-03    0.04       4.9  T
   9   -123.5026936 -0.701233E-06  0.125E-03    0.04       8.6  T
  10   -123.5026938 -0.203514E-06  0.739E-04    0.04      14.5  T
  11   -123.5026938 -0.676483E-07  0.408E-04    0.04      26.3  T
     SCC iter.                  ...        0 min,  0.133 sec
     gradient                   ...        0 min,  0.015 sec
 * total energy  :  -121.9239661 Eh     change       -0.1834497E-03 Eh
   gradient norm :     0.0059848 Eh/α   predicted    -0.1530550E-03 ( -16.57%)
   displ. norm   :     0.6159859 α      lambda       -0.2173870E-03
   maximum displ.:     0.3726653 α      in ANC's #9, #5, #8, ...

........................................................................
.............................. CYCLE   38 ..............................
........................................................................

 iter      E             dE          RMSdq      gap      omega  full diag
   1   -123.5020650 -0.123502E+03  0.880E-02    0.04       0.0  T
   2   -123.4941418  0.792324E-02  0.190E-01    0.13       1.0  T
   3   -123.4999717 -0.582987E-02  0.102E-01    0.02       1.0  T
   4   -123.5003922 -0.420578E-03  0.920E-02    0.07       1.0  T
   5   -123.5016598 -0.126758E-02  0.463E-02    0.06       1.0  T
   6   -123.5021377 -0.477855E-03  0.184E-02    0.05       1.0  T
   7   -123.5022127 -0.750149E-04  0.387E-03    0.04       2.8  T
   8   -123.5022112  0.145946E-05  0.448E-03    0.04       2.4  T
   9   -123.5022156 -0.435052E-05  0.148E-03    0.04       7.2  T
  10   -123.5022158 -0.273231E-06  0.104E-03    0.04      10.3  T
  11   -123.5022161 -0.209551E-06  0.417E-04    0.04      25.7  T
  12   -123.5022160  0.324938E-07  0.544E-04    0.04      19.7  T
     SCC iter.                  ...        0 min,  0.145 sec
     gradient                   ...        0 min,  0.015 sec
 * total energy  :  -121.9241537 Eh     change       -0.1876288E-03 Eh
   gradient norm :     0.0049872 Eh/α   predicted    -0.1499421E-03 ( -20.09%)
   displ. norm   :     0.6402657 α      lambda       -0.2793309E-03
   maximum displ.:     0.3902950 α      in ANC's #9, #5, #8, ...

........................................................................
.............................. CYCLE   39 ..............................
........................................................................

 iter      E             dE          RMSdq      gap      omega  full diag
   1   -123.5039108 -0.123504E+03  0.871E-02    0.03       0.0  T
   2   -123.4937593  0.101515E-01  0.214E-01    0.15       1.0  T
   3   -123.5027041 -0.894482E-02  0.853E-02    0.02       1.0  T
   4   -123.5013334  0.137075E-02  0.108E-01    0.07       1.0  T
   5   -123.5036583 -0.232492E-02  0.438E-02    0.06       1.0  T
   6   -123.5041330 -0.474688E-03  0.110E-02    0.05       1.0  T
   7   -123.5041562 -0.232819E-04  0.371E-03    0.04       2.9  T
   8   -123.5041563 -0.636332E-07  0.337E-03    0.04       3.2  T
   9   -123.5041586 -0.232110E-05  0.134E-03    0.04       8.0  T
  10   -123.5041586  0.307388E-07  0.127E-03    0.04       8.4  T
  11   -123.5041590 -0.362414E-06  0.337E-04    0.04      31.8  T
  12   -123.5041590 -0.175348E-09  0.310E-04    0.04      34.5  T
     SCC iter.                  ...        0 min,  0.150 sec
     gradient                   ...        0 min,  0.015 sec
 * total energy  :  -121.9243568 Eh     change       -0.2031362E-03 Eh
   gradient norm :     0.0048100 Eh/α   predicted    -0.1969229E-03 (  -3.06%)
   displ. norm   :     0.7465991 α      lambda       -0.2440778E-03
   maximum displ.:     0.4596815 α      in ANC's #9, #5, #8, ...

........................................................................
.............................. CYCLE   40 ..............................
........................................................................

 iter      E             dE          RMSdq      gap      omega  full diag
   1   -123.5007048 -0.123501E+03  0.109E-01    0.03       0.0  T
   2   -123.4866272  0.140776E-01  0.257E-01    0.21       1.0  T
   3   -123.5006830 -0.140559E-01  0.689E-02    0.03       1.0  T
   4   -123.4979644  0.271867E-02  0.109E-01    0.06       1.0  T
   5   -123.5012126 -0.324818E-02  0.176E-02    0.04       1.0  T
   6   -123.5012498 -0.372163E-04  0.954E-03    0.04       1.1  T
   7   -123.5012647 -0.149050E-04  0.420E-03    0.04       2.6  T
   8   -123.5012651 -0.461373E-06  0.339E-03    0.04       3.2  T
   9   -123.5012673 -0.219104E-05  0.146E-03    0.04       7.3  T
  10   -123.5012675 -0.224115E-06  0.980E-04    0.04      10.9  T
  11   -123.5012677 -0.130877E-06  0.554E-04    0.04      19.3  T
     SCC iter.                  ...        0 min,  0.155 sec
     gradient                   ...        0 min,  0.016 sec
 * total energy  :  -121.9245428 Eh     change       -0.1860023E-03 Eh
   gradient norm :     0.0052848 Eh/α   predicted    -0.1900668E-03 (   2.19%)
   displ. norm   :     0.5945833 α      lambda       -0.2186678E-03
   maximum displ.:     0.3648308 α      in ANC's #9, #5, #8, ...

........................................................................
.............................. CYCLE   41 ..............................
........................................................................

 iter      E             dE          RMSdq      gap      omega  full diag
   1   -123.5017409 -0.123502E+03  0.869E-02    0.03       0.0  T
   2   -123.4903498  0.113911E-01  0.227E-01    0.16       1.0  T
   3   -123.5001136 -0.976375E-02  0.951E-02    0.02       1.0  T
   4   -123.4980959  0.201766E-02  0.121E-01    0.08       1.0  T
   5   -123.5014155 -0.331961E-02  0.499E-02    0.06       1.0  T
   6   -123.5020141 -0.598520E-03  0.114E-02    0.04       1.0  T
   7   -123.5020400 -0.259636E-04  0.397E-03    0.04       2.7  T
   8   -123.5020422 -0.213075E-05  0.216E-03    0.04       5.0  T
   9   -123.5020424 -0.244047E-06  0.188E-03    0.04       5.7  T
  10   -123.5020429 -0.504852E-06  0.106E-03    0.04      10.1  T
  11   -123.5020431 -0.188909E-06  0.509E-04    0.04      21.0  T
  12   -123.5020431  0.605715E-08  0.437E-04    0.04      24.5  T
     SCC iter.                  ...        0 min,  0.173 sec
     gradient                   ...        0 min,  0.015 sec
 * total energy  :  -121.9247098 Eh     change       -0.1670112E-03 Eh
   gradient norm :     0.0055584 Eh/α   predicted    -0.1479878E-03 ( -11.39%)
   displ. norm   :     0.5667693 α      lambda       -0.2480898E-03
   maximum displ.:     0.3465762 α      in ANC's #9, #5, #8, ...

........................................................................
.............................. CYCLE   42 ..............................
........................................................................

 iter      E             dE          RMSdq      gap      omega  full diag
   1   -123.5049976 -0.123505E+03  0.862E-02    0.03       0.0  T
   2   -123.4948795  0.101181E-01  0.212E-01    0.15       1.0  T
   3   -123.5001472 -0.526771E-02  0.149E-01    0.00       1.0  T
   4   -123.5010451 -0.897924E-03  0.126E-01    0.08       1.0  T
   5   -123.5039199 -0.287477E-02  0.730E-02    0.07       1.0  T
   6   -123.5049803 -0.106042E-02  0.322E-02    0.05       1.0  T
   7   -123.5052143 -0.233951E-03  0.756E-03    0.04       1.4  T
   8   -123.5052256 -0.113308E-04  0.297E-03    0.04       3.6  T
   9   -123.5052261 -0.449017E-06  0.265E-03    0.04       4.0  T
  10   -123.5052266 -0.549513E-06  0.208E-03    0.04       5.2  T
  11   -123.5052275 -0.895574E-06  0.575E-04    0.04      18.6  T
  12   -123.5052275  0.362942E-07  0.607E-04    0.04      17.7  T
     SCC iter.                  ...        0 min,  0.150 sec
     gradient                   ...        0 min,  0.015 sec
 * total energy  :  -121.9248635 Eh     change       -0.1536325E-03 Eh
   gradient norm :     0.0057805 Eh/α   predicted    -0.1638950E-03 (   6.68%)
   displ. norm   :     0.6021130 α      lambda       -0.2101973E-03
   maximum displ.:     0.3803144 α      in ANC's #9, #5, #8, ...
 * RMSD in coord.:     0.9537109 α      energy gain  -0.2944134E-02 Eh

generating ANC from exact Hessian ...
Using Lindh-Hessian (1995)
 Shifting diagonal of input Hessian by   1.030052841533553E-002
 Lowest  eigenvalues of input Hessian
    0.010000    0.010082    0.010103    0.010141    0.000000    0.000000
    0.000000    0.000000    0.000000    0.000000    0.010330    0.010341
    0.010371    0.010443    0.010552    0.010687    0.010806    0.011075
 Highest eigenvalues
    1.989034    2.079646    2.110668    2.159627    2.196979    2.262843
 

........................................................................
.............................. CYCLE   43 ..............................
........................................................................

 iter      E             dE          RMSdq      gap      omega  full diag
   1   -123.5032057 -0.123503E+03  0.980E-02    0.02       0.0  T
   2   -123.4885224  0.146833E-01  0.259E-01    0.21       1.0  T
   3   -123.5029821 -0.144597E-01  0.694E-02    0.03       1.0  T
   4   -123.5004272  0.255491E-02  0.109E-01    0.06       1.0  T
   5   -123.5037074 -0.328023E-02  0.182E-02    0.04       1.0  T
   6   -123.5037526 -0.451429E-04  0.841E-03    0.04       1.3  T
   7   -123.5037634 -0.107742E-04  0.382E-03    0.04       2.8  T
   8   -123.5037644 -0.102298E-05  0.273E-03    0.04       3.9  T
   9   -123.5037655 -0.108055E-05  0.155E-03    0.04       6.9  T
  10   -123.5037657 -0.233538E-06  0.925E-04    0.04      11.6  T
  11   -123.5037658 -0.114099E-06  0.554E-04    0.04      19.3  T
     SCC iter.                  ...        0 min,  0.149 sec
     gradient                   ...        0 min,  0.014 sec
 * total energy  :  -121.9249903 Eh     change       -0.1268206E-03 Eh
   gradient norm :     0.0072791 Eh/α   predicted     0.0000000E+00 (-100.00%)
   displ. norm   :     0.0540116 α      lambda       -0.8267012E-04
   maximum displ.:     0.0315839 α      in ANC's #8, #4, #9, ...

........................................................................
.............................. CYCLE   44 ..............................
........................................................................

 iter      E             dE          RMSdq      gap      omega  full diag
   1   -123.5049478 -0.123505E+03  0.210E-02    0.04       0.0  T
   2   -123.5031141  0.183365E-02  0.878E-02    0.01       1.0  T
   3   -123.5047760 -0.166183E-02  0.299E-02    0.05       1.0  T
   4   -123.5049287 -0.152693E-03  0.133E-02    0.04       1.0  T
   5   -123.5049492 -0.204952E-04  0.713E-03    0.04       1.5  T
   6   -123.5049604 -0.112957E-04  0.188E-03    0.04       5.7  T
   7   -123.5049610 -0.574199E-06  0.899E-04    0.04      11.9  T
   8   -123.5049611 -0.113862E-06  0.528E-04    0.04      20.3  T
     SCC iter.                  ...        0 min,  0.093 sec
     gradient                   ...        0 min,  0.015 sec
 * total energy  :  -121.9250583 Eh     change       -0.6802927E-04 Eh
   gradient norm :     0.0028297 Eh/α   predicted    -0.4615199E-04 ( -32.16%)
   displ. norm   :     0.1202599 α      lambda       -0.9837149E-04
   maximum displ.:     0.0727392 α      in ANC's #8, #4, #9, ...

........................................................................
.............................. CYCLE   45 ..............................
........................................................................

 iter      E             dE          RMSdq      gap      omega  full diag
   1   -123.5062704 -0.123506E+03  0.390E-02    0.04       0.0  T
   2   -123.5036852  0.258515E-02  0.106E-01    0.01       1.0  T
   3   -123.5050819 -0.139669E-02  0.742E-02    0.06       1.0  T
   4   -123.5062162 -0.113429E-02  0.194E-02    0.04       1.0  T
   5   -123.5062743 -0.581289E-04  0.852E-03    0.04       1.3  T
   6   -123.5062864 -0.121258E-04  0.417E-03    0.04       2.6  T
   7   -123.5062877 -0.128533E-05  0.296E-03    0.04       3.6  T
   8   -123.5062897 -0.199586E-05  0.833E-04    0.04      12.9  T
   9   -123.5062897 -0.172369E-07  0.658E-04    0.04      16.3  T
  10   -123.5062898 -0.470520E-07  0.477E-04    0.04      22.5  T
     SCC iter.                  ...        0 min,  0.114 sec
     gradient                   ...        0 min,  0.016 sec
 * total energy  :  -121.9251183 Eh     change       -0.5993594E-04 Eh
   gradient norm :     0.0038110 Eh/α   predicted    -0.4990272E-04 ( -16.74%)
   displ. norm   :     0.1431426 α      lambda       -0.7827527E-04
   maximum displ.:     0.0864963 α      in ANC's #8, #4, #9, ...

........................................................................
.............................. CYCLE   46 ..............................
........................................................................

 iter      E             dE          RMSdq      gap      omega  full diag
   1   -123.5066064 -0.123507E+03  0.525E-02    0.04       0.0  T
   2   -123.5064974  0.109008E-03  0.399E-02    0.05       1.0  T
   3   -123.4914583  0.150390E-01  0.254E-01    0.03       1.0  T
   4   -123.5053655 -0.139072E-01  0.719E-02    0.06       1.0  T
   5   -123.5065928 -0.122727E-02  0.912E-03    0.04       1.2  T
   6   -123.5066077 -0.149580E-04  0.416E-03    0.04       2.6  T
   7   -123.5066102 -0.249081E-05  0.241E-03    0.04       4.4  T
   8   -123.5066114 -0.120300E-05  0.833E-04    0.04      12.9  T
   9   -123.5066114  0.891235E-08  0.774E-04    0.04      13.9  T
  10   -123.5066114  0.374767E-07  0.801E-04    0.04      13.4  T
     SCC iter.                  ...        0 min,  0.149 sec
     gradient                   ...        0 min,  0.015 sec
 * total energy  :  -121.9251571 Eh     change       -0.3882504E-04 Eh
   gradient norm :     0.0060365 Eh/α   predicted    -0.3994235E-04 (   2.88%)
   displ. norm   :     0.1625648 α      lambda       -0.9817246E-04
   maximum displ.:     0.0954644 α      in ANC's #8, #4, #9, ...

........................................................................
.............................. CYCLE   47 ..............................
........................................................................

 iter      E             dE          RMSdq      gap      omega  full diag
   1   -123.5060968 -0.123506E+03  0.504E-02    0.04       0.0  T
   2   -123.5049389  0.115788E-02  0.773E-02    0.06       1.0  T
   3   -123.5021454  0.279349E-02  0.130E-01    0.00       1.0  T
   4   -123.5057733 -0.362793E-02  0.365E-02    0.05       1.0  T
   5   -123.5060740 -0.300722E-03  0.129E-02    0.04       1.0  T
   6   -123.5060881 -0.141039E-04  0.937E-03    0.04       1.1  T
   7   -123.5061058 -0.176733E-04  0.384E-03    0.04       2.8  T
   8   -123.5061091 -0.324561E-05  0.984E-04    0.04      10.9  T
   9   -123.5061089  0.144817E-06  0.124E-03    0.04       8.7  T
  10   -123.5061092 -0.289393E-06  0.513E-04    0.04      20.9  T
  11   -123.5061093 -0.556177E-07  0.166E-04    0.04      64.4  T
     SCC iter.                  ...        0 min,  0.124 sec
     gradient                   ...        0 min,  0.017 sec
 * total energy  :  -121.9252342 Eh     change       -0.7709108E-04 Eh
   gradient norm :     0.0051201 Eh/α   predicted    -0.5038432E-04 ( -34.64%)
   displ. norm   :     0.2720063 α      lambda       -0.1443996E-03
   maximum displ.:     0.1625535 α      in ANC's #8, #4, #14, ...

........................................................................
.............................. CYCLE   48 ..............................
........................................................................

 iter      E             dE          RMSdq      gap      omega  full diag
   1   -123.5047540 -0.123505E+03  0.842E-02    0.03       0.0  T
   2   -123.4990610  0.569306E-02  0.165E-01    0.10       1.0  T
   3   -123.4996506 -0.589641E-03  0.151E-01    0.00       1.0  T
   4   -123.5029810 -0.333042E-02  0.858E-02    0.07       1.0  T
   5   -123.5043595 -0.137848E-02  0.456E-02    0.05       1.0  T
   6   -123.5046351 -0.275551E-03  0.284E-02    0.05       1.0  T
   7   -123.5048166 -0.181527E-03  0.850E-03    0.04       1.3  T
   8   -123.5048328 -0.162184E-04  0.145E-03    0.04       7.4  T
   9   -123.5048330 -0.234982E-06  0.916E-04    0.04      11.7  T
  10   -123.5048329  0.972781E-07  0.108E-03    0.04      10.0  T
  11   -123.5048332 -0.219815E-06  0.407E-04    0.04      26.3  T
     SCC iter.                  ...        0 min,  0.160 sec
     gradient                   ...        0 min,  0.016 sec
 * total energy  :  -121.9253489 Eh     change       -0.1147654E-03 Eh
   gradient norm :     0.0029216 Eh/α   predicted    -0.7754679E-04 ( -32.43%)
   displ. norm   :     0.3594998 α      lambda       -0.1451162E-03
   maximum displ.:     0.2143049 α      in ANC's #8, #4, #14, ...

........................................................................
.............................. CYCLE   49 ..............................
........................................................................

 iter      E             dE          RMSdq      gap      omega  full diag
   1   -123.5033339 -0.123503E+03  0.113E-01    0.03       0.0  T
   2   -123.4945969  0.873694E-02  0.207E-01    0.13       1.0  T
   3   -123.4929490  0.164793E-02  0.214E-01    0.02       1.0  T
   4   -123.4989957 -0.604666E-02  0.134E-01    0.09       1.0  T
   5   -123.5018791 -0.288340E-02  0.836E-02    0.07       1.0  T
   6   -123.5027972 -0.918137E-03  0.534E-02    0.06       1.0  T
   7   -123.5034165 -0.619302E-03  0.176E-02    0.04       1.0  T
   8   -123.5034836 -0.670956E-04  0.462E-03    0.04       2.3  T
   9   -123.5034857 -0.210767E-05  0.319E-03    0.04       3.4  T
  10   -123.5034857  0.644454E-07  0.328E-03    0.04       3.3  T
  11   -123.5034880 -0.236299E-05  0.710E-04    0.04      15.1  T
  12   -123.5034881 -0.454072E-07  0.510E-04    0.04      21.0  T
  13   -123.5034881 -0.441587E-07  0.264E-04    0.04      40.6  T
     SCC iter.                  ...        0 min,  0.145 sec
     gradient                   ...        0 min,  0.015 sec
 * total energy  :  -121.9254719 Eh     change       -0.1229326E-03 Eh
   gradient norm :     0.0043294 Eh/α   predicted    -0.8193595E-04 ( -33.35%)
   displ. norm   :     0.4348890 α      lambda       -0.1712601E-03
   maximum displ.:     0.2569934 α      in ANC's #8, #4, #14, ...

........................................................................
.............................. CYCLE   50 ..............................
........................................................................

 iter      E             dE          RMSdq      gap      omega  full diag
   1   -123.5022188 -0.123502E+03  0.133E-01    0.03       0.0  T
   2   -123.4913996  0.108192E-01  0.233E-01    0.15       1.0  T
   3   -123.4882402  0.315935E-02  0.249E-01    0.03       1.0  T
   4   -123.4959062 -0.766599E-02  0.163E-01    0.10       1.0  T
   5   -123.4996822 -0.377603E-02  0.110E-01    0.08       1.0  T
   6   -123.5011510 -0.146882E-02  0.732E-02    0.06       1.0  T
   7   -123.5022969 -0.114582E-02  0.255E-02    0.05       1.0  T
   8   -123.5024305 -0.133641E-03  0.876E-03    0.04       1.2  T
   9   -123.5024403 -0.982906E-05  0.555E-03    0.04       1.9  T
  10   -123.5024413 -0.933625E-06  0.523E-03    0.04       2.0  T
  11   -123.5024474 -0.617981E-05  0.799E-04    0.04      13.4  T
  12   -123.5024474  0.490002E-07  0.852E-04    0.04      12.6  T
  13   -123.5024475 -0.153190E-06  0.285E-04    0.04      37.7  T
     SCC iter.                  ...        0 min,  0.149 sec
     gradient                   ...        0 min,  0.017 sec
 * total energy  :  -121.9256213 Eh     change       -0.1493791E-03 Eh
   gradient norm :     0.0056013 Eh/α   predicted    -0.1018280E-03 ( -31.83%)
   displ. norm   :     0.5406602 α      lambda       -0.2206199E-03
   maximum displ.:     0.3179216 α      in ANC's #8, #4, #14, ...

........................................................................
.............................. CYCLE   51 ..............................
........................................................................

 iter      E             dE          RMSdq      gap      omega  full diag
   1   -123.5014795 -0.123501E+03  0.172E-01    0.03       0.0  T
   2   -123.4887471  0.127324E-01  0.261E-01    0.17       1.0  T
   3   -123.4715671  0.171801E-01  0.361E-01    0.06       1.0  T
   4   -123.4928387 -0.212717E-01  0.194E-01    0.12       1.0  T
   5   -123.4970760 -0.423724E-02  0.144E-01    0.09       1.0  T
   6   -123.4991942 -0.211823E-02  0.104E-01    0.07       1.0  T
   7   -123.5013420 -0.214784E-02  0.448E-02    0.05       1.0  T
   8   -123.5017052 -0.363213E-03  0.206E-02    0.04       1.0  T
   9   -123.5017714 -0.661926E-04  0.117E-02    0.04       1.0  T
  10   -123.5017860 -0.145522E-04  0.884E-03    0.04       1.2  T
  11   -123.5018037 -0.177148E-04  0.111E-03    0.04       9.7  T
  12   -123.5018037  0.443123E-07  0.107E-03    0.04      10.0  T
  13   -123.5018039 -0.245344E-06  0.260E-04    0.04      41.2  T
  14   -123.5018039  0.322214E-07  0.443E-04    0.04      24.2  T
     SCC iter.                  ...        0 min,  0.171 sec
     gradient                   ...        0 min,  0.016 sec
 * total energy  :  -121.9258090 Eh     change       -0.1877929E-03 Eh
   gradient norm :     0.0056232 Eh/α   predicted    -0.1425562E-03 ( -24.09%)
   displ. norm   :     0.6091254 α      lambda       -0.2436229E-03
   maximum displ.:     0.3598188 α      in ANC's #8, #4, #10, ...

........................................................................
.............................. CYCLE   52 ..............................
........................................................................

 iter      E             dE          RMSdq      gap      omega  full diag
   1   -123.5014598 -0.123501E+03  0.183E-01    0.03       0.0  T
   2   -123.4885481  0.129118E-01  0.266E-01    0.17       1.0  T
   3   -123.4658862  0.226619E-01  0.394E-01    0.08       1.0  T
   4   -123.4933809 -0.274947E-01  0.191E-01    0.11       1.0  T
   5   -123.4972848 -0.390392E-02  0.140E-01    0.09       1.0  T
   6   -123.4995463 -0.226153E-02  0.966E-02    0.07       1.0  T
   7   -123.5014149 -0.186862E-02  0.404E-02    0.05       1.0  T
   8   -123.5016957 -0.280792E-03  0.197E-02    0.04       1.0  T
   9   -123.5017549 -0.591582E-04  0.115E-02    0.04       1.0  T
  10   -123.5017684 -0.134959E-04  0.858E-03    0.04       1.2  T
  11   -123.5017848 -0.163811E-04  0.163E-03    0.04       6.6  T
  12   -123.5017849 -0.178912E-06  0.113E-03    0.04       9.5  T
  13   -123.5017852 -0.291140E-06  0.290E-04    0.04      36.9  T
  14   -123.5017852  0.628181E-08  0.304E-04    0.04      35.3  T
     SCC iter.                  ...        0 min,  0.172 sec
     gradient                   ...        0 min,  0.016 sec
 * total energy  :  -121.9260134 Eh     change       -0.2043822E-03 Eh
   gradient norm :     0.0049592 Eh/α   predicted    -0.1670136E-03 ( -18.28%)
   displ. norm   :     0.6311558 α      lambda       -0.2442581E-03
   maximum displ.:     0.3741115 α      in ANC's #8, #4, #10, ...

........................................................................
.............................. CYCLE   53 ..............................
........................................................................

 iter      E             dE          RMSdq      gap      omega  full diag
   1   -123.5023992 -0.123502E+03  0.191E-01    0.03       0.0  T
   2   -123.4903303  0.120689E-01  0.260E-01    0.15       1.0  T
   3   -123.4589987  0.313316E-01  0.435E-01    0.10       1.0  T
   4   -123.4965694 -0.375707E-01  0.166E-01    0.10       1.0  T
   5   -123.4996020 -0.303257E-02  0.114E-01    0.08       1.0  T
   6   -123.5016225 -0.202050E-02  0.666E-02    0.06       1.0  T
   7   -123.5025201 -0.897636E-03  0.257E-02    0.04       1.0  T
   8   -123.5026272 -0.107116E-03  0.138E-02    0.04       1.0  T
   9   -123.5026521 -0.249004E-04  0.892E-03    0.04       1.2  T
  10   -123.5026595 -0.735189E-05  0.671E-03    0.04       1.6  T
  11   -123.5026698 -0.102894E-04  0.905E-04    0.04      11.8  T
  12   -123.5026697  0.356527E-07  0.958E-04    0.04      11.2  T
  13   -123.5026699 -0.177386E-06  0.215E-04    0.04      49.9  T
     SCC iter.                  ...        0 min,  0.145 sec
     gradient                   ...        0 min,  0.013 sec
 * total energy  :  -121.9262236 Eh     change       -0.2101506E-03 Eh
   gradient norm :     0.0046415 Eh/α   predicted    -0.1707818E-03 ( -18.73%)
   displ. norm   :     0.6602467 α      lambda       -0.2698783E-03
   maximum displ.:     0.3901958 α      in ANC's #8, #4, #10, ...

........................................................................
.............................. CYCLE   54 ..............................
........................................................................

 iter      E             dE          RMSdq      gap      omega  full diag
   1   -123.5042898 -0.123504E+03  0.198E-01    0.03       0.0  T
   2   -123.4941343  0.101555E-01  0.245E-01    0.13       1.0  T
   3   -123.4503486  0.437857E-01  0.485E-01    0.13       1.0  T
   4   -123.5016947 -0.513461E-01  0.116E-01    0.07       1.0  T
   5   -123.5035613 -0.186658E-02  0.624E-02    0.06       1.0  T
   6   -123.5042701 -0.708818E-03  0.305E-02    0.05       1.0  T
   7   -123.5044568 -0.186738E-03  0.105E-02    0.04       1.0  T
   8   -123.5044762 -0.193359E-04  0.531E-03    0.04       2.0  T
   9   -123.5044770 -0.775210E-06  0.433E-03    0.04       2.5  T
  10   -123.5044784 -0.147508E-05  0.339E-03    0.04       3.2  T
  11   -123.5044809 -0.247003E-05  0.752E-04    0.04      14.2  T
  12   -123.5044810 -0.694976E-07  0.438E-04    0.04      24.5  T
  13   -123.5044810 -0.288564E-07  0.243E-04    0.04      44.2  T
     SCC iter.                  ...        0 min,  0.155 sec
     gradient                   ...        0 min,  0.015 sec
 * total energy  :  -121.9264616 Eh     change       -0.2380607E-03 Eh
   gradient norm :     0.0048787 Eh/α   predicted    -0.1937638E-03 ( -18.61%)
   displ. norm   :     0.7243516 α      lambda       -0.3156170E-03
   maximum displ.:     0.4249931 α      in ANC's #8, #4, #10, ...

........................................................................
.............................. CYCLE   55 ..............................
........................................................................

 iter      E             dE          RMSdq      gap      omega  full diag
   1   -123.5054499 -0.123505E+03  0.210E-01    0.03       0.0  T
   2   -123.4922075  0.132425E-01  0.277E-01    0.16       1.0  T
   3   -123.4558987  0.363087E-01  0.468E-01    0.12       1.0  T
   4   -123.4992188 -0.433201E-01  0.177E-01    0.10       1.0  T
   5   -123.5022019 -0.298307E-02  0.123E-01    0.08       1.0  T
   6   -123.5046410 -0.243911E-02  0.703E-02    0.06       1.0  T
   7   -123.5056272 -0.986193E-03  0.248E-02    0.04       1.0  T
   8   -123.5057266 -0.994133E-04  0.146E-02    0.04       1.0  T
   9   -123.5057431 -0.165050E-04  0.109E-02    0.04       1.0  T
  10   -123.5057572 -0.140499E-04  0.773E-03    0.04       1.4  T
  11   -123.5057706 -0.134083E-04  0.912E-04    0.04      11.8  T
  12   -123.5057703  0.254268E-06  0.136E-03    0.04       7.9  T
  13   -123.5057707 -0.369752E-06  0.280E-04    0.04      38.3  T
  14   -123.5057707 -0.137548E-07  0.172E-04    0.04      62.2  T
     SCC iter.                  ...        0 min,  0.175 sec
     gradient                   ...        0 min,  0.015 sec
 * total energy  :  -121.9267454 Eh     change       -0.2837657E-03 Eh
   gradient norm :     0.0052566 Eh/α   predicted    -0.2406158E-03 ( -15.21%)
   displ. norm   :     0.7599188 α      lambda       -0.3773349E-03
   maximum displ.:     0.4350087 α      in ANC's #8, #4, #10, ...

........................................................................
.............................. CYCLE   56 ..............................
........................................................................

 iter      E             dE          RMSdq      gap      omega  full diag
   1   -123.5062755 -0.123506E+03  0.232E-01    0.03       0.0  T
   2   -123.4929716  0.133039E-01  0.284E-01    0.16       1.0  T
   3   -123.4464611  0.465105E-01  0.517E-01    0.15       1.0  T
   4   -123.5010760 -0.546149E-01  0.159E-01    0.08       1.0  T
   5   -123.5048177 -0.374168E-02  0.871E-02    0.06       1.0  T
   6   -123.5061865 -0.136882E-02  0.423E-02    0.05       1.0  T
   7   -123.5065709 -0.384350E-03  0.111E-02    0.04       1.0  T
   8   -123.5065807 -0.982386E-05  0.888E-03    0.04       1.2  T
   9   -123.5065726  0.806124E-05  0.102E-02    0.04       1.1  T
  10   -123.5065821 -0.948154E-05  0.752E-03    0.04       1.4  T
  11   -123.5065954 -0.133377E-04  0.104E-03    0.04      10.3  T
  12   -123.5065954  0.644488E-08  0.107E-03    0.04      10.0  T
  13   -123.5065956 -0.187046E-06  0.384E-04    0.04      27.9  T
  14   -123.5065956 -0.243523E-07  0.188E-04    0.04      57.1  T
     SCC iter.                  ...        0 min,  0.171 sec
     gradient                   ...        0 min,  0.016 sec
 * total energy  :  -121.9270764 Eh     change       -0.3310297E-03 Eh
   gradient norm :     0.0050968 Eh/α   predicted    -0.2976203E-03 ( -10.09%)
   displ. norm   :     0.7644519 α      lambda       -0.3954075E-03
   maximum displ.:     0.4312209 α      in ANC's #8, #4, #10, ...

........................................................................
.............................. CYCLE   57 ..............................
........................................................................

 iter      E             dE          RMSdq      gap      omega  full diag
   1   -123.5050850 -0.123505E+03  0.221E-01    0.02       0.0  T
   2   -123.4876201  0.174649E-01  0.317E-01    0.22       1.0  T
   3   -123.4661389  0.214812E-01  0.422E-01    0.09       1.0  T
   4   -123.4914479 -0.253090E-01  0.254E-01    0.16       1.0  T
   5   -123.4959829 -0.453504E-02  0.209E-01    0.12       1.0  T
   6   -123.4997063 -0.372343E-02  0.162E-01    0.09       1.0  T
   7   -123.5041219 -0.441551E-02  0.846E-02    0.06       1.0  T
   8   -123.5053092 -0.118735E-02  0.449E-02    0.05       1.0  T
   9   -123.5056761 -0.366943E-03  0.189E-02    0.04       1.0  T
  10   -123.5056918 -0.156247E-04  0.170E-02    0.04       1.0  T
  11   -123.5057568 -0.649834E-04  0.148E-03    0.03       7.3  T
  12   -123.5057554  0.135313E-05  0.280E-03    0.04       3.8  T
  13   -123.5057569 -0.148050E-05  0.920E-04    0.03      11.7  T
  14   -123.5057570 -0.766340E-07  0.548E-04    0.03      19.6  T
  15   -123.5057570 -0.516793E-07  0.295E-04    0.03      36.3  T
     SCC iter.                  ...        0 min,  0.187 sec
     gradient                   ...        0 min,  0.016 sec
 * total energy  :  -121.9274340 Eh     change       -0.3575267E-03 Eh
   gradient norm :     0.0045344 Eh/α   predicted    -0.3132439E-03 ( -12.39%)
   displ. norm   :     0.7468083 α      lambda       -0.4075551E-03
   maximum displ.:     0.4076422 α      in ANC's #8, #4, #10, ...

........................................................................
.............................. CYCLE   58 ..............................
........................................................................

 iter      E             dE          RMSdq      gap      omega  full diag
   1   -123.5039445 -0.123504E+03  0.219E-01    0.02       0.0  T
   2   -123.4849548  0.189897E-01  0.330E-01    0.25       1.0  T
   3   -123.4730231  0.119317E-01  0.381E-01    0.07       1.0  T
   4   -123.4874155 -0.143923E-01  0.275E-01    0.19       1.0  T
   5   -123.4931509 -0.573545E-02  0.232E-01    0.14       1.0  T
   6   -123.4963587 -0.320773E-02  0.193E-01    0.11       1.0  T
   7   -123.5021383 -0.577964E-02  0.109E-01    0.07       1.0  T
   8   -123.5041966 -0.205831E-02  0.536E-02    0.05       1.0  T
   9   -123.5047540 -0.557347E-03  0.176E-02    0.04       1.0  T
  10   -123.5047307  0.232583E-04  0.205E-02    0.04       1.0  T
  11   -123.5048228 -0.920902E-04  0.240E-03    0.03       4.5  T
  12   -123.5048189  0.385406E-05  0.479E-03    0.04       2.2  T
  13   -123.5048233 -0.438671E-05  0.129E-03    0.03       8.3  T
  14   -123.5048235 -0.137682E-06  0.104E-03    0.03      10.3  T
  15   -123.5048237 -0.234528E-06  0.179E-04    0.03      59.9  T
  16   -123.5048237  0.393891E-07  0.457E-04    0.03      23.4  T
     SCC iter.                  ...        0 min,  0.180 sec
     gradient                   ...        0 min,  0.014 sec
 * total energy  :  -121.9278045 Eh     change       -0.3705475E-03 Eh
   gradient norm :     0.0053927 Eh/α   predicted    -0.3174319E-03 ( -14.33%)
   displ. norm   :     0.7469595 α      lambda       -0.4275331E-03
   maximum displ.:     0.3983995 α      in ANC's #8, #4, #10, ...

........................................................................
.............................. CYCLE   59 ..............................
........................................................................

 iter      E             dE          RMSdq      gap      omega  full diag
   1   -123.5019426 -0.123502E+03  0.226E-01    0.01       0.0  T
   2   -123.4814509  0.204917E-01  0.345E-01    0.27       1.0  T
   3   -123.4751146  0.633629E-02  0.360E-01    0.06       1.0  T
   4   -123.4824751 -0.736053E-02  0.294E-01    0.21       1.0  T
   5   -123.4897294 -0.725428E-02  0.250E-01    0.15       1.0  T
   6   -123.4930151 -0.328574E-02  0.212E-01    0.12       1.0  T
   7   -123.4997801 -0.676493E-02  0.121E-01    0.07       1.0  T
   8   -123.5022789 -0.249879E-02  0.612E-02    0.05       1.0  T
   9   -123.5030264 -0.747547E-03  0.157E-02    0.04       1.0  T
  10   -123.5029389  0.874765E-04  0.255E-02    0.04       1.0  T
  11   -123.5030791 -0.140163E-03  0.284E-03    0.03       3.8  T
  12   -123.5030769  0.216598E-05  0.423E-03    0.03       2.5  T
  13   -123.5030789 -0.199179E-05  0.281E-03    0.03       3.8  T
  14   -123.5030802 -0.128871E-05  0.149E-03    0.03       7.2  T
  15   -123.5030807 -0.464466E-06  0.277E-04    0.03      38.7  T
  16   -123.5030806  0.758063E-07  0.654E-04    0.03      16.4  T
     SCC iter.                  ...        0 min,  0.179 sec
     gradient                   ...        0 min,  0.016 sec
 * total energy  :  -121.9281879 Eh     change       -0.3833949E-03 Eh
   gradient norm :     0.0070400 Eh/α   predicted    -0.3330394E-03 ( -13.13%)
   displ. norm   :     0.6873651 α      lambda       -0.4758151E-03
   maximum displ.:     0.3374298 α      in ANC's #9, #10, #8, ...

........................................................................
.............................. CYCLE   60 ..............................
........................................................................

 iter      E             dE          RMSdq      gap      omega  full diag
   1   -123.5097673 -0.123510E+03  0.191E-01    0.03       0.0  T
   2   -123.5002683  0.949896E-02  0.242E-01    0.12       1.0  T
   3   -123.4565528  0.437155E-01  0.498E-01    0.14       1.0  T
   4   -123.5000701 -0.435173E-01  0.202E-01    0.08       1.0  T
   5   -123.5095765 -0.950639E-02  0.453E-02    0.04       1.0  T
   6   -123.5098636 -0.287174E-03  0.203E-02    0.04       1.0  T
   7   -123.5099282 -0.645086E-04  0.101E-02    0.04       1.1  T
   8   -123.5099480 -0.198687E-04  0.344E-03    0.03       3.1  T
   9   -123.5099471  0.907583E-06  0.328E-03    0.03       3.3  T
  10   -123.5099482 -0.106073E-05  0.217E-03    0.03       4.9  T
  11   -123.5099488 -0.629881E-06  0.118E-03    0.03       9.1  T
  12   -123.5099491 -0.269786E-06  0.431E-04    0.03      24.9  T
  13   -123.5099491 -0.284145E-07  0.176E-04    0.03      60.9  T
     SCC iter.                  ...        0 min,  0.163 sec
     gradient                   ...        0 min,  0.017 sec
 * total energy  :  -121.9285342 Eh     change       -0.3462640E-03 Eh
   gradient norm :     0.0094352 Eh/α   predicted    -0.3503148E-03 (   1.17%)
   displ. norm   :     0.7911064 α      lambda       -0.6024596E-03
   maximum displ.:     0.4445423 α      in ANC's #8, #4, #10, ...

........................................................................
.............................. CYCLE   61 ..............................
........................................................................

 iter      E             dE          RMSdq      gap      omega  full diag
   1   -123.4934885 -0.123493E+03  0.276E-01    0.01       0.0  T
   2   -123.4629719  0.305166E-01  0.448E-01    0.43       1.0  T
   3   -123.4919055 -0.289336E-01  0.244E-01    0.10       1.0  T
   4   -123.4950315 -0.312596E-02  0.182E-01    0.00       1.0  T
   5   -123.4804845  0.145470E-01  0.295E-01    0.04       1.0  T
   6   -123.4980404 -0.175559E-01  0.853E-02    0.06       1.0  T
   7   -123.4993951 -0.135468E-02  0.325E-02    0.04       1.0  T
   8   -123.4995733 -0.178208E-03  0.761E-03    0.03       1.4  T
   9   -123.4995730  0.289143E-06  0.630E-03    0.03       1.7  T
  10   -123.4995672  0.583970E-05  0.826E-03    0.03       1.3  T
  11   -123.4995812 -0.140477E-04  0.202E-03    0.03       5.3  T
  12   -123.4995818 -0.584315E-06  0.113E-03    0.03       9.5  T
  13   -123.4995820 -0.215137E-06  0.425E-04    0.03      25.2  T
  14   -123.4995820 -0.128795E-07  0.297E-04    0.03      36.1  T
     SCC iter.                  ...        0 min,  0.175 sec
     gradient                   ...        0 min,  0.015 sec
 * total energy  :  -121.9289242 Eh     change       -0.3900506E-03 Eh
   gradient norm :     0.0106164 Eh/α   predicted    -0.4897612E-03 (  25.56%)
   displ. norm   :     0.5057698 α      lambda       -0.4308085E-03
   maximum displ.:     0.2473909 α      in ANC's #10, #8, #4, ...

........................................................................
.............................. CYCLE   62 ..............................
........................................................................

 iter      E             dE          RMSdq      gap      omega  full diag
   1   -123.5009840 -0.123501E+03  0.152E-01    0.03       0.0  T
   2   -123.4976475  0.333647E-02  0.157E-01    0.07       1.0  T
   3   -123.4482035  0.494440E-01  0.495E-01    0.14       1.0  T
   4   -123.4992790 -0.510755E-01  0.838E-02    0.04       1.0  T
   5   -123.5004939 -0.121490E-02  0.472E-02    0.02       1.0  T
   6   -123.5009716 -0.477734E-03  0.169E-02    0.03       1.0  T
   7   -123.5010263 -0.546277E-04  0.571E-03    0.03       1.9  T
   8   -123.5010318 -0.553076E-05  0.200E-03    0.03       5.4  T
   9   -123.5010316  0.199670E-06  0.205E-03    0.03       5.2  T
  10   -123.5010319 -0.346385E-06  0.139E-03    0.03       7.7  T
  11   -123.5010321 -0.113612E-06  0.107E-03    0.03      10.0  T
  12   -123.5010323 -0.215209E-06  0.410E-04    0.03      26.2  T
  13   -123.5010323 -0.293846E-07  0.177E-04    0.03      60.6  T
     SCC iter.                  ...        0 min,  0.187 sec
     gradient                   ...        0 min,  0.030 sec
 * total energy  :  -121.9292734 Eh     change       -0.3492326E-03 Eh
   gradient norm :     0.0085830 Eh/α   predicted    -0.2705103E-03 ( -22.54%)
   displ. norm   :     0.5759737 α      lambda       -0.5657281E-03
   maximum displ.:     0.3313041 α      in ANC's #9, #10, #4, ...

........................................................................
.............................. CYCLE   63 ..............................
........................................................................

 iter      E             dE          RMSdq      gap      omega  full diag
   1   -123.5099057 -0.123510E+03  0.151E-01    0.02       0.0  T
   2   -123.4956635  0.142421E-01  0.274E-01    0.15       1.0  T
   3   -123.4911782  0.448538E-02  0.301E-01    0.05       1.0  T
   4   -123.5024707 -0.112925E-01  0.183E-01    0.09       1.0  T
   5   -123.5079183 -0.544764E-02  0.106E-01    0.06       1.0  T
   6   -123.5090857 -0.116741E-02  0.706E-02    0.05       1.0  T
   7   -123.5100747 -0.988998E-03  0.245E-02    0.04       1.0  T
   8   -123.5101829 -0.108216E-03  0.878E-03    0.03       1.2  T
   9   -123.5101962 -0.132528E-04  0.375E-03    0.03       2.9  T
  10   -123.5101932  0.297156E-05  0.496E-03    0.03       2.2  T
  11   -123.5101979 -0.474147E-05  0.192E-03    0.03       5.6  T
  12   -123.5101986 -0.701948E-06  0.589E-04    0.03      18.2  T
  13   -123.5101986  0.647735E-07  0.790E-04    0.03      13.6  T
     SCC iter.                  ...        0 min,  0.149 sec
     gradient                   ...        0 min,  0.015 sec
 * total energy  :  -121.9297097 Eh     change       -0.4362122E-03 Eh
   gradient norm :     0.0087418 Eh/α   predicted    -0.3767096E-03 ( -13.64%)
   displ. norm   :     0.7619196 α      lambda       -0.5671455E-03
   maximum displ.:     0.3650366 α      in ANC's #10, #9, #8, ...

........................................................................
.............................. CYCLE   64 ..............................
........................................................................

 iter      E             dE          RMSdq      gap      omega  full diag
   1   -123.5096823 -0.123510E+03  0.198E-01    0.03       0.0  T
   2   -123.4986640  0.110183E-01  0.254E-01    0.03       1.0  T
   3   -123.4883936  0.102703E-01  0.330E-01    0.22       1.0  T
   4   -123.5010542 -0.126605E-01  0.218E-01    0.11       1.0  T
   5   -123.5021195 -0.106538E-02  0.184E-01    0.09       1.0  T
   6   -123.5082191 -0.609958E-02  0.882E-02    0.06       1.0  T
   7   -123.5096181 -0.139897E-02  0.293E-02    0.04       1.0  T
   8   -123.5097954 -0.177321E-03  0.532E-03    0.03       2.0  T
   9   -123.5097616  0.338135E-04  0.135E-02    0.03       1.0  T
  10   -123.5097971 -0.355314E-04  0.386E-03    0.03       2.8  T
  11   -123.5097995 -0.237493E-05  0.136E-03    0.03       7.9  T
  12   -123.5097994  0.144731E-06  0.154E-03    0.03       7.0  T
  13   -123.5097997 -0.384790E-06  0.848E-04    0.03      12.6  T
  14   -123.5097999 -0.133709E-06  0.292E-04    0.03      36.7  T
     SCC iter.                  ...        0 min,  0.160 sec
     gradient                   ...        0 min,  0.016 sec
 * total energy  :  -121.9301581 Eh     change       -0.4484839E-03 Eh
   gradient norm :     0.0094571 Eh/α   predicted    -0.4481993E-03 (  -0.06%)
   displ. norm   :     0.7189621 α      lambda       -0.5310539E-03
   maximum displ.:     0.3465831 α      in ANC's #9, #10, #8, ...

........................................................................
.............................. CYCLE   65 ..............................
........................................................................

 iter      E             dE          RMSdq      gap      omega  full diag
   1   -123.5044871 -0.123504E+03  0.218E-01    0.00       0.0  T
   2   -123.4778714  0.266157E-01  0.396E-01    0.41       1.0  T
   3   -123.5061943 -0.283229E-01  0.133E-01    0.04       1.0  T
   4   -123.5016690  0.452532E-02  0.180E-01    0.00       1.0  T
   5   -123.4984345  0.323453E-02  0.202E-01    0.02       1.0  T
   6   -123.5071420 -0.870756E-02  0.426E-02    0.04       1.0  T
   7   -123.5074338 -0.291784E-03  0.189E-02    0.03       1.0  T
   8   -123.5074950 -0.612102E-04  0.621E-03    0.03       1.7  T
   9   -123.5075011 -0.606517E-05  0.267E-03    0.03       4.0  T
  10   -123.5075001  0.101454E-05  0.306E-03    0.03       3.5  T
  11   -123.5075017 -0.159221E-05  0.129E-03    0.03       8.3  T
  12   -123.5075019 -0.277059E-06  0.497E-04    0.03      21.6  T
  13   -123.5075020 -0.323347E-07  0.241E-04    0.03      44.5  T
     SCC iter.                  ...        0 min,  0.153 sec
     gradient                   ...        0 min,  0.014 sec
 * total energy  :  -121.9305988 Eh     change       -0.4406395E-03 Eh
   gradient norm :     0.0058685 Eh/α   predicted    -0.4027874E-03 (  -8.59%)
   displ. norm   :     0.6524100 α      lambda       -0.4534902E-03
   maximum displ.:     0.3750631 α      in ANC's #9, #10, #8, ...

........................................................................
.............................. CYCLE   66 ..............................
........................................................................

 iter      E             dE          RMSdq      gap      omega  full diag
   1   -123.5111344 -0.123511E+03  0.165E-01    0.01       0.0  T
   2   -123.4916751  0.194593E-01  0.320E-01    0.21       1.0  T
   3   -123.4997747 -0.809965E-02  0.245E-01    0.03       1.0  T
   4   -123.5012212 -0.144644E-02  0.231E-01    0.09       1.0  T
   5   -123.5058085 -0.458728E-02  0.161E-01    0.08       1.0  T
   6   -123.5101030 -0.429453E-02  0.874E-02    0.05       1.0  T
   7   -123.5117269 -0.162392E-02  0.127E-02    0.03       1.0  T
   8   -123.5117502 -0.232488E-04  0.101E-02    0.03       1.1  T
   9   -123.5117413  0.890898E-05  0.111E-02    0.03       1.0  T
  10   -123.5117590 -0.177101E-04  0.645E-03    0.03       1.7  T
  11   -123.5117675 -0.851244E-05  0.107E-03    0.03      10.0  T
  12   -123.5117672  0.237074E-06  0.144E-03    0.03       7.5  T
  13   -123.5117677 -0.414870E-06  0.375E-04    0.03      28.6  T
  14   -123.5117677 -0.229498E-07  0.145E-04    0.03      74.1  T
     SCC iter.                  ...        0 min,  0.182 sec
     gradient                   ...        0 min,  0.014 sec
 * total energy  :  -121.9309352 Eh     change       -0.3364179E-03 Eh
   gradient norm :     0.0070076 Eh/α   predicted    -0.3232612E-03 (  -3.91%)
   displ. norm   :     0.7240030 α      lambda       -0.3820605E-03
   maximum displ.:     0.3568781 α      in ANC's #9, #10, #8, ...
 * RMSD in coord.:     1.1278620 α      energy gain  -0.6071731E-02 Eh

generating ANC from exact Hessian ...
Using Lindh-Hessian (1995)
 Shifting diagonal of input Hessian by   1.032020256140228E-002
 Lowest  eigenvalues of input Hessian
    0.010000    0.010057    0.010109    0.010124    0.010161    0.000000
    0.000000    0.000000    0.000000    0.000000    0.000000    0.010354
    0.010386    0.010414    0.010464    0.010765    0.010807    0.011073
 Highest eigenvalues
    1.983205    2.075942    2.112122    2.158283    2.195053    2.257433
 

........................................................................
.............................. CYCLE   67 ..............................
........................................................................

 iter      E             dE          RMSdq      gap      omega  full diag
   1   -123.5070513 -0.123507E+03  0.198E-01    0.01       0.0  T
   2   -123.4867068  0.203446E-01  0.338E-01    0.22       1.0  T
   3   -123.4856452  0.106158E-02  0.330E-01    0.05       1.0  T
   4   -123.4925386 -0.689346E-02  0.268E-01    0.12       1.0  T
   5   -123.5003153 -0.777662E-02  0.187E-01    0.09       1.0  T
   6   -123.5046559 -0.434061E-02  0.120E-01    0.06       1.0  T
   7   -123.5075575 -0.290168E-02  0.322E-02    0.04       1.0  T
   8   -123.5077129 -0.155344E-03  0.202E-02    0.03       1.0  T
   9   -123.5077102  0.268842E-05  0.192E-02    0.03       1.0  T
  10   -123.5077739 -0.637123E-04  0.918E-03    0.03       1.2  T
  11   -123.5077854 -0.114436E-04  0.478E-03    0.03       2.2  T
  12   -123.5077902 -0.483037E-05  0.111E-03    0.03       9.7  T
  13   -123.5077904 -0.181455E-06  0.540E-04    0.03      19.9  T
  14   -123.5077904 -0.443759E-07  0.213E-04    0.03      50.3  T
     SCC iter.                  ...        0 min,  0.170 sec
     gradient                   ...        0 min,  0.014 sec
 * total energy  :  -121.9311906 Eh     change       -0.2553564E-03 Eh
   gradient norm :     0.0071649 Eh/α   predicted     0.0000000E+00 (-100.00%)
   displ. norm   :     0.0594496 α      lambda       -0.1287594E-03
   maximum displ.:     0.0199593 α      in ANC's #12, #18, #13, ...

........................................................................
.............................. CYCLE   68 ..............................
........................................................................

 iter      E             dE          RMSdq      gap      omega  full diag
   1   -123.5114376 -0.123511E+03  0.357E-02    0.03       0.0  T
   2   -123.4975333  0.139042E-01  0.256E-01    0.04       1.0  T
   3   -123.5114033 -0.138700E-01  0.288E-02    0.03       1.0  T
   4   -123.5112144  0.188911E-03  0.348E-02    0.02       1.0  T
   5   -123.5114946 -0.280210E-03  0.121E-02    0.03       1.0  T
   6   -123.5115208 -0.262701E-04  0.489E-03    0.03       2.2  T
   7   -123.5115252 -0.439538E-05  0.170E-03    0.03       6.3  T
   8   -123.5115258 -0.517883E-06  0.708E-04    0.03      15.1  T
   9   -123.5115258 -0.246722E-07  0.525E-04    0.03      20.4  T
     SCC iter.                  ...        0 min,  0.100 sec
     gradient                   ...        0 min,  0.016 sec
 * total energy  :  -121.9312878 Eh     change       -0.9727743E-04 Eh
   gradient norm :     0.0031411 Eh/α   predicted    -0.6510010E-04 ( -33.08%)
   displ. norm   :     0.1237556 α      lambda       -0.1259087E-03
   maximum displ.:     0.0415226 α      in ANC's #12, #13, #18, ...

........................................................................
.............................. CYCLE   69 ..............................
........................................................................

 iter      E             dE          RMSdq      gap      omega  full diag
   1   -123.5153712 -0.123515E+03  0.560E-02    0.04       0.0  T
   2   -123.5000918  0.152794E-01  0.269E-01    0.04       1.0  T
   3   -123.5143010 -0.142091E-01  0.793E-02    0.05       1.0  T
   4   -123.5147714 -0.470409E-03  0.525E-02    0.02       1.0  T
   5   -123.5153474 -0.576056E-03  0.235E-02    0.03       1.0  T
   6   -123.5154546 -0.107133E-03  0.939E-03    0.03       1.1  T
   7   -123.5154705 -0.159704E-04  0.335E-03    0.03       3.2  T
   8   -123.5154727 -0.217628E-05  0.111E-03    0.03       9.7  T
   9   -123.5154728 -0.103320E-06  0.653E-04    0.03      16.4  T
  10   -123.5154728 -0.215283E-07  0.496E-04    0.03      21.6  T
     SCC iter.                  ...        0 min,  0.109 sec
     gradient                   ...        0 min,  0.014 sec
 * total energy  :  -121.9313642 Eh     change       -0.7634747E-04 Eh
   gradient norm :     0.0031934 Eh/α   predicted    -0.6391910E-04 ( -16.28%)
   displ. norm   :     0.1576261 α      lambda       -0.1011672E-03
   maximum displ.:     0.0670599 α      in ANC's #12, #13, #7, ...

........................................................................
.............................. CYCLE   70 ..............................
........................................................................

 iter      E             dE          RMSdq      gap      omega  full diag
   1   -123.5171749 -0.123517E+03  0.752E-02    0.03       0.0  T
   2   -123.5128290  0.434587E-02  0.152E-01    0.01       1.0  T
   3   -123.5119723  0.856762E-03  0.161E-01    0.08       1.0  T
   4   -123.5155355 -0.356328E-02  0.848E-02    0.02       1.0  T
   5   -123.5168601 -0.132461E-02  0.398E-02    0.04       1.0  T
   6   -123.5171012 -0.241060E-03  0.223E-02    0.04       1.0  T
   7   -123.5171935 -0.922701E-04  0.914E-03    0.03       1.2  T
   8   -123.5172111 -0.176438E-04  0.123E-03    0.03       8.7  T
   9   -123.5172107  0.408184E-06  0.173E-03    0.03       6.2  T
  10   -123.5172110 -0.305351E-06  0.121E-03    0.03       8.8  T
  11   -123.5172113 -0.267074E-06  0.411E-04    0.03      26.1  T
  12   -123.5172113 -0.290549E-07  0.182E-04    0.03      58.8  T
     SCC iter.                  ...        0 min,  0.138 sec
     gradient                   ...        0 min,  0.015 sec
 * total energy  :  -121.9313974 Eh     change       -0.3324283E-04 Eh
   gradient norm :     0.0054434 Eh/α   predicted    -0.5184121E-04 (  55.95%)
   displ. norm   :     0.1476522 α      lambda       -0.1153734E-03
   maximum displ.:     0.0566893 α      in ANC's #13, #12, #7, ...

........................................................................
.............................. CYCLE   71 ..............................
........................................................................

 iter      E             dE          RMSdq      gap      omega  full diag
   1   -123.5166733 -0.123517E+03  0.651E-02    0.03       0.0  T
   2   -123.5157523  0.920959E-03  0.785E-02    0.05       1.0  T
   3   -123.5058400  0.991230E-02  0.224E-01    0.03       1.0  T
   4   -123.5163772 -0.105372E-01  0.407E-02    0.03       1.0  T
   5   -123.5166473 -0.270047E-03  0.128E-02    0.03       1.0  T
   6   -123.5166762 -0.289465E-04  0.591E-03    0.03       1.8  T
   7   -123.5166832 -0.692687E-05  0.203E-03    0.03       5.3  T
   8   -123.5166836 -0.424362E-06  0.138E-03    0.03       7.7  T
   9   -123.5166836 -0.195337E-07  0.131E-03    0.03       8.2  T
  10   -123.5166838 -0.189281E-06  0.812E-04    0.03      13.2  T
  11   -123.5166839 -0.142836E-06  0.191E-04    0.03      56.2  T
     SCC iter.                  ...        0 min,  0.132 sec
     gradient                   ...        0 min,  0.016 sec
 * total energy  :  -121.9314740 Eh     change       -0.7661548E-04 Eh
   gradient norm :     0.0048603 Eh/α   predicted    -0.5894479E-04 ( -23.06%)
   displ. norm   :     0.2457101 α      lambda       -0.1619528E-03
   maximum displ.:     0.0986801 α      in ANC's #13, #7, #12, ...

........................................................................
.............................. CYCLE   72 ..............................
........................................................................

 iter      E             dE          RMSdq      gap      omega  full diag
   1   -123.5138225 -0.123514E+03  0.968E-02    0.03       0.0  T
   2   -123.5078511  0.597139E-02  0.179E-01    0.09       1.0  T
   3   -123.5069569  0.894290E-03  0.185E-01    0.02       1.0  T
   4   -123.5130004 -0.604354E-02  0.750E-02    0.04       1.0  T
   5   -123.5135538 -0.553357E-03  0.389E-02    0.04       1.0  T
   6   -123.5138197 -0.265927E-03  0.190E-02    0.03       1.0  T
   7   -123.5138777 -0.580698E-04  0.894E-03    0.03       1.2  T
   8   -123.5138940 -0.162640E-04  0.244E-03    0.03       4.4  T
   9   -123.5138936  0.443647E-06  0.287E-03    0.03       3.7  T
  10   -123.5138946 -0.103909E-05  0.155E-03    0.03       6.9  T
  11   -123.5138951 -0.485296E-06  0.593E-04    0.03      18.1  T
  12   -123.5138952 -0.666613E-07  0.244E-04    0.03      44.0  T
     SCC iter.                  ...        0 min,  0.153 sec
     gradient                   ...        0 min,  0.017 sec
 * total energy  :  -121.9315582 Eh     change       -0.8420400E-04 Eh
   gradient norm :     0.0036557 Eh/α   predicted    -0.8586627E-04 (   1.97%)
   displ. norm   :     0.2278005 α      lambda       -0.1247104E-03
   maximum displ.:     0.0958333 α      in ANC's #12, #13, #7, ...

........................................................................
.............................. CYCLE   73 ..............................
........................................................................

 iter      E             dE          RMSdq      gap      omega  full diag
   1   -123.5118164 -0.123512E+03  0.781E-02    0.03       0.0  T
   2   -123.5090149  0.280156E-02  0.125E-01    0.06       1.0  T
   3   -123.5037134  0.530144E-02  0.198E-01    0.02       1.0  T
   4   -123.5112274 -0.751400E-02  0.614E-02    0.03       1.0  T
   5   -123.5117594 -0.531945E-03  0.209E-02    0.03       1.0  T
   6   -123.5118302 -0.708604E-04  0.102E-02    0.03       1.1  T
   7   -123.5118476 -0.174002E-04  0.467E-03    0.03       2.3  T
   8   -123.5118517 -0.408833E-05  0.161E-03    0.03       6.6  T
   9   -123.5118512  0.564365E-06  0.229E-03    0.03       4.7  T
  10   -123.5118514 -0.186792E-06  0.188E-03    0.03       5.7  T
  11   -123.5118522 -0.803383E-06  0.383E-04    0.03      28.0  T
  12   -123.5118522 -0.195202E-07  0.169E-04    0.03      63.5  T
     SCC iter.                  ...        0 min,  0.179 sec
     gradient                   ...        0 min,  0.019 sec
 * total energy  :  -121.9316345 Eh     change       -0.7622554E-04 Eh
   gradient norm :     0.0041689 Eh/α   predicted    -0.6559626E-04 ( -13.94%)
   displ. norm   :     0.2329320 α      lambda       -0.1177777E-03
   maximum displ.:     0.1017638 α      in ANC's #7, #13, #12, ...

........................................................................
.............................. CYCLE   74 ..............................
........................................................................

 iter      E             dE          RMSdq      gap      omega  full diag
   1   -123.5113044 -0.123511E+03  0.800E-02    0.03       0.0  T
   2   -123.5092183  0.208617E-02  0.109E-01    0.06       1.0  T
   3   -123.4970902  0.121281E-01  0.260E-01    0.04       1.0  T
   4   -123.5104946 -0.134044E-01  0.684E-02    0.03       1.0  T
   5   -123.5112248 -0.730151E-03  0.221E-02    0.03       1.0  T
   6   -123.5113189 -0.940852E-04  0.844E-03    0.03       1.3  T
   7   -123.5113285 -0.968548E-05  0.465E-03    0.03       2.3  T
   8   -123.5113329 -0.432430E-05  0.128E-03    0.03       8.4  T
   9   -123.5113324  0.480396E-06  0.189E-03    0.03       5.7  T
  10   -123.5113325 -0.136626E-06  0.157E-03    0.03       6.8  T
  11   -123.5113330 -0.524955E-06  0.437E-04    0.03      24.5  T
  12   -123.5113331 -0.353602E-07  0.128E-04    0.03      83.9  T
     SCC iter.                  ...        0 min,  0.172 sec
     gradient                   ...        0 min,  0.016 sec
 * total energy  :  -121.9317207 Eh     change       -0.8625502E-04 Eh
   gradient norm :     0.0039264 Eh/α   predicted    -0.6208486E-04 ( -28.02%)
   displ. norm   :     0.2934180 α      lambda       -0.1293668E-03
   maximum displ.:     0.1377700 α      in ANC's #7, #13, #12, ...

........................................................................
.............................. CYCLE   75 ..............................
........................................................................

 iter      E             dE          RMSdq      gap      omega  full diag
   1   -123.5126506 -0.123513E+03  0.873E-02    0.03       0.0  T
   2   -123.5105170  0.213360E-02  0.112E-01    0.06       1.0  T
   3   -123.4929237  0.175933E-01  0.306E-01    0.05       1.0  T
   4   -123.5115126 -0.185889E-01  0.811E-02    0.02       1.0  T
   5   -123.5125346 -0.102202E-02  0.266E-02    0.03       1.0  T
   6   -123.5126712 -0.136579E-03  0.834E-03    0.03       1.3  T
   7   -123.5126816 -0.104232E-04  0.438E-03    0.03       2.4  T
   8   -123.5126852 -0.355669E-05  0.148E-03    0.03       7.3  T
   9   -123.5126847  0.537056E-06  0.199E-03    0.03       5.4  T
  10   -123.5126850 -0.364189E-06  0.144E-03    0.03       7.5  T
  11   -123.5126854 -0.415598E-06  0.435E-04    0.03      24.6  T
  12   -123.5126855 -0.312246E-07  0.169E-04    0.03      63.3  T
     SCC iter.                  ...        0 min,  0.166 sec
     gradient                   ...        0 min,  0.015 sec
 * total energy  :  -121.9318165 Eh     change       -0.9576910E-04 Eh
   gradient norm :     0.0031924 Eh/α   predicted    -0.7025337E-04 ( -26.64%)
   displ. norm   :     0.3357608 α      lambda       -0.1092283E-03
   maximum displ.:     0.1626334 α      in ANC's #7, #13, #4, ...

........................................................................
.............................. CYCLE   76 ..............................
........................................................................

 iter      E             dE          RMSdq      gap      omega  full diag
   1   -123.5142940 -0.123514E+03  0.100E-01    0.03       0.0  T
   2   -123.5111374  0.315661E-02  0.135E-01    0.07       1.0  T
   3   -123.4932904  0.178470E-01  0.317E-01    0.05       1.0  T
   4   -123.5128820 -0.195916E-01  0.923E-02    0.03       1.0  T
   5   -123.5140831 -0.120113E-02  0.341E-02    0.04       1.0  T
   6   -123.5143114 -0.228300E-03  0.123E-02    0.03       1.0  T
   7   -123.5143334 -0.219846E-04  0.656E-03    0.03       1.6  T
   8   -123.5143418 -0.846075E-05  0.171E-03    0.03       6.3  T
   9   -123.5143409  0.937889E-06  0.247E-03    0.03       4.3  T
  10   -123.5143418 -0.882478E-06  0.149E-03    0.03       7.2  T
  11   -123.5143422 -0.388442E-06  0.553E-04    0.03      19.4  T
  12   -123.5143422 -0.551534E-07  0.244E-04    0.03      44.0  T
     SCC iter.                  ...        0 min,  0.169 sec
     gradient                   ...        0 min,  0.016 sec
 * total energy  :  -121.9319000 Eh     change       -0.8352467E-04 Eh
   gradient norm :     0.0032804 Eh/α   predicted    -0.6077494E-04 ( -27.24%)
   displ. norm   :     0.3459826 α      lambda       -0.1076897E-03
   maximum displ.:     0.1784550 α      in ANC's #7, #13, #4, ...

........................................................................
.............................. CYCLE   77 ..............................
........................................................................

 iter      E             dE          RMSdq      gap      omega  full diag
   1   -123.5164120 -0.123516E+03  0.101E-01    0.03       0.0  T
   2   -123.5123158  0.409627E-02  0.151E-01    0.07       1.0  T
   3   -123.5004342  0.118815E-01  0.278E-01    0.04       1.0  T
   4   -123.5149422 -0.145079E-01  0.947E-02    0.03       1.0  T
   5   -123.5161032 -0.116102E-02  0.400E-02    0.04       1.0  T
   6   -123.5164023 -0.299086E-03  0.179E-02    0.03       1.0  T
   7   -123.5164496 -0.472786E-04  0.956E-03    0.03       1.1  T
   8   -123.5164681 -0.185589E-04  0.190E-03    0.03       5.7  T
   9   -123.5164668  0.128972E-05  0.287E-03    0.03       3.7  T
  10   -123.5164680 -0.122750E-05  0.174E-03    0.03       6.2  T
  11   -123.5164686 -0.534405E-06  0.575E-04    0.03      18.6  T
  12   -123.5164686 -0.533668E-07  0.259E-04    0.03      41.4  T
     SCC iter.                  ...        0 min,  0.144 sec
     gradient                   ...        0 min,  0.015 sec
 * total energy  :  -121.9319824 Eh     change       -0.8242863E-04 Eh
   gradient norm :     0.0032034 Eh/α   predicted    -0.6029102E-04 ( -26.86%)
   displ. norm   :     0.3636075 α      lambda       -0.1122371E-03
   maximum displ.:     0.1957038 α      in ANC's #7, #4, #13, ...

........................................................................
.............................. CYCLE   78 ..............................
........................................................................

 iter      E             dE          RMSdq      gap      omega  full diag
   1   -123.5180184 -0.123518E+03  0.108E-01    0.03       0.0  T
   2   -123.5135691  0.444934E-02  0.159E-01    0.08       1.0  T
   3   -123.5000509  0.135182E-01  0.294E-01    0.05       1.0  T
   4   -123.5165486 -0.164978E-01  0.961E-02    0.03       1.0  T
   5   -123.5176285 -0.107986E-02  0.441E-02    0.04       1.0  T
   6   -123.5179996 -0.371143E-03  0.198E-02    0.04       1.0  T
   7   -123.5180540 -0.543583E-04  0.109E-02    0.03       1.0  T
   8   -123.5180783 -0.243391E-04  0.214E-03    0.03       5.0  T
   9   -123.5180774  0.889753E-06  0.270E-03    0.03       4.0  T
  10   -123.5180785 -0.106594E-05  0.165E-03    0.03       6.5  T
  11   -123.5180790 -0.471755E-06  0.514E-04    0.03      20.8  T
  12   -123.5180790 -0.281452E-07  0.314E-04    0.03      34.2  T
     SCC iter.                  ...        0 min,  0.134 sec
     gradient                   ...        0 min,  0.014 sec
 * total energy  :  -121.9320685 Eh     change       -0.8609349E-04 Eh
   gradient norm :     0.0030751 Eh/α   predicted    -0.6354287E-04 ( -26.19%)
   displ. norm   :     0.3794269 α      lambda       -0.1191368E-03
   maximum displ.:     0.2105421 α      in ANC's #7, #4, #15, ...

........................................................................
.............................. CYCLE   79 ..............................
........................................................................

 iter      E             dE          RMSdq      gap      omega  full diag
   1   -123.5185804 -0.123519E+03  0.108E-01    0.03       0.0  T
   2   -123.5150527  0.352775E-02  0.145E-01    0.07       1.0  T
   3   -123.4974690  0.175837E-01  0.318E-01    0.05       1.0  T
   4   -123.5171480 -0.196790E-01  0.904E-02    0.03       1.0  T
   5   -123.5183058 -0.115779E-02  0.370E-02    0.04       1.0  T
   6   -123.5185852 -0.279414E-03  0.150E-02    0.03       1.0  T
   7   -123.5186145 -0.293192E-04  0.838E-03    0.03       1.3  T
   8   -123.5186286 -0.141066E-04  0.224E-03    0.03       4.8  T
   9   -123.5186282  0.355944E-06  0.237E-03    0.03       4.5  T
  10   -123.5186289 -0.669177E-06  0.160E-03    0.03       6.7  T
  11   -123.5186294 -0.450583E-06  0.481E-04    0.03      22.3  T
  12   -123.5186294 -0.266085E-07  0.264E-04    0.03      40.6  T
     SCC iter.                  ...        0 min,  0.135 sec
     gradient                   ...        0 min,  0.014 sec
 * total energy  :  -121.9321611 Eh     change       -0.9258860E-04 Eh
   gradient norm :     0.0032261 Eh/α   predicted    -0.6814423E-04 ( -26.40%)
   displ. norm   :     0.3712297 α      lambda       -0.1197429E-03
   maximum displ.:     0.2095026 α      in ANC's #7, #4, #15, ...

........................................................................
.............................. CYCLE   80 ..............................
........................................................................

 iter      E             dE          RMSdq      gap      omega  full diag
   1   -123.5185383 -0.123519E+03  0.103E-01    0.03       0.0  T
   2   -123.5167431  0.179525E-02  0.113E-01    0.06       1.0  T
   3   -123.4886303  0.281128E-01  0.376E-01    0.08       1.0  T
   4   -123.5170743 -0.284440E-01  0.832E-02    0.04       1.0  T
   5   -123.5184618 -0.138755E-02  0.211E-02    0.03       1.0  T
   6   -123.5185643 -0.102441E-03  0.593E-03    0.03       1.8  T
   7   -123.5185674 -0.309267E-05  0.378E-03    0.03       2.8  T
   8   -123.5185695 -0.216717E-05  0.210E-03    0.03       5.1  T
   9   -123.5185700 -0.493079E-06  0.129E-03    0.03       8.3  T
  10   -123.5185700  0.629687E-07  0.126E-03    0.03       8.5  T
  11   -123.5185702 -0.260585E-06  0.433E-04    0.03      24.8  T
  12   -123.5185703 -0.256994E-07  0.199E-04    0.03      53.9  T
     SCC iter.                  ...        0 min,  0.156 sec
     gradient                   ...        0 min,  0.016 sec
 * total energy  :  -121.9322570 Eh     change       -0.9588333E-04 Eh
   gradient norm :     0.0034640 Eh/α   predicted    -0.6812362E-04 ( -28.95%)
   displ. norm   :     0.4099213 α      lambda       -0.1271446E-03
   maximum displ.:     0.2328544 α      in ANC's #7, #4, #15, ...

........................................................................
.............................. CYCLE   81 ..............................
........................................................................

 iter      E             dE          RMSdq      gap      omega  full diag
   1   -123.5166112 -0.123517E+03  0.110E-01    0.03       0.0  T
   2   -123.5149758  0.163545E-02  0.112E-01    0.05       1.0  T
   3   -123.4810500  0.339258E-01  0.409E-01    0.09       1.0  T
   4   -123.5144836 -0.334336E-01  0.969E-02    0.04       1.0  T
   5   -123.5165696 -0.208601E-02  0.187E-02    0.03       1.0  T
   6   -123.5166444 -0.748358E-04  0.559E-03    0.03       1.9  T
   7   -123.5166482 -0.378236E-05  0.343E-03    0.03       3.1  T
   8   -123.5166494 -0.119180E-05  0.185E-03    0.03       5.8  T
   9   -123.5166490  0.346652E-06  0.198E-03    0.03       5.4  T
  10   -123.5166496 -0.560171E-06  0.116E-03    0.03       9.3  T
  11   -123.5166498 -0.165964E-06  0.670E-04    0.03      16.0  T
  12   -123.5166499 -0.928550E-07  0.203E-04    0.03      52.8  T
     SCC iter.                  ...        0 min,  0.154 sec
     gradient                   ...        0 min,  0.017 sec
 * total energy  :  -121.9323622 Eh     change       -0.1052285E-03 Eh
   gradient norm :     0.0036449 Eh/α   predicted    -0.7425739E-04 ( -29.43%)
   displ. norm   :     0.4336499 α      lambda       -0.1689586E-03
   maximum displ.:     0.2438010 α      in ANC's #7, #4, #10, ...

........................................................................
.............................. CYCLE   82 ..............................
........................................................................

 iter      E             dE          RMSdq      gap      omega  full diag
   1   -123.5174938 -0.123517E+03  0.109E-01    0.03       0.0  T
   2   -123.5171826  0.311246E-03  0.766E-02    0.03       1.0  T
   3   -123.4896135  0.275690E-01  0.356E-01    0.06       1.0  T
   4   -123.5102093 -0.205958E-01  0.186E-01    0.09       1.0  T
   5   -123.5173742 -0.716487E-02  0.289E-02    0.03       1.0  T
   6   -123.5174571 -0.829309E-04  0.188E-02    0.04       1.0  T
   7   -123.5175300 -0.729221E-04  0.664E-03    0.03       1.6  T
   8   -123.5175367 -0.666550E-05  0.230E-03    0.03       4.7  T
   9   -123.5175364  0.324638E-06  0.250E-03    0.03       4.3  T
  10   -123.5175373 -0.886989E-06  0.145E-03    0.03       7.4  T
  11   -123.5175376 -0.288545E-06  0.693E-04    0.03      15.5  T
  12   -123.5175376 -0.155922E-07  0.558E-04    0.03      19.2  T
     SCC iter.                  ...        0 min,  0.153 sec
     gradient                   ...        0 min,  0.016 sec
 * total energy  :  -121.9324906 Eh     change       -0.1283237E-03 Eh
   gradient norm :     0.0039244 Eh/α   predicted    -0.1003676E-03 ( -21.79%)
   displ. norm   :     0.5554315 α      lambda       -0.1845400E-03
   maximum displ.:     0.3188595 α      in ANC's #7, #4, #15, ...

........................................................................
.............................. CYCLE   83 ..............................
........................................................................

 iter      E             dE          RMSdq      gap      omega  full diag
   1   -123.5141507 -0.123514E+03  0.137E-01    0.03       0.0  T
   2   -123.5095010  0.464965E-02  0.171E-01    0.07       1.0  T
   3   -123.4805202  0.289808E-01  0.402E-01    0.08       1.0  T
   4   -123.5094015 -0.288813E-01  0.144E-01    0.05       1.0  T
   5   -123.5140000 -0.459854E-02  0.344E-02    0.03       1.0  T
   6   -123.5142159 -0.215896E-03  0.143E-02    0.03       1.0  T
   7   -123.5142512 -0.353244E-04  0.621E-03    0.03       1.7  T
   8   -123.5142560 -0.476115E-05  0.289E-03    0.03       3.7  T
   9   -123.5142553  0.678908E-06  0.312E-03    0.03       3.4  T
  10   -123.5142566 -0.123121E-05  0.206E-03    0.03       5.2  T
  11   -123.5142570 -0.476699E-06  0.119E-03    0.03       9.0  T
  12   -123.5142573 -0.282341E-06  0.460E-04    0.03      23.3  T
  13   -123.5142574 -0.373089E-07  0.215E-04    0.03      49.8  T
     SCC iter.                  ...        0 min,  0.163 sec
     gradient                   ...        0 min,  0.017 sec
 * total energy  :  -121.9326354 Eh     change       -0.1448762E-03 Eh
   gradient norm :     0.0046143 Eh/α   predicted    -0.1207359E-03 ( -16.66%)
   displ. norm   :     0.4904522 α      lambda       -0.1901829E-03
   maximum displ.:     0.2870631 α      in ANC's #7, #4, #10, ...

........................................................................
.............................. CYCLE   84 ..............................
........................................................................

 iter      E             dE          RMSdq      gap      omega  full diag
   1   -123.5154627 -0.123515E+03  0.114E-01    0.03       0.0  T
   2   -123.5117754  0.368729E-02  0.148E-01    0.07       1.0  T
   3   -123.4889766  0.227988E-01  0.357E-01    0.07       1.0  T
   4   -123.5114596 -0.224830E-01  0.133E-01    0.05       1.0  T
   5   -123.5152814 -0.382176E-02  0.358E-02    0.04       1.0  T
   6   -123.5155007 -0.219329E-03  0.164E-02    0.03       1.0  T
   7   -123.5155428 -0.420421E-04  0.800E-03    0.03       1.3  T
   8   -123.5155543 -0.115606E-04  0.246E-03    0.03       4.4  T
   9   -123.5155544 -0.481977E-07  0.225E-03    0.03       4.8  T
  10   -123.5155548 -0.392356E-06  0.160E-03    0.03       6.7  T
  11   -123.5155551 -0.346605E-06  0.834E-04    0.03      12.9  T
  12   -123.5155552 -0.118184E-06  0.491E-04    0.03      21.8  T
     SCC iter.                  ...        0 min,  0.144 sec
     gradient                   ...        0 min,  0.015 sec
 * total energy  :  -121.9327885 Eh     change       -0.1530967E-03 Eh
   gradient norm :     0.0043948 Eh/α   predicted    -0.1179688E-03 ( -22.94%)
   displ. norm   :     0.5390445 α      lambda       -0.1959772E-03
   maximum displ.:     0.3288491 α      in ANC's #7, #4, #10, ...

........................................................................
.............................. CYCLE   85 ..............................
........................................................................

 iter      E             dE          RMSdq      gap      omega  full diag
   1   -123.5168572 -0.123517E+03  0.120E-01    0.03       0.0  T
   2   -123.5082112  0.864601E-02  0.214E-01    0.10       1.0  T
   3   -123.5047646  0.344665E-02  0.248E-01    0.03       1.0  T
   4   -123.5120359 -0.727131E-02  0.147E-01    0.05       1.0  T
   5   -123.5160417 -0.400585E-02  0.664E-02    0.05       1.0  T
   6   -123.5167829 -0.741162E-03  0.348E-02    0.04       1.0  T
   7   -123.5169348 -0.151910E-03  0.202E-02    0.04       1.0  T
   8   -123.5170202 -0.853590E-04  0.355E-03    0.03       3.0  T
   9   -123.5170196  0.570066E-06  0.364E-03    0.03       2.9  T
  10   -123.5170198 -0.170052E-06  0.316E-03    0.03       3.4  T
  11   -123.5170218 -0.204625E-05  0.737E-04    0.03      14.5  T
  12   -123.5170218  0.436891E-07  0.830E-04    0.03      12.9  T
  13   -123.5170219 -0.134231E-06  0.245E-04    0.03      43.7  T
     SCC iter.                  ...        0 min,  0.155 sec
     gradient                   ...        0 min,  0.014 sec
 * total energy  :  -121.9329447 Eh     change       -0.1561927E-03 Eh
   gradient norm :     0.0042084 Eh/α   predicted    -0.1264667E-03 ( -19.03%)
   displ. norm   :     0.5504909 α      lambda       -0.1891443E-03
   maximum displ.:     0.3487529 α      in ANC's #7, #4, #9, ...

........................................................................
.............................. CYCLE   86 ..............................
........................................................................

 iter      E             dE          RMSdq      gap      omega  full diag
   1   -123.5186588 -0.123519E+03  0.129E-01    0.02       0.0  T
   2   -123.5079001  0.107587E-01  0.239E-01    0.11       1.0  T
   3   -123.5079717 -0.715859E-04  0.236E-01    0.03       1.0  T
   4   -123.5133931 -0.542141E-02  0.156E-01    0.06       1.0  T
   5   -123.5174780 -0.408492E-02  0.788E-02    0.05       1.0  T
   6   -123.5184788 -0.100086E-02  0.436E-02    0.04       1.0  T
   7   -123.5187253 -0.246466E-03  0.248E-02    0.04       1.0  T
   8   -123.5188518 -0.126495E-03  0.453E-03    0.03       2.4  T
   9   -123.5188538 -0.195837E-05  0.273E-03    0.03       3.9  T
  10   -123.5188542 -0.414423E-06  0.203E-03    0.03       5.3  T
  11   -123.5188547 -0.514626E-06  0.121E-03    0.03       8.8  T
  12   -123.5188548 -0.892692E-07  0.954E-04    0.03      11.2  T
  13   -123.5188549 -0.135373E-06  0.534E-04    0.03      20.1  T
     SCC iter.                  ...        0 min,  0.150 sec
     gradient                   ...        0 min,  0.016 sec
 * total energy  :  -121.9331012 Eh     change       -0.1564753E-03 Eh
   gradient norm :     0.0039148 Eh/α   predicted    -0.1232358E-03 ( -21.24%)
   displ. norm   :     0.5622364 α      lambda       -0.1844222E-03
   maximum displ.:     0.3660404 α      in ANC's #7, #4, #9, ...

........................................................................
.............................. CYCLE   87 ..............................
........................................................................

 iter      E             dE          RMSdq      gap      omega  full diag
   1   -123.5194173 -0.123519E+03  0.127E-01    0.02       0.0  T
   2   -123.5077534  0.116639E-01  0.249E-01    0.12       1.0  T
   3   -123.5123656 -0.461218E-02  0.196E-01    0.02       1.0  T
   4   -123.5149061 -0.254050E-02  0.150E-01    0.06       1.0  T
   5   -123.5181616 -0.325548E-02  0.803E-02    0.05       1.0  T
   6   -123.5192823 -0.112078E-02  0.421E-02    0.04       1.0  T
   7   -123.5195286 -0.246247E-03  0.225E-02    0.04       1.0  T
   8   -123.5196310 -0.102400E-03  0.392E-03    0.03       2.7  T
   9   -123.5196313 -0.302417E-06  0.373E-03    0.03       2.9  T
  10   -123.5196329 -0.158385E-05  0.230E-03    0.03       4.7  T
  11   -123.5196334 -0.572189E-06  0.153E-03    0.03       7.0  T
  12   -123.5196338 -0.318589E-06  0.782E-04    0.03      13.7  T
  13   -123.5196338 -0.386067E-07  0.653E-04    0.03      16.4  T
     SCC iter.                  ...        0 min,  0.165 sec
     gradient                   ...        0 min,  0.016 sec
 * total energy  :  -121.9332680 Eh     change       -0.1668204E-03 Eh
   gradient norm :     0.0039120 Eh/α   predicted    -0.1213616E-03 ( -27.25%)
   displ. norm   :     0.5535347 α      lambda       -0.2160188E-03
   maximum displ.:     0.3743615 α      in ANC's #7, #4, #9, ...

........................................................................
.............................. CYCLE   88 ..............................
........................................................................

 iter      E             dE          RMSdq      gap      omega  full diag
   1   -123.5212471 -0.123521E+03  0.127E-01    0.02       0.0  T
   2   -123.5124514  0.879570E-02  0.220E-01    0.10       1.0  T
   3   -123.5101850  0.226638E-02  0.238E-01    0.03       1.0  T
   4   -123.5174189 -0.723387E-02  0.141E-01    0.05       1.0  T
   5   -123.5201379 -0.271907E-02  0.735E-02    0.05       1.0  T
   6   -123.5211205 -0.982576E-03  0.375E-02    0.04       1.0  T
   7   -123.5213040 -0.183437E-03  0.216E-02    0.04       1.0  T
   8   -123.5213967 -0.927672E-04  0.406E-03    0.03       2.6  T
   9   -123.5213985 -0.175235E-05  0.261E-03    0.03       4.1  T
  10   -123.5213982  0.303883E-06  0.280E-03    0.03       3.8  T
  11   -123.5213994 -0.127443E-05  0.128E-03    0.03       8.4  T
  12   -123.5213996 -0.172702E-06  0.799E-04    0.03      13.4  T
  13   -123.5213997 -0.113990E-06  0.293E-04    0.03      36.6  T
     SCC iter.                  ...        0 min,  0.150 sec
     gradient                   ...        0 min,  0.016 sec
 * total energy  :  -121.9334613 Eh     change       -0.1932721E-03 Eh
   gradient norm :     0.0041837 Eh/α   predicted    -0.1410972E-03 ( -27.00%)
   displ. norm   :     0.6211928 α      lambda       -0.2406020E-03
   maximum displ.:     0.4206153 α      in ANC's #7, #4, #9, ...

........................................................................
.............................. CYCLE   89 ..............................
........................................................................

 iter      E             dE          RMSdq      gap      omega  full diag
   1   -123.5199084 -0.123520E+03  0.143E-01    0.02       0.0  T
   2   -123.5094337  0.104747E-01  0.244E-01    0.11       1.0  T
   3   -123.5069283  0.250541E-02  0.259E-01    0.03       1.0  T
   4   -123.5156175 -0.868922E-02  0.160E-01    0.05       1.0  T
   5   -123.5184394 -0.282187E-02  0.848E-02    0.05       1.0  T
   6   -123.5197275 -0.128811E-02  0.441E-02    0.04       1.0  T
   7   -123.5199682 -0.240693E-03  0.264E-02    0.04       1.0  T
   8   -123.5201063 -0.138040E-03  0.551E-03    0.03       1.9  T
   9   -123.5201101 -0.385999E-05  0.282E-03    0.03       3.8  T
  10   -123.5201110 -0.857724E-06  0.196E-03    0.03       5.5  T
  11   -123.5201109  0.901750E-07  0.212E-03    0.03       5.1  T
  12   -123.5201116 -0.768984E-06  0.787E-04    0.03      13.6  T
  13   -123.5201118 -0.103381E-06  0.292E-04    0.03      36.7  T
     SCC iter.                  ...        0 min,  0.159 sec
     gradient                   ...        0 min,  0.015 sec
 * total energy  :  -121.9336765 Eh     change       -0.2151799E-03 Eh
   gradient norm :     0.0044133 Eh/α   predicted    -0.1667240E-03 ( -22.52%)
   displ. norm   :     0.5742750 α      lambda       -0.2470072E-03
   maximum displ.:     0.4043767 α      in ANC's #7, #4, #9, ...

........................................................................
.............................. CYCLE   90 ..............................
........................................................................

 iter      E             dE          RMSdq      gap      omega  full diag
   1   -123.5216259 -0.123522E+03  0.126E-01    0.03       0.0  T
   2   -123.5158142  0.581173E-02  0.186E-01    0.08       1.0  T
   3   -123.5043834  0.114308E-01  0.292E-01    0.05       1.0  T
   4   -123.5185913 -0.142080E-01  0.133E-01    0.05       1.0  T
   5   -123.5209159 -0.232455E-02  0.589E-02    0.04       1.0  T
   6   -123.5216046 -0.688708E-03  0.259E-02    0.04       1.0  T
   7   -123.5216822 -0.775861E-04  0.162E-02    0.03       1.0  T
   8   -123.5217322 -0.500767E-04  0.469E-03    0.03       2.3  T
   9   -123.5217351 -0.284174E-05  0.244E-03    0.03       4.4  T
  10   -123.5217357 -0.629984E-06  0.164E-03    0.03       6.5  T
  11   -123.5217362 -0.440973E-06  0.677E-04    0.03      15.8  T
  12   -123.5217362 -0.256576E-07  0.545E-04    0.03      19.7  T
     SCC iter.                  ...        0 min,  0.140 sec
     gradient                   ...        0 min,  0.014 sec
 * total energy  :  -121.9338953 Eh     change       -0.2188052E-03 Eh
   gradient norm :     0.0049976 Eh/α   predicted    -0.1642393E-03 ( -24.94%)
   displ. norm   :     0.6176142 α      lambda       -0.2590286E-03
   maximum displ.:     0.4302808 α      in ANC's #7, #4, #9, ...

........................................................................
.............................. CYCLE   91 ..............................
........................................................................

 iter      E             dE          RMSdq      gap      omega  full diag
   1   -123.5198577 -0.123520E+03  0.137E-01    0.02       0.0  T
   2   -123.5115087  0.834908E-02  0.220E-01    0.10       1.0  T
   3   -123.5055598  0.594886E-02  0.269E-01    0.04       1.0  T
   4   -123.5159943 -0.104345E-01  0.150E-01    0.05       1.0  T
   5   -123.5188790 -0.288463E-02  0.698E-02    0.05       1.0  T
   6   -123.5197836 -0.904646E-03  0.347E-02    0.04       1.0  T
   7   -123.5199194 -0.135839E-03  0.222E-02    0.04       1.0  T
   8   -123.5200119 -0.925053E-04  0.665E-03    0.03       1.6  T
   9   -123.5200193 -0.738027E-05  0.239E-03    0.03       4.5  T
  10   -123.5200199 -0.604995E-06  0.160E-03    0.03       6.7  T
  11   -123.5200203 -0.315910E-06  0.967E-04    0.03      11.1  T
  12   -123.5200204 -0.103464E-06  0.645E-04    0.03      16.6  T
     SCC iter.                  ...        0 min,  0.134 sec
     gradient                   ...        0 min,  0.016 sec
 * total energy  :  -121.9341324 Eh     change       -0.2371389E-03 Eh
   gradient norm :     0.0045200 Eh/α   predicted    -0.1789214E-03 ( -24.55%)
   displ. norm   :     0.5872796 α      lambda       -0.2879191E-03
   maximum displ.:     0.4175441 α      in ANC's #7, #4, #9, ...

........................................................................
.............................. CYCLE   92 ..............................
........................................................................

 iter      E             dE          RMSdq      gap      omega  full diag
   1   -123.5210478 -0.123521E+03  0.124E-01    0.03       0.0  T
   2   -123.5162527  0.479514E-02  0.172E-01    0.08       1.0  T
   3   -123.5009313  0.153214E-01  0.313E-01    0.05       1.0  T
   4   -123.5178559 -0.169246E-01  0.130E-01    0.05       1.0  T
   5   -123.5203926 -0.253673E-02  0.550E-02    0.04       1.0  T
   6   -123.5210441 -0.651492E-03  0.228E-02    0.04       1.0  T
   7   -123.5211124 -0.682638E-04  0.135E-02    0.03       1.0  T
   8   -123.5211436 -0.312351E-04  0.500E-03    0.03       2.1  T
   9   -123.5211477 -0.411987E-05  0.188E-03    0.03       5.7  T
  10   -123.5211476  0.131628E-06  0.198E-03    0.03       5.4  T
  11   -123.5211482 -0.649168E-06  0.874E-04    0.03      12.3  T
  12   -123.5211484 -0.149881E-06  0.330E-04    0.03      32.5  T
     SCC iter.                  ...        0 min,  0.146 sec
     gradient                   ...        0 min,  0.017 sec
 * total energy  :  -121.9343921 Eh     change       -0.2596428E-03 Eh
   gradient norm :     0.0045950 Eh/α   predicted    -0.1936146E-03 ( -25.43%)
   displ. norm   :     0.6420640 α      lambda       -0.3263846E-03
   maximum displ.:     0.4575888 α      in ANC's #7, #4, #9, ...
 * RMSD in coord.:     0.9489943 α      energy gain  -0.3456864E-02 Eh

generating ANC from exact Hessian ...
Using Lindh-Hessian (1995)
 Shifting diagonal of input Hessian by   1.031644732543686E-002
 Lowest  eigenvalues of input Hessian
    0.010000    0.010047    0.010115    0.010143    0.010253    0.010287
    0.000000    0.000000    0.000000    0.000000    0.000000    0.000000
    0.010372    0.010445    0.010454    0.010515    0.010860    0.011124
 Highest eigenvalues
    1.985504    2.078718    2.110860    2.160517    2.194662    2.261187
 

........................................................................
.............................. CYCLE   93 ..............................
........................................................................

 iter      E             dE          RMSdq      gap      omega  full diag
   1   -123.5206103 -0.123521E+03  0.134E-01    0.02       0.0  T
   2   -123.5117699  0.884046E-02  0.224E-01    0.10       1.0  T
   3   -123.5078883  0.388156E-02  0.255E-01    0.03       1.0  T
   4   -123.5161733 -0.828496E-02  0.150E-01    0.06       1.0  T
   5   -123.5193318 -0.315847E-02  0.770E-02    0.05       1.0  T
   6   -123.5204689 -0.113713E-02  0.397E-02    0.04       1.0  T
   7   -123.5206777 -0.208802E-03  0.231E-02    0.04       1.0  T
   8   -123.5207778 -0.100157E-03  0.606E-03    0.03       1.8  T
   9   -123.5207834 -0.558509E-05  0.290E-03    0.03       3.7  T
  10   -123.5207831  0.284395E-06  0.308E-03    0.03       3.5  T
  11   -123.5207850 -0.188244E-05  0.103E-03    0.03      10.4  T
  12   -123.5207852 -0.147191E-06  0.514E-04    0.03      20.9  T
  13   -123.5207852 -0.263437E-07  0.280E-04    0.03      38.2  T
     SCC iter.                  ...        0 min,  0.194 sec
     gradient                   ...        0 min,  0.024 sec
 * total energy  :  -121.9346833 Eh     change       -0.2912078E-03 Eh
   gradient norm :     0.0049680 Eh/α   predicted     0.0000000E+00 (-100.00%)
   displ. norm   :     0.0649042 α      lambda       -0.9719061E-04
   maximum displ.:     0.0344054 α      in ANC's #6, #10, #7, ...

........................................................................
.............................. CYCLE   94 ..............................
........................................................................

 iter      E             dE          RMSdq      gap      omega  full diag
   1   -123.5213496 -0.123521E+03  0.270E-02    0.03       0.0  T
   2   -123.5212408  0.108845E-03  0.283E-02    0.04       1.0  T
   3   -123.5190624  0.217840E-02  0.105E-01    0.00       1.0  T
   4   -123.5209971 -0.193472E-02  0.412E-02    0.04       1.0  T
   5   -123.5213316 -0.334483E-03  0.900E-03    0.03       1.2  T
   6   -123.5213515 -0.199003E-04  0.284E-03    0.03       3.8  T
   7   -123.5213527 -0.120887E-05  0.143E-03    0.03       7.5  T
   8   -123.5213530 -0.323961E-06  0.799E-04    0.03      13.4  T
   9   -123.5213531 -0.562245E-07  0.621E-04    0.03      17.3  T
     SCC iter.                  ...        0 min,  0.140 sec
     gradient                   ...        0 min,  0.016 sec
 * total energy  :  -121.9347610 Eh     change       -0.7768932E-04 Eh
   gradient norm :     0.0029896 Eh/α   predicted    -0.4880374E-04 ( -37.18%)
   displ. norm   :     0.2567566 α      lambda       -0.2823079E-03
   maximum displ.:     0.1371655 α      in ANC's #6, #10, #7, ...

........................................................................
.............................. CYCLE   95 ..............................
........................................................................

 iter      E             dE          RMSdq      gap      omega  full diag
   1   -123.5224945 -0.123522E+03  0.941E-02    0.03       0.0  T
   2   -123.5179414  0.455314E-02  0.155E-01    0.08       1.0  T
   3   -123.5077589  0.101825E-01  0.272E-01    0.04       1.0  T
   4   -123.5203689 -0.126100E-01  0.996E-02    0.04       1.0  T
   5   -123.5220441 -0.167519E-02  0.457E-02    0.04       1.0  T
   6   -123.5224773 -0.433240E-03  0.204E-02    0.04       1.0  T
   7   -123.5225360 -0.586858E-04  0.106E-02    0.03       1.0  T
   8   -123.5225566 -0.205864E-04  0.351E-03    0.03       3.1  T
   9   -123.5225580 -0.138951E-05  0.221E-03    0.03       4.8  T
  10   -123.5225582 -0.190680E-06  0.187E-03    0.03       5.7  T
  11   -123.5225588 -0.598349E-06  0.729E-04    0.03      14.7  T
  12   -123.5225589 -0.961316E-07  0.295E-04    0.03      36.3  T
     SCC iter.                  ...        0 min,  0.147 sec
     gradient                   ...        0 min,  0.017 sec
 * total energy  :  -121.9348666 Eh     change       -0.1056682E-03 Eh
   gradient norm :     0.0062561 Eh/α   predicted    -0.1504968E-03 (  42.42%)
   displ. norm   :     0.1712436 α      lambda       -0.2085633E-03
   maximum displ.:     0.0896838 α      in ANC's #6, #10, #7, ...

........................................................................
.............................. CYCLE   96 ..............................
........................................................................

 iter      E             dE          RMSdq      gap      omega  full diag
   1   -123.5224839 -0.123522E+03  0.778E-02    0.03       0.0  T
   2   -123.5194131  0.307087E-02  0.134E-01    0.07       1.0  T
   3   -123.5172143  0.219873E-02  0.162E-01    0.01       1.0  T
   4   -123.5207997 -0.358533E-02  0.946E-02    0.05       1.0  T
   5   -123.5223539 -0.155420E-02  0.281E-02    0.04       1.0  T
   6   -123.5224783 -0.124439E-03  0.145E-02    0.03       1.0  T
   7   -123.5225075 -0.292254E-04  0.798E-03    0.03       1.3  T
   8   -123.5225205 -0.130267E-04  0.193E-03    0.03       5.6  T
   9   -123.5225196  0.944046E-06  0.288E-03    0.03       3.7  T
  10   -123.5225205 -0.866012E-06  0.186E-03    0.03       5.8  T
  11   -123.5225211 -0.672849E-06  0.623E-04    0.03      17.2  T
  12   -123.5225212 -0.725623E-07  0.220E-04    0.03      48.8  T
     SCC iter.                  ...        0 min,  0.140 sec
     gradient                   ...        0 min,  0.015 sec
 * total energy  :  -121.9349725 Eh     change       -0.1058492E-03 Eh
   gradient norm :     0.0065222 Eh/α   predicted    -0.1073434E-03 (   1.41%)
   displ. norm   :     0.1450356 α      lambda       -0.1561917E-03
   maximum displ.:     0.0780710 α      in ANC's #6, #10, #7, ...

........................................................................
.............................. CYCLE   97 ..............................
........................................................................

 iter      E             dE          RMSdq      gap      omega  full diag
   1   -123.5219736 -0.123522E+03  0.516E-02    0.03       0.0  T
   2   -123.5190380  0.293559E-02  0.122E-01    0.07       1.0  T
   3   -123.5200314 -0.993398E-03  0.101E-01    0.01       1.0  T
   4   -123.5217011 -0.166968E-02  0.379E-02    0.04       1.0  T
   5   -123.5219426 -0.241544E-03  0.168E-02    0.03       1.0  T
   6   -123.5219823 -0.396638E-04  0.999E-03    0.03       1.1  T
   7   -123.5220032 -0.209422E-04  0.337E-03    0.03       3.2  T
   8   -123.5220049 -0.173201E-05  0.113E-03    0.03       9.5  T
   9   -123.5220048  0.151871E-06  0.136E-03    0.03       7.9  T
  10   -123.5220050 -0.255148E-06  0.779E-04    0.03      13.8  T
  11   -123.5220052 -0.114877E-06  0.203E-04    0.03      52.7  T
     SCC iter.                  ...        0 min,  0.126 sec
     gradient                   ...        0 min,  0.017 sec
 * total energy  :  -121.9350798 Eh     change       -0.1072735E-03 Eh
   gradient norm :     0.0042283 Eh/α   predicted    -0.7974068E-04 ( -25.67%)
   displ. norm   :     0.2881217 α      lambda       -0.2509081E-03
   maximum displ.:     0.1615094 α      in ANC's #6, #10, #7, ...

........................................................................
.............................. CYCLE   98 ..............................
........................................................................

 iter      E             dE          RMSdq      gap      omega  full diag
   1   -123.5210331 -0.123521E+03  0.681E-02    0.02       0.0  T
   2   -123.5134768  0.755632E-02  0.195E-01    0.10       1.0  T
   3   -123.5185537 -0.507695E-02  0.117E-01    0.00       1.0  T
   4   -123.5193059 -0.752148E-03  0.829E-02    0.04       1.0  T
   5   -123.5208478 -0.154195E-02  0.377E-02    0.04       1.0  T
   6   -123.5210372 -0.189433E-03  0.218E-02    0.04       1.0  T
   7   -123.5211322 -0.949653E-04  0.667E-03    0.03       1.6  T
   8   -123.5211398 -0.760525E-05  0.191E-03    0.03       5.6  T
   9   -123.5211391  0.685966E-06  0.263E-03    0.03       4.1  T
  10   -123.5211404 -0.126728E-05  0.764E-04    0.03      14.0  T
  11   -123.5211404 -0.402074E-07  0.524E-04    0.03      20.5  T
  12   -123.5211405 -0.388327E-07  0.261E-04    0.03      41.1  T
     SCC iter.                  ...        0 min,  0.136 sec
     gradient                   ...        0 min,  0.016 sec
 * total energy  :  -121.9352612 Eh     change       -0.1814934E-03 Eh
   gradient norm :     0.0042650 Eh/α   predicted    -0.1358699E-03 ( -25.14%)
   displ. norm   :     0.4095560 α      lambda       -0.2565746E-03
   maximum displ.:     0.2274945 α      in ANC's #6, #10, #7, ...

........................................................................
.............................. CYCLE   99 ..............................
........................................................................

 iter      E             dE          RMSdq      gap      omega  full diag
   1   -123.5201245 -0.123520E+03  0.935E-02    0.02       0.0  T
   2   -123.5093557  0.107688E-01  0.234E-01    0.12       1.0  T
   3   -123.5147639 -0.540821E-02  0.171E-01    0.01       1.0  T
   4   -123.5178248 -0.306096E-02  0.106E-01    0.05       1.0  T
   5   -123.5195824 -0.175763E-02  0.590E-02    0.05       1.0  T
   6   -123.5200371 -0.454644E-03  0.350E-02    0.04       1.0  T
   7   -123.5202692 -0.232085E-03  0.131E-02    0.03       1.0  T
   8   -123.5202999 -0.307610E-04  0.290E-03    0.03       3.7  T
   9   -123.5203008 -0.825914E-06  0.227E-03    0.03       4.7  T
  10   -123.5203006  0.176471E-06  0.243E-03    0.03       4.4  T
  11   -123.5203017 -0.106066E-05  0.840E-04    0.03      12.8  T
  12   -123.5203018 -0.104092E-06  0.313E-04    0.03      34.3  T
  13   -123.5203017  0.182269E-07  0.418E-04    0.03      25.7  T
     SCC iter.                  ...        0 min,  0.141 sec
     gradient                   ...        0 min,  0.017 sec
 * total energy  :  -121.9354746 Eh     change       -0.2133063E-03 Eh
   gradient norm :     0.0057001 Eh/α   predicted    -0.1498100E-03 ( -29.77%)
   displ. norm   :     0.5337829 α      lambda       -0.2999237E-03
   maximum displ.:     0.2976518 α      in ANC's #6, #10, #7, ...

........................................................................
.............................. CYCLE  100 ..............................
........................................................................

 iter      E             dE          RMSdq      gap      omega  full diag
   1   -123.5193108 -0.123519E+03  0.107E-01    0.02       0.0  T
   2   -123.5033124  0.159984E-01  0.286E-01    0.16       1.0  T
   3   -123.5149257 -0.116133E-01  0.160E-01    0.01       1.0  T
   4   -123.5150594 -0.133736E-03  0.144E-01    0.07       1.0  T
   5   -123.5183861 -0.332667E-02  0.792E-02    0.05       1.0  T
   6   -123.5193669 -0.980863E-03  0.381E-02    0.04       1.0  T
   7   -123.5196704 -0.303468E-03  0.922E-03    0.03       1.2  T
   8   -123.5196835 -0.130684E-04  0.356E-03    0.03       3.0  T
   9   -123.5196854 -0.196612E-05  0.210E-03    0.03       5.1  T
  10   -123.5196826  0.288014E-05  0.416E-03    0.03       2.6  T
  11   -123.5196860 -0.347732E-05  0.786E-04    0.03      13.6  T
  12   -123.5196860  0.561448E-08  0.732E-04    0.03      14.6  T
  13   -123.5196861 -0.322870E-07  0.594E-04    0.03      18.1  T
     SCC iter.                  ...        0 min,  0.172 sec
     gradient                   ...        0 min,  0.016 sec
 * total energy  :  -121.9357469 Eh     change       -0.2723514E-03 Eh
   gradient norm :     0.0050539 Eh/α   predicted    -0.1926912E-03 ( -29.25%)
   displ. norm   :     0.6314952 α      lambda       -0.3708318E-03
   maximum displ.:     0.3543188 α      in ANC's #6, #10, #7, ...

........................................................................
.............................. CYCLE  101 ..............................
........................................................................

 iter      E             dE          RMSdq      gap      omega  full diag
   1   -123.5194218 -0.123519E+03  0.117E-01    0.01       0.0  T
   2   -123.4999237  0.194980E-01  0.316E-01    0.20       1.0  T
   3   -123.5163572 -0.164335E-01  0.143E-01    0.00       1.0  T
   4   -123.5141039  0.225333E-02  0.159E-01    0.07       1.0  T
   5   -123.5187631 -0.465922E-02  0.775E-02    0.05       1.0  T
   6   -123.5198911 -0.112794E-02  0.242E-02    0.03       1.0  T
   7   -123.5200208 -0.129764E-03  0.516E-03    0.03       2.1  T
   8   -123.5200231 -0.225013E-05  0.413E-03    0.03       2.6  T
   9   -123.5200260 -0.295340E-05  0.248E-03    0.03       4.3  T
  10   -123.5200242  0.184460E-05  0.364E-03    0.03       2.9  T
  11   -123.5200265 -0.234361E-05  0.144E-03    0.03       7.4  T
  12   -123.5200268 -0.215851E-06  0.920E-04    0.03      11.7  T
  13   -123.5200269 -0.147152E-06  0.381E-04    0.03      28.1  T
     SCC iter.                  ...        0 min,  0.155 sec
     gradient                   ...        0 min,  0.016 sec
 * total energy  :  -121.9360861 Eh     change       -0.3391895E-03 Eh
   gradient norm :     0.0043742 Eh/α   predicted    -0.2593634E-03 ( -23.53%)
   displ. norm   :     0.7090127 α      lambda       -0.4327726E-03
   maximum displ.:     0.4021502 α      in ANC's #6, #10, #7, ...

........................................................................
.............................. CYCLE  102 ..............................
........................................................................

 iter      E             dE          RMSdq      gap      omega  full diag
   1   -123.5206802 -0.123521E+03  0.120E-01    0.01       0.0  T
   2   -123.4993582  0.213221E-01  0.330E-01    0.22       1.0  T
   3   -123.5186795 -0.193213E-01  0.126E-01    0.00       1.0  T
   4   -123.5159579  0.272163E-02  0.151E-01    0.06       1.0  T
   5   -123.5205050 -0.454717E-02  0.656E-02    0.04       1.0  T
   6   -123.5214014 -0.896365E-03  0.123E-02    0.03       1.0  T
   7   -123.5214272 -0.257965E-04  0.621E-03    0.03       1.7  T
   8   -123.5214319 -0.473255E-05  0.439E-03    0.03       2.4  T
   9   -123.5214356 -0.367460E-05  0.252E-03    0.03       4.2  T
  10   -123.5214355  0.146251E-06  0.228E-03    0.03       4.7  T
  11   -123.5214359 -0.481353E-06  0.172E-03    0.03       6.3  T
  12   -123.5214364 -0.484498E-06  0.598E-04    0.03      17.9  T
  13   -123.5214365 -0.653524E-07  0.224E-04    0.03      47.9  T
     SCC iter.                  ...        0 min,  0.147 sec
     gradient                   ...        0 min,  0.015 sec
 * total energy  :  -121.9364836 Eh     change       -0.3975360E-03 Eh
   gradient norm :     0.0050511 Eh/α   predicted    -0.3251650E-03 ( -18.20%)
   displ. norm   :     0.7557006 α      lambda       -0.4786005E-03
   maximum displ.:     0.4320453 α      in ANC's #6, #10, #7, ...

........................................................................
.............................. CYCLE  103 ..............................
........................................................................

 iter      E             dE          RMSdq      gap      omega  full diag
   1   -123.5224086 -0.123522E+03  0.121E-01    0.01       0.0  T
   2   -123.4995033  0.229053E-01  0.341E-01    0.24       1.0  T
   3   -123.5216068 -0.221035E-01  0.104E-01    0.01       1.0  T
   4   -123.5194452  0.216152E-02  0.124E-01    0.04       1.0  T
   5   -123.5229626 -0.351733E-02  0.414E-02    0.04       1.0  T
   6   -123.5233142 -0.351653E-03  0.117E-02    0.03       1.0  T
   7   -123.5233338 -0.195576E-04  0.594E-03    0.03       1.8  T
   8   -123.5233375 -0.374061E-05  0.422E-03    0.03       2.5  T
   9   -123.5233409 -0.342131E-05  0.226E-03    0.03       4.7  T
  10   -123.5233415 -0.606968E-06  0.948E-04    0.03      11.3  T
  11   -123.5233413  0.218678E-06  0.137E-03    0.03       7.8  T
  12   -123.5233416 -0.310352E-06  0.371E-04    0.03      28.9  T
     SCC iter.                  ...        0 min,  0.138 sec
     gradient                   ...        0 min,  0.014 sec
 * total energy  :  -121.9369320 Eh     change       -0.4483452E-03 Eh
   gradient norm :     0.0054736 Eh/α   predicted    -0.3759638E-03 ( -16.14%)
   displ. norm   :     0.7885220 α      lambda       -0.5240178E-03
   maximum displ.:     0.4531412 α      in ANC's #6, #10, #7, ...

........................................................................
.............................. CYCLE  104 ..............................
........................................................................

 iter      E             dE          RMSdq      gap      omega  full diag
   1   -123.5242706 -0.123524E+03  0.117E-01    0.01       0.0  T
   2   -123.5010785  0.231922E-01  0.341E-01    0.23       1.0  T
   3   -123.5238013 -0.227228E-01  0.956E-02    0.01       1.0  T
   4   -123.5222397  0.156161E-02  0.111E-01    0.04       1.0  T
   5   -123.5248639 -0.262419E-02  0.379E-02    0.03       1.0  T
   6   -123.5251734 -0.309503E-03  0.114E-02    0.02       1.0  T
   7   -123.5251960 -0.225706E-04  0.484E-03    0.03       2.2  T
   8   -123.5251980 -0.209461E-05  0.295E-03    0.03       3.6  T
   9   -123.5251979  0.163650E-06  0.260E-03    0.03       4.1  T
  10   -123.5251993 -0.143724E-05  0.101E-03    0.03      10.6  T
  11   -123.5251994 -0.680561E-07  0.752E-04    0.03      14.3  T
  12   -123.5251995 -0.873580E-07  0.328E-04    0.03      32.7  T
     SCC iter.                  ...        0 min,  0.143 sec
     gradient                   ...        0 min,  0.015 sec
 * total energy  :  -121.9374253 Eh     change       -0.4933473E-03 Eh
   gradient norm :     0.0051529 Eh/α   predicted    -0.4249178E-03 ( -13.87%)
   displ. norm   :     0.7970768 α      lambda       -0.5451041E-03
   maximum displ.:     0.4591808 α      in ANC's #10, #6, #7, ...

........................................................................
.............................. CYCLE  105 ..............................
........................................................................

 iter      E             dE          RMSdq      gap      omega  full diag
   1   -123.5254159 -0.123525E+03  0.111E-01    0.01       0.0  T
   2   -123.5030431  0.223729E-01  0.333E-01    0.22       1.0  T
   3   -123.5247585 -0.217154E-01  0.977E-02    0.01       1.0  T
   4   -123.5236763  0.108218E-02  0.111E-01    0.04       1.0  T
   5   -123.5256289 -0.195265E-02  0.484E-02    0.04       1.0  T
   6   -123.5261943 -0.565328E-03  0.107E-02    0.03       1.0  T
   7   -123.5262084 -0.141065E-04  0.603E-03    0.03       1.8  T
   8   -123.5262139 -0.552286E-05  0.284E-03    0.03       3.8  T
   9   -123.5262142 -0.345898E-06  0.250E-03    0.03       4.3  T
  10   -123.5262153 -0.104025E-05  0.112E-03    0.03       9.6  T
  11   -123.5262154 -0.887449E-07  0.771E-04    0.03      13.9  T
  12   -123.5262155 -0.869044E-07  0.452E-04    0.03      23.7  T
     SCC iter.                  ...        0 min,  0.147 sec
     gradient                   ...        0 min,  0.016 sec
 * total energy  :  -121.9379343 Eh     change       -0.5090191E-03 Eh
   gradient norm :     0.0049933 Eh/α   predicted    -0.4457131E-03 ( -12.44%)
   displ. norm   :     0.7766804 α      lambda       -0.5343405E-03
   maximum displ.:     0.4544359 α      in ANC's #10, #6, #7, ...

........................................................................
.............................. CYCLE  106 ..............................
........................................................................

 iter      E             dE          RMSdq      gap      omega  full diag
   1   -123.5259009 -0.123526E+03  0.103E-01    0.01       0.0  T
   2   -123.5060543  0.198466E-01  0.312E-01    0.18       1.0  T
   3   -123.5242388 -0.181845E-01  0.116E-01    0.00       1.0  T
   4   -123.5240418  0.197060E-03  0.115E-01    0.04       1.0  T
   5   -123.5253594 -0.131761E-02  0.674E-02    0.04       1.0  T
   6   -123.5263783 -0.101895E-02  0.213E-02    0.03       1.0  T
   7   -123.5264576 -0.793242E-04  0.560E-03    0.03       1.9  T
   8   -123.5264621 -0.440680E-05  0.344E-03    0.03       3.1  T
   9   -123.5264639 -0.188133E-05  0.185E-03    0.03       5.8  T
  10   -123.5264638  0.928569E-07  0.187E-03    0.03       5.7  T
  11   -123.5264644 -0.528033E-06  0.923E-04    0.03      11.6  T
  12   -123.5264645 -0.111425E-06  0.518E-04    0.03      20.7  T
     SCC iter.                  ...        0 min,  0.159 sec
     gradient                   ...        0 min,  0.018 sec
 * total energy  :  -121.9384244 Eh     change       -0.4900635E-03 Eh
   gradient norm :     0.0051651 Eh/α   predicted    -0.4283380E-03 ( -12.60%)
   displ. norm   :     0.7384457 α      lambda       -0.5008530E-03
   maximum displ.:     0.4373500 α      in ANC's #10, #6, #7, ...

........................................................................
.............................. CYCLE  107 ..............................
........................................................................

 iter      E             dE          RMSdq      gap      omega  full diag
   1   -123.5261009 -0.123526E+03  0.931E-02    0.02       0.0  T
   2   -123.5114910  0.146098E-01  0.267E-01    0.13       1.0  T
   3   -123.5230967 -0.116057E-01  0.138E-01    0.01       1.0  T
   4   -123.5244478 -0.135102E-02  0.103E-01    0.03       1.0  T
   5   -123.5253707 -0.922896E-03  0.666E-02    0.04       1.0  T
   6   -123.5262751 -0.904389E-03  0.266E-02    0.03       1.0  T
   7   -123.5263864 -0.111308E-03  0.113E-02    0.03       1.0  T
   8   -123.5264123 -0.259291E-04  0.251E-03    0.03       4.3  T
   9   -123.5264129 -0.631221E-06  0.150E-03    0.03       7.1  T
  10   -123.5264131 -0.131346E-06  0.118E-03    0.03       9.1  T
  11   -123.5264132 -0.134904E-06  0.802E-04    0.03      13.4  T
  12   -123.5264133 -0.765253E-07  0.449E-04    0.03      23.9  T
     SCC iter.                  ...        0 min,  0.169 sec
     gradient                   ...        0 min,  0.015 sec
 * total energy  :  -121.9388714 Eh     change       -0.4470383E-03 Eh
   gradient norm :     0.0051310 Eh/α   predicted    -0.3869898E-03 ( -13.43%)
   displ. norm   :     0.6884731 α      lambda       -0.4486955E-03
   maximum displ.:     0.4139391 α      in ANC's #10, #6, #7, ...

........................................................................
.............................. CYCLE  108 ..............................
........................................................................

 iter      E             dE          RMSdq      gap      omega  full diag
   1   -123.5261212 -0.123526E+03  0.843E-02    0.02       0.0  T
   2   -123.5183429  0.777839E-02  0.196E-01    0.09       1.0  T
   3   -123.5205223 -0.217942E-02  0.176E-01    0.02       1.0  T
   4   -123.5246590 -0.413672E-02  0.919E-02    0.03       1.0  T
   5   -123.5256794 -0.102045E-02  0.510E-02    0.04       1.0  T
   6   -123.5262122 -0.532802E-03  0.188E-02    0.03       1.0  T
   7   -123.5262585 -0.462424E-04  0.102E-02    0.03       1.0  T
   8   -123.5262782 -0.196674E-04  0.355E-03    0.03       3.0  T
   9   -123.5262802 -0.202727E-05  0.115E-03    0.03       9.3  T
  10   -123.5262800  0.192356E-06  0.141E-03    0.03       7.6  T
  11   -123.5262802 -0.227973E-06  0.838E-04    0.03      12.8  T
  12   -123.5262804 -0.151078E-06  0.290E-04    0.03      36.9  T
     SCC iter.                  ...        0 min,  0.142 sec
     gradient                   ...        0 min,  0.015 sec
 * total energy  :  -121.9392560 Eh     change       -0.3845735E-03 Eh
   gradient norm :     0.0044618 Eh/α   predicted    -0.3306919E-03 ( -14.01%)
   displ. norm   :     0.6173461 α      lambda       -0.3664637E-03
   maximum displ.:     0.3778361 α      in ANC's #10, #6, #7, ...

........................................................................
.............................. CYCLE  109 ..............................
........................................................................

 iter      E             dE          RMSdq      gap      omega  full diag
   1   -123.5265425 -0.123527E+03  0.812E-02    0.02       0.0  T
   2   -123.5243431  0.219946E-02  0.112E-01    0.05       1.0  T
   3   -123.5128665  0.114766E-01  0.262E-01    0.04       1.0  T
   4   -123.5250080 -0.121415E-01  0.928E-02    0.03       1.0  T
   5   -123.5263232 -0.131521E-02  0.366E-02    0.03       1.0  T
   6   -123.5266046 -0.281412E-03  0.947E-03    0.03       1.1  T
   7   -123.5266180 -0.133332E-04  0.448E-03    0.03       2.4  T
   8   -123.5266217 -0.370919E-05  0.198E-03    0.03       5.4  T
   9   -123.5266221 -0.430271E-06  0.107E-03    0.03      10.0  T
  10   -123.5266220  0.948362E-07  0.119E-03    0.03       9.0  T
  11   -123.5266221 -0.128920E-06  0.810E-04    0.03      13.2  T
  12   -123.5266223 -0.140794E-06  0.283E-04    0.03      37.9  T
     SCC iter.                  ...        0 min,  0.136 sec
     gradient                   ...        0 min,  0.016 sec
 * total energy  :  -121.9395536 Eh     change       -0.2975430E-03 Eh
   gradient norm :     0.0036787 Eh/α   predicted    -0.2530719E-03 ( -14.95%)
   displ. norm   :     0.5135511 α      lambda       -0.2658009E-03
   maximum displ.:     0.3210902 α      in ANC's #10, #6, #7, ...

........................................................................
.............................. CYCLE  110 ..............................
........................................................................

 iter      E             dE          RMSdq      gap      omega  full diag
   1   -123.5272877 -0.123527E+03  0.793E-02    0.03       0.0  T
   2   -123.5270107  0.277033E-03  0.627E-02    0.02       1.0  T
   3   -123.5223037  0.470697E-02  0.166E-01    0.07       1.0  T
   4   -123.5148821  0.742158E-02  0.240E-01    0.03       1.0  T
   5   -123.5270735 -0.121914E-01  0.346E-02    0.03       1.0  T
   6   -123.5273175 -0.243986E-03  0.991E-03    0.03       1.1  T
   7   -123.5273295 -0.120412E-04  0.515E-03    0.03       2.1  T
   8   -123.5273344 -0.488214E-05  0.205E-03    0.03       5.2  T
   9   -123.5273350 -0.601904E-06  0.115E-03    0.03       9.3  T
  10   -123.5273348  0.260895E-06  0.150E-03    0.03       7.1  T
  11   -123.5273351 -0.321791E-06  0.822E-04    0.03      13.0  T
  12   -123.5273352 -0.138025E-06  0.293E-04    0.03      36.6  T
     SCC iter.                  ...        0 min,  0.140 sec
     gradient                   ...        0 min,  0.016 sec
 * total energy  :  -121.9397601 Eh     change       -0.2065807E-03 Eh
   gradient norm :     0.0033013 Eh/α   predicted    -0.1679540E-03 ( -18.70%)
   displ. norm   :     0.4121236 α      lambda       -0.1931089E-03
   maximum displ.:     0.2591975 α      in ANC's #10, #6, #3, ...

........................................................................
.............................. CYCLE  111 ..............................
........................................................................

 iter      E             dE          RMSdq      gap      omega  full diag
   1   -123.5281697 -0.123528E+03  0.818E-02    0.03       0.0  T
   2   -123.5259082  0.226157E-02  0.119E-01    0.00       1.0  T
   3   -123.5206923  0.521586E-02  0.198E-01    0.09       1.0  T
   4   -123.5264766 -0.578432E-02  0.875E-02    0.02       1.0  T
   5   -123.5278491 -0.137249E-02  0.410E-02    0.04       1.0  T
   6   -123.5281552 -0.306094E-03  0.179E-02    0.03       1.0  T
   7   -123.5281976 -0.423862E-04  0.936E-03    0.03       1.1  T
   8   -123.5282153 -0.176799E-04  0.164E-03    0.03       6.5  T
   9   -123.5282148  0.483620E-06  0.220E-03    0.03       4.9  T
  10   -123.5282147  0.967207E-07  0.210E-03    0.03       5.1  T
  11   -123.5282156 -0.880635E-06  0.618E-04    0.03      17.3  T
  12   -123.5282157 -0.744410E-07  0.235E-04    0.03      45.6  T
     SCC iter.                  ...        0 min,  0.137 sec
     gradient                   ...        0 min,  0.017 sec
 * total energy  :  -121.9399101 Eh     change       -0.1499229E-03 Eh
   gradient norm :     0.0032551 Eh/α   predicted    -0.1129587E-03 ( -24.66%)
   displ. norm   :     0.3797870 α      lambda       -0.1764834E-03
   maximum displ.:     0.2314909 α      in ANC's #10, #6, #3, ...

........................................................................
.............................. CYCLE  112 ..............................
........................................................................

 iter      E             dE          RMSdq      gap      omega  full diag
   1   -123.5288212 -0.123529E+03  0.924E-02    0.03       0.0  T
   2   -123.5223788  0.644245E-02  0.189E-01    0.02       1.0  T
   3   -123.5232001 -0.821331E-03  0.175E-01    0.08       1.0  T
   4   -123.5274944 -0.429423E-02  0.810E-02    0.02       1.0  T
   5   -123.5285518 -0.105740E-02  0.391E-02    0.04       1.0  T
   6   -123.5288379 -0.286163E-03  0.166E-02    0.03       1.0  T
   7   -123.5288667 -0.287590E-04  0.103E-02    0.03       1.0  T
   8   -123.5288877 -0.210079E-04  0.203E-03    0.03       5.3  T
   9   -123.5288877  0.430249E-07  0.184E-03    0.03       5.8  T
  10   -123.5288873  0.392547E-06  0.213E-03    0.03       5.0  T
  11   -123.5288881 -0.887602E-06  0.679E-04    0.03      15.8  T
  12   -123.5288882 -0.823994E-07  0.262E-04    0.03      41.0  T
     SCC iter.                  ...        0 min,  0.141 sec
     gradient                   ...        0 min,  0.016 sec
 * total energy  :  -121.9400490 Eh     change       -0.1389189E-03 Eh
   gradient norm :     0.0034431 Eh/α   predicted    -0.1009747E-03 ( -27.31%)
   displ. norm   :     0.4329640 α      lambda       -0.1905105E-03
   maximum displ.:     0.2525552 α      in ANC's #10, #6, #3, ...

........................................................................
.............................. CYCLE  113 ..............................
........................................................................

 iter      E             dE          RMSdq      gap      omega  full diag
   1   -123.5286192 -0.123529E+03  0.112E-01    0.03       0.0  T
   2   -123.5225582  0.606101E-02  0.187E-01    0.02       1.0  T
   3   -123.5188759  0.368229E-02  0.229E-01    0.10       1.0  T
   4   -123.5271770 -0.830109E-02  0.876E-02    0.03       1.0  T
   5   -123.5278744 -0.697409E-03  0.610E-02    0.04       1.0  T
   6   -123.5285295 -0.655038E-03  0.289E-02    0.03       1.0  T
   7   -123.5286240 -0.945655E-04  0.174E-02    0.03       1.0  T
   8   -123.5286825 -0.584193E-04  0.431E-03    0.03       2.5  T
   9   -123.5286850 -0.256612E-05  0.182E-03    0.03       5.9  T
  10   -123.5286853 -0.308832E-06  0.121E-03    0.03       8.9  T
  11   -123.5286856 -0.276186E-06  0.479E-04    0.03      22.4  T
  12   -123.5286856 -0.234063E-07  0.298E-04    0.03      35.9  T
     SCC iter.                  ...        0 min,  0.148 sec
     gradient                   ...        0 min,  0.016 sec
 * total energy  :  -121.9402012 Eh     change       -0.1521827E-03 Eh
   gradient norm :     0.0037164 Eh/α   predicted    -0.1131164E-03 ( -25.67%)
   displ. norm   :     0.4929360 α      lambda       -0.2143631E-03
   maximum displ.:     0.2760386 α      in ANC's #10, #6, #1, ...

........................................................................
.............................. CYCLE  114 ..............................
........................................................................

 iter      E             dE          RMSdq      gap      omega  full diag
   1   -123.5282042 -0.123528E+03  0.126E-01    0.03       0.0  T
   2   -123.5197644  0.843975E-02  0.220E-01    0.02       1.0  T
   3   -123.5173525  0.241191E-02  0.243E-01    0.11       1.0  T
   4   -123.5263286 -0.897608E-02  0.102E-01    0.03       1.0  T
   5   -123.5269775 -0.648932E-03  0.772E-02    0.05       1.0  T
   6   -123.5279743 -0.996738E-03  0.404E-02    0.04       1.0  T
   7   -123.5281878 -0.213520E-03  0.226E-02    0.03       1.0  T
   8   -123.5282817 -0.939057E-04  0.686E-03    0.03       1.6  T
   9   -123.5282896 -0.790866E-05  0.187E-03    0.03       5.7  T
  10   -123.5282898 -0.143986E-06  0.172E-03    0.03       6.2  T
  11   -123.5282902 -0.460127E-06  0.671E-04    0.03      16.0  T
  12   -123.5282903 -0.534523E-07  0.316E-04    0.03      33.9  T
     SCC iter.                  ...        0 min,  0.153 sec
     gradient                   ...        0 min,  0.016 sec
 * total energy  :  -121.9403756 Eh     change       -0.1744744E-03 Eh
   gradient norm :     0.0039634 Eh/α   predicted    -0.1332259E-03 ( -23.64%)
   displ. norm   :     0.5333957 α      lambda       -0.2391961E-03
   maximum displ.:     0.2871265 α      in ANC's #6, #10, #1, ...

........................................................................
.............................. CYCLE  115 ..............................
........................................................................

 iter      E             dE          RMSdq      gap      omega  full diag
   1   -123.5274705 -0.123527E+03  0.140E-01    0.03       0.0  T
   2   -123.5201613  0.730918E-02  0.210E-01    0.02       1.0  T
   3   -123.5132019  0.695942E-02  0.277E-01    0.14       1.0  T
   4   -123.5248844 -0.116825E-01  0.122E-01    0.03       1.0  T
   5   -123.5253810 -0.496587E-03  0.101E-01    0.05       1.0  T
   6   -123.5269367 -0.155577E-02  0.559E-02    0.04       1.0  T
   7   -123.5273928 -0.456086E-03  0.284E-02    0.03       1.0  T
   8   -123.5275429 -0.150090E-03  0.889E-03    0.03       1.2  T
   9   -123.5275557 -0.127687E-04  0.286E-03    0.03       3.7  T
  10   -123.5275539  0.175868E-05  0.442E-03    0.03       2.4  T
  11   -123.5275572 -0.323873E-05  0.102E-03    0.03      10.5  T
  12   -123.5275572 -0.959575E-07  0.735E-04    0.03      14.6  T
  13   -123.5275573 -0.717588E-07  0.442E-04    0.03      24.3  T
     SCC iter.                  ...        0 min,  0.154 sec
     gradient                   ...        0 min,  0.016 sec
 * total energy  :  -121.9405703 Eh     change       -0.1946369E-03 Eh
   gradient norm :     0.0043010 Eh/α   predicted    -0.1536284E-03 ( -21.07%)
   displ. norm   :     0.5437498 α      lambda       -0.2443976E-03
   maximum displ.:     0.2940787 α      in ANC's #6, #10, #1, ...

........................................................................
.............................. CYCLE  116 ..............................
........................................................................

 iter      E             dE          RMSdq      gap      omega  full diag
   1   -123.5273744 -0.123527E+03  0.137E-01    0.03       0.0  T
   2   -123.5180975  0.927695E-02  0.232E-01    0.03       1.0  T
   3   -123.5148062  0.329126E-02  0.261E-01    0.12       1.0  T
   4   -123.5243311 -0.952495E-02  0.132E-01    0.02       1.0  T
   5   -123.5255500 -0.121890E-02  0.951E-02    0.05       1.0  T
   6   -123.5268889 -0.133888E-02  0.547E-02    0.04       1.0  T
   7   -123.5273115 -0.422629E-03  0.290E-02    0.03       1.0  T
   8   -123.5274682 -0.156651E-03  0.920E-03    0.03       1.2  T
   9   -123.5274819 -0.137070E-04  0.290E-03    0.03       3.7  T
  10   -123.5274818  0.724122E-07  0.335E-03    0.03       3.2  T
  11   -123.5274832 -0.141997E-05  0.146E-03    0.03       7.4  T
  12   -123.5274836 -0.347150E-06  0.685E-04    0.03      15.7  T
  13   -123.5274837 -0.650424E-07  0.391E-04    0.03      27.4  T
     SCC iter.                  ...        0 min,  0.145 sec
     gradient                   ...        0 min,  0.014 sec
 * total energy  :  -121.9407689 Eh     change       -0.1985921E-03 Eh
   gradient norm :     0.0045699 Eh/α   predicted    -0.1583334E-03 ( -20.27%)
   displ. norm   :     0.5508052 α      lambda       -0.2385866E-03
   maximum displ.:     0.3043477 α      in ANC's #6, #10, #1, ...

........................................................................
.............................. CYCLE  117 ..............................
........................................................................

 iter      E             dE          RMSdq      gap      omega  full diag
   1   -123.5275570 -0.123528E+03  0.136E-01    0.03       0.0  T
   2   -123.5128462  0.147109E-01  0.283E-01    0.04       1.0  T
   3   -123.5177068 -0.486063E-02  0.234E-01    0.11       1.0  T
   4   -123.5244184 -0.671160E-02  0.134E-01    0.02       1.0  T
   5   -123.5263393 -0.192089E-02  0.804E-02    0.05       1.0  T
   6   -123.5272717 -0.932432E-03  0.470E-02    0.04       1.0  T
   7   -123.5275700 -0.298287E-03  0.260E-02    0.03       1.0  T
   8   -123.5276975 -0.127462E-03  0.837E-03    0.03       1.3  T
   9   -123.5277083 -0.108849E-04  0.295E-03    0.03       3.6  T
  10   -123.5277096 -0.125935E-05  0.207E-03    0.03       5.2  T
  11   -123.5277097 -0.138284E-06  0.151E-03    0.03       7.1  T
  12   -123.5277102 -0.426765E-06  0.529E-04    0.03      20.3  T
  13   -123.5277102 -0.417503E-07  0.256E-04    0.03      41.9  T
     SCC iter.                  ...        0 min,  0.148 sec
     gradient                   ...        0 min,  0.015 sec
 * total energy  :  -121.9409679 Eh     change       -0.1990673E-03 Eh
   gradient norm :     0.0046607 Eh/α   predicted    -0.1554868E-03 ( -21.89%)
   displ. norm   :     0.5611438 α      lambda       -0.2479590E-03
   maximum displ.:     0.3183745 α      in ANC's #6, #10, #1, ...

........................................................................
.............................. CYCLE  118 ..............................
........................................................................

 iter      E             dE          RMSdq      gap      omega  full diag
   1   -123.5282566 -0.123528E+03  0.130E-01    0.03       0.0  T
   2   -123.5076977  0.205590E-01  0.329E-01    0.06       1.0  T
   3   -123.5210824 -0.133847E-01  0.203E-01    0.09       1.0  T
   4   -123.5254115 -0.432913E-02  0.127E-01    0.02       1.0  T
   5   -123.5276922 -0.228075E-02  0.604E-02    0.04       1.0  T
   6   -123.5282080 -0.515760E-03  0.352E-02    0.04       1.0  T
   7   -123.5283871 -0.179126E-03  0.186E-02    0.03       1.0  T
   8   -123.5284545 -0.673614E-04  0.509E-03    0.03       2.1  T
   9   -123.5284578 -0.326531E-05  0.239E-03    0.03       4.5  T
  10   -123.5284588 -0.103759E-05  0.122E-03    0.03       8.8  T
  11   -123.5284587  0.946238E-07  0.116E-03    0.03       9.2  T
  12   -123.5284589 -0.243346E-06  0.486E-04    0.03      22.1  T
  13   -123.5284590 -0.351292E-07  0.205E-04    0.03      52.2  T
     SCC iter.                  ...        0 min,  0.158 sec
     gradient                   ...        0 min,  0.016 sec
 * total energy  :  -121.9411776 Eh     change       -0.2096498E-03 Eh
   gradient norm :     0.0045670 Eh/α   predicted    -0.1630218E-03 ( -22.24%)
   displ. norm   :     0.5778213 α      lambda       -0.2496281E-03
   maximum displ.:     0.3375187 α      in ANC's #6, #10, #1, ...

........................................................................
.............................. CYCLE  119 ..............................
........................................................................

 iter      E             dE          RMSdq      gap      omega  full diag
   1   -123.5287852 -0.123529E+03  0.130E-01    0.04       0.0  T
   2   -123.5003862  0.283990E-01  0.382E-01    0.08       1.0  T
   3   -123.5234957 -0.231095E-01  0.180E-01    0.08       1.0  T
   4   -123.5259805 -0.248483E-02  0.123E-01    0.02       1.0  T
   5   -123.5287012 -0.272067E-02  0.418E-02    0.04       1.0  T
   6   -123.5289334 -0.232224E-03  0.248E-02    0.03       1.0  T
   7   -123.5290425 -0.109077E-03  0.106E-02    0.03       1.0  T
   8   -123.5290640 -0.215184E-04  0.243E-03    0.03       4.4  T
   9   -123.5290641 -0.442114E-07  0.193E-03    0.03       5.6  T
  10   -123.5290644 -0.347143E-06  0.139E-03    0.03       7.7  T
  11   -123.5290646 -0.215430E-06  0.916E-04    0.03      11.7  T
  12   -123.5290648 -0.160779E-06  0.421E-04    0.03      25.5  T
     SCC iter.                  ...        0 min,  0.178 sec
     gradient                   ...        0 min,  0.015 sec
 * total energy  :  -121.9413893 Eh     change       -0.2116668E-03 Eh
   gradient norm :     0.0043364 Eh/α   predicted    -0.1664900E-03 ( -21.34%)
   displ. norm   :     0.5782356 α      lambda       -0.2329962E-03
   maximum displ.:     0.3462719 α      in ANC's #6, #10, #1, ...

........................................................................
.............................. CYCLE  120 ..............................
........................................................................

 iter      E             dE          RMSdq      gap      omega  full diag
   1   -123.5291637 -0.123529E+03  0.126E-01    0.04       0.0  T
   2   -123.5002463  0.289174E-01  0.384E-01    0.08       1.0  T
   3   -123.5248814 -0.246351E-01  0.165E-01    0.08       1.0  T
   4   -123.5264048 -0.152338E-02  0.118E-01    0.02       1.0  T
   5   -123.5292165 -0.281169E-02  0.331E-02    0.04       1.0  T
   6   -123.5293509 -0.134385E-03  0.207E-02    0.03       1.0  T
   7   -123.5294362 -0.852636E-04  0.756E-03    0.03       1.4  T
   8   -123.5294457 -0.958979E-05  0.219E-03    0.03       4.9  T
   9   -123.5294456  0.107394E-06  0.204E-03    0.03       5.3  T
  10   -123.5294461 -0.501739E-06  0.132E-03    0.03       8.1  T
  11   -123.5294463 -0.163425E-06  0.791E-04    0.03      13.6  T
  12   -123.5294464 -0.102276E-06  0.380E-04    0.03      28.2  T
     SCC iter.                  ...        0 min,  0.146 sec
     gradient                   ...        0 min,  0.015 sec
 * total energy  :  -121.9415893 Eh     change       -0.2000132E-03 Eh
   gradient norm :     0.0041028 Eh/α   predicted    -0.1554524E-03 ( -22.28%)
   displ. norm   :     0.5729684 α      lambda       -0.2203544E-03
   maximum displ.:     0.3493283 α      in ANC's #6, #10, #1, ...

   *** FAILED TO CONVERGE GEOMETRY OPTIMIZATION IN 120 ITERATIONS ***


 ANCopt (total)                0 d,  0 h,  0 min, 21.617 sec
 optimizer setup                ...        0 min,  0.000 sec (  0.000%)
 model hessian                  ...        0 min,  0.149 sec (  0.689%)
 ANC generation                 ...        0 min,  0.042 sec (  0.194%)
 coordinate transformation      ...        0 min,  0.007 sec (  0.032%)
 single point calculation       ...        0 min, 21.197 sec ( 98.057%)
 optimization log               ...        0 min,  0.149 sec (  0.689%)
 hessian update                 ...        0 min,  0.022 sec (  0.102%)
 rational function              ...        0 min,  0.034 sec (  0.157%)

================
 final structure:
================
87
 xtb: 6.7.1pre (5071a88)
O           -0.14053334619790        2.29494271287028       10.50400468342585
C           -0.14018033300840        1.92913667384205        9.29555453077508
C           -0.04364845997508        0.52450298874036        8.98803606659554
O            0.03917018794213       -0.27367659260502       10.08471458807793
C           -0.03835385799113        0.06826113169877        7.69186782480156
C            0.07845971531715       -1.30087255688021        7.24140533297463
C            0.32926784711052       -2.36427175355230        8.11480055298080
C            0.46817052042939       -3.64965785905860        7.63040708795884
C            0.35765001185285       -3.91260714796057        6.27443638316733
O            0.49289365159013       -5.17137458690081        5.72826046183092
C            0.09391341040503       -2.86019078693726        5.38845430968900
O           -0.03224129122034       -3.09424893085415        4.05356469117060
C           -0.03934940531981       -1.57629636438001        5.87015864747077
O           -0.14121987152903        0.96378344381865        6.65118053867944
C           -0.22013777650565        2.29131127439366        6.87535957525471
C           -0.29458294910682        3.12402326759081        5.76909865885510
C           -0.36932541554402        4.49952738548551        5.95935263792376
O           -0.43061537299897        5.28192431289505        4.85241287329209
C           -0.37234739617738        5.04709179532632        7.23801685361766
C           -0.30063482605494        4.22180312115371        8.35143344465839
O           -0.30229437738646        4.74488537145289        9.58257755370810
C           -0.22191944348551        2.82265046238332        8.17247091862412
H           -0.00060503872360        0.36470459246624       10.83140480776657
H            0.42059622740947       -2.18032735450812        9.16971863603396
H            0.66895854680395       -4.46397571721819        8.31290146463420
H            0.68500419930079       -5.79897675468637        6.43168184453948
H            0.18824074575123       -4.01775681662134        3.87467396801039
H           -0.24108514072352       -0.78393260715910        5.17082010413628
H           -0.29896324481168        2.72152934649798        4.76998998460375
H           -0.51173133369757        6.20681780671137        5.11200983894328
H           -0.43059827980523        6.11520793905593        7.38568481902102
H           -0.24559290721435        3.98006833931866       10.21757166903768
B           -4.78735060114127       -2.57326201503034        0.00272160278524
B           -4.11196789418999       -1.28180687545371       -0.62402159706326
B           -3.27032243407729       -0.20935118749967       -1.56259312069861
B           -3.18611426919201       -2.76122376959613        0.00633447436714
B           -2.26665884147783        0.06237477136490       -0.41167457490690
B           -4.05118738618476        0.30220321361917        0.05828843400250
B           -5.07401320399976        1.53560678964957        0.23484337072626
B           -4.44508812709291        3.02589127912829        0.09535808487861
B           -2.81601390440743        0.38406096072675        1.12780172344252
B           -3.57647878785777        3.69862702973166        1.29321284923881
B           -2.06213070904329       -3.95752346192417        0.17841155925127
B           -1.67276304101892       -2.43260101121139        0.45053996016920
B           -1.48484153237282       -0.82512479688615        0.72336254586499
B           -0.50590213065643       -3.53390267840510        0.69700792950856
B           -0.25750992639364       -0.44113137946041        1.76884523456380
B           -1.68725138485589        0.06307221475011        2.31382535592895
B           -2.01069272048096        1.63307627312796        1.85625600997255
B           -2.10201286872743        3.09059600617176        1.24608527332887
B           -0.57169255729152        1.15269197711019        2.61253631428605
B           -0.82095693964270        3.97923946445819        0.67598477213584
B            0.85367280690581       -4.46380781911929        0.97642489308065
B            0.88614372872584       -2.89844003463886        1.28905890999215
B            1.13453134105968       -1.36409550333030        1.64023210321709
B            2.20360201324664       -3.83373090922981        1.71863578166408
B            2.58405521626731       -0.62582331340886        1.69913463553410
B            1.26383427437732        0.23687474539390        1.95497409336361
B            0.81156881767598        1.91050830656271        2.26880242312585
B            0.28848021269617        3.03059218789008        1.19826334176085
B            2.20290974253125        1.47259148474961        1.47440440311869
B            0.97061455167218        2.11357398578644        0.00228303160605
B            3.26449549916671       -4.34868188476201        2.89866286203963
B            3.64015977602831       -3.08147643096948        1.92825882180117
B            3.97908011839989       -1.57318066677939        1.50486276229866
B            4.52054784749374       -3.40651701224781        3.20467527646403
B            5.29986675348397       -0.75422280061540        0.84559295512853
B            4.08755407708834        0.06333753468184        1.51848501797958
B            3.77472238333420        1.74298900150062        0.95796521880334
B            2.57269496425393        2.14587285066467       -0.11641377736512
B            5.27758514173737        1.00225152689187        0.94501170301076
B            4.04918793894307        2.24735359759423       -0.55267916030418
H           -5.66030844063155       -3.07412300191331        0.60235194184863
H           -5.18251189172774       -1.95942945968763       -1.07479280278224
H           -3.53010746631675        0.06586031652162       -2.67741577273682
H           -6.21463793095100        1.36118820647710        0.49960998596838
H           -4.59520828524070        3.61587931291408       -0.91554022265742
H           -4.04454717411133        4.46460140291551        2.05186674812903
H           -2.32182735424956       -5.07814494242724       -0.04315863365484
H           -0.85376348964412        4.93442618388565       -0.00617972609454
H            0.90962559662169       -5.58814425010201        0.65601771288481
H            0.33606026475100        1.40411205536995       -0.69758474202214
H            3.01881516932472       -5.32045383699999        3.50213975557825
H            5.42526160795012       -3.14513833340753        3.89122097133974
H            6.29290697298707       -1.26029380226596        0.49527408879884
H            6.30809406415901        1.54546059142548        1.08457938876218
H            4.83877041524629        2.50716576998633       -1.37261554388211
 
 Bond Distances (Angstroems)
 ---------------------------
O1-C2=1.2626         C2-O1=1.2626         C2-C3=1.4411         C2-C22=1.4375        C3-C2=1.4411         C3-O4=1.3589         
C3-C5=1.3741         O4-C3=1.3589         O4-H23=0.9832        C5-C3=1.3741         C5-C6=1.4461         C5-O14=1.3768        
C6-C5=1.4461         C6-C7=1.3988         C6-C13=1.4036        C7-C6=1.3988         C7-C8=1.3806         C7-H24=1.0747        
C8-C7=1.3806         C8-C9=1.3856         C8-H25=1.0813        C9-C8=1.3856         C9-O10=1.3788        C9-C11=1.4008        
O10-C9=1.3788        O10-H26=0.9621       C11-C9=1.4008        C11-O12=1.3611       C11-C13=1.3777       O12-C11=1.3611       
O12-H27=0.9662       C13-C6=1.4036        C13-C11=1.3777       C13-H28=1.0759       O14-C5=1.3768        O14-C15=1.3486       
C15-O14=1.3486       C15-C16=1.3866       C15-C22=1.4017       C16-C15=1.3866       C16-C17=1.3906       C16-H29=1.0771       
C17-C16=1.3906       C17-O18=1.3569       C17-C19=1.3910       O18-C17=1.3569       O18-H30=0.9641       C19-C17=1.3910       
C19-C20=1.3878       C19-H31=1.0798       C20-C19=1.3878       C20-O21=1.3377       C20-C22=1.4127       O21-C20=1.3377       
O21-H32=0.9957       C22-C2=1.4375        C22-C15=1.4017       C22-C20=1.4127       H23-O4=0.9832        H24-C7=1.0747        
H25-C8=1.0813        H26-O10=0.9621       H27-O12=0.9662       H28-C13=1.0759       H29-C16=1.0771       H30-O18=0.9641       
H31-C19=1.0798       H32-O21=0.9957       B33-B34=1.5864       B33-B36=1.6122       B33-H73=1.1715       B33-H74=1.3015       
B34-B33=1.5864       B34-B35=1.6551       B34-B36=1.8556       B34-B38=1.7258       B34-H74=1.3448       B35-B34=1.6551       
B35-B37=1.5511       B35-B38=1.8705       B35-H75=1.1773       B36-B33=1.6122       B36-B34=1.8556       B36-B43=1.6505       
B36-B44=1.6111       B37-B35=1.5511       B37-B38=1.8609       B37-B41=1.6659       B37-B45=1.6393       B38-B34=1.7258       
B38-B35=1.8705       B38-B37=1.8609       B38-B39=1.6120       B38-B41=1.6359       B39-B38=1.6120       B39-B40=1.6236       
B39-H76=1.1839       B40-B39=1.6236       B40-B42=1.6254       B40-H77=1.1801       B41-B37=1.6659       B41-B38=1.6359       
B41-B45=1.8433       B41-B48=1.6685       B41-B49=1.6551       B42-B40=1.6254       B42-B50=1.5956       B42-H78=1.1753       
B43-B36=1.6505       B43-B44=1.5972       B43-B46=1.6942       B43-H79=1.1715       B44-B36=1.6111       B44-B43=1.5972       
B44-B45=1.6413       B44-B46=1.6233       B45-B37=1.6393       B45-B41=1.8433       B45-B44=1.6413       B45-B47=1.6574       
B45-B48=1.8329       B46-B43=1.6942       B46-B44=1.6233       B46-B53=1.6707       B46-B54=1.6408       B47-B45=1.6574       
B47-B48=1.6110       B47-B51=1.8305       B47-B55=1.6752       B47-B58=1.6760       B48-B41=1.6685       B48-B45=1.8329       
B48-B47=1.6110       B48-B49=1.6670       B48-B51=1.5878       B49-B41=1.6551       B49-B48=1.6670       B49-B50=1.5827       
B49-B51=1.6951       B50-B42=1.5956       B50-B49=1.5827       B50-B52=1.6601       B51-B47=1.8305       B51-B48=1.5878       
B51-B49=1.6951       B51-B58=2.1541       B51-B59=1.6143       B52-B50=1.6601       B52-B60=1.5503       B52-H80=1.1742       
B53-B46=1.6707       B53-B54=1.5966       B53-B56=1.6644       B53-H81=1.1704       B54-B46=1.6408       B54-B53=1.5966       
B54-B55=1.5935       B54-B56=1.6718       B55-B47=1.6752       B55-B54=1.5935       B55-B57=1.6278       B55-B58=1.6367       
B56-B53=1.6644       B56-B54=1.6718       B56-B63=1.6683       B56-B64=1.6351       B57-B55=1.6278       B57-B58=1.5977       
B57-B61=2.1446       B57-B65=1.6974       B57-B68=1.6638       B58-B47=1.6760       B58-B51=2.1541       B58-B55=1.6367       
B58-B57=1.5977       B58-B59=1.7618       B58-B61=1.6247       B59-B51=1.6143       B59-B58=1.7618       B59-B60=1.6353       
B59-B61=1.6609       B60-B52=1.5503       B60-B59=1.6353       B60-B62=1.6543       B61-B57=2.1446       B61-B58=1.6247       
B61-B59=1.6609       B61-B62=2.0240       B61-B69=1.6764       B61-B70=1.7666       B62-B60=1.6543       B62-B61=2.0240       
B62-B70=1.6068       B62-H82=1.1814       B63-B56=1.6683       B63-B64=1.6397       B63-B66=1.5997       B63-H83=1.1700       
B64-B56=1.6351       B64-B63=1.6397       B64-B65=1.6028       B64-B66=1.5843       B65-B57=1.6974       B65-B64=1.6028       
B65-B67=1.6881       B65-B68=1.6402       B66-B63=1.5997       B66-B64=1.5843       B66-H84=1.1654       B67-B65=1.6881       
B67-B68=1.6096       B67-B71=1.7594       B67-H85=1.1683       B68-B57=1.6638       B68-B65=1.6402       B68-B67=1.6096       
B68-B69=1.7981       B68-B71=1.6207       B69-B61=1.6764       B69-B68=1.7981       B69-B70=1.6618       B69-B71=1.6755       
B69-B72=1.6161       B70-B61=1.7666       B70-B62=1.6068       B70-B69=1.6618       B70-B72=1.5429       B71-B67=1.7594       
B71-B68=1.6207       B71-B69=1.6755       B71-H86=1.1732       B72-B69=1.6161       B72-B70=1.5429       B72-H87=1.1676       
H73-B33=1.1715       H74-B33=1.3015       H74-B34=1.3448       H75-B35=1.1773       H76-B39=1.1839       H77-B40=1.1801       
H78-B42=1.1753       H79-B43=1.1715       H80-B52=1.1742       H81-B53=1.1704       H82-B62=1.1814       H83-B63=1.1700       
H84-B66=1.1654       H85-B67=1.1683       H86-B71=1.1732       H87-B72=1.1676       
 B  H  Rav=1.1923 sigma=0.0503  Rmin=1.1654  Rmax=1.3448    16
 B  B  Rav=1.6780 sigma=0.1144  Rmin=1.5429  Rmax=2.1541    75
 C  H  Rav=1.0778 sigma=0.0024  Rmin=1.0747  Rmax=1.0813     5
 C  C  Rav=1.4010 sigma=0.0218  Rmin=1.3741  Rmax=1.4461    16
 O  H  Rav=0.9742 sigma=0.0131  Rmin=0.9621  Rmax=0.9957     5
 O  C  Rav=1.3477 sigma=0.0345  Rmin=1.2626  Rmax=1.3788     8
 
 selected bond angles (degree)
 --------------------
C3-C2-O1=119.12                C22-C2-O1=124.59               C22-C2-C3=116.29               O4-C3-C2=113.85                
C5-C3-C2=121.68                C5-C3-O4=124.47                H23-O4-C3=103.24               C6-C5-C3=127.48                
O14-C5-C3=119.78               O14-C5-C6=112.73               C7-C6-C5=122.67                C13-C6-C5=118.90               
C13-C6-C7=118.42               C8-C7-C6=120.45                H24-C7-C6=119.87               H24-C7-C8=119.68               
C9-C8-C7=120.80                H25-C8-C7=119.89               H25-C8-C9=119.31               O10-C9-C8=123.58               
C11-C9-C8=119.43               C11-C9-O10=116.99              H26-O10-C9=109.00              
 
 selected dihedral angles (degree)
 ---------------------------------
O4-C3-C2-O1=  0.00            O4-C3-C2-C22=179.62           C5-C3-C2-O1=180.01            C5-C3-C2-C22=359.63           
H23-O4-C3-C2=  0.55           H23-O4-C3-C5=180.54           C6-C5-C3-C2=178.71            C6-C5-C3-O4=358.72            
O14-C5-C3-C2=359.31           O14-C5-C3-O4=179.33           C7-C6-C5-C3=353.98            C7-C6-C5-O14=173.40           
C13-C6-C5-C3=175.18           C13-C6-C5-O14=354.61          C8-C7-C6-C5=181.77            C8-C7-C6-C13=  0.57           
H24-C7-C6-C5=  1.40           H24-C7-C6-C13=180.20          C9-C8-C7-C6=359.77            C9-C8-C7-H24=180.14           
H25-C8-C7-C6=179.56           H25-C8-C7-H24=359.93          O10-C9-C8-C7=179.65           O10-C9-C8-H25=359.85          
C11-C9-C8-C7=359.62           C11-C9-C8-H25=179.82          H26-O10-C9-C8=359.03          H26-O10-C9-C11=179.06         
 
 CMA Distance (Angstroems)
 ---------------------------
R(CMA):  6.3639
           -------------------------------------------------
          |                Final Singlepoint                |
           -------------------------------------------------

          ...................................................
          :                      SETUP                      :
          :.................................................:
          :  # basis functions                 273          :
          :  # atomic orbitals                 273          :
          :  # shells                          149          :
          :  # electrons                       247          :
          :  max. iterations                   500          :
          :  Hamiltonian                  GFN2-xTB          :
          :  restarted?                      false          :
          :  GBSA solvation                  false          :
          :  PC potential                    false          :
          :  electronic temp.          300.0000000     K    :
          :  accuracy                    1.0000000          :
          :  -> integral cutoff          0.2500000E+02      :
          :  -> integral neglect         0.1000000E-07      :
          :  -> SCF convergence          0.1000000E-05 Eh   :
          :  -> wf. convergence          0.1000000E-03 e    :
          :  Broyden damping             0.4000000          :
          :  net charge                          0          :
          :  unpaired electrons                  0          :
          ...................................................

 iter      E             dE          RMSdq      gap      omega  full diag
   1   -123.5295965 -0.123530E+03  0.123E-01    0.04       0.0  T
   2   -123.5000373  0.295592E-01  0.388E-01    0.08       1.0  T
   3   -123.5261120 -0.260746E-01  0.151E-01    0.07       1.0  T
   4   -123.5268921 -0.780153E-03  0.116E-01    0.02       1.0  T
   5   -123.5297158 -0.282364E-02  0.278E-02    0.03       1.0  T
   6   -123.5298255 -0.109689E-03  0.162E-02    0.03       1.0  T
   7   -123.5298796 -0.541948E-04  0.539E-03    0.03       2.0  T
   8   -123.5298840 -0.434589E-05  0.193E-03    0.03       5.5  T
   9   -123.5298835  0.544970E-06  0.230E-03    0.03       4.7  T
  10   -123.5298841 -0.692611E-06  0.150E-03    0.03       7.1  T
  11   -123.5298844 -0.245753E-06  0.822E-04    0.03      13.0  T
  12   -123.5298845 -0.125010E-06  0.320E-04    0.03      33.5  T

   *** convergence criteria satisfied after 12 iterations ***

         #    Occupation            Energy/Eh            Energy/eV
      -------------------------------------------------------------
         1        2.0000           -0.7211182             -19.6226
       ...           ...                  ...                  ...
       118        2.0000           -0.3008982              -8.1879
       119        2.0000           -0.2910757              -7.9206
       120        2.0000           -0.2874439              -7.8217
       121        2.0000           -0.2832450              -7.7075
       122        2.0000           -0.2806006              -7.6355
       123        1.9974           -0.2746814              -7.4745
       124        0.6343           -0.2631112              -7.1596 (HOMO)
       125        0.3683           -0.2620804              -7.1316 (LUMO)
       126        0.0000           -0.2472927              -6.7292
       127                         -0.2323474              -6.3225
       128                         -0.2224178              -6.0523
       129                         -0.2195979              -5.9756
       ...                                ...                  ...
       273                          1.0744137              29.2363
      -------------------------------------------------------------
                  HL-Gap            0.0010308 Eh            0.0280 eV
             Fermi-level           -0.2658149 Eh           -7.2332 eV

 SCC (total)                   0 d,  0 h,  0 min,  0.183 sec
 SCC setup                      ...        0 min,  0.001 sec (  0.546%)
 Dispersion                     ...        0 min,  0.001 sec (  0.547%)
 classical contributions        ...        0 min,  0.000 sec (  0.000%)
 integral evaluation            ...        0 min,  0.004 sec (  2.186%)
 iterations                     ...        0 min,  0.158 sec ( 86.339%)
 molecular gradient             ...        0 min,  0.015 sec (  8.197%)
 printout                       ...        0 min,  0.003 sec (  1.639%)

         :::::::::::::::::::::::::::::::::::::::::::::::::::::
         ::                     SUMMARY                     ::
         :::::::::::::::::::::::::::::::::::::::::::::::::::::
         :: total energy            -121.941782968475 Eh    ::
         :: gradient norm              0.003825237538 Eh/a0 ::
         :: HOMO-LUMO gap              0.028048245342 eV    ::
         ::.................................................::
         :: SCC energy              -123.527444585958 Eh    ::
         :: -> isotropic ES            0.331888485549 Eh    ::
         :: -> anisotropic ES         -0.000659333755 Eh    ::
         :: -> anisotropic XC         -0.018566970843 Eh    ::
         :: -> dispersion             -0.119351455090 Eh    ::
         :: repulsion energy           1.585661617483 Eh    ::
         :: add. restraining           0.000000000000 Eh    ::
         :: total charge              -0.000000000006 e     ::
         :::::::::::::::::::::::::::::::::::::::::::::::::::::

           -------------------------------------------------
          |                Property Printout                |
           -------------------------------------------------

    * Orbital Energies and Occupations

         #    Occupation            Energy/Eh            Energy/eV
      -------------------------------------------------------------
         1        2.0000           -0.7211182             -19.6226
       ...           ...                  ...                  ...
       112        2.0000           -0.3167420              -8.6190
       113        2.0000           -0.3149337              -8.5698
       114        2.0000           -0.3118991              -8.4872
       115        2.0000           -0.3087765              -8.4022
       116        2.0000           -0.3045344              -8.2868
       117        2.0000           -0.3022757              -8.2253
       118        2.0000           -0.3008982              -8.1879
       119        2.0000           -0.2910757              -7.9206
       120        2.0000           -0.2874439              -7.8217
       121        2.0000           -0.2832450              -7.7075
       122        2.0000           -0.2806006              -7.6355
       123        1.9974           -0.2746814              -7.4745
       124        0.6343           -0.2631112              -7.1596 (HOMO)
       125        0.3683           -0.2620804              -7.1316 (LUMO)
       126        0.0000           -0.2472927              -6.7292
       127                         -0.2323474              -6.3225
       128                         -0.2224178              -6.0523
       129                         -0.2195979              -5.9756
       130                         -0.2179719              -5.9313
       131                         -0.2093970              -5.6980
       132                         -0.2084838              -5.6731
       133                         -0.2035147              -5.5379
       134                         -0.2010112              -5.4698
       135                         -0.1930099              -5.2521
       ...                                ...                  ...
       273                          1.0744137              29.2363
      -------------------------------------------------------------
                  HL-Gap            0.0010308 Eh            0.0280 eV
             Fermi-level           -0.2658149 Eh           -7.2332 eV

     #   Z          covCN         q      C6AA      α(0)
     1   8 O        0.858    -0.522    24.267     6.605
     2   6 C        2.836     0.171    24.307     8.080
     3   6 C        2.828     0.080    26.201     8.388
     4   8 O        1.657    -0.401    20.874     6.168
     5   6 C        2.855     0.089    26.021     8.361
     6   6 C        2.970    -0.005    28.133     8.700
     7   6 C        2.921    -0.056    29.396     8.891
     8   6 C        2.916    -0.074    29.849     8.959
     9   6 C        2.845     0.094    25.917     8.343
    10   8 O        1.659    -0.418    21.195     6.215
    11   6 C        2.843     0.113    25.497     8.275
    12   8 O        1.659    -0.408    21.009     6.188
    13   6 C        2.926    -0.087    30.180     9.009
    14   8 O        1.710    -0.221    17.673     5.676
    15   6 C        2.874     0.129    25.173     8.225
    16   6 C        2.914    -0.121    31.088     9.143
    17   6 C        2.846     0.142    24.898     8.178
    18   8 O        1.660    -0.384    20.539     6.118
    19   6 C        2.913    -0.117    30.956     9.123
    20   6 C        2.845     0.155    24.630     8.134
    21   8 O        1.656    -0.394    20.740     6.148
    22   6 C        2.976    -0.093    30.335     9.035
    23   1 H        0.803     0.334     0.626     1.243
    24   1 H        0.926     0.072     2.065     2.247
    25   1 H        0.925     0.032     2.561     2.502
    26   1 H        0.805     0.300     0.720     1.332
    27   1 H        0.805     0.331     0.636     1.252
    28   1 H        0.926     0.078     1.996     2.209
    29   1 H        0.926     0.087     1.905     2.158
    30   1 H        0.805     0.307     0.701     1.315
    31   1 H        0.926     0.048     2.349     2.397
    32   1 H        0.800     0.354     0.580     1.197
    33   5 B        3.711     0.067    21.387     7.479
    34   5 B        4.560     0.063    21.601     7.489
    35   5 B        3.686     0.031    21.954     7.593
    36   5 B        3.733     0.045    21.822     7.546
    37   5 B        3.830     0.061    21.627     7.496
    38   5 B        4.507     0.022    22.333     7.614
    39   5 B        2.872     0.063    20.345     7.529
    40   5 B        2.873     0.077    20.104     7.485
    41   5 B        4.689     0.032    22.160     7.585
    42   5 B        2.878     0.082    20.028     7.470
    43   5 B        3.823     0.053    21.758     7.519
    44   5 B        3.875     0.028    22.226     7.597
    45   5 B        4.592     0.004    22.675     7.673
    46   5 B        3.840     0.045    21.908     7.544
    47   5 B        4.703     0.058    21.687     7.503
    48   5 B        4.715     0.067    21.541     7.478
    49   5 B        3.844     0.046    21.890     7.541
    50   5 B        2.947     0.026    20.945     7.636
    51   5 B        4.056     0.032    22.161     7.585
    52   5 B        2.875     0.066    20.299     7.521
    53   5 B        3.827     0.057    21.689     7.507
    54   5 B        3.866     0.031    22.157     7.586
    55   5 B        3.861     0.022    22.325     7.615
    56   5 B        3.840     0.064    21.570     7.486
    57   5 B        4.160     0.026    22.258     7.602
    58   5 B        5.072     0.091    21.122     7.405
    59   5 B        3.930     0.020    22.379     7.623
    60   5 B        2.966     0.037    20.756     7.601
    61   5 B        4.730     0.072    21.442     7.461
    62   5 B        3.535     0.060    20.619     7.518
    63   5 B        3.833     0.041    21.974     7.556
    64   5 B        3.876     0.024    22.292     7.609
    65   5 B        3.841     0.034    22.100     7.577
    66   5 B        2.890     0.093    19.854     7.437
    67   5 B        3.779     0.071    21.433     7.467
    68   5 B        4.811     0.093    21.084     7.398
    69   5 B        4.729     0.050    21.832     7.529
    70   5 B        3.820     0.011    22.518     7.650
    71   5 B        3.877     0.077    21.349     7.446
    72   5 B        2.983     0.053    20.487     7.551
    73   1 H        0.938    -0.114     6.069     3.852
    74   1 H        1.582     0.040     2.435     2.436
    75   1 H        0.936    -0.143     7.351     4.239
    76   1 H        0.934    -0.136     6.994     4.135
    77   1 H        0.935    -0.108     5.845     3.780
    78   1 H        0.937    -0.110     5.938     3.810
    79   1 H        0.939    -0.103     5.663     3.720
    80   1 H        0.938    -0.133     6.853     4.093
    81   1 H        0.939    -0.089     5.186     3.560
    82   1 H        0.935    -0.137     7.044     4.150
    83   1 H        0.939    -0.089     5.182     3.559
    84   1 H        0.940    -0.134     6.916     4.112
    85   1 H        0.940    -0.107     5.801     3.766
    86   1 H        0.938    -0.113     6.033     3.840
    87   1 H        0.940    -0.136     6.984     4.132

 Mol. C6AA /au·bohr⁶  :     117999.260595
 Mol. C8AA /au·bohr⁸  :    3616501.284531
 Mol. α(0) /au        :        548.502927


Wiberg/Mayer (AO) data.
largest (>0.10) Wiberg bond orders for each atom

 ---------------------------------------------------------------------------
     #   Z sym  total        # sym  WBO       # sym  WBO       # sym  WBO
 ---------------------------------------------------------------------------
     1   8 O    1.882 --     2 C    1.477
     2   6 C    3.880 --     1 O    1.477     3 C    1.142    22 C    1.137
     3   6 C    3.912 --     5 C    1.445     2 C    1.142     4 O    1.086
     4   8 O    2.108 --     3 C    1.086    23 H    0.839
     5   6 C    3.830 --     3 C    1.445     6 C    1.125    14 O    1.028
     6   6 C    3.968 --     7 C    1.345    13 C    1.327     5 C    1.125
     7   6 C    3.959 --     8 C    1.456     6 C    1.345    24 H    0.961
     8   6 C    3.983 --     7 C    1.456     9 C    1.384    25 H    0.966
     9   6 C    3.887 --     8 C    1.384    11 C    1.288    10 O    1.035
    10   8 O    2.070 --     9 C    1.035    26 H    0.889
    11   6 C    3.944 --    13 C    1.424     9 C    1.288    12 O    1.070
    12   8 O    2.103 --    11 C    1.070    27 H    0.862
    13   6 C    3.946 --    11 C    1.424     6 C    1.327    28 H    0.959
    14   8 O    2.343 --    15 C    1.081     5 C    1.028
    15   6 C    3.921 --    16 C    1.375    22 C    1.283    14 O    1.081
    16   6 C    3.953 --    15 C    1.375    17 C    1.358    29 H    0.949
    17   6 C    3.917 --    19 C    1.361    16 C    1.358    18 O    1.083
    18   8 O    2.120 --    17 C    1.083    30 H    0.885
    19   6 C    3.967 --    20 C    1.381    17 C    1.361    31 H    0.963
    20   6 C    3.923 --    19 C    1.381    22 C    1.251    21 O    1.151
    21   8 O    2.155 --    20 C    1.151    32 H    0.786
    22   6 C    3.975 --    15 C    1.283    20 C    1.251     2 C    1.137
    23   1 H    0.888 --     4 O    0.839
    24   1 H    0.995 --     7 C    0.961
    25   1 H    0.999 --     8 C    0.966
    26   1 H    0.910 --    10 O    0.889
    27   1 H    0.890 --    12 O    0.862
    28   1 H    0.994 --    13 C    0.959
    29   1 H    0.992 --    16 C    0.949
    30   1 H    0.905 --    18 O    0.885
    31   1 H    0.997 --    19 C    0.963
    32   1 H    0.875 --    21 O    0.786
    33   5 B    3.537 --    73 H    0.952    36 B    0.917    34 B    0.876
                            74 H    0.515    38 B    0.104
    34   5 B    3.521 --    33 B    0.876    35 B    0.780    38 B    0.612
                            36 B    0.477    74 H    0.446    37 B    0.140
    35   5 B    3.553 --    37 B    1.156    75 H    0.950    34 B    0.780
                            38 B    0.363
    36   5 B    3.517 --    33 B    0.917    43 B    0.883    44 B    0.860
                            34 B    0.477    46 B    0.105
    37   5 B    3.415 --    35 B    1.156    45 B    0.813    41 B    0.598
                            38 B    0.400    34 B    0.140
    38   5 B    3.603 --    39 B    1.023    41 B    0.840    34 B    0.612
                            37 B    0.400    35 B    0.363    33 B    0.104
    39   5 B    3.364 --    40 B    1.037    38 B    1.023    76 H    0.931
                            41 B    0.104
    40   5 B    3.284 --    39 B    1.037    42 B    0.992    77 H    0.923
                            50 B    0.129
    41   5 B    3.676 --    38 B    0.840    49 B    0.741    48 B    0.659
                            37 B    0.598    45 B    0.421    39 B    0.104
    42   5 B    3.358 --    50 B    1.016    40 B    0.992    78 H    0.934
                            49 B    0.122
    43   5 B    3.629 --    79 H    0.926    36 B    0.883    44 B    0.828
                            46 B    0.778
    44   5 B    3.608 --    36 B    0.860    43 B    0.828    45 B    0.818
                            46 B    0.815
    45   5 B    3.633 --    44 B    0.818    37 B    0.813    47 B    0.740
                            48 B    0.427    41 B    0.421
    46   5 B    3.552 --    44 B    0.815    53 B    0.797    43 B    0.778
                            54 B    0.767    36 B    0.105
    47   5 B    3.618 --    48 B    0.768    45 B    0.740    55 B    0.675
                            58 B    0.570    51 B    0.472
    48   5 B    3.607 --    51 B    0.903    47 B    0.768    41 B    0.659
                            49 B    0.607    45 B    0.427
    49   5 B    3.521 --    50 B    1.010    41 B    0.741    51 B    0.688
                            48 B    0.607    42 B    0.122
    50   5 B    3.481 --    42 B    1.016    49 B    1.010    52 B    0.834
                            60 B    0.206    40 B    0.129
    51   5 B    3.598 --    59 B    0.938    48 B    0.903    49 B    0.688
                            47 B    0.472    58 B    0.197
    52   5 B    3.426 --    60 B    1.197    80 H    0.959    50 B    0.834
                            62 B    0.159
    53   5 B    3.577 --    81 H    0.920    54 B    0.841    56 B    0.808
                            46 B    0.797
    54   5 B    3.599 --    55 B    0.980    53 B    0.841    46 B    0.767
                            56 B    0.676
    55   5 B    3.629 --    54 B    0.980    57 B    0.862    58 B    0.675
                            47 B    0.675
    56   5 B    3.573 --    64 B    0.816    53 B    0.808    63 B    0.801
                            54 B    0.676    66 B    0.169
    57   5 B    3.657 --    55 B    0.862    58 B    0.803    65 B    0.669
                            68 B    0.656    61 B    0.282
    58   5 B    3.671 --    57 B    0.803    55 B    0.675    61 B    0.667
                            47 B    0.570    59 B    0.483    51 B    0.197
    59   5 B    3.521 --    51 B    0.938    60 B    0.839    61 B    0.766
                            58 B    0.483    62 B    0.157
    60   5 B    3.441 --    52 B    1.197    59 B    0.839    62 B    0.792
                            50 B    0.206
    61   5 B    3.590 --    59 B    0.766    69 B    0.717    58 B    0.667
                            70 B    0.477    62 B    0.285    57 B    0.282
                            68 B    0.126
    62   5 B    3.520 --    70 B    0.958    82 H    0.934    60 B    0.792
                            61 B    0.285    52 B    0.159    59 B    0.157
    63   5 B    3.596 --    66 B    1.020    83 H    0.908    56 B    0.801
                            64 B    0.738
    64   5 B    3.597 --    65 B    0.937    66 B    0.935    56 B    0.816
                            63 B    0.738
    65   5 B    3.610 --    64 B    0.937    67 B    0.821    68 B    0.701
                            57 B    0.669    66 B    0.183
    66   5 B    3.433 --    63 B    1.020    84 H    0.973    64 B    0.935
                            65 B    0.183    56 B    0.169
    67   5 B    3.507 --    85 H    0.956    65 B    0.821    68 B    0.792
                            71 B    0.724
    68   5 B    3.643 --    67 B    0.792    71 B    0.741    65 B    0.701
                            57 B    0.656    69 B    0.459    61 B    0.126
    69   5 B    3.638 --    72 B    0.885    61 B    0.717    70 B    0.711
                            71 B    0.710    68 B    0.459
    70   5 B    3.572 --    72 B    1.175    62 B    0.958    69 B    0.711
                            61 B    0.477
    71   5 B    3.565 --    86 H    0.954    68 B    0.741    67 B    0.724
                            69 B    0.710    72 B    0.244
    72   5 B    3.522 --    70 B    1.175    87 H    0.965    69 B    0.885
                            71 B    0.244
    73   1 H    0.979 --    33 B    0.952
    74   1 H    0.993 --    33 B    0.515    34 B    0.446
    75   1 H    0.978 --    35 B    0.950
    76   1 H    0.979 --    39 B    0.931
    77   1 H    0.986 --    40 B    0.923
    78   1 H    0.983 --    42 B    0.934
    79   1 H    0.975 --    43 B    0.926
    80   1 H    0.979 --    52 B    0.959
    81   1 H    0.981 --    53 B    0.920
    82   1 H    0.980 --    62 B    0.934
    83   1 H    0.982 --    63 B    0.908
    84   1 H    0.982 --    66 B    0.973
    85   1 H    0.985 --    67 B    0.956
    86   1 H    0.983 --    71 B    0.954
    87   1 H    0.980 --    72 B    0.965
 ---------------------------------------------------------------------------

Topologies differ in total number of bonds
Writing topology from bond orders to xtbtopo.mol

molecular dipole:
                 x           y           z       tot (Debye)
 q only:        0.865      -2.082      -3.477
   full:        0.361      -2.724      -2.692       9.778
molecular quadrupole (traceless):
                xx          xy          yy          xz          yz          zz
 q only:       28.408       7.330      53.048       3.493     -28.059     -81.456
  q+dip:       36.189       8.038      48.658      12.389     -35.386     -84.847
   full:       31.759       6.046      43.658       9.428     -33.933     -75.417

           -------------------------------------------------
          |                Geometry Summary                 |
           -------------------------------------------------

      molecular mass/u    :      749.7965137
   center of mass at/Å    :        0.0126953       0.1021435       3.5238647
  moments of inertia/u·Å² :        0.9698310E+04   0.1291773E+05   0.1506333E+05
rotational constants/cm⁻¹ :        0.1738203E-02   0.1305000E-02   0.1119117E-02

 * 109 selected distances

     #   Z          #   Z                                           value/Å
     3   6 C        4   8 O                                       1.3589164
     3   6 C        5   6 C                                       1.3741314
     6   6 C        7   6 C                                       1.3987645
     7   6 C        8   6 C                                       1.3806335
     8   6 C        9   6 C                                       1.3856457
     9   6 C       10   8 O                                       1.3788019
     9   6 C       11   6 C                                       1.4007504
    11   6 C       12   8 O                                       1.3611131
     6   6 C       13   6 C                                       1.4035865
    11   6 C       13   6 C                                       1.3777457
     5   6 C       14   8 O                                       1.3767977
    14   8 O       15   6 C                                       1.3486344
    15   6 C       16   6 C                                       1.3866380
    16   6 C       17   6 C                                       1.3906096
    17   6 C       18   8 O                                       1.3569147
    17   6 C       19   6 C                                       1.3909775
    19   6 C       20   6 C                                       1.3877827
    20   6 C       21   8 O                                       1.3376599
    15   6 C       22   6 C                                       1.4017213
    20   6 C       22   6 C                                       1.4127463
     4   8 O       23   1 H                                       0.9831882
     7   6 C       24   1 H                                       1.0747227
     8   6 C       25   1 H                                       1.0813086
    10   8 O       26   1 H                                       0.9620773 (min)
    12   8 O       27   1 H                                       0.9661683
    13   6 C       28   1 H                                       1.0759239
    16   6 C       29   1 H                                       1.0771439
    18   8 O       30   1 H                                       0.9640532
    19   6 C       31   1 H                                       1.0798478
    21   8 O       32   1 H                                       0.9956796
    33   5 B       34   5 B                                       1.5864444
    34   5 B       35   5 B                                       1.6551270
    33   5 B       36   5 B                                       1.6122348
    35   5 B       37   5 B                                       1.5510608
    34   5 B       38   5 B                                       1.7257838
    38   5 B       39   5 B                                       1.6120264
    39   5 B       40   5 B                                       1.6235613
    37   5 B       41   5 B                                       1.6659114
    38   5 B       41   5 B                                       1.6359136
    40   5 B       42   5 B                                       1.6253960
    36   5 B       43   5 B                                       1.6504796
    36   5 B       44   5 B                                       1.6110692
    43   5 B       44   5 B                                       1.5972007
    37   5 B       45   5 B                                       1.6392692
    44   5 B       45   5 B                                       1.6412577
    43   5 B       46   5 B                                       1.6941796
    44   5 B       46   5 B                                       1.6233227
    45   5 B       47   5 B                                       1.6573558
    41   5 B       48   5 B                                       1.6684697
    47   5 B       48   5 B                                       1.6110201
    41   5 B       49   5 B                                       1.6550612
    48   5 B       49   5 B                                       1.6670025
    42   5 B       50   5 B                                       1.5956105
    49   5 B       50   5 B                                       1.5827229
    48   5 B       51   5 B                                       1.5877567
    49   5 B       51   5 B                                       1.6951257
    50   5 B       52   5 B                                       1.6600622
    46   5 B       53   5 B                                       1.6707010
    46   5 B       54   5 B                                       1.6407709
    53   5 B       54   5 B                                       1.5966124
    47   5 B       55   5 B                                       1.6751667
    54   5 B       55   5 B                                       1.5934970
    53   5 B       56   5 B                                       1.6643868
    54   5 B       56   5 B                                       1.6718260
    55   5 B       57   5 B                                       1.6277700
    47   5 B       58   5 B                                       1.6759549
    55   5 B       58   5 B                                       1.6367309
    57   5 B       58   5 B                                       1.5977126
    51   5 B       59   5 B                                       1.6142649
    58   5 B       59   5 B                                       1.7618406 (max)
    52   5 B       60   5 B                                       1.5503412
    59   5 B       60   5 B                                       1.6353177
    58   5 B       61   5 B                                       1.6247481
    59   5 B       61   5 B                                       1.6609243
    60   5 B       62   5 B                                       1.6542669
    56   5 B       63   5 B                                       1.6682727
    56   5 B       64   5 B                                       1.6350925
    63   5 B       64   5 B                                       1.6397005
    57   5 B       65   5 B                                       1.6974459
    64   5 B       65   5 B                                       1.6028374
    63   5 B       66   5 B                                       1.5996832
    64   5 B       66   5 B                                       1.5842897
    65   5 B       67   5 B                                       1.6881370
    57   5 B       68   5 B                                       1.6637567
    65   5 B       68   5 B                                       1.6401660
    67   5 B       68   5 B                                       1.6096245
    61   5 B       69   5 B                                       1.6764307
    62   5 B       70   5 B                                       1.6067963
    69   5 B       70   5 B                                       1.6617690
    68   5 B       71   5 B                                       1.6206806
    69   5 B       71   5 B                                       1.6755467
    69   5 B       72   5 B                                       1.6160946
    70   5 B       72   5 B                                       1.5429380
    33   5 B       73   1 H                                       1.1715263
    33   5 B       74   1 H                                       1.3015300
    34   5 B       74   1 H                                       1.3447795
    35   5 B       75   1 H                                       1.1773103
    39   5 B       76   1 H                                       1.1838700
    40   5 B       77   1 H                                       1.1800583
    42   5 B       78   1 H                                       1.1753130
    43   5 B       79   1 H                                       1.1714642
    52   5 B       80   1 H                                       1.1742260
    53   5 B       81   1 H                                       1.1704376
    62   5 B       82   1 H                                       1.1814443
    63   5 B       83   1 H                                       1.1699932
    66   5 B       84   1 H                                       1.1654060
    67   5 B       85   1 H                                       1.1683152
    71   5 B       86   1 H                                       1.1732451
    72   5 B       87   1 H                                       1.1675782

 * 6 distinct bonds (by element types)

   Z      Z             #   av. dist./Å        max./Å        min./Å
   1 H    5 B          16     1.1922811     1.3447795     1.1654060
   5 B    5 B          63     1.6367067     1.7618406     1.5429380
   1 H    6 C           5     1.0777894     1.0813086     1.0747227
   6 C    6 C          13     1.3916718     1.4127463     1.3741314
   1 H    8 O           5     0.9742333     0.9956796     0.9620773
   6 C    8 O           7     1.3598340     1.3788019     1.3376599


optimized geometry written to: xtbopt.xyz


           -------------------------------------------------
          | TOTAL ENERGY             -121.941782968475 Eh   |
          | GRADIENT NORM               0.003825237538 Eh/α |
          | HOMO-LUMO GAP               0.028048245342 eV   |
           -------------------------------------------------

------------------------------------------------------------------------
 * finished run on 2026/09/01 at 20:37:40.982     
------------------------------------------------------------------------
 total:
 * wall-time:     0 d,  0 h,  0 min, 22.338 sec
 *  cpu-time:     0 d,  0 h,  4 min, 13.062 sec
 * ratio c/w:    11.329 speedup
 SCF:
 * wall-time:     0 d,  0 h,  0 min,  0.483 sec
 *  cpu-time:     0 d,  0 h,  0 min,  5.297 sec
 * ratio c/w:    10.967 speedup
 ANC optimizer:
 * wall-time:     0 d,  0 h,  0 min, 21.809 sec
 *  cpu-time:     0 d,  0 h,  4 min,  7.219 sec
 * ratio c/w:    11.336 speedup

