87
 energy: -121.941782968475 gnorm: 0.003825237538 xtb: 6.7.1pre (5071a88)
O           -0.14053334619790        2.29494271287028       10.50400468342585
C           -0.14018033300840        1.92913667384205        9.29555453077508
C           -0.04364845997508        0.52450298874036        8.98803606659554
O            0.03917018794213       -0.27367659260502       10.08471458807793
C           -0.03835385799113        0.06826113169877        7.69186782480156
C            0.07845971531715       -1.30087255688021        7.24140533297463
C            0.32926784711052       -2.36427175355230        8.11480055298080
C            0.46817052042939       -3.64965785905860        7.63040708795884
C            0.35765001185285       -3.91260714796057        6.27443638316733
O            0.49289365159013       -5.17137458690081        5.72826046183092
C            0.09391341040503       -2.86019078693726        5.38845430968900
O           -0.03224129122034       -3.09424893085415        4.05356469117060
C           -0.03934940531981       -1.57629636438001        5.87015864747077
O           -0.14121987152903        0.96378344381865        6.65118053867944
C           -0.22013777650565        2.29131127439366        6.87535957525471
C           -0.29458294910682        3.12402326759081        5.76909865885510
C           -0.36932541554402        4.49952738548551        5.95935263792376
O           -0.43061537299897        5.28192431289505        4.85241287329209
C           -0.37234739617738        5.04709179532632        7.23801685361766
C           -0.30063482605494        4.22180312115371        8.35143344465839
O           -0.30229437738646        4.74488537145289        9.58257755370810
C           -0.22191944348551        2.82265046238332        8.17247091862412
H           -0.00060503872360        0.36470459246624       10.83140480776657
H            0.42059622740947       -2.18032735450812        9.16971863603396
H            0.66895854680395       -4.46397571721819        8.31290146463420
H            0.68500419930079       -5.79897675468637        6.43168184453948
H            0.18824074575123       -4.01775681662134        3.87467396801039
H           -0.24108514072352       -0.78393260715910        5.17082010413628
H           -0.29896324481168        2.72152934649798        4.76998998460375
H           -0.51173133369757        6.20681780671137        5.11200983894328
H           -0.43059827980523        6.11520793905593        7.38568481902102
H           -0.24559290721435        3.98006833931866       10.21757166903768
B           -4.78735060114127       -2.57326201503034        0.00272160278524
B           -4.11196789418999       -1.28180687545371       -0.62402159706326
B           -3.27032243407729       -0.20935118749967       -1.56259312069861
B           -3.18611426919201       -2.76122376959613        0.00633447436714
B           -2.26665884147783        0.06237477136490       -0.41167457490690
B           -4.05118738618476        0.30220321361917        0.05828843400250
B           -5.07401320399976        1.53560678964957        0.23484337072626
B           -4.44508812709291        3.02589127912829        0.09535808487861
B           -2.81601390440743        0.38406096072675        1.12780172344252
B           -3.57647878785777        3.69862702973166        1.29321284923881
B           -2.06213070904329       -3.95752346192417        0.17841155925127
B           -1.67276304101892       -2.43260101121139        0.45053996016920
B           -1.48484153237282       -0.82512479688615        0.72336254586499
B           -0.50590213065643       -3.53390267840510        0.69700792950856
B           -0.25750992639364       -0.44113137946041        1.76884523456380
B           -1.68725138485589        0.06307221475011        2.31382535592895
B           -2.01069272048096        1.63307627312796        1.85625600997255
B           -2.10201286872743        3.09059600617176        1.24608527332887
B           -0.57169255729152        1.15269197711019        2.61253631428605
B           -0.82095693964270        3.97923946445819        0.67598477213584
B            0.85367280690581       -4.46380781911929        0.97642489308065
B            0.88614372872584       -2.89844003463886        1.28905890999215
B            1.13453134105968       -1.36409550333030        1.64023210321709
B            2.20360201324664       -3.83373090922981        1.71863578166408
B            2.58405521626731       -0.62582331340886        1.69913463553410
B            1.26383427437732        0.23687474539390        1.95497409336361
B            0.81156881767598        1.91050830656271        2.26880242312585
B            0.28848021269617        3.03059218789008        1.19826334176085
B            2.20290974253125        1.47259148474961        1.47440440311869
B            0.97061455167218        2.11357398578644        0.00228303160605
B            3.26449549916671       -4.34868188476201        2.89866286203963
B            3.64015977602831       -3.08147643096948        1.92825882180117
B            3.97908011839989       -1.57318066677939        1.50486276229866
B            4.52054784749374       -3.40651701224781        3.20467527646403
B            5.29986675348397       -0.75422280061540        0.84559295512853
B            4.08755407708834        0.06333753468184        1.51848501797958
B            3.77472238333420        1.74298900150062        0.95796521880334
B            2.57269496425393        2.14587285066467       -0.11641377736512
B            5.27758514173737        1.00225152689187        0.94501170301076
B            4.04918793894307        2.24735359759423       -0.55267916030418
H           -5.66030844063155       -3.07412300191331        0.60235194184863
H           -5.18251189172774       -1.95942945968763       -1.07479280278224
H           -3.53010746631675        0.06586031652162       -2.67741577273682
H           -6.21463793095100        1.36118820647710        0.49960998596838
H           -4.59520828524070        3.61587931291408       -0.91554022265742
H           -4.04454717411133        4.46460140291551        2.05186674812903
H           -2.32182735424956       -5.07814494242724       -0.04315863365484
H           -0.85376348964412        4.93442618388565       -0.00617972609454
H            0.90962559662169       -5.58814425010201        0.65601771288481
H            0.33606026475100        1.40411205536995       -0.69758474202214
H            3.01881516932472       -5.32045383699999        3.50213975557825
H            5.42526160795012       -3.14513833340753        3.89122097133974
H            6.29290697298707       -1.26029380226596        0.49527408879884
H            6.30809406415901        1.54546059142548        1.08457938876218
H            4.83877041524629        2.50716576998633       -1.37261554388211
