      -----------------------------------------------------------      
     |                   =====================                   |     
     |                           x T B                           |     
     |                   =====================                   |     
     |                         S. Grimme                         |     
     |          Mulliken Center for Theoretical Chemistry        |     
     |                    University of Bonn                     |     
      -----------------------------------------------------------      

   * xtb version 6.7.1pre (5071a88) compiled by 'Marcel@Raven' on 2024-07-23

   xtb is free software: you can redistribute it and/or modify it under
   the terms of the GNU Lesser General Public License as published by
   the Free Software Foundation, either version 3 of the License, or
   (at your option) any later version.
   
   xtb is distributed in the hope that it will be useful,
   but WITHOUT ANY WARRANTY; without even the implied warranty of
   MERCHANTABILITY or FITNESS FOR A PARTICULAR PURPOSE.  See the
   GNU Lesser General Public License for more details.
   
   Cite this work as:
   * C. Bannwarth, E. Caldeweyher, S. Ehlert, A. Hansen, P. Pracht,
     J. Seibert, S. Spicher, S. Grimme, WIREs Comput. Mol. Sci., 2020, 11,
     e01493. DOI: 10.1002/wcms.1493
   
   for GFN2-xTB:
   * C. Bannwarth, S. Ehlert and S. Grimme., J. Chem. Theory Comput., 2019,
     15, 1652-1671. DOI: 10.1021/acs.jctc.8b01176
   for GFN1-xTB:
   * S. Grimme, C. Bannwarth, P. Shushkov, J. Chem. Theory Comput., 2017,
     13, 1989-2009. DOI: 10.1021/acs.jctc.7b00118
   for GFN0-xTB:
   * P. Pracht, E. Caldeweyher, S. Ehlert, S. Grimme, ChemRxiv, 2019, preprint.
     DOI: 10.26434/chemrxiv.8326202.v1
   for GFN-FF:
   * S. Spicher and S. Grimme, Angew. Chem. Int. Ed., 2020, 59, 15665-15673.
     DOI: 10.1002/anie.202004239
   
   for ALPB and GBSA implicit solvation:
   * S. Ehlert, M. Stahn, S. Spicher, S. Grimme, J. Chem. Theory Comput.,
     2021, 17, 4250-4261. DOI: 10.1021/acs.jctc.1c00471
   
   for ddCOSMO and CPCM-X implicit solvation:
   * M. Stahn, S. Ehlert, S. Grimme, J. Phys. Chem. A,
     2023, XX, XXXX-XXXX. DOI: 10.1021/acs.jpca.3c04382
   
   for DFT-D4:
   * E. Caldeweyher, C. Bannwarth and S. Grimme, J. Chem. Phys., 2017,
     147, 034112. DOI: 10.1063/1.4993215
   * E. Caldeweyher, S. Ehlert, A. Hansen, H. Neugebauer, S. Spicher,
     C. Bannwarth and S. Grimme, J. Chem. Phys., 2019, 150, 154122.
     DOI: 10.1063/1.5090222
   * E. Caldeweyher, J.-M. Mewes, S. Ehlert and S. Grimme, Phys. Chem. Chem. Phys.
     2020, 22, 8499-8512. DOI: 10.1039/D0CP00502A
   
   for sTDA-xTB:
   * S. Grimme and C. Bannwarth, J. Chem. Phys., 2016, 145, 054103.
     DOI: 10.1063/1.4959605
   
   in the mass-spec context:
   * V. Asgeirsson, C. Bauer and S. Grimme, Chem. Sci., 2017, 8, 4879.
     DOI: 10.1039/c7sc00601b
   * J. Koopman and S. Grimme, ACS Omega 2019, 4, 12, 15120-15133.
     DOI: 10.1021/acsomega.9b02011
   
   for metadynamics refer to:
   * S. Grimme, J. Chem. Theory Comput., 2019, 155, 2847-2862
     DOI: 10.1021/acs.jctc.9b00143
   
   for SPH calculations refer to:
   * S. Spicher and S. Grimme, J. Chem. Theory Comput., 2021, 17, 1701-1714
     DOI: 10.1021/acs.jctc.0c01306
   
   for ONIOM refer to:
   * C. Plett, A. Katbashev, S. Ehlert, S. Grimme, M. Bursch,
     Phys. Chem. Chem. Phys., 2023, 25, 17860-17868. DOI: 10.1039/D3CP02178E
   
   for DIPRO refer to:
   * J. Kohn, N. Gildemeister, S. Grimme, D. Fazzi, A. Hansen,
     J. Chem. Phys., 2023, just accepted.
   
   for PTB refer to:
   * S. Grimme, M. Mueller, A. Hansen, J. Chem. Phys., 2023, 158, 124111.
     DOI: 10.1063/5.0137838
   
   with help from (in alphabetical order)
   P. Atkinson, C. Bannwarth, F. Bohle, G. Brandenburg, E. Caldeweyher
   M. Checinski, S. Dohm, S. Ehlert, S. Ehrlich, I. Gerasimov, C. Hölzer
   A. Katbashev, J. Kohn, J. Koopman, C. Lavigne, S. Lehtola, F. März, M. Müller,
   F. Musil, H. Neugebauer, J. Pisarek, C. Plett, P. Pracht, F. Pultar,
   J. Seibert, P. Shushkov, S. Spicher, M. Stahn, M. Steiner, T. Strunk,
   J. Stückrath, T. Rose, and J. Unsleber
   
 * started run on 2026/08/31 at 22:08:19.960     
   ID    Z sym.   atoms
    1    8 O      1, 4, 10, 12, 14, 18, 21
    2    6 C      2, 3, 5-9, 11, 13, 15-17, 19, 20, 22
    3    1 H      23-32, 86-92
    4    5 B      33-85

           -------------------------------------------------
          |                Calculation Setup                |
           -------------------------------------------------

          program call               : "c:\Users\Andre\Proyectos doctorado\kras-pancreatic-gC3N4-ai\tools\xtb\xtb-6.7.1\bin\xtb.exe" "c:\Users\Andre\Proyectos doctorado\borophene-alzheimer-tau-ai\calculations\tau\Quercetin\Quercetin_opt_180deg.xyz" --opt vloose --gfn 2 --chrg 0 --uhf 0 --etemp 300 --iterations 500 --cycles 15 --norestart
          coordinate file            : c:\Users\Andre\Proyectos doctorado\borophene-alzheimer-tau-ai\calculations\tau\Quercetin\Quercetin_opt_180deg.xyz
          omp threads                :                    16


molecular fragmentation (1/2 indicates fragments):
111111111111111111111111111111112222222222222222222222222222222222222222
22222222222222222222
# atoms in fragment 1/2:    32    60
 fragment masses (1/2) :      302.24      580.04
CMA distance (Bohr)    :  14.679
constraining FC (au)   :  0.0500

           -------------------------------------------------
          |                 G F N 2 - x T B                 |
           -------------------------------------------------

        Reference                      10.1021/acs.jctc.8b01176
      * Hamiltonian:
        H0-scaling (s, p, d)           1.850000    2.230000    2.230000
        zeta-weighting                 0.500000
      * Dispersion:
        s8                             2.700000
        a1                             0.520000
        a2                             5.000000
        s9                             5.000000
      * Repulsion:
        kExp                           1.500000    1.000000
        rExp                           1.000000
      * Coulomb:
        alpha                          2.000000
        third order                    shell-resolved
        anisotropic                    true
        a3                             3.000000
        a5                             4.000000
        cn-shift                       1.200000
        cn-exp                         4.000000
        max-rad                        5.000000


          ...................................................
          :                      SETUP                      :
          :.................................................:
          :  # basis functions                 317          :
          :  # atomic orbitals                 317          :
          :  # shells                          167          :
          :  # electrons                       278          :
          :  max. iterations                   500          :
          :  Hamiltonian                  GFN2-xTB          :
          :  restarted?                      false          :
          :  GBSA solvation                  false          :
          :  PC potential                    false          :
          :  electronic temp.          300.0000000     K    :
          :  accuracy                    1.0000000          :
          :  -> integral cutoff          0.2500000E+02      :
          :  -> integral neglect         0.1000000E-07      :
          :  -> SCF convergence          0.1000000E-05 Eh   :
          :  -> wf. convergence          0.1000000E-03 e    :
          :  Broyden damping             0.4000000          :
          :  net charge                          0          :
          :  unpaired electrons                  0          :
          ...................................................

 iter      E             dE          RMSdq      gap      omega  full diag
   1   -134.2699403 -0.134270E+03  0.157E+01    0.36       0.0  T
   2   -122.5381058  0.117318E+02  0.109E+01    0.02       1.0  T
   3     94.1772091  0.216715E+03  0.205E+01    0.02       1.0  T
   4      3.2103745 -0.909668E+02  0.162E+01    0.12       1.0  T
   5    -82.5994799 -0.858099E+02  0.104E+01    0.12       1.0  T
   6    -48.2883119  0.343112E+02  0.134E+01    0.05       1.0  T
   7   -129.7715420 -0.814832E+02  0.570E+00    0.09       1.0  T
   8   -121.1961059  0.857544E+01  0.579E+00    0.11       1.0  T
   9   -134.4055120 -0.132094E+02  0.356E+00    0.44       1.0  T
  10   -134.7975464 -0.392034E+00  0.296E+00    0.46       1.0  T
  11   -135.0161913 -0.218645E+00  0.267E+00    0.42       1.0  T
  12   -135.0409634 -0.247720E-01  0.249E+00    0.43       1.0  T
  13   -134.9365210  0.104442E+00  0.207E+00    0.32       1.0  T
  14   -134.3367264  0.599795E+00  0.181E+00    0.07       1.0  T
  15   -134.9728313 -0.636105E+00  0.123E+00    0.21       1.0  T
  16   -134.3648973  0.607934E+00  0.177E+00    0.22       1.0  T
  17   -134.5634589 -0.198562E+00  0.158E+00    0.24       1.0  T
  18   -134.6013802 -0.379214E-01  0.152E+00    0.22       1.0  T
  19   -134.7161866 -0.114806E+00  0.139E+00    0.16       1.0  T
  20   -134.9633955 -0.247209E+00  0.104E+00    0.03       1.0  T
  21   -135.1892350 -0.225840E+00  0.636E-01    0.36       1.0  T
  22   -135.2023125 -0.130775E-01  0.604E-01    0.38       1.0  T
  23   -135.2045115 -0.219900E-02  0.536E-01    0.43       1.0  T
  24   -135.2084691 -0.395759E-02  0.422E-01    0.46       1.0  T
  25   -135.2081299  0.339192E-03  0.383E-01    0.45       1.0  T
  26   -135.2074351  0.694746E-03  0.373E-01    0.45       1.0  T
  27   -135.2077386 -0.303420E-03  0.347E-01    0.39       1.0  T
  28   -135.2114946 -0.375604E-02  0.307E-01    0.23       1.0  T
  29   -135.2168008 -0.530622E-02  0.264E-01    0.15       1.0  T
  30   -135.2172289 -0.428043E-03  0.260E-01    0.15       1.0  T
  31   -135.2171767  0.521877E-04  0.260E-01    0.15       1.0  T
  32   -135.2209590 -0.378238E-02  0.225E-01    0.13       1.0  T
  33   -135.2285520 -0.759296E-02  0.147E-01    0.08       1.0  T
  34   -135.2082671  0.202849E-01  0.327E-01    0.02       1.0  T
  35   -135.1445955  0.636716E-01  0.594E-01    0.02       1.0  T
  36   -135.1747001 -0.301046E-01  0.482E-01    0.00       1.0  T
  37   -135.1954359 -0.207358E-01  0.386E-01    0.01       1.0  T
  38   -135.2313710 -0.359352E-01  0.717E-02    0.07       1.0  T
  39   -135.2302005  0.117059E-02  0.932E-02    0.10       1.0  T
  40   -135.2297033  0.497162E-03  0.102E-01    0.10       1.0  T
  41   -135.2303468 -0.643544E-03  0.893E-02    0.10       1.0  T
  42   -135.2312300 -0.883116E-03  0.690E-02    0.09       1.0  T
  43   -135.2313131 -0.831228E-04  0.666E-02    0.09       1.0  T
  44   -135.2316940 -0.380880E-03  0.550E-02    0.09       1.0  T
  45   -135.2320990 -0.405054E-03  0.394E-02    0.08       1.0  T
  46   -135.2324652 -0.366179E-03  0.158E-02    0.08       1.0  T
  47   -135.2325168 -0.516013E-04  0.734E-03    0.07       1.4  T
  48   -135.2325180 -0.119476E-05  0.639E-03    0.07       1.6  T
  49   -135.2324748  0.431641E-04  0.142E-02    0.07       1.0  T
  50   -135.2325135 -0.386467E-04  0.709E-03    0.07       1.5  T
  51   -135.2325147 -0.126183E-05  0.677E-03    0.07       1.5  T
  52   -135.2325257 -0.109467E-04  0.193E-03    0.07       5.4  T
  53   -135.2325266 -0.935583E-06  0.518E-04    0.07      20.1  T
  54   -135.2325266 -0.373706E-07  0.288E-04    0.07      36.3  T

   *** convergence criteria satisfied after 54 iterations ***

         #    Occupation            Energy/Eh            Energy/eV
      -------------------------------------------------------------
         1        2.0000           -0.7096632             -19.3109
       ...           ...                  ...                  ...
       133        2.0000           -0.2727259              -7.4213
       134        2.0000           -0.2672838              -7.2732
       135        2.0000           -0.2669211              -7.2633
       136        2.0000           -0.2625853              -7.1453
       137        1.9999           -0.2583069              -7.0289
       138        1.9993           -0.2564501              -6.9784
       139        1.6165           -0.2502368              -6.8093 (HOMO)
       140        0.3843           -0.2475055              -6.7350 (LUMO)
       141        0.0000           -0.2333016              -6.3485
       142                         -0.2298662              -6.2550
       143                         -0.2261895              -6.1549
       144                         -0.2166381              -5.8950
       ...                                ...                  ...
       317                          1.1888883              32.3513
      -------------------------------------------------------------
                  HL-Gap            0.0027313 Eh            0.0743 eV
             Fermi-level           -0.2488699 Eh           -6.7721 eV

 SCC (total)                   0 d,  0 h,  0 min,  1.539 sec
 SCC setup                      ...        0 min,  0.006 sec (  0.390%)
 Dispersion                     ...        0 min,  0.006 sec (  0.390%)
 classical contributions        ...        0 min,  0.006 sec (  0.390%)
 integral evaluation            ...        0 min,  0.011 sec (  0.715%)
 iterations                     ...        0 min,  1.483 sec ( 96.361%)
 molecular gradient             ...        0 min,  0.024 sec (  1.559%)
 printout                       ...        0 min,  0.003 sec (  0.195%)

         :::::::::::::::::::::::::::::::::::::::::::::::::::::
         ::                     SUMMARY                     ::
         :::::::::::::::::::::::::::::::::::::::::::::::::::::
         :: total energy            -133.386949606015 Eh    ::
         :: gradient norm              0.092299916559 Eh/a0 ::
         :: HOMO-LUMO gap              0.074323668672 eV    ::
         ::.................................................::
         :: SCC energy              -135.229978633322 Eh    ::
         :: -> isotropic ES            0.378057881952 Eh    ::
         :: -> anisotropic ES          0.000012548837 Eh    ::
         :: -> anisotropic XC         -0.052795308121 Eh    ::
         :: -> dispersion             -0.114592233308 Eh    ::
         :: repulsion energy           1.843029027308 Eh    ::
         :: add. restraining           0.000000000000 Eh    ::
         :: total charge               0.000000000603 e     ::
         :::::::::::::::::::::::::::::::::::::::::::::::::::::

      ----------------------------------------------------------- 
     |                   =====================                   |
     |                        A N C O P T                        |
     |                   =====================                   |
     |               Approximate Normal Coordinate               |
     |                Rational Function Optimizer                |
      ----------------------------------------------------------- 
      ----------------------------------------------------------- 
     |                   =====================                   |
     |                        A N C O P T                        |
     |                   =====================                   |
     |               Approximate Normal Coordinate               |
     |                Rational Function Optimizer                |
      ----------------------------------------------------------- 

          ...................................................
          :                      SETUP                      :
          :.................................................:
          :   optimization level            normal          :
          :   max. optcycles                    15          :
          :   ANC micro-cycles                  15          :
          :   degrees of freedom               270          :
          :.................................................:
          :   RF solver                   davidson          :
          :   write xtbopt.log                true          :
          :   linear?                        false          :
          :   energy convergence         0.5000000E-05 Eh   :
          :   grad. convergence          0.1000000E-02 Eh/α :
          :   maxmium RF displ.          1.0000000          :
          :   Hlow (freq-cutoff)         0.1000000E-01      :
          :   Hmax (freq-cutoff)         5.0000000          :
          :   S6 in model hess.         20.0000000          :
          ...................................................

generating ANC from exact Hessian ...
Using Lindh-Hessian (1995)
 Shifting diagonal of input Hessian by   1.027601572797329E-002
 Lowest  eigenvalues of input Hessian
    0.010000    0.010052    0.010123    0.010130    0.010184    0.000000
    0.000000    0.000000    0.000000    0.000000    0.000000    0.010309
    0.010315    0.010338    0.010414    0.010662    0.010708    0.011021
 Highest eigenvalues
    1.993043    2.066186    2.078789    2.121561    2.149336    2.250998
 

........................................................................
.............................. CYCLE    1 ..............................
........................................................................

 iter      E             dE          RMSdq      gap      omega  full diag
   1   -135.2325267 -0.135233E+03  0.109E-04    0.07       0.0  T
   2   -135.2325264  0.270101E-06  0.103E-03    0.07      10.1  T
   3   -135.2325267 -0.267483E-06  0.166E-04    0.07      62.7  T
   4   -135.2325267 -0.247499E-08  0.125E-04    0.07      83.5  T
     SCC iter.                  ...        0 min,  0.082 sec
     gradient                   ...        0 min,  0.018 sec
 * total energy  :  -133.3869496 Eh     change       -0.1134015E-07 Eh
   gradient norm :     0.0922744 Eh/α   predicted     0.0000000E+00 (-100.00%)
   displ. norm   :     0.2555647 α      lambda       -0.1023561E-01
   maximum displ.:     0.1139569 α      in ANC's #115, #53, #57, ...

........................................................................
.............................. CYCLE    2 ..............................
........................................................................

 iter      E             dE          RMSdq      gap      omega  full diag
   1   -135.1422643 -0.135142E+03  0.682E-01    0.04       0.0  T
   2   -135.0703738  0.718905E-01  0.940E-01    0.45       1.0  T
   3   -135.1307903 -0.604165E-01  0.700E-01    0.36       1.0  T
   4   -135.2078559 -0.770656E-01  0.462E-01    0.44       1.0  T
   5   -135.2254156 -0.175597E-01  0.373E-01    0.46       1.0  T
   6   -135.2311300 -0.571440E-02  0.312E-01    0.40       1.0  T
   7   -135.2402530 -0.912297E-02  0.234E-01    0.16       1.0  T
   8   -135.1356222  0.104631E+00  0.670E-01    0.04       1.0  T
   9   -135.2457127 -0.110091E+00  0.172E-01    0.13       1.0  T
  10   -135.2437816  0.193112E-02  0.191E-01    0.14       1.0  T
  11   -135.2514971 -0.771549E-02  0.827E-02    0.09       1.0  T
  12   -135.2531839 -0.168679E-02  0.207E-02    0.08       1.0  T
  13   -135.2530469  0.136969E-03  0.301E-02    0.08       1.0  T
  14   -135.2532790 -0.232090E-03  0.481E-03    0.07       2.2  T
  15   -135.2532647  0.143533E-04  0.890E-03    0.07       1.2  T
  16   -135.2532817 -0.170706E-04  0.299E-03    0.07       3.5  T
  17   -135.2532792  0.251404E-05  0.424E-03    0.07       2.5  T
  18   -135.2532824 -0.322523E-05  0.237E-03    0.07       4.4  T
  19   -135.2532838 -0.139116E-05  0.425E-04    0.07      24.5  T
  20   -135.2532839 -0.321039E-07  0.198E-04    0.07      52.7  T
  21   -135.2532838  0.748897E-07  0.568E-04    0.07      18.4  T
     SCC iter.                  ...        0 min,  0.402 sec
     gradient                   ...        0 min,  0.018 sec
 * total energy  :  -133.3941735 Eh     change       -0.7223866E-02 Eh
   gradient norm :     0.0419222 Eh/α   predicted    -0.5455640E-02 ( -24.48%)
   displ. norm   :     0.2718561 α      lambda       -0.3863873E-02
   maximum displ.:     0.0949055 α      in ANC's #53, #48, #21, ...

........................................................................
.............................. CYCLE    3 ..............................
........................................................................

 iter      E             dE          RMSdq      gap      omega  full diag
   1   -135.2081282 -0.135208E+03  0.499E-01    0.01       0.0  T
   2   -135.1502796  0.578486E-01  0.738E-01    0.45       1.0  T
   3   -135.1955731 -0.452935E-01  0.532E-01    0.39       1.0  T
   4   -135.2322059 -0.366329E-01  0.380E-01    0.42       1.0  T
   5   -135.2416606 -0.945470E-02  0.318E-01    0.36       1.0  T
   6   -135.2493308 -0.767014E-02  0.249E-01    0.19       1.0  T
   7   -135.1912769  0.580539E-01  0.529E-01    0.02       1.0  T
   8   -135.2631326 -0.718557E-01  0.929E-02    0.09       1.0  T
   9   -135.2606971  0.243555E-02  0.139E-01    0.11       1.0  T
  10   -135.2653193 -0.462223E-02  0.341E-02    0.08       1.0  T
  11   -135.2652442  0.751436E-04  0.383E-02    0.08       1.0  T
  12   -135.2653983 -0.154124E-03  0.294E-02    0.08       1.0  T
  13   -135.2655913 -0.193024E-03  0.114E-02    0.07       1.0  T
  14   -135.2656203 -0.290123E-04  0.338E-03    0.07       3.1  T
  15   -135.2656058  0.145121E-04  0.800E-03    0.07       1.3  T
  16   -135.2656230 -0.171801E-04  0.646E-04    0.07      16.1  T
  17   -135.2656209  0.204823E-05  0.281E-03    0.07       3.7  T
  18   -135.2656226 -0.164853E-05  0.132E-03    0.07       7.9  T
  19   -135.2656228 -0.230024E-06  0.957E-04    0.07      10.9  T
  20   -135.2656230 -0.226507E-06  0.230E-04    0.07      45.4  T
     SCC iter.                  ...        0 min,  0.492 sec
     gradient                   ...        0 min,  0.019 sec
 * total energy  :  -133.3964815 Eh     change       -0.2308062E-02 Eh
   gradient norm :     0.0113968 Eh/α   predicted    -0.2075210E-02 ( -10.09%)
   displ. norm   :     0.2140206 α      lambda       -0.7823808E-03
   maximum displ.:     0.0930570 α      in ANC's #21, #14, #12, ...

........................................................................
.............................. CYCLE    4 ..............................
........................................................................

 iter      E             dE          RMSdq      gap      omega  full diag
   1   -135.2544417 -0.135254E+03  0.225E-01    0.03       0.0  T
   2   -135.2170763  0.373654E-01  0.466E-01    0.43       1.0  T
   3   -135.2405148 -0.234385E-01  0.319E-01    0.29       1.0  T
   4   -135.2477669 -0.725206E-02  0.261E-01    0.18       1.0  T
   5   -135.2647147 -0.169478E-01  0.730E-02    0.08       1.0  T
   6   -135.2312810  0.334337E-01  0.363E-01    0.00       1.0  T
   7   -135.2633761 -0.320952E-01  0.100E-01    0.09       1.0  T
   8   -135.2639913 -0.615228E-03  0.881E-02    0.09       1.0  T
   9   -135.2656867 -0.169532E-02  0.367E-02    0.08       1.0  T
  10   -135.2660095 -0.322803E-03  0.120E-02    0.07       1.0  T
  11   -135.2659841  0.253984E-04  0.150E-02    0.07       1.0  T
  12   -135.2660201 -0.360404E-04  0.977E-03    0.07       1.1  T
  13   -135.2660431 -0.230054E-04  0.248E-03    0.07       4.2  T
  14   -135.2660428  0.355061E-06  0.265E-03    0.07       3.9  T
  15   -135.2660445 -0.174065E-05  0.736E-04    0.07      14.2  T
  16   -135.2660446 -0.108565E-06  0.278E-04    0.07      37.6  T
  17   -135.2660446 -0.112408E-07  0.176E-04    0.07      59.4  T
     SCC iter.                  ...        0 min,  0.331 sec
     gradient                   ...        0 min,  0.017 sec
 * total energy  :  -133.3971083 Eh     change       -0.6267650E-03 Eh
   gradient norm :     0.0086899 Eh/α   predicted    -0.4091118E-03 ( -34.73%)
   displ. norm   :     0.4380184 α      lambda       -0.1096186E-02
   maximum displ.:     0.2142036 α      in ANC's #14, #21, #12, ...

........................................................................
.............................. CYCLE    5 ..............................
........................................................................

 iter      E             dE          RMSdq      gap      omega  full diag
   1   -135.2264762 -0.135226E+03  0.394E-01    0.00       0.0  T
   2   -135.1707766  0.556996E-01  0.652E-01    0.42       1.0  T
   3   -135.2131455 -0.423689E-01  0.451E-01    0.38       1.0  T
   4   -135.2313491 -0.182036E-01  0.358E-01    0.40       1.0  T
   5   -135.2403673 -0.901825E-02  0.295E-01    0.23       1.0  T
   6   -135.2616693 -0.213020E-01  0.787E-02    0.05       1.0  T
   7   -135.1619525  0.997168E-01  0.609E-01    0.04       1.0  T
   8   -135.2513220 -0.893695E-01  0.206E-01    0.14       1.0  T
   9   -135.2568019 -0.547991E-02  0.150E-01    0.11       1.0  T
  10   -135.2611855 -0.438355E-02  0.740E-02    0.08       1.0  T
  11   -135.2625239 -0.133842E-02  0.234E-02    0.07       1.0  T
  12   -135.2623935  0.130353E-03  0.319E-02    0.07       1.0  T
  13   -135.2625511 -0.157528E-03  0.208E-02    0.07       1.0  T
  14   -135.2626622 -0.111115E-03  0.329E-03    0.07       3.2  T
  15   -135.2626537  0.847556E-05  0.640E-03    0.07       1.6  T
  16   -135.2626625 -0.877069E-05  0.285E-03    0.07       3.7  T
  17   -135.2626645 -0.208199E-05  0.621E-04    0.07      16.8  T
  18   -135.2626646 -0.404073E-07  0.440E-04    0.07      23.7  T
  19   -135.2626646 -0.444857E-07  0.163E-04    0.07      63.9  T
     SCC iter.                  ...        0 min,  0.373 sec
     gradient                   ...        0 min,  0.019 sec
 * total energy  :  -133.3978826 Eh     change       -0.7742812E-03 Eh
   gradient norm :     0.0105541 Eh/α   predicted    -0.6532597E-03 ( -15.63%)
   displ. norm   :     0.4042088 α      lambda       -0.6295775E-03
   maximum displ.:     0.2202044 α      in ANC's #14, #21, #12, ...

........................................................................
.............................. CYCLE    6 ..............................
........................................................................

 iter      E             dE          RMSdq      gap      omega  full diag
   1   -135.2440180 -0.135244E+03  0.267E-01    0.02       0.0  T
   2   -135.1990177  0.450003E-01  0.521E-01    0.41       1.0  T
   3   -135.2283144 -0.292967E-01  0.356E-01    0.34       1.0  T
   4   -135.2355948 -0.728037E-02  0.303E-01    0.22       1.0  T
   5   -135.2581639 -0.225691E-01  0.889E-02    0.08       1.0  T
   6   -135.1303341  0.127830E+00  0.694E-01    0.06       1.0  T
   7   -135.2532898 -0.122956E+00  0.157E-01    0.11       1.0  T
   8   -135.2536161 -0.326297E-03  0.154E-01    0.11       1.0  T
   9   -135.2570689 -0.345279E-02  0.102E-01    0.09       1.0  T
  10   -135.2593837 -0.231481E-02  0.431E-02    0.07       1.0  T
  11   -135.2595412 -0.157429E-03  0.345E-02    0.07       1.0  T
  12   -135.2596425 -0.101316E-03  0.288E-02    0.07       1.0  T
  13   -135.2598047 -0.162226E-03  0.148E-02    0.07       1.0  T
  14   -135.2598607 -0.560121E-04  0.247E-03    0.06       4.2  T
  15   -135.2598616 -0.879951E-06  0.164E-03    0.06       6.4  T
  16   -135.2598622 -0.613038E-06  0.393E-04    0.06      26.5  T
  17   -135.2598620  0.156147E-06  0.825E-04    0.06      12.6  T
     SCC iter.                  ...        0 min,  0.377 sec
     gradient                   ...        0 min,  0.020 sec
 * total energy  :  -133.3983810 Eh     change       -0.4983920E-03 Eh
   gradient norm :     0.0115766 Eh/α   predicted    -0.3662223E-03 ( -26.52%)
   displ. norm   :     0.4562635 α      lambda       -0.7311015E-03
   maximum displ.:     0.2524488 α      in ANC's #14, #21, #12, ...

........................................................................
.............................. CYCLE    7 ..............................
........................................................................

 iter      E             dE          RMSdq      gap      omega  full diag
   1   -135.2511017 -0.135251E+03  0.202E-01    0.03       0.0  T
   2   -135.2115440  0.395577E-01  0.450E-01    0.39       1.0  T
   3   -135.2360197 -0.244757E-01  0.298E-01    0.20       1.0  T
   4   -135.2505860 -0.145662E-01  0.176E-01    0.11       1.0  T
   5   -135.1980600  0.525259E-01  0.475E-01    0.02       1.0  T
   6   -135.2559572 -0.578971E-01  0.105E-01    0.09       1.0  T
   7   -135.2537370  0.222018E-02  0.137E-01    0.10       1.0  T
   8   -135.2580190 -0.428201E-02  0.549E-02    0.07       1.0  T
   9   -135.2585687 -0.549704E-03  0.297E-02    0.07       1.0  T
  10   -135.2586967 -0.128016E-03  0.208E-02    0.07       1.0  T
  11   -135.2587742 -0.774531E-04  0.116E-02    0.06       1.0  T
  12   -135.2587770 -0.283479E-05  0.113E-02    0.06       1.0  T
  13   -135.2588074 -0.303750E-04  0.315E-03    0.06       3.3  T
  14   -135.2588090 -0.161478E-05  0.196E-03    0.06       5.3  T
  15   -135.2588096 -0.642701E-06  0.114E-03    0.06       9.1  T
  16   -135.2588099 -0.261512E-06  0.546E-04    0.06      19.1  T
  17   -135.2588099  0.147614E-07  0.580E-04    0.06      18.0  T
     SCC iter.                  ...        0 min,  0.390 sec
     gradient                   ...        0 min,  0.020 sec
 * total energy  :  -133.3989973 Eh     change       -0.6162895E-03 Eh
   gradient norm :     0.0101274 Eh/α   predicted    -0.4416503E-03 ( -28.34%)
   displ. norm   :     0.5434177 α      lambda       -0.9191996E-03
   maximum displ.:     0.3091855 α      in ANC's #14, #6, #12, ...

........................................................................
.............................. CYCLE    8 ..............................
........................................................................

 iter      E             dE          RMSdq      gap      omega  full diag
   1   -135.2567856 -0.135257E+03  0.164E-01    0.04       0.0  T
   2   -135.2217947  0.349909E-01  0.395E-01    0.38       1.0  T
   3   -135.2554853 -0.336907E-01  0.140E-01    0.09       1.0  T
   4   -135.2462847  0.920061E-02  0.233E-01    0.02       1.0  T
   5   -135.2551443 -0.885960E-02  0.134E-01    0.04       1.0  T
   6   -135.2593956 -0.425127E-02  0.489E-02    0.07       1.0  T
   7   -135.2597641 -0.368509E-03  0.284E-02    0.07       1.0  T
   8   -135.2599525 -0.188370E-03  0.101E-02    0.06       1.0  T
   9   -135.2599701 -0.176334E-04  0.780E-03    0.06       1.3  T
  10   -135.2599837 -0.136168E-04  0.290E-03    0.06       3.6  T
  11   -135.2599840 -0.242190E-06  0.242E-03    0.06       4.3  T
  12   -135.2599840 -0.604344E-07  0.219E-03    0.06       4.8  T
  13   -135.2599851 -0.106925E-05  0.577E-04    0.06      18.1  T
  14   -135.2599851 -0.287357E-07  0.366E-04    0.06      28.5  T
  15   -135.2599852 -0.230181E-07  0.199E-04    0.06      52.4  T
     SCC iter.                  ...        0 min,  0.320 sec
     gradient                   ...        0 min,  0.019 sec
 * total energy  :  -133.3997529 Eh     change       -0.7555929E-03 Eh
   gradient norm :     0.0102241 Eh/α   predicted    -0.5953245E-03 ( -21.21%)
   displ. norm   :     0.6016492 α      lambda       -0.8761108E-03
   maximum displ.:     0.3536488 α      in ANC's #14, #6, #12, ...

........................................................................
.............................. CYCLE    9 ..............................
........................................................................

 iter      E             dE          RMSdq      gap      omega  full diag
   1   -135.2582068 -0.135258E+03  0.167E-01    0.04       0.0  T
   2   -135.2234042  0.348026E-01  0.390E-01    0.37       1.0  T
   3   -135.2590122 -0.356081E-01  0.105E-01    0.07       1.0  T
   4   -135.2394741  0.195382E-01  0.285E-01    0.01       1.0  T
   5   -135.2580724 -0.185984E-01  0.106E-01    0.07       1.0  T
   6   -135.2605540 -0.248163E-02  0.409E-02    0.07       1.0  T
   7   -135.2608803 -0.326206E-03  0.187E-02    0.06       1.0  T
   8   -135.2609359 -0.556808E-04  0.100E-02    0.06       1.0  T
   9   -135.2609287  0.722759E-05  0.124E-02    0.06       1.0  T
  10   -135.2609665 -0.377964E-04  0.348E-03    0.06       3.0  T
  11   -135.2609668 -0.292747E-06  0.317E-03    0.06       3.3  T
  12   -135.2609675 -0.656720E-06  0.236E-03    0.06       4.4  T
  13   -135.2609686 -0.117557E-05  0.941E-04    0.06      11.1  T
  14   -135.2609688 -0.185217E-06  0.365E-04    0.06      28.6  T
  15   -135.2609688 -0.195836E-07  0.220E-04    0.06      47.3  T
     SCC iter.                  ...        0 min,  0.345 sec
     gradient                   ...        0 min,  0.020 sec
 * total energy  :  -133.4004895 Eh     change       -0.7365859E-03 Eh
   gradient norm :     0.0117380 Eh/α   predicted    -0.5966259E-03 ( -19.00%)
   displ. norm   :     0.6322243 α      lambda       -0.8967530E-03
   maximum displ.:     0.3786835 α      in ANC's #14, #6, #12, ...

........................................................................
.............................. CYCLE   10 ..............................
........................................................................

 iter      E             dE          RMSdq      gap      omega  full diag
   1   -135.2619143 -0.135262E+03  0.155E-01    0.04       0.0  T
   2   -135.2297591  0.321552E-01  0.365E-01    0.32       1.0  T
   3   -135.2528130 -0.230540E-01  0.208E-01    0.03       1.0  T
   4   -135.2406765  0.121365E-01  0.283E-01    0.14       1.0  T
   5   -135.2549336 -0.142571E-01  0.176E-01    0.11       1.0  T
   6   -135.2622325 -0.729886E-02  0.637E-02    0.07       1.0  T
   7   -135.2633545 -0.112200E-02  0.193E-02    0.06       1.0  T
   8   -135.2632261  0.128385E-03  0.286E-02    0.07       1.0  T
   9   -135.2633429 -0.116746E-03  0.190E-02    0.06       1.0  T
  10   -135.2634162 -0.733466E-04  0.933E-03    0.06       1.1  T
  11   -135.2634108  0.540255E-05  0.102E-02    0.06       1.0  T
  12   -135.2634333 -0.225394E-04  0.467E-03    0.06       2.2  T
  13   -135.2634390 -0.564651E-05  0.888E-04    0.06      11.7  T
  14   -135.2634391 -0.140691E-06  0.409E-04    0.06      25.5  T
  15   -135.2634391 -0.694925E-08  0.352E-04    0.06      29.6  T
     SCC iter.                  ...        0 min,  0.280 sec
     gradient                   ...        0 min,  0.019 sec
 * total energy  :  -133.4012414 Eh     change       -0.7519909E-03 Eh
   gradient norm :     0.0105983 Eh/α   predicted    -0.6276008E-03 ( -16.54%)
   displ. norm   :     0.7058018 α      lambda       -0.9045230E-03
   maximum displ.:     0.4265862 α      in ANC's #14, #6, #12, ...

........................................................................
.............................. CYCLE   11 ..............................
........................................................................

 iter      E             dE          RMSdq      gap      omega  full diag
   1   -135.2586599 -0.135259E+03  0.199E-01    0.03       0.0  T
   2   -135.2203575  0.383024E-01  0.421E-01    0.35       1.0  T
   3   -135.2548083 -0.344508E-01  0.188E-01    0.10       1.0  T
   4   -135.2484265  0.638176E-02  0.245E-01    0.02       1.0  T
   5   -135.2564341 -0.800759E-02  0.158E-01    0.04       1.0  T
   6   -135.2616168 -0.518272E-02  0.796E-02    0.08       1.0  T
   7   -135.2628806 -0.126376E-02  0.352E-02    0.07       1.0  T
   8   -135.2631690 -0.288445E-03  0.127E-02    0.06       1.0  T
   9   -135.2631654  0.361267E-05  0.148E-02    0.06       1.0  T
  10   -135.2632161 -0.506613E-04  0.485E-03    0.06       2.2  T
  11   -135.2632185 -0.242570E-05  0.315E-03    0.06       3.3  T
  12   -135.2632178  0.712895E-06  0.334E-03    0.06       3.1  T
  13   -135.2632204 -0.259637E-05  0.110E-03    0.06       9.5  T
  14   -135.2632206 -0.149162E-06  0.728E-04    0.06      14.3  T
  15   -135.2632206 -0.262497E-07  0.671E-04    0.06      15.5  T
     SCC iter.                  ...        0 min,  0.295 sec
     gradient                   ...        0 min,  0.025 sec
 * total energy  :  -133.4019994 Eh     change       -0.7579514E-03 Eh
   gradient norm :     0.0094911 Eh/α   predicted    -0.6775642E-03 ( -10.61%)
   displ. norm   :     0.6745051 α      lambda       -0.9628148E-03
   maximum displ.:     0.3975393 α      in ANC's #14, #6, #12, ...

........................................................................
.............................. CYCLE   12 ..............................
........................................................................

 iter      E             dE          RMSdq      gap      omega  full diag
   1   -135.2682866 -0.135268E+03  0.141E-01    0.05       0.0  T
   2   -135.2384610  0.298257E-01  0.345E-01    0.26       1.0  T
   3   -135.2446097 -0.614877E-02  0.307E-01    0.01       1.0  T
   4   -135.2469477 -0.233796E-02  0.291E-01    0.17       1.0  T
   5   -135.2503190 -0.337134E-02  0.262E-01    0.15       1.0  T
   6   -135.2587989 -0.847986E-02  0.194E-01    0.12       1.0  T
   7   -135.2657951 -0.699617E-02  0.112E-01    0.09       1.0  T
   8   -135.2685357 -0.274066E-02  0.477E-02    0.07       1.0  T
   9   -135.2688891 -0.353417E-03  0.332E-02    0.07       1.0  T
  10   -135.2690615 -0.172352E-03  0.208E-02    0.06       1.0  T
  11   -135.2691092 -0.476623E-04  0.164E-02    0.06       1.0  T
  12   -135.2691748 -0.656352E-04  0.459E-03    0.06       2.3  T
  13   -135.2691776 -0.283868E-05  0.338E-03    0.06       3.1  T
  14   -135.2691806 -0.296469E-05  0.630E-04    0.06      16.6  T
  15   -135.2691800  0.614481E-06  0.162E-03    0.06       6.4  T
  16   -135.2691806 -0.597170E-06  0.616E-04    0.06      16.9  T
  17   -135.2691807 -0.840871E-07  0.283E-04    0.06      36.9  T
     SCC iter.                  ...        0 min,  0.398 sec
     gradient                   ...        0 min,  0.021 sec
 * total energy  :  -133.4027359 Eh     change       -0.7364635E-03 Eh
   gradient norm :     0.0104727 Eh/α   predicted    -0.7004286E-03 (  -4.89%)
   displ. norm   :     0.8172556 α      lambda       -0.9871862E-03
   maximum displ.:     0.4901988 α      in ANC's #14, #6, #12, ...

........................................................................
.............................. CYCLE   13 ..............................
........................................................................

 iter      E             dE          RMSdq      gap      omega  full diag
   1   -135.2417841 -0.135242E+03  0.300E-01    0.01       0.0  T
   2   -135.1897990  0.519851E-01  0.556E-01    0.35       1.0  T
   3   -135.2227643 -0.329653E-01  0.386E-01    0.32       1.0  T
   4   -135.2319943 -0.922999E-02  0.327E-01    0.19       1.0  T
   5   -135.2518528 -0.198585E-01  0.183E-01    0.03       1.0  T
   6   -135.1706248  0.812280E-01  0.566E-01    0.04       1.0  T
   7   -135.2452940 -0.746692E-01  0.227E-01    0.13       1.0  T
   8   -135.2507699 -0.547597E-02  0.179E-01    0.11       1.0  T
   9   -135.2571623 -0.639237E-02  0.889E-02    0.08       1.0  T
  10   -135.2593197 -0.215740E-02  0.120E-02    0.06       1.0  T
  11   -135.2589164  0.403344E-03  0.398E-02    0.07       1.0  T
  12   -135.2591016 -0.185268E-03  0.305E-02    0.06       1.0  T
  13   -135.2593118 -0.210162E-03  0.123E-02    0.06       1.0  T
  14   -135.2593504 -0.386390E-04  0.185E-03    0.06       5.6  T
  15   -135.2593507 -0.282225E-06  0.146E-03    0.06       7.2  T
  16   -135.2593509 -0.195691E-06  0.107E-03    0.06       9.7  T
  17   -135.2593510 -0.899842E-07  0.906E-04    0.06      11.5  T
  18   -135.2593512 -0.169418E-06  0.387E-04    0.06      26.9  T
     SCC iter.                  ...        0 min,  0.382 sec
     gradient                   ...        0 min,  0.020 sec
 * total energy  :  -133.4033396 Eh     change       -0.6037725E-03 Eh
   gradient norm :     0.0169672 Eh/α   predicted    -0.8232686E-03 (  36.35%)
   displ. norm   :     0.4702659 α      lambda       -0.8573318E-03
   maximum displ.:     0.2708937 α      in ANC's #6, #14, #8, ...

........................................................................
.............................. CYCLE   14 ..............................
........................................................................

 iter      E             dE          RMSdq      gap      omega  full diag
   1   -135.2615386 -0.135262E+03  0.114E-01    0.04       0.0  T
   2   -135.2278404  0.336982E-01  0.369E-01    0.31       1.0  T
   3   -135.2624490 -0.346087E-01  0.646E-02    0.06       1.0  T
   4   -135.2542916  0.815748E-02  0.179E-01    0.03       1.0  T
   5   -135.2610895 -0.679790E-02  0.850E-02    0.05       1.0  T
   6   -135.2629365 -0.184705E-02  0.188E-02    0.06       1.0  T
   7   -135.2629256  0.109075E-04  0.179E-02    0.06       1.0  T
   8   -135.2630094 -0.837736E-04  0.546E-03    0.06       1.9  T
   9   -135.2630158 -0.640730E-05  0.264E-03    0.06       4.0  T
  10   -135.2630165 -0.712182E-06  0.187E-03    0.06       5.6  T
  11   -135.2630161  0.374645E-06  0.208E-03    0.06       5.0  T
  12   -135.2630169 -0.812575E-06  0.103E-03    0.06      10.1  T
  13   -135.2630171 -0.183813E-06  0.593E-04    0.06      17.6  T
  14   -135.2630172 -0.888228E-07  0.157E-04    0.06      66.6  T
     SCC iter.                  ...        0 min,  0.297 sec
     gradient                   ...        0 min,  0.016 sec
 * total energy  :  -133.4040521 Eh     change       -0.7124860E-03 Eh
   gradient norm :     0.0118237 Eh/α   predicted    -0.5234661E-03 ( -26.53%)
   displ. norm   :     0.5951532 α      lambda       -0.9544815E-03
   maximum displ.:     0.3593786 α      in ANC's #6, #14, #8, ...

........................................................................
.............................. CYCLE   15 ..............................
........................................................................

 iter      E             dE          RMSdq      gap      omega  full diag
   1   -135.2668586 -0.135267E+03  0.121E-01    0.04       0.0  T
   2   -135.2333121  0.335465E-01  0.371E-01    0.30       1.0  T
   3   -135.2677108 -0.343987E-01  0.675E-02    0.06       1.0  T
   4   -135.2597908  0.792002E-02  0.171E-01    0.03       1.0  T
   5   -135.2670785 -0.728772E-02  0.673E-02    0.06       1.0  T
   6   -135.2680623 -0.983759E-03  0.228E-02    0.05       1.0  T
   7   -135.2681249 -0.625938E-04  0.150E-02    0.06       1.0  T
   8   -135.2681805 -0.556032E-04  0.518E-03    0.06       2.0  T
   9   -135.2681851 -0.459856E-05  0.363E-03    0.06       2.9  T
  10   -135.2681875 -0.240522E-05  0.191E-03    0.06       5.5  T
  11   -135.2681877 -0.187588E-06  0.155E-03    0.06       6.7  T
  12   -135.2681881 -0.410396E-06  0.808E-04    0.06      12.9  T
  13   -135.2681881 -0.551747E-07  0.610E-04    0.06      17.1  T
     SCC iter.                  ...        0 min,  0.275 sec
     gradient                   ...        0 min,  0.023 sec
 * total energy  :  -133.4047914 Eh     change       -0.7392547E-03 Eh
   gradient norm :     0.0079288 Eh/α   predicted    -0.6462894E-03 ( -12.58%)
   displ. norm   :     0.7872848 α      lambda       -0.8831273E-03
   maximum displ.:     0.4543959 α      in ANC's #6, #14, #8, ...

   *** FAILED TO CONVERGE GEOMETRY OPTIMIZATION IN 15 ITERATIONS ***


 ANCopt (total)                0 d,  0 h,  0 min,  5.544 sec
 optimizer setup                ...        0 min,  0.000 sec (  0.000%)
 model hessian                  ...        0 min,  0.021 sec (  0.379%)
 ANC generation                 ...        0 min,  0.014 sec (  0.253%)
 coordinate transformation      ...        0 min,  0.001 sec (  0.018%)
 single point calculation       ...        0 min,  5.478 sec ( 98.810%)
 optimization log               ...        0 min,  0.021 sec (  0.379%)
 hessian update                 ...        0 min,  0.004 sec (  0.072%)
 rational function              ...        0 min,  0.001 sec (  0.018%)

================
 final structure:
================
92
 xtb: 6.7.1pre (5071a88)
O            2.24974118955814       -1.82549990925500        9.92426638565580
C            1.69825842264407       -1.13614906852451        9.01069891920236
C            0.26507434624253       -1.11276720728571        8.91367473127410
O           -0.36464587929905       -1.86365602154475        9.85980238566147
C           -0.38202432564033       -0.36349096165339        7.95822828674502
C           -1.80578277380429       -0.20353532626743        7.78097050775317
C           -2.74221110802540       -1.03568486664427        8.41178859435065
C           -4.09317170375233       -0.84333473196953        8.20773622890880
C           -4.54550201667914        0.17490778770497        7.38501795664355
O           -5.88674286383513        0.41472481305452        7.15020174286905
C           -3.62449460115070        1.01635662504264        6.74164460762106
O           -4.05789022152925        2.01744636050107        5.91808912540890
C           -2.27490522245430        0.81875797046634        6.93706266239461
O            0.35598190721148        0.36663920727130        7.04553902678249
C            1.70117831227516        0.37328600437209        7.08767514308180
C            2.36998510620884        1.12773696829955        6.13040506118008
C            3.75792620955936        1.17020644645836        6.14711142590082
O            4.38135596650845        1.91453600498922        5.18399383199275
C            4.48700729566381        0.47407369428864        7.10395648126609
C            3.82976202339593       -0.29169267553611        8.05855954811767
O            4.51813372774303       -0.97520471118004        8.98080891281962
C            2.41861680350307       -0.34788199304231        8.04744569755467
H            0.38462711822506       -2.22260805754245       10.38558417423371
H           -2.40204742425520       -1.82809002869762        9.05612859434602
H           -4.81155850552656       -1.49042123287388        8.69607847328183
H           -6.40331067085723       -0.24086924053272        7.61667296544076
H           -5.02272749224415        1.97981697989799        5.91632202665335
H           -1.57861682597365        1.47531076636489        6.44324136205058
H            1.81273726907211        1.67765387470677        5.39337740931138
H            5.33359029607797        1.90062075208177        5.34244946768011
H            5.56646934809197        0.51753417341701        7.12055966539105
H            3.83084826775425       -1.44161241999108        9.54378289038582
B           -6.30217301240017       -2.86845833860374       -0.34353413677442
B           -3.84578275513841       -3.47106972331212        0.91494344134697
B           -1.05336986809492       -4.23989039609563        2.06637222288512
B            1.70735533572642       -4.25787388364061        1.52722366110317
B            2.99187704187184       -3.67410680460313        0.82788847137438
B            5.86463738686654       -3.84334153607932       -0.35939576760638
B           -4.71113482513395       -2.34362499860276       -0.35346238877226
B           -2.59160551803276       -2.26480469007737        0.92760127657630
B           -1.24303063291476       -2.46461616571936        1.91097337391568
B            0.29661130946032       -3.18785708619108        1.43846715265344
B            3.15217946198393       -2.08626443649181        0.32374524791401
B            5.22171877102464       -2.51770598952238       -0.99937233475343
B           -4.31979789673141       -1.04660950447408       -1.26178780683791
B           -3.14655619920613       -1.29689879545126       -0.14470807169454
B           -0.84168796106831       -0.98000356713665        2.32761400029742
B            0.43253142865096       -1.54296884178066        1.12372099334996
B            4.26864599158889       -1.21685053505747       -0.33379910276923
B            6.80574941347140       -2.47434941228712       -0.76477499543380
B           -4.90513227877487       -0.60711482239207       -2.76958366330902
B           -3.15891375815691        0.16078958921254       -0.76753533973207
B           -1.05034831394370        0.55381891683677        2.40565547944254
B           -0.00108437610092       -0.05781899362984        1.16022130686043
B            4.93007830783043        0.27312896931141       -0.28453472259715
B            5.84489800672853       -1.02138886206751       -0.96770773473359
B           -5.63146598856554        0.91409516049638       -2.85532685171555
B           -2.82469852460978        1.60379243747551       -0.43443235515899
B           -1.31358088706319        2.06805068784705        2.26781857458212
B            0.18202445414552        1.50265137830757        1.37427728360261
B            4.30767330293997        1.63267517640123        0.39685454953092
B            6.27386221109921        0.49709687002329       -1.42952961935977
B           -5.64243325212200        1.81110215885838       -1.42624221171079
B           -3.30114638045807        2.94763987883658        0.08496305021284
B           -1.73823198154063        3.55650177044352        1.97565817870073
B           -0.07455710797788        3.11742227077865        1.61413788319401
B            2.98309484875079        2.20323988473190        1.05522525048044
B            5.78684065884094        1.72981865537151       -0.48807894545864
B           -6.54883368672973        2.91032913537235       -0.87021863217651
B           -4.45896510132208        3.94946724234008        0.66852750179263
B           -1.77267462910122        5.15362646746606        1.50200247801574
B            1.17487052889359        4.33246588205871        1.67056808772875
B            2.60832867592311        3.84039828504320        1.29204675245015
B            5.38056571412483        3.02072052173273        0.21698672621256
B           -5.28873236604207       -3.67165570437050        0.41741007239218
B           -2.47764853178355       -3.70526339033912        1.65831658222257
B            0.36778965548015       -4.78664788248431        2.01188782588903
B            1.74929747392514       -2.41864312375216        1.01041156231678
B            4.33198444490878       -3.44784808948829        0.07967435371686
B           -5.04064058153071        2.88545564910225       -0.28311965279141
B           -3.04452674637629        4.35468830843474        1.13533595184056
B           -0.28742037777500        4.84327608674432        1.70733674174132
B            1.47167044511578        2.48937431824907        1.37968047510326
B            4.09419152444238        3.51231999019547        0.88356378573278
B           -4.53767123307382        0.60352363304014       -1.71359379975096
H           -7.30570238969809       -2.50299472323928       -0.82750064357325
H           -4.86940832675350       -1.32478057098539       -3.70238499571633
H           -6.14769074136228        1.32413242540752       -3.82814572897932
H           -7.50471923446716        3.56156633935492       -0.70485160032559
H            6.27543677705664       -4.94173632649149       -0.43210832365075
H            7.96712887206657       -2.46650274712064       -0.92541427016636
H            6.94466244643763        0.67941087566039       -2.38453189156541
 
 Bond Distances (Angstroems)
 ---------------------------
O1-C2=1.2704         C2-O1=1.2704         C2-C3=1.4367         C2-C22=1.4381        C3-C2=1.4367         C3-O4=1.3622         
C3-C5=1.3759         O4-C3=1.3622         O4-H23=0.9832        C5-C3=1.3759         C5-C6=1.4436         C5-O14=1.3823        
C6-C5=1.4436         C6-C7=1.4026         C6-C13=1.4062        C7-C6=1.4026         C7-C8=1.3798         C7-H24=1.0765        
C8-C7=1.3798         C8-C9=1.3850         C8-H25=1.0832        C9-C8=1.3850         C9-O10=1.3826        C9-C11=1.4036        
O10-C9=1.3826        O10-H26=0.9562       C11-C9=1.4036        C11-O12=1.3668       C11-C13=1.3779       O12-C11=1.3668       
O12-H27=0.9656       C13-C6=1.4062        C13-C11=1.3779       C13-H28=1.0769       O14-C5=1.3823        O14-C15=1.3459       
C15-O14=1.3459       C15-C16=1.3903       C15-C22=1.3986       C16-C15=1.3903       C16-C17=1.3887       C16-H29=1.0752       
C17-C16=1.3887       C17-O18=1.3676       C17-C19=1.3899       O18-C17=1.3676       O18-H30=0.9654       C19-C17=1.3899       
C19-C20=1.3891       C19-H31=1.0805       C20-C19=1.3891       C20-O21=1.3385       C20-C22=1.4123       O21-C20=1.3385       
O21-H32=1.0034       C22-C2=1.4381        C22-C15=1.3986       C22-C20=1.4123       H23-O4=0.9832        H24-C7=1.0765        
H25-C8=1.0832        H26-O10=0.9562       H27-O12=0.9656       H28-C13=1.0769       H29-C16=1.0752       H30-O18=0.9654       
H31-C19=1.0805       H32-O21=1.0034       B33-B39=1.6754       B33-B75=1.5004       B33-H86=1.1725       B34-B39=1.9049       
B34-B40=1.7402       B34-B75=1.5394       B34-B76=1.5746       B35-B41=1.7921       B35-B42=1.8230       B35-B76=1.5751       
B35-B77=1.5237       B36-B37=1.5748       B36-B42=1.7729       B36-B77=1.5195       B36-B78=1.9109       B37-B36=1.5748       
B37-B43=1.6736       B37-B78=1.7758       B37-B79=1.5514       B38-B44=1.6063       B38-B50=1.7100       B38-B79=1.6426       
B38-H90=1.1750       B39-B33=1.6754       B39-B34=1.9049       B39-B45=1.6311       B39-B46=1.8940       B39-B75=1.6406       
B40-B34=1.7402       B40-B41=1.6810       B40-B46=1.5475       B40-B76=1.6192       B41-B35=1.7921       B41-B40=1.6810       
B41-B42=1.7655       B41-B47=1.5933       B41-B48=2.0680       B41-B76=1.7684       B42-B35=1.8230       B42-B36=1.7729       
B42-B41=1.7655       B42-B48=1.6802       B42-B77=1.7000       B42-B78=1.6986       B43-B37=1.6736       B43-B49=1.5604       
B43-B78=1.5969       B43-B79=1.8181       B44-B38=1.6063       B44-B49=1.7446       B44-B50=1.6019       B44-B56=1.6212       
B44-B79=1.6796       B45-B39=1.6311       B45-B46=1.6392       B45-B51=1.6761       B45-B52=1.7464       B45-B85=1.7247       
B46-B39=1.8940       B46-B40=1.5475       B46-B45=1.6392       B46-B52=1.5852       B47-B41=1.5933       B47-B48=1.8412       
B47-B53=1.5499       B47-B54=1.7088       B48-B41=2.0680       B48-B42=1.6802       B48-B47=1.8412       B48-B54=1.5476       
B48-B78=1.5854       B49-B43=1.5604       B49-B44=1.7446       B49-B55=1.6309       B49-B56=1.7102       B50-B38=1.7100       
B50-B44=1.6019       B50-B56=1.7537       B50-H91=1.1725       B51-B45=1.6761       B51-B57=1.6879       B51-B85=1.6480       
B51-H87=1.1775       B52-B45=1.7464       B52-B46=1.5852       B52-B58=1.5182       B52-B85=1.7297       B53-B47=1.5499       
B53-B54=1.7396       B53-B59=1.5431       B53-B60=1.8662       B54-B47=1.7088       B54-B48=1.5476       B54-B53=1.7396       
B54-B60=1.5857       B55-B49=1.6309       B55-B56=1.7261       B55-B61=1.6432       B55-B62=1.7796       B55-B68=1.7022       
B56-B44=1.6212       B56-B49=1.7102       B56-B50=1.7537       B56-B55=1.7261       B56-B62=1.6441       B57-B51=1.6879       
B57-B63=1.6873       B57-B85=1.6113       B57-H88=1.1752       B58-B52=1.5182       B58-B64=1.5175       B59-B53=1.5431       
B59-B60=1.8316       B59-B65=1.5752       B59-B66=1.7503       B60-B53=1.8662       B60-B54=1.5857       B60-B59=1.8316       
B60-B66=1.6525       B60-B83=1.6238       B61-B55=1.6432       B61-B67=1.5854       B61-B68=1.7264       B61-B74=1.7636       
B61-B84=1.9533       B62-B55=1.7796       B62-B56=1.6441       B62-B68=1.6258       B62-H92=1.1812       B63-B57=1.6873       
B63-B69=1.5294       B63-B80=1.6802       B63-B85=1.6617       B64-B58=1.5175       B64-B70=1.6385       B64-B80=1.7791       
B64-B81=1.7745       B65-B59=1.5752       B65-B66=1.7582       B65-B71=1.6662       B65-B81=1.7463       B65-B82=1.9577       
B66-B59=1.7503       B66-B60=1.6525       B66-B65=1.7582       B66-B72=1.7437       B66-B82=1.7414       B66-B83=1.6853       
B67-B61=1.5854       B67-B73=1.6961       B67-B83=1.5721       B67-B84=1.7256       B68-B55=1.7022       B68-B61=1.7264       
B68-B62=1.6258       B68-B74=1.5260       B69-B63=1.5294       B69-B80=1.6186       B69-H89=1.1684       B70-B64=1.6385       
B70-B80=1.5415       B70-B81=1.5436       B71-B65=1.6662       B71-B81=1.5461       B71-B82=1.5312       B72-B66=1.7437       
B72-B73=1.5621       B72-B82=1.5494       B72-B83=1.8894       B73-B67=1.6961       B73-B72=1.5621       B73-B83=1.7677       
B73-B84=1.5755       B74-B61=1.7636       B74-B68=1.5260       B74-B84=1.5300       B75-B33=1.5004       B75-B34=1.5394       
B75-B39=1.6406       B76-B34=1.5746       B76-B35=1.5751       B76-B40=1.6192       B76-B41=1.7684       B77-B35=1.5237       
B77-B36=1.5195       B77-B42=1.7000       B78-B36=1.9109       B78-B37=1.7758       B78-B42=1.6986       B78-B43=1.5969       
B78-B48=1.5854       B79-B37=1.5514       B79-B38=1.6426       B79-B43=1.8181       B79-B44=1.6796       B80-B63=1.6802       
B80-B64=1.7791       B80-B69=1.6186       B80-B70=1.5415       B81-B64=1.7745       B81-B65=1.7463       B81-B70=1.5436       
B81-B71=1.5461       B82-B65=1.9577       B82-B66=1.7414       B82-B71=1.5312       B82-B72=1.5494       B83-B60=1.6238       
B83-B66=1.6853       B83-B67=1.5721       B83-B72=1.8894       B83-B73=1.7677       B84-B61=1.9533       B84-B67=1.7256       
B84-B73=1.5755       B84-B74=1.5300       B85-B45=1.7247       B85-B51=1.6480       B85-B52=1.7297       B85-B57=1.6113       
B85-B63=1.6617       H86-B33=1.1725       H87-B51=1.1775       H88-B57=1.1752       H89-B69=1.1684       H90-B38=1.1750       
H91-B50=1.1725       H92-B62=1.1812       
 B  H  Rav=1.1746 sigma=0.0038  Rmin=1.1684  Rmax=1.1812     7
 B  B  Rav=1.6752 sigma=0.1130  Rmin=1.5004  Rmax=2.0680   107
 C  H  Rav=1.0785 sigma=0.0029  Rmin=1.0752  Rmax=1.0832     5
 C  C  Rav=1.4011 sigma=0.0210  Rmin=1.3759  Rmax=1.4436    16
 O  H  Rav=0.9748 sigma=0.0168  Rmin=0.9562  Rmax=1.0034     5
 O  C  Rav=1.3520 sigma=0.0341  Rmin=1.2704  Rmax=1.3826     8
 
 selected bond angles (degree)
 --------------------
C3-C2-O1=119.37                C22-C2-O1=124.17               C22-C2-C3=116.46               O4-C3-C2=113.91                
C5-C3-C2=121.66                C5-C3-O4=124.41                H23-O4-C3=102.73               C6-C5-C3=127.55                
O14-C5-C3=119.67               O14-C5-C6=112.76               C7-C6-C5=122.51                C13-C6-C5=118.90               
C13-C6-C7=118.59               C8-C7-C6=120.30                H24-C7-C6=119.67               H24-C7-C8=120.04               
C9-C8-C7=120.67                H25-C8-C7=119.96               H25-C8-C9=119.37               O10-C9-C8=123.04               
C11-C9-C8=119.91               C11-C9-O10=117.05              H26-O10-C9=108.80              
 
 selected dihedral angles (degree)
 ---------------------------------
O4-C3-C2-O1=  0.24            O4-C3-C2-C22=180.74           C5-C3-C2-O1=178.81            C5-C3-C2-C22=359.31           
H23-O4-C3-C2=  0.90           H23-O4-C3-C5=182.37           C6-C5-C3-C2=182.77            C6-C5-C3-O4=  1.18            
O14-C5-C3-C2=  1.40           O14-C5-C3-O4=179.82           C7-C6-C5-C3=346.09            C7-C6-C5-O14=167.38           
C13-C6-C5-C3=166.55           C13-C6-C5-O14=347.83          C8-C7-C6-C5=180.13            C8-C7-C6-C13=359.68           
H24-C7-C6-C5=  0.03           H24-C7-C6-C13=179.58          C9-C8-C7-C6=359.68            C9-C8-C7-H24=179.78           
H25-C8-C7-C6=179.88           H25-C8-C7-H24=  0.00          O10-C9-C8-C7=180.25           O10-C9-C8-H25=  0.05          
C11-C9-C8-C7=  0.49           C11-C9-C8-H25=180.29          H26-O10-C9-C8=358.20          H26-O10-C9-C11=177.96         
 
 CMA Distance (Angstroems)
 ---------------------------
R(CMA):  7.2487
           -------------------------------------------------
          |                Final Singlepoint                |
           -------------------------------------------------

          ...................................................
          :                      SETUP                      :
          :.................................................:
          :  # basis functions                 317          :
          :  # atomic orbitals                 317          :
          :  # shells                          167          :
          :  # electrons                       278          :
          :  max. iterations                   500          :
          :  Hamiltonian                  GFN2-xTB          :
          :  restarted?                      false          :
          :  GBSA solvation                  false          :
          :  PC potential                    false          :
          :  electronic temp.          300.0000000     K    :
          :  accuracy                    1.0000000          :
          :  -> integral cutoff          0.2500000E+02      :
          :  -> integral neglect         0.1000000E-07      :
          :  -> SCF convergence          0.1000000E-05 Eh   :
          :  -> wf. convergence          0.1000000E-03 e    :
          :  Broyden damping             0.4000000          :
          :  net charge                          0          :
          :  unpaired electrons                  0          :
          ...................................................

 iter      E             dE          RMSdq      gap      omega  full diag
   1   -135.2603056 -0.135260E+03  0.199E-01    0.03       0.0  T
   2   -135.2159807  0.443250E-01  0.466E-01    0.35       1.0  T
   3   -135.2445668 -0.285861E-01  0.300E-01    0.17       1.0  T
   4   -135.2620039 -0.174371E-01  0.147E-01    0.08       1.0  T
   5   -135.1637298  0.982741E-01  0.615E-01    0.05       1.0  T
   6   -135.2646664 -0.100937E+00  0.950E-02    0.07       1.0  T
   7   -135.2616198  0.304652E-02  0.138E-01    0.09       1.0  T
   8   -135.2664828 -0.486295E-02  0.407E-02    0.06       1.0  T
   9   -135.2668171 -0.334311E-03  0.199E-02    0.06       1.0  T
  10   -135.2666956  0.121534E-03  0.290E-02    0.06       1.0  T
  11   -135.2667298 -0.342667E-04  0.264E-02    0.06       1.0  T
  12   -135.2669121 -0.182293E-03  0.511E-03    0.06       2.0  T
  13   -135.2669153 -0.318033E-05  0.341E-03    0.06       3.1  T
  14   -135.2669182 -0.292912E-05  0.829E-04    0.06      12.6  T
  15   -135.2669183 -0.199754E-07  0.734E-04    0.06      14.2  T
  16   -135.2669184 -0.112909E-06  0.316E-04    0.06      33.0  T

   *** convergence criteria satisfied after 16 iterations ***

         #    Occupation            Energy/Eh            Energy/eV
      -------------------------------------------------------------
         1        2.0000           -0.7067081             -19.2305
       ...           ...                  ...                  ...
       133        2.0000           -0.2761436              -7.5142
       134        2.0000           -0.2712849              -7.3820
       135        2.0000           -0.2700394              -7.3481
       136        2.0000           -0.2658536              -7.2342
       137        2.0000           -0.2605676              -7.0904
       138        1.9999           -0.2595468              -7.0626
       139        1.4891           -0.2506499              -6.8205 (HOMO)
       140        0.5110           -0.2486175              -6.7652 (LUMO)
       141        0.0000           -0.2381570              -6.4806
       142                         -0.2321961              -6.3184
       143                         -0.2277530              -6.1975
       144                         -0.2193930              -5.9700
       ...                                ...                  ...
       317                          1.1842599              32.2254
      -------------------------------------------------------------
                  HL-Gap            0.0020324 Eh            0.0553 eV
             Fermi-level           -0.2496336 Eh           -6.7929 eV

 SCC (total)                   0 d,  0 h,  0 min,  0.395 sec
 SCC setup                      ...        0 min,  0.001 sec (  0.253%)
 Dispersion                     ...        0 min,  0.001 sec (  0.253%)
 classical contributions        ...        0 min,  0.000 sec (  0.000%)
 integral evaluation            ...        0 min,  0.008 sec (  2.025%)
 iterations                     ...        0 min,  0.365 sec ( 92.405%)
 molecular gradient             ...        0 min,  0.019 sec (  4.810%)
 printout                       ...        0 min,  0.001 sec (  0.253%)

         :::::::::::::::::::::::::::::::::::::::::::::::::::::
         ::                     SUMMARY                     ::
         :::::::::::::::::::::::::::::::::::::::::::::::::::::
         :: total energy            -133.405496043751 Eh    ::
         :: gradient norm              0.010958888316 Eh/a0 ::
         :: HOMO-LUMO gap              0.055305416329 eV    ::
         ::.................................................::
         :: SCC energy              -135.264220496550 Eh    ::
         :: -> isotropic ES            0.377760861522 Eh    ::
         :: -> anisotropic ES         -0.002666357092 Eh    ::
         :: -> anisotropic XC         -0.054011662942 Eh    ::
         :: -> dispersion             -0.116910044344 Eh    ::
         :: repulsion energy           1.858724452799 Eh    ::
         :: add. restraining           0.000000000000 Eh    ::
         :: total charge              -0.000000000000 e     ::
         :::::::::::::::::::::::::::::::::::::::::::::::::::::

           -------------------------------------------------
          |                Property Printout                |
           -------------------------------------------------

    * Orbital Energies and Occupations

         #    Occupation            Energy/Eh            Energy/eV
      -------------------------------------------------------------
         1        2.0000           -0.7067081             -19.2305
       ...           ...                  ...                  ...
       127        2.0000           -0.2917126              -7.9379
       128        2.0000           -0.2899099              -7.8889
       129        2.0000           -0.2860998              -7.7852
       130        2.0000           -0.2826008              -7.6900
       131        2.0000           -0.2809213              -7.6443
       132        2.0000           -0.2788392              -7.5876
       133        2.0000           -0.2761436              -7.5142
       134        2.0000           -0.2712849              -7.3820
       135        2.0000           -0.2700394              -7.3481
       136        2.0000           -0.2658536              -7.2342
       137        2.0000           -0.2605676              -7.0904
       138        1.9999           -0.2595468              -7.0626
       139        1.4891           -0.2506499              -6.8205 (HOMO)
       140        0.5110           -0.2486175              -6.7652 (LUMO)
       141        0.0000           -0.2381570              -6.4806
       142                         -0.2321961              -6.3184
       143                         -0.2277530              -6.1975
       144                         -0.2193930              -5.9700
       145                         -0.2179504              -5.9307
       146                         -0.2141110              -5.8263
       147                         -0.2109119              -5.7392
       148                         -0.2080394              -5.6610
       149                         -0.2040289              -5.5519
       150                         -0.1951713              -5.3109
       ...                                ...                  ...
       317                          1.1842599              32.2254
      -------------------------------------------------------------
                  HL-Gap            0.0020324 Eh            0.0553 eV
             Fermi-level           -0.2496336 Eh           -6.7929 eV

     #   Z          covCN         q      C6AA      α(0)
     1   8 O        0.858    -0.538    24.636     6.655
     2   6 C        2.837     0.161    24.507     8.113
     3   6 C        2.828     0.079    26.230     8.392
     4   8 O        1.657    -0.405    20.954     6.179
     5   6 C        2.855     0.085    26.107     8.375
     6   6 C        2.969    -0.004    28.129     8.700
     7   6 C        2.920    -0.057    29.423     8.895
     8   6 C        2.914    -0.074    29.846     8.958
     9   6 C        2.845     0.092    25.940     8.347
    10   8 O        1.659    -0.424    21.313     6.232
    11   6 C        2.840     0.119    25.369     8.254
    12   8 O        1.659    -0.401    20.875     6.168
    13   6 C        2.925    -0.077    29.913     8.969
    14   8 O        1.710    -0.224    17.718     5.683
    15   6 C        2.874     0.129    25.170     8.224
    16   6 C        2.915    -0.115    30.905     9.116
    17   6 C        2.846     0.133    25.085     8.208
    18   8 O        1.659    -0.403    20.916     6.174
    19   6 C        2.913    -0.120    31.043     9.136
    20   6 C        2.846     0.151    24.713     8.147
    21   8 O        1.654    -0.404    20.927     6.175
    22   6 C        2.976    -0.093    30.320     9.032
    23   1 H        0.803     0.333     0.630     1.247
    24   1 H        0.926     0.068     2.109     2.271
    25   1 H        0.925     0.028     2.610     2.526
    26   1 H        0.806     0.297     0.729     1.341
    27   1 H        0.805     0.318     0.669     1.285
    28   1 H        0.926     0.070     2.086     2.259
    29   1 H        0.926     0.063     2.160     2.298
    30   1 H        0.805     0.302     0.715     1.328
    31   1 H        0.926     0.042     2.424     2.435
    32   1 H        0.799     0.356     0.575     1.191
    33   5 B        2.873     0.041    20.704     7.595
    34   5 B        3.652     0.027    21.874     7.608
    35   5 B        3.712     0.011    22.389     7.652
    36   5 B        3.615     0.005    22.052     7.682
    37   5 B        3.813     0.014    22.463     7.641
    38   5 B        3.816     0.036    22.068     7.573
    39   5 B        4.444     0.060    21.664     7.500
    40   5 B        3.845     0.025    22.275     7.607
    41   5 B        5.107     0.051    21.816     7.526
    42   5 B        5.540     0.104    20.909     7.368
    43   5 B        3.786     0.002    22.659     7.677
    44   5 B        4.802     0.084    21.238     7.425
    45   5 B        4.750     0.060    21.654     7.498
    46   5 B        3.702     0.014    22.312     7.644
    47   5 B        3.744     0.018    22.328     7.629
    48   5 B        4.212    -0.015    23.018     7.730
    49   5 B        3.941     0.009    22.579     7.657
    50   5 B        3.774     0.075    21.354     7.454
    51   5 B        3.807     0.066    21.524     7.480
    52   5 B        3.811    -0.013    22.965     7.726
    53   5 B        3.700     0.000    22.555     7.687
    54   5 B        3.823     0.013    22.476     7.642
    55   5 B        4.717     0.059    21.676     7.502
    56   5 B        4.733     0.045    21.919     7.544
    57   5 B        3.811     0.077    21.337     7.447
    58   5 B        2.016     0.001    43.663    13.869
    59   5 B        3.732     0.011    22.441     7.653
    60   5 B        4.577     0.019    22.394     7.625
    61   5 B        4.472     0.040    22.004     7.558
    62   5 B        3.770     0.068    21.463     7.474
    63   5 B        3.844    -0.010    22.912     7.715
    64   5 B        3.762     0.021    22.293     7.619
    65   5 B        4.460     0.073    21.427     7.458
    66   5 B        5.613     0.097    21.015     7.386
    67   5 B        3.834     0.024    22.277     7.608
    68   5 B        3.828     0.012    22.496     7.645
    69   5 B        2.886     0.072    20.185     7.499
    70   5 B        2.919     0.043    20.654     7.584
    71   5 B        2.913     0.016    21.120     7.669
    72   5 B        3.665     0.009    22.255     7.661
    73   5 B        3.811     0.014    22.466     7.642
    74   5 B        2.871    -0.004    21.488     7.738
    75   5 B        2.920    -0.034    22.012     7.829
    76   5 B        3.829     0.016    22.428     7.634
    77   5 B        2.903    -0.027    21.891     7.808
    78   5 B        4.554     0.043    21.950     7.549
    79   5 B        3.895     0.038    22.037     7.565
    80   5 B        3.808     0.017    22.405     7.631
    81   5 B        3.786    -0.029    23.250     7.777
    82   5 B        3.558    -0.016    22.060     7.753
    83   5 B        4.593     0.030    22.189     7.590
    84   5 B        3.572     0.024    21.428     7.626
    85   5 B        4.820     0.085    21.222     7.423
    86   1 H        0.938    -0.175     9.073     4.709
    87   1 H        0.936    -0.141     7.223     4.202
    88   1 H        0.937    -0.137     7.067     4.156
    89   1 H        0.940    -0.151     7.738     4.349
    90   1 H        0.937    -0.137     7.055     4.153
    91   1 H        0.938    -0.141     7.217     4.200
    92   1 H        0.935    -0.135     6.965     4.126

 Mol. C6AA /au·bohr⁶  :     152764.395841
 Mol. C8AA /au·bohr⁸  :    5059297.921567
 Mol. α(0) /au        :        629.291743


Wiberg/Mayer (AO) data.
largest (>0.10) Wiberg bond orders for each atom

 ---------------------------------------------------------------------------
     #   Z sym  total        # sym  WBO       # sym  WBO       # sym  WBO
 ---------------------------------------------------------------------------
     1   8 O    1.833 --     2 C    1.438
     2   6 C    3.836 --     1 O    1.438     3 C    1.160    22 C    1.133
     3   6 C    3.904 --     5 C    1.429     2 C    1.160     4 O    1.081
     4   8 O    2.098 --     3 C    1.081    23 H    0.840
     5   6 C    3.778 --     3 C    1.429     6 C    1.133    14 O    1.013
     6   6 C    3.961 --     7 C    1.337    13 C    1.321     5 C    1.133
     7   6 C    3.946 --     8 C    1.459     6 C    1.337    24 H    0.962
     8   6 C    3.982 --     7 C    1.459     9 C    1.384    25 H    0.966
     9   6 C    3.871 --     8 C    1.384    11 C    1.288    10 O    1.027
    10   8 O    2.060 --     9 C    1.027    26 H    0.891
    11   6 C    3.940 --    13 C    1.428     9 C    1.288    12 O    1.065
    12   8 O    2.103 --    11 C    1.065    27 H    0.877
    13   6 C    3.936 --    11 C    1.428     6 C    1.321    28 H    0.963
    14   8 O    2.324 --    15 C    1.088     5 C    1.013
    15   6 C    3.919 --    16 C    1.363    22 C    1.291    14 O    1.088
    16   6 C    3.950 --    17 C    1.365    15 C    1.363    29 H    0.965
    17   6 C    3.899 --    19 C    1.368    16 C    1.365    18 O    1.059
    18   8 O    2.090 --    17 C    1.059    30 H    0.888
    19   6 C    3.965 --    20 C    1.373    17 C    1.368    31 H    0.964
    20   6 C    3.904 --    19 C    1.373    22 C    1.251    21 O    1.150
    21   8 O    2.139 --    20 C    1.150    32 H    0.771
    22   6 C    3.977 --    15 C    1.291    20 C    1.251     2 C    1.133
    23   1 H    0.889 --     4 O    0.840
    24   1 H    0.995 --     7 C    0.962
    25   1 H    0.999 --     8 C    0.966
    26   1 H    0.912 --    10 O    0.891
    27   1 H    0.899 --    12 O    0.877
    28   1 H    0.995 --    13 C    0.963
    29   1 H    0.995 --    16 C    0.965
    30   1 H    0.908 --    18 O    0.888
    31   1 H    0.998 --    19 C    0.964
    32   1 H    0.873 --    21 O    0.771
    33   5 B    3.482 --    75 B    1.427    86 H    0.959    39 B    0.837
    34   5 B    3.502 --    75 B    1.122    76 B    0.986    40 B    0.556
                            39 B    0.513
    35   5 B    3.500 --    77 B    1.271    76 B    1.012    42 B    0.490
                            41 B    0.450
    36   5 B    3.474 --    77 B    1.285    37 B    1.016    42 B    0.563
                            78 B    0.364
    37   5 B    3.528 --    79 B    1.086    36 B    1.016    43 B    0.681
                            78 B    0.495
    38   5 B    3.597 --    90 H    0.941    79 B    0.852    50 B    0.824
                            44 B    0.794
    39   5 B    3.614 --    33 B    0.837    45 B    0.827    75 B    0.788
                            34 B    0.513    46 B    0.394
    40   5 B    3.569 --    46 B    1.109    76 B    0.770    41 B    0.687
                            34 B    0.556
    41   5 B    3.590 --    47 B    0.958    40 B    0.687    42 B    0.521
                            76 B    0.506    35 B    0.450    48 B    0.242
    42   5 B    3.597 --    48 B    0.625    78 B    0.613    77 B    0.596
                            36 B    0.563    41 B    0.521    35 B    0.490
    43   5 B    3.594 --    49 B    1.117    78 B    0.918    37 B    0.681
                            79 B    0.500
    44   5 B    3.597 --    50 B    0.839    38 B    0.794    56 B    0.693
                            79 B    0.600    49 B    0.517
    45   5 B    3.623 --    39 B    0.827    51 B    0.763    46 B    0.689
                            52 B    0.556    85 B    0.502
    46   5 B    3.531 --    40 B    1.109    52 B    0.914    45 B    0.689
                            39 B    0.394
    47   5 B    3.437 --    53 B    1.111    41 B    0.958    54 B    0.587
                            48 B    0.419
    48   5 B    3.600 --    54 B    1.120    78 B    0.897    42 B    0.625
                            47 B    0.419    41 B    0.242
    49   5 B    3.543 --    43 B    1.117    55 B    0.812    56 B    0.612
                            44 B    0.517    79 B    0.187
    50   5 B    3.504 --    91 H    0.954    44 B    0.839    38 B    0.824
                            56 B    0.666
    51   5 B    3.506 --    87 H    0.941    57 B    0.817    45 B    0.763
                            85 B    0.730
    52   5 B    3.623 --    58 B    1.285    46 B    0.914    45 B    0.556
                            85 B    0.552
    53   5 B    3.475 --    59 B    1.160    47 B    1.111    54 B    0.544
                            60 B    0.389
    54   5 B    3.564 --    48 B    1.120    60 B    0.971    47 B    0.587
                            53 B    0.544
    55   5 B    3.582 --    49 B    0.812    61 B    0.810    68 B    0.586
                            56 B    0.557    62 B    0.550
    56   5 B    3.609 --    62 B    0.857    44 B    0.693    50 B    0.666
                            49 B    0.612    55 B    0.557
    57   5 B    3.557 --    88 H    0.945    51 B    0.817    85 B    0.782
                            63 B    0.718
    58   5 B    3.408 --    64 B    1.326    52 B    1.285    85 B    0.178
                            80 B    0.141
    59   5 B    3.426 --    53 B    1.160    65 B    0.996    66 B    0.503
                            60 B    0.477
    60   5 B    3.568 --    54 B    0.971    83 B    0.775    66 B    0.662
                            59 B    0.477    53 B    0.389
    61   5 B    3.567 --    67 B    0.995    55 B    0.810    68 B    0.610
                            74 B    0.564    84 B    0.413
    62   5 B    3.424 --    92 H    0.925    68 B    0.880    56 B    0.857
                            55 B    0.550
    63   5 B    3.608 --    69 B    1.229    80 B    0.732    57 B    0.718
                            85 B    0.696
    64   5 B    3.570 --    58 B    1.326    70 B    0.690    80 B    0.589
                            81 B    0.555    65 B    0.121
    65   5 B    3.510 --    59 B    0.996    71 B    0.654    81 B    0.600
                            66 B    0.512    82 B    0.421    64 B    0.121
    66   5 B    3.605 --    60 B    0.662    83 B    0.624    72 B    0.541
                            82 B    0.518    65 B    0.512    59 B    0.503
    67   5 B    3.542 --    83 B    0.997    61 B    0.995    73 B    0.651
                            84 B    0.570
    68   5 B    3.510 --    74 B    1.237    62 B    0.880    61 B    0.610
                            55 B    0.586
    69   5 B    3.449 --    63 B    1.229    89 H    0.958    80 B    0.838
                            70 B    0.153
    70   5 B    3.414 --    81 B    1.150    80 B    1.125    64 B    0.690
                            69 B    0.153
    71   5 B    3.368 --    82 B    1.225    81 B    1.130    65 B    0.654
    72   5 B    3.397 --    82 B    1.110    73 B    1.084    66 B    0.541
                            83 B    0.413
    73   5 B    3.476 --    72 B    1.084    84 B    1.000    67 B    0.651
                            83 B    0.514
    74   5 B    3.331 --    84 B    1.248    68 B    1.237    61 B    0.564
    75   5 B    3.518 --    33 B    1.427    34 B    1.122    39 B    0.788
    76   5 B    3.524 --    35 B    1.012    34 B    0.986    40 B    0.770
                            41 B    0.506
    77   5 B    3.439 --    36 B    1.285    35 B    1.271    42 B    0.596
    78   5 B    3.557 --    43 B    0.918    48 B    0.897    42 B    0.613
                            37 B    0.495    36 B    0.364
    79   5 B    3.478 --    37 B    1.086    38 B    0.852    44 B    0.600
                            43 B    0.500    49 B    0.187
    80   5 B    3.621 --    70 B    1.125    69 B    0.838    63 B    0.732
                            64 B    0.589    58 B    0.141
    81   5 B    3.600 --    70 B    1.150    71 B    1.130    65 B    0.600
                            64 B    0.555
    82   5 B    3.473 --    71 B    1.225    72 B    1.110    66 B    0.518
                            65 B    0.421
    83   5 B    3.579 --    67 B    0.997    60 B    0.775    66 B    0.624
                            73 B    0.514    72 B    0.413
    84   5 B    3.419 --    74 B    1.248    73 B    1.000    67 B    0.570
                            61 B    0.413
    85   5 B    3.626 --    57 B    0.782    51 B    0.730    63 B    0.696
                            52 B    0.552    45 B    0.502    58 B    0.178
    86   1 H    0.968 --    33 B    0.959
    87   1 H    0.974 --    51 B    0.941
    88   1 H    0.976 --    57 B    0.945
    89   1 H    0.973 --    69 B    0.958
    90   1 H    0.970 --    38 B    0.941
    91   1 H    0.976 --    50 B    0.954
    92   1 H    0.975 --    62 B    0.925
 ---------------------------------------------------------------------------

Topologies differ in total number of bonds
Writing topology from bond orders to xtbtopo.mol

molecular dipole:
                 x           y           z       tot (Debye)
 q only:        0.617       1.435      -4.728
   full:        0.713       1.024      -5.269      13.762
molecular quadrupole (traceless):
                xx          xy          yy          xz          yz          zz
 q only:        2.701      29.143      98.396     -54.773      15.320    -101.097
  q+dip:       39.177      10.523      59.345     -53.927      21.185     -98.522
   full:       25.771      15.199      50.070     -50.840      24.128     -75.840

           -------------------------------------------------
          |                Geometry Summary                 |
           -------------------------------------------------

      molecular mass/u    :      882.2763523
   center of mass at/Å    :       -0.0823137       0.0042764       2.8786698
  moments of inertia/u·Å² :        0.1615438E+05   0.1775978E+05   0.2403239E+05
rotational constants/cm⁻¹ :        0.1043533E-02   0.9492029E-03   0.7014548E-03

 * 120 selected distances

     #   Z          #   Z                                           value/Å
     3   6 C        4   8 O                                       1.3621819
     3   6 C        5   6 C                                       1.3758742
     6   6 C        7   6 C                                       1.4026057
     7   6 C        8   6 C                                       1.3797575
     8   6 C        9   6 C                                       1.3850221
     9   6 C       10   8 O                                       1.3825984
     9   6 C       11   6 C                                       1.4036454
    11   6 C       12   8 O                                       1.3668418
     6   6 C       13   6 C                                       1.4061793
    11   6 C       13   6 C                                       1.3779061
     5   6 C       14   8 O                                       1.3822971
    14   8 O       15   6 C                                       1.3458727
    15   6 C       16   6 C                                       1.3902752
    16   6 C       17   6 C                                       1.3886913
    17   6 C       18   8 O                                       1.3675844
    17   6 C       19   6 C                                       1.3898607
    19   6 C       20   6 C                                       1.3891137
    20   6 C       21   8 O                                       1.3385023
    15   6 C       22   6 C                                       1.3985568
    20   6 C       22   6 C                                       1.4123073
     4   8 O       23   1 H                                       0.9832107
     7   6 C       24   1 H                                       1.0764718
     8   6 C       25   1 H                                       1.0831800
    10   8 O       26   1 H                                       0.9561597 (min)
    12   8 O       27   1 H                                       0.9655725
    13   6 C       28   1 H                                       1.0769117
    16   6 C       29   1 H                                       1.0752412
    18   8 O       30   1 H                                       0.9654285
    19   6 C       31   1 H                                       1.0804643
    36   5 B       37   5 B                                       1.5747540
    33   5 B       39   5 B                                       1.6753960
    40   5 B       41   5 B                                       1.6809521
    36   5 B       42   5 B                                       1.7728545 (max)
    41   5 B       42   5 B                                       1.7654567
    37   5 B       43   5 B                                       1.6736491
    38   5 B       44   5 B                                       1.6063077
    39   5 B       45   5 B                                       1.6310884
    40   5 B       46   5 B                                       1.5474689
    45   5 B       46   5 B                                       1.6392097
    41   5 B       47   5 B                                       1.5933425
    42   5 B       48   5 B                                       1.6802373
    43   5 B       49   5 B                                       1.5603663
    44   5 B       49   5 B                                       1.7445804
    38   5 B       50   5 B                                       1.7100188
    44   5 B       50   5 B                                       1.6018955
    45   5 B       51   5 B                                       1.6760730
    45   5 B       52   5 B                                       1.7463535
    46   5 B       52   5 B                                       1.5852200
    47   5 B       53   5 B                                       1.5499166
    47   5 B       54   5 B                                       1.7087554
    48   5 B       54   5 B                                       1.5475870
    49   5 B       55   5 B                                       1.6309381
    44   5 B       56   5 B                                       1.6212096
    49   5 B       56   5 B                                       1.7101510
    50   5 B       56   5 B                                       1.7537138
    55   5 B       56   5 B                                       1.7260931
    51   5 B       57   5 B                                       1.6878960
    52   5 B       58   5 B                                       1.5181947
    53   5 B       59   5 B                                       1.5431101
    54   5 B       60   5 B                                       1.5856913
    55   5 B       61   5 B                                       1.6431816
    56   5 B       62   5 B                                       1.6441074
    57   5 B       63   5 B                                       1.6873130
    58   5 B       64   5 B                                       1.5174652
    59   5 B       65   5 B                                       1.5751741
    59   5 B       66   5 B                                       1.7503313
    60   5 B       66   5 B                                       1.6525292
    65   5 B       66   5 B                                       1.7582100
    61   5 B       67   5 B                                       1.5854036
    55   5 B       68   5 B                                       1.7021802
    61   5 B       68   5 B                                       1.7264069
    62   5 B       68   5 B                                       1.6257684
    63   5 B       69   5 B                                       1.5293869
    64   5 B       70   5 B                                       1.6385207
    65   5 B       71   5 B                                       1.6662364
    66   5 B       72   5 B                                       1.7437274
    67   5 B       73   5 B                                       1.6961198
    72   5 B       73   5 B                                       1.5621177
    68   5 B       74   5 B                                       1.5259767
    33   5 B       75   5 B                                       1.5004081
    34   5 B       75   5 B                                       1.5394409
    39   5 B       75   5 B                                       1.6405881
    34   5 B       76   5 B                                       1.5745609
    35   5 B       76   5 B                                       1.5750891
    40   5 B       76   5 B                                       1.6192136
    35   5 B       77   5 B                                       1.5236821
    36   5 B       77   5 B                                       1.5195190
    42   5 B       77   5 B                                       1.7000030
    42   5 B       78   5 B                                       1.6985933
    43   5 B       78   5 B                                       1.5968922
    48   5 B       78   5 B                                       1.5854078
    37   5 B       79   5 B                                       1.5514205
    38   5 B       79   5 B                                       1.6426269
    44   5 B       79   5 B                                       1.6796231
    63   5 B       80   5 B                                       1.6802141
    69   5 B       80   5 B                                       1.6186262
    70   5 B       80   5 B                                       1.5414603
    65   5 B       81   5 B                                       1.7463246
    70   5 B       81   5 B                                       1.5436161
    71   5 B       81   5 B                                       1.5460772
    66   5 B       82   5 B                                       1.7414272
    71   5 B       82   5 B                                       1.5311630
    72   5 B       82   5 B                                       1.5493786
    60   5 B       83   5 B                                       1.6238345
    66   5 B       83   5 B                                       1.6852996
    67   5 B       83   5 B                                       1.5721159
    73   5 B       84   5 B                                       1.5755261
    74   5 B       84   5 B                                       1.5299523
    45   5 B       85   5 B                                       1.7246847
    51   5 B       85   5 B                                       1.6479649
    52   5 B       85   5 B                                       1.7297436
    57   5 B       85   5 B                                       1.6113338
    63   5 B       85   5 B                                       1.6617209
    33   5 B       86   1 H                                       1.1725437
    51   5 B       87   1 H                                       1.1774714
    57   5 B       88   1 H                                       1.1751576
    69   5 B       89   1 H                                       1.1684064
    38   5 B       90   1 H                                       1.1749530
    50   5 B       91   1 H                                       1.1724628
    62   5 B       92   1 H                                       1.1812032

 * 6 distinct bonds (by element types)

   Z      Z             #   av. dist./Å        max./Å        min./Å
   1 H    5 B           7     1.1745997     1.1812032     1.1684064
   5 B    5 B          84     1.6319782     1.7728545     1.5004081
   1 H    6 C           5     1.0784538     1.0831800     1.0752412
   6 C    6 C          13     1.3922920     1.4123073     1.3758742
   1 H    8 O           4     0.9675929     0.9832107     0.9561597
   6 C    8 O           7     1.3636969     1.3825984     1.3385023


optimized geometry written to: xtbopt.xyz


           -------------------------------------------------
          | TOTAL ENERGY             -133.405496043751 Eh   |
          | GRADIENT NORM               0.010958888316 Eh/α |
          | HOMO-LUMO GAP               0.055305416329 eV   |
           -------------------------------------------------

------------------------------------------------------------------------
 * finished run on 2026/08/31 at 22:08:27.536     
------------------------------------------------------------------------
 total:
 * wall-time:     0 d,  0 h,  0 min,  7.573 sec
 *  cpu-time:     0 d,  0 h,  1 min,  1.750 sec
 * ratio c/w:     8.154 speedup
 SCF:
 * wall-time:     0 d,  0 h,  0 min,  1.540 sec
 *  cpu-time:     0 d,  0 h,  0 min, 11.453 sec
 * ratio c/w:     7.437 speedup
 ANC optimizer:
 * wall-time:     0 d,  0 h,  0 min,  5.949 sec
 *  cpu-time:     0 d,  0 h,  0 min, 49.750 sec
 * ratio c/w:     8.363 speedup

