87
 energy: -121.951362349216 gnorm: 0.004222609035 xtb: 6.7.1pre (5071a88)
O            2.53131482957522        0.55521306550185        9.57683223680119
C            2.03993801186907        0.40634178398603        8.42232641536849
C            0.61140877889831        0.36509655162544        8.25776417987436
O           -0.09078979088509        0.51363312801940        9.41148215330051
C            0.03135343503185        0.15712624258267        7.03139542206129
C           -1.38757945441129        0.07309450070123        6.75251626300353
C           -2.34616629675734        0.62123435141199        7.60813271539254
C           -3.68703233780142        0.55344875870638        7.28552976466232
C           -4.10477931991412       -0.06775448905975        6.11973268601878
O           -5.42413973598522       -0.16341499584067        5.74609297079337
C           -3.15637205126277       -0.63845493399115        5.26046715810750
O           -3.54646538183397       -1.26595446180941        4.11907417144018
C           -1.81622185148069       -0.55602870895706        5.57578304736500
O            0.81726380201664       -0.00951340998610        5.91239576770577
C            2.16075149578764        0.08688754989637        5.99520435860838
C            2.88675861482389       -0.00698171276175        4.81575723986589
C            4.27165451014197        0.11087980396910        4.86082835335171
O            4.93994321982198        0.06282248968391        3.67737895678699
C            4.94210125706424        0.28817699592363        6.06363066457461
C            4.22680521732621        0.36719889406429        7.25122075602536
O            4.86357722725879        0.53382222493539        8.41360273065857
C            2.81687323999352        0.28322700598635        7.21679954687384
H            0.60657581735734        0.59294668040237       10.09602450920499
H           -2.03953938837477        1.10971590530366        8.51610314432540
H           -4.42231909521920        0.99069972677585        7.94835253693195
H           -5.96583865839192        0.34271259671423        6.36150140923511
H           -4.48064650427821       -1.06761836375256        3.96394822483700
H           -1.09645158129625       -0.99954178218228        4.91028095863487
H            2.39088973125614       -0.17229452224631        3.87737733690514
H            5.88944414667569        0.11344607530691        3.82954007533590
H            6.01786878250972        0.36777102967174        6.09627713539229
H            4.15680212155840        0.57360877024155        9.11856767712920
B           -4.93494993041511       -2.98547568530936        1.30861340307988
B           -4.71456706184365       -1.62401300399753        0.52231457828266
B           -4.65183346069322       -0.39827682958250       -0.61086884016816
B           -3.47865294838038       -2.87948076588959        0.62342659997933
B           -3.25145187654726        0.03138440869196       -0.08008642077642
B           -4.61113702479721        0.04166059358173        1.12359991416520
B           -5.30640525259103        0.92719288712814        2.25777758569928
B           -4.99824782881692        2.49303089978649        2.65491454506795
B           -3.04294807823281        0.27745618973011        1.54127891201890
B           -3.59405073528110        2.72772080504194        3.44883490256714
B           -2.17839488739345       -3.91530979404000        0.58967582706037
B           -1.97445188035555       -2.36556424260405        0.29176699244638
B           -1.87759729886642       -0.72658596733411        0.45685388113497
B           -0.63022124416403       -3.25466288722610        0.40209958863700
B           -0.42628283426626       -0.20270195028056        0.98583265352833
B           -1.59908736666551       -0.17414035126615        2.15452400319618
B           -2.07612272887439        1.41707772839051        2.22453461076427
B           -2.30465100717631        2.95786049936917        2.52410160748276
B           -0.47261293475704        0.87649914079833        2.43583659843169
B           -1.25280658312743        4.17313834694663        2.25731973708223
B            0.83090750767419       -4.08072532323751        0.51442387358923
B            0.85771481318389       -2.48453837168787        0.47397244380101
B            1.03070478247675       -0.90055716543118        0.64204580883172
B            2.21042875695780       -3.28769494665887        0.98138930994449
B            2.38384930187521       -0.05477852613239        0.88260571801494
B            0.99851911368766        0.52332144408652        1.52910461026466
B            0.81246824400120        1.93442107435946        2.44051902524016
B            0.07889907634210        3.33310807142162        2.16251365881650
B            2.10023304674536        1.76647887910076        1.36867263680115
B            0.64907942183245        3.05655648843702        0.61146664906352
B            3.44409939302636       -3.79436683259746        1.97981208999575
B            3.60531017746034       -2.42777902967052        1.10559782272496
B            3.84798801113929       -0.86999602721362        0.74329648362029
B            4.70923703605716       -2.80992764442758        2.15936323786191
B            5.03819753881103        0.12268147112312        0.14694786419452
B            3.81933296412509        0.77860793092879        0.99724292774957
B            3.57590928070233        2.54640398977799        1.09510455547377
B            2.22879736925440        3.24141559312876        0.38554433591858
B            5.01428906882636        1.81797081340034        0.67689119057000
B            3.64299866724249        3.80955036990099        0.11928647726358
H           -5.38074098373218       -3.65782394806878        2.15550370002792
H           -5.83823764074139       -2.37564845580390        0.61899906150224
H           -5.44955473793428       -0.23791165846311       -1.46425964830145
H           -6.03332822804511        0.38489907094671        3.02948283944048
H           -5.80912547587522        3.33211790304976        2.47849083371506
H           -3.56894861685074        2.57053493573690        4.61824413608117
H           -2.29583341158672       -5.07629114525518        0.67197246546725
H           -1.48262078885718        5.30892574129124        2.05089049898546
H            0.85217542057507       -5.22962239202336        0.29342423242839
H           -0.07470725515596        2.70958896168006       -0.25993055437943
H            3.38369115298986       -4.79776569423142        2.57623824089788
H            5.71872862035658       -2.61815695349605        2.70364748601354
H            6.02971573108795       -0.17865715741208       -0.39613455248208
H            6.07991334855528        2.29541907250685        0.75875752264248
H            4.36674446593444        4.58633868851725       -0.36583822851409
