87
 energy: -121.951553485399 gnorm: 0.006167766898 xtb: 6.7.1pre (5071a88)
O           -2.10146444643725        2.09422253853879        8.82786162706914
C           -1.54951323439359        1.36279445546758        7.95591639863894
C           -0.11464029513589        1.26820626874535        7.91889899256870
O            0.52327245996553        2.00642356176476        8.86608476370972
C            0.53400075183691        0.53338512047110        6.95662668372377
C            1.95681048995406        0.47491277738362        6.71282775499746
C            2.90896379952291        0.87676137368260        7.65621901716632
C            4.25569379437373        0.81613065386230        7.35860134783135
C            4.68797316971696        0.36970486089572        6.11903181865329
O            6.01723915162026        0.29695961120908        5.75362524047262
C            3.74629079959650       -0.03613258707096        5.16597871489852
O            4.14666024193701       -0.45848776808857        3.93267228989845
C            2.40292678695138        0.00924346106908        5.46608108461605
O           -0.19273345071409       -0.20814819086044        6.05300056184715
C           -1.54039452922793       -0.18386079827264        6.05876180012606
C           -2.19940048619162       -0.96545204101410        5.12211952824990
C           -3.58535299873169       -0.89278852951107        5.02666530947909
O           -4.17757284625629       -1.64955110182652        4.07009521482585
C           -4.31707208735576       -0.07393224197562        5.87816392334140
C           -3.67049523298039        0.66636056086727        6.85876716347017
O           -4.37021473374443        1.42932750230430        7.70089119197265
C           -2.26168740437885        0.61412033896484        6.95342325281677
H           -0.21138866865504        2.43965079573473        9.34908107427164
H            2.59131356433368        1.22847159722075        8.62199812138818
H            4.98588168249337        1.12084838771979        8.09648507547856
H            6.55948422999148        0.60757964376317        6.48275392435114
H            5.11117934536575       -0.49063909090056        3.92096172554201
H            1.69487898577924       -0.31218028076216        4.72222348122867
H           -1.65277738203115       -1.62062634117683        4.46945658232669
H           -5.07369677460351       -1.33412097983803        3.90351017157443
H           -5.38987219493683       -0.00569593586128        5.79818843930633
H           -3.70860449897480        1.85352814109043        8.31390086329063
B           -4.96879206519268       -2.96933919048690        1.30153915166641
B           -4.65801367940220       -1.58908743222772        0.57119311143016
B           -4.51308700790302       -0.34992296357155       -0.53976373552545
B           -3.48476486812319       -2.90342851401377        0.67926021943101
B           -3.10449350420200        0.00454467519409        0.02254861064696
B           -4.48005995876195        0.05979896294754        1.20655562895470
B           -5.16390686072612        1.02003006478696        2.28639137515856
B           -4.77282423711774        2.58868750090343        2.59866923381975
B           -2.91109957051897        0.21634901859456        1.65447135771309
B           -3.37253341378379        2.79924925942316        3.40364003859834
B           -2.22571446116278       -3.99070354467945        0.66097923088985
B           -1.94888632438305       -2.44846814424796        0.39411227344830
B           -1.77739739276172       -0.81785273542995        0.56996389479331
B           -0.64402240847509       -3.39391623257954        0.48750970919138
B           -0.31075815331583       -0.34644876674956        1.10553367213061
B           -1.48179790875607       -0.25715263516742        2.27708090382509
B           -1.90024600044789        1.35232930229906        2.29370305430915
B           -2.06548696424944        2.91648395069445        2.48548981716486
B           -0.31571709551149        0.76396430778162        2.51798979834235
B           -0.96965377285754        4.07529027005567        2.16390153085740
B            0.78360089206940       -4.27515043177739        0.56815313854286
B            0.87867398937633       -2.68133037560015        0.56851312588118
B            1.11723127518269       -1.10987953687351        0.75854119837353
B            2.19660582589395       -3.55104401034022        1.05598705942820
B            2.50820538986003       -0.32277936895382        0.99349134965304
B            1.14530678452978        0.32678069901367        1.61946020681405
B            1.00680050786324        1.77006785391505        2.49110137136342
B            0.33414481660225        3.18557659790923        2.13239643464532
B            2.30641819493335        1.50962624996452        1.44912032057566
B            0.91837572535656        2.85001904120734        0.59839076327318
B            3.39187450495672       -4.10108715146592        2.08524914209627
B            3.61426333509765       -2.74343756445039        1.20763915574705
B            3.94520273285637       -1.19274593268052        0.88458194405639
B            4.66425570286818       -3.14064773944042        2.31509895562224
B            5.22873409601399       -0.25356474871074        0.40655200759846
B            3.97383583990366        0.45778652642204        1.14959783645975
B            3.80925030426454        2.24649781764202        1.21327073626414
B            2.51154071738353        2.96243799155889        0.43384932075028
B            5.23736134907750        1.44191134763901        0.91723896944631
B            3.95037778417975        3.50685367351000        0.24852864075544
H           -5.49269362356838       -3.64741024618421        2.09961232056019
H           -5.81591321908866       -2.27308215190500        0.60936421255101
H           -5.29416578861638       -0.13279651495227       -1.39440530401236
H           -5.94735980616536        0.56379331593264        3.06036241184684
H           -5.52391267953510        3.45831235664320        2.33324158194683
H           -3.38228847347232        2.70857708742695        4.57858589343312
H           -2.38685878497291       -5.14745593339179        0.73271261908913
H           -1.15537500484764        5.20353173375467        1.88603461056812
H            0.76096843872825       -5.41778441209302        0.31472678065363
H            0.20659244925060        2.50719528857778       -0.28352948517999
H            3.27208363772990       -5.10139067273869        2.68110723040691
H            5.65471903570221       -2.95774232791662        2.89822222161191
H            6.25798837737263       -0.60916101566972       -0.02288215586463
H            6.31137539060810        1.88245774812003        1.07257377637871
H            4.71369494148110        4.26409588852162       -0.20457040748745
