      -----------------------------------------------------------      
     |                   =====================                   |     
     |                           x T B                           |     
     |                   =====================                   |     
     |                         S. Grimme                         |     
     |          Mulliken Center for Theoretical Chemistry        |     
     |                    University of Bonn                     |     
      -----------------------------------------------------------      

   * xtb version 6.7.1pre (5071a88) compiled by 'Marcel@Raven' on 2024-07-23

   xtb is free software: you can redistribute it and/or modify it under
   the terms of the GNU Lesser General Public License as published by
   the Free Software Foundation, either version 3 of the License, or
   (at your option) any later version.
   
   xtb is distributed in the hope that it will be useful,
   but WITHOUT ANY WARRANTY; without even the implied warranty of
   MERCHANTABILITY or FITNESS FOR A PARTICULAR PURPOSE.  See the
   GNU Lesser General Public License for more details.
   
   Cite this work as:
   * C. Bannwarth, E. Caldeweyher, S. Ehlert, A. Hansen, P. Pracht,
     J. Seibert, S. Spicher, S. Grimme, WIREs Comput. Mol. Sci., 2020, 11,
     e01493. DOI: 10.1002/wcms.1493
   
   for GFN2-xTB:
   * C. Bannwarth, S. Ehlert and S. Grimme., J. Chem. Theory Comput., 2019,
     15, 1652-1671. DOI: 10.1021/acs.jctc.8b01176
   for GFN1-xTB:
   * S. Grimme, C. Bannwarth, P. Shushkov, J. Chem. Theory Comput., 2017,
     13, 1989-2009. DOI: 10.1021/acs.jctc.7b00118
   for GFN0-xTB:
   * P. Pracht, E. Caldeweyher, S. Ehlert, S. Grimme, ChemRxiv, 2019, preprint.
     DOI: 10.26434/chemrxiv.8326202.v1
   for GFN-FF:
   * S. Spicher and S. Grimme, Angew. Chem. Int. Ed., 2020, 59, 15665-15673.
     DOI: 10.1002/anie.202004239
   
   for ALPB and GBSA implicit solvation:
   * S. Ehlert, M. Stahn, S. Spicher, S. Grimme, J. Chem. Theory Comput.,
     2021, 17, 4250-4261. DOI: 10.1021/acs.jctc.1c00471
   
   for ddCOSMO and CPCM-X implicit solvation:
   * M. Stahn, S. Ehlert, S. Grimme, J. Phys. Chem. A,
     2023, XX, XXXX-XXXX. DOI: 10.1021/acs.jpca.3c04382
   
   for DFT-D4:
   * E. Caldeweyher, C. Bannwarth and S. Grimme, J. Chem. Phys., 2017,
     147, 034112. DOI: 10.1063/1.4993215
   * E. Caldeweyher, S. Ehlert, A. Hansen, H. Neugebauer, S. Spicher,
     C. Bannwarth and S. Grimme, J. Chem. Phys., 2019, 150, 154122.
     DOI: 10.1063/1.5090222
   * E. Caldeweyher, J.-M. Mewes, S. Ehlert and S. Grimme, Phys. Chem. Chem. Phys.
     2020, 22, 8499-8512. DOI: 10.1039/D0CP00502A
   
   for sTDA-xTB:
   * S. Grimme and C. Bannwarth, J. Chem. Phys., 2016, 145, 054103.
     DOI: 10.1063/1.4959605
   
   in the mass-spec context:
   * V. Asgeirsson, C. Bauer and S. Grimme, Chem. Sci., 2017, 8, 4879.
     DOI: 10.1039/c7sc00601b
   * J. Koopman and S. Grimme, ACS Omega 2019, 4, 12, 15120-15133.
     DOI: 10.1021/acsomega.9b02011
   
   for metadynamics refer to:
   * S. Grimme, J. Chem. Theory Comput., 2019, 155, 2847-2862
     DOI: 10.1021/acs.jctc.9b00143
   
   for SPH calculations refer to:
   * S. Spicher and S. Grimme, J. Chem. Theory Comput., 2021, 17, 1701-1714
     DOI: 10.1021/acs.jctc.0c01306
   
   for ONIOM refer to:
   * C. Plett, A. Katbashev, S. Ehlert, S. Grimme, M. Bursch,
     Phys. Chem. Chem. Phys., 2023, 25, 17860-17868. DOI: 10.1039/D3CP02178E
   
   for DIPRO refer to:
   * J. Kohn, N. Gildemeister, S. Grimme, D. Fazzi, A. Hansen,
     J. Chem. Phys., 2023, just accepted.
   
   for PTB refer to:
   * S. Grimme, M. Mueller, A. Hansen, J. Chem. Phys., 2023, 158, 124111.
     DOI: 10.1063/5.0137838
   
   with help from (in alphabetical order)
   P. Atkinson, C. Bannwarth, F. Bohle, G. Brandenburg, E. Caldeweyher
   M. Checinski, S. Dohm, S. Ehlert, S. Ehrlich, I. Gerasimov, C. Hölzer
   A. Katbashev, J. Kohn, J. Koopman, C. Lavigne, S. Lehtola, F. März, M. Müller,
   F. Musil, H. Neugebauer, J. Pisarek, C. Plett, P. Pracht, F. Pultar,
   J. Seibert, P. Shushkov, S. Spicher, M. Stahn, M. Steiner, T. Strunk,
   J. Stückrath, T. Rose, and J. Unsleber
   
 * started run on 2026/08/31 at 21:15:28.157     
   ID    Z sym.   atoms
    1    8 O      1, 4, 10, 12, 14, 18, 21
    2    6 C      2, 3, 5-9, 11, 13, 15-17, 19, 20, 22
    3    1 H      23-32, 86-92
    4    5 B      33-85

           -------------------------------------------------
          |                Calculation Setup                |
           -------------------------------------------------

          program call               : "c:\Users\Andre\Proyectos doctorado\kras-pancreatic-gC3N4-ai\tools\xtb\xtb-6.7.1\bin\xtb.exe" "c:\Users\Andre\Proyectos doctorado\borophene-alzheimer-tau-ai\calculations\tau\Quercetin\Quercetin_B48H12_phys_complex.xyz" --gfn 2 --sp --chrg 0 --uhf 0 --etemp 300 --iterations 500 --norestart
          coordinate file            : c:\Users\Andre\Proyectos doctorado\borophene-alzheimer-tau-ai\calculations\tau\Quercetin\Quercetin_B48H12_phys_complex.xyz
          omp threads                :                    16


molecular fragmentation (1/2 indicates fragments):
111111111111111111111111111111112222222222222222222222222222222222222222
22222222222222222222
# atoms in fragment 1/2:    32    60
 fragment masses (1/2) :      302.24      580.04
CMA distance (Bohr)    :  10.492
constraining FC (au)   :  0.0500

           -------------------------------------------------
          |                 G F N 2 - x T B                 |
           -------------------------------------------------

        Reference                      10.1021/acs.jctc.8b01176
      * Hamiltonian:
        H0-scaling (s, p, d)           1.850000    2.230000    2.230000
        zeta-weighting                 0.500000
      * Dispersion:
        s8                             2.700000
        a1                             0.520000
        a2                             5.000000
        s9                             5.000000
      * Repulsion:
        kExp                           1.500000    1.000000
        rExp                           1.000000
      * Coulomb:
        alpha                          2.000000
        third order                    shell-resolved
        anisotropic                    true
        a3                             3.000000
        a5                             4.000000
        cn-shift                       1.200000
        cn-exp                         4.000000
        max-rad                        5.000000


          ...................................................
          :                      SETUP                      :
          :.................................................:
          :  # basis functions                 317          :
          :  # atomic orbitals                 317          :
          :  # shells                          167          :
          :  # electrons                       278          :
          :  max. iterations                   500          :
          :  Hamiltonian                  GFN2-xTB          :
          :  restarted?                      false          :
          :  GBSA solvation                  false          :
          :  PC potential                    false          :
          :  electronic temp.          300.0000000     K    :
          :  accuracy                    1.0000000          :
          :  -> integral cutoff          0.2500000E+02      :
          :  -> integral neglect         0.1000000E-07      :
          :  -> SCF convergence          0.1000000E-05 Eh   :
          :  -> wf. convergence          0.1000000E-03 e    :
          :  Broyden damping             0.4000000          :
          :  net charge                          0          :
          :  unpaired electrons                  0          :
          ...................................................

 iter      E             dE          RMSdq      gap      omega  full diag
   1   -134.2597901 -0.134260E+03  0.157E+01    0.34       0.0  T
   2   -123.6667939  0.105930E+02  0.109E+01    0.02       1.0  T
   3     90.7089376  0.214376E+03  0.200E+01    0.08       1.0  T
   4     37.0644205 -0.536445E+02  0.176E+01    0.08       1.0  T
   5   -107.2916148 -0.144356E+03  0.899E+00    0.02       1.0  T
   6    -46.6288340  0.606628E+02  0.131E+01    0.00       1.0  T
   7   -129.0597152 -0.824309E+02  0.555E+00    0.24       1.0  T
   8   -129.6752093 -0.615494E+00  0.471E+00    0.11       1.0  T
   9   -134.6727143 -0.499751E+01  0.319E+00    0.49       1.0  T
  10   -134.8538301 -0.181116E+00  0.276E+00    0.38       1.0  T
  11   -135.0313298 -0.177500E+00  0.249E+00    0.42       1.0  T
  12   -134.9862723  0.450575E-01  0.225E+00    0.40       1.0  T
  13   -135.0042992 -0.180268E-01  0.180E+00    0.36       1.0  T
  14   -134.9260462  0.782530E-01  0.121E+00    0.17       1.0  T
  15   -135.1007366 -0.174690E+00  0.972E-01    0.07       1.0  T
  16   -135.1319962 -0.312596E-01  0.795E-01    0.31       1.0  T
  17   -134.9011709  0.230825E+00  0.125E+00    0.13       1.0  T
  18   -135.0123305 -0.111160E+00  0.106E+00    0.06       1.0  T
  19   -135.0778450 -0.655145E-01  0.879E-01    0.03       1.0  T
  20   -135.1850013 -0.107156E+00  0.589E-01    0.03       1.0  T
  21   -135.1362917  0.487096E-01  0.672E-01    0.02       1.0  T
  22   -135.2024750 -0.661834E-01  0.382E-01    0.03       1.0  T
  23   -135.2188801 -0.164051E-01  0.207E-01    0.06       1.0  T
  24   -135.2148773  0.400288E-02  0.275E-01    0.14       1.0  T
  25   -135.2151288 -0.251519E-03  0.268E-01    0.14       1.0  T
  26   -135.2151573 -0.285656E-04  0.250E-01    0.14       1.0  T
  27   -135.2144611  0.696288E-03  0.213E-01    0.15       1.0  T
  28   -135.2164695 -0.200847E-02  0.184E-01    0.14       1.0  T
  29   -135.2197448 -0.327527E-02  0.136E-01    0.11       1.0  T
  30   -135.2220644 -0.231959E-02  0.812E-02    0.09       1.0  T
  31   -135.2226697 -0.605295E-03  0.493E-02    0.08       1.0  T
  32   -135.2228120 -0.142347E-03  0.309E-02    0.08       1.0  T
  33   -135.2228902 -0.781754E-04  0.175E-02    0.08       1.0  T
  34   -135.2229072 -0.170406E-04  0.136E-02    0.08       1.0  T
  35   -135.2229293 -0.220425E-04  0.106E-02    0.08       1.0  T
  36   -135.2229352 -0.595012E-05  0.905E-03    0.08       1.2  T
  37   -135.2228938  0.414156E-04  0.148E-02    0.08       1.0  T
  38   -135.2229064 -0.126314E-04  0.118E-02    0.08       1.0  T
  39   -135.2229270 -0.205885E-04  0.723E-03    0.08       1.4  T
  40   -135.2229339 -0.682847E-05  0.495E-03    0.08       2.1  T
  41   -135.2229349 -0.990464E-06  0.439E-03    0.08       2.4  T
  42   -135.2229388 -0.395037E-05  0.178E-03    0.08       5.9  T
  43   -135.2229394 -0.609783E-06  0.722E-04    0.08      14.4  T
  44   -135.2229395 -0.415309E-07  0.523E-04    0.08      20.0  T

   *** convergence criteria satisfied after 44 iterations ***

         #    Occupation            Energy/Eh            Energy/eV
      -------------------------------------------------------------
         1        2.0000           -0.7159210             -19.4812
       ...           ...                  ...                  ...
       133        2.0000           -0.2707183              -7.3666
       134        2.0000           -0.2653605              -7.2208
       135        2.0000           -0.2650023              -7.2111
       136        2.0000           -0.2605423              -7.0897
       137        1.9999           -0.2560202              -6.9667
       138        1.9978           -0.2533037              -6.8927
       139        1.6395           -0.2482879              -6.7563 (HOMO)
       140        0.3628           -0.2454174              -6.6781 (LUMO)
       141        0.0000           -0.2314843              -6.2990
       142                         -0.2278996              -6.2015
       143                         -0.2246117              -6.1120
       144                         -0.2155952              -5.8666
       ...                                ...                  ...
       317                          1.1906064              32.3980
      -------------------------------------------------------------
                  HL-Gap            0.0028705 Eh            0.0781 eV
             Fermi-level           -0.2468489 Eh           -6.7171 eV

 SCC (total)                   0 d,  0 h,  0 min,  0.773 sec
 SCC setup                      ...        0 min,  0.001 sec (  0.129%)
 Dispersion                     ...        0 min,  0.002 sec (  0.259%)
 classical contributions        ...        0 min,  0.000 sec (  0.000%)
 integral evaluation            ...        0 min,  0.007 sec (  0.906%)
 iterations                     ...        0 min,  0.744 sec ( 96.248%)
 molecular gradient             ...        0 min,  0.018 sec (  2.329%)
 printout                       ...        0 min,  0.001 sec (  0.129%)

         :::::::::::::::::::::::::::::::::::::::::::::::::::::
         ::                     SUMMARY                     ::
         :::::::::::::::::::::::::::::::::::::::::::::::::::::
         :: total energy            -133.374880702760 Eh    ::
         :: gradient norm              0.101499887885 Eh/a0 ::
         :: HOMO-LUMO gap              0.078110451637 eV    ::
         ::.................................................::
         :: SCC energy              -135.217958476455 Eh    ::
         :: -> isotropic ES            0.368910830121 Eh    ::
         :: -> anisotropic ES         -0.002819670705 Eh    ::
         :: -> anisotropic XC         -0.052909830874 Eh    ::
         :: -> dispersion             -0.127146153280 Eh    ::
         :: repulsion energy           1.843077773695 Eh    ::
         :: add. restraining           0.000000000000 Eh    ::
         :: total charge              -0.000000000003 e     ::
         :::::::::::::::::::::::::::::::::::::::::::::::::::::

           -------------------------------------------------
          |                Property Printout                |
           -------------------------------------------------

    * Orbital Energies and Occupations

         #    Occupation            Energy/Eh            Energy/eV
      -------------------------------------------------------------
         1        2.0000           -0.7159210             -19.4812
       ...           ...                  ...                  ...
       127        2.0000           -0.2858737              -7.7790
       128        2.0000           -0.2839475              -7.7266
       129        2.0000           -0.2795234              -7.6062
       130        2.0000           -0.2768752              -7.5342
       131        2.0000           -0.2745655              -7.4713
       132        2.0000           -0.2720687              -7.4034
       133        2.0000           -0.2707183              -7.3666
       134        2.0000           -0.2653605              -7.2208
       135        2.0000           -0.2650023              -7.2111
       136        2.0000           -0.2605423              -7.0897
       137        1.9999           -0.2560202              -6.9667
       138        1.9978           -0.2533037              -6.8927
       139        1.6395           -0.2482879              -6.7563 (HOMO)
       140        0.3628           -0.2454174              -6.6781 (LUMO)
       141        0.0000           -0.2314843              -6.2990
       142                         -0.2278996              -6.2015
       143                         -0.2246117              -6.1120
       144                         -0.2155952              -5.8666
       145                         -0.2148237              -5.8457
       146                         -0.2134686              -5.8088
       147                         -0.2107402              -5.7345
       148                         -0.2102295              -5.7206
       149                         -0.2028991              -5.5212
       150                         -0.1995245              -5.4293
       ...                                ...                  ...
       317                          1.1906064              32.3980
      -------------------------------------------------------------
                  HL-Gap            0.0028705 Eh            0.0781 eV
             Fermi-level           -0.2468489 Eh           -6.7171 eV

     #   Z          covCN         q      C6AA      α(0)
     1   8 O        0.858    -0.498    23.747     6.534
     2   6 C        2.836     0.177    24.202     8.062
     3   6 C        2.820     0.071    26.397     8.418
     4   8 O        1.655    -0.409    21.026     6.190
     5   6 C        2.851     0.084    26.114     8.376
     6   6 C        2.966    -0.003    28.107     8.696
     7   6 C        2.917    -0.054    29.343     8.883
     8   6 C        2.909    -0.082    30.063     8.991
     9   6 C        2.843     0.096    25.867     8.335
    10   8 O        1.658    -0.419    21.227     6.220
    11   6 C        2.843     0.117    25.418     8.262
    12   8 O        1.658    -0.399    20.833     6.162
    13   6 C        2.917    -0.072    29.794     8.951
    14   8 O        1.707    -0.229    17.799     5.696
    15   6 C        2.871     0.121    25.328     8.250
    16   6 C        2.914    -0.169    32.392     9.333
    17   6 C        2.845     0.128    25.183     8.224
    18   8 O        1.659    -0.392    20.701     6.142
    19   6 C        2.912    -0.118    31.000     9.130
    20   6 C        2.846     0.146    24.819     8.165
    21   8 O        1.657    -0.408    21.012     6.188
    22   6 C        2.971    -0.091    30.290     9.028
    23   1 H        0.803     0.324     0.654     1.270
    24   1 H        0.925     0.053     2.287     2.365
    25   1 H        0.925     0.034     2.535     2.490
    26   1 H        0.804     0.303     0.711     1.325
    27   1 H        0.804     0.322     0.659     1.275
    28   1 H        0.925     0.071     2.075     2.253
    29   1 H        0.929     0.154     1.367     1.828
    30   1 H        0.804     0.301     0.717     1.330
    31   1 H        0.925     0.044     2.390     2.418
    32   1 H        0.802     0.340     0.613     1.230
    33   5 B        2.872     0.040    20.735     7.601
    34   5 B        3.645     0.037    21.655     7.577
    35   5 B        3.704     0.010    22.380     7.654
    36   5 B        3.599     0.008    21.882     7.673
    37   5 B        3.804     0.016    22.419     7.634
    38   5 B        3.812     0.037    22.040     7.569
    39   5 B        4.425     0.062    21.626     7.493
    40   5 B        3.843     0.033    22.125     7.581
    41   5 B        5.059     0.048    21.867     7.535
    42   5 B        5.523     0.103    20.917     7.369
    43   5 B        3.792     0.003    22.656     7.676
    44   5 B        4.799     0.086    21.214     7.421
    45   5 B        4.746     0.061    21.635     7.495
    46   5 B        3.691     0.015    22.263     7.642
    47   5 B        3.746     0.032    22.068     7.584
    48   5 B        4.170    -0.015    23.020     7.731
    49   5 B        3.938     0.009    22.570     7.655
    50   5 B        3.779     0.073    21.386     7.459
    51   5 B        3.808     0.064    21.568     7.488
    52   5 B        3.812    -0.010    22.907     7.716
    53   5 B        3.702     0.002    22.535     7.682
    54   5 B        3.825     0.014    22.459     7.639
    55   5 B        4.691     0.054    21.757     7.516
    56   5 B        4.735     0.044    21.946     7.548
    57   5 B        3.813     0.073    21.404     7.459
    58   5 B        2.071     0.000    43.018    13.719
    59   5 B        3.706     0.006    22.471     7.669
    60   5 B        4.547     0.021    22.364     7.620
    61   5 B        4.200     0.032    22.152     7.583
    62   5 B        3.748     0.071    21.387     7.466
    63   5 B        3.840    -0.006    22.842     7.703
    64   5 B        3.769     0.017    22.375     7.632
    65   5 B        4.530     0.066    21.550     7.480
    66   5 B        5.624     0.098    21.007     7.385
    67   5 B        3.805     0.020    22.340     7.621
    68   5 B        3.825     0.011    22.524     7.650
    69   5 B        2.886     0.069    20.239     7.509
    70   5 B        2.918     0.042    20.673     7.587
    71   5 B        2.913     0.017    21.105     7.666
    72   5 B        3.630     0.009    22.068     7.667
    73   5 B        3.792     0.002    22.674     7.679
    74   5 B        2.860    -0.007    21.551     7.750
    75   5 B        2.920    -0.032    21.987     7.824
    76   5 B        3.825     0.023    22.310     7.614
    77   5 B        2.901    -0.026    21.881     7.806
    78   5 B        4.532     0.044    21.943     7.548
    79   5 B        3.896     0.036    22.074     7.571
    80   5 B        3.818     0.015    22.436     7.636
    81   5 B        3.778    -0.036    23.386     7.801
    82   5 B        3.628    -0.021    22.600     7.760
    83   5 B        4.556     0.024    22.292     7.607
    84   5 B        3.280     0.018    21.075     7.656
    85   5 B        4.869     0.087    21.183     7.416
    86   1 H        0.937    -0.176     9.131     4.724
    87   1 H        0.935    -0.144     7.393     4.251
    88   1 H        0.936    -0.140     7.185     4.191
    89   1 H        0.939    -0.154     7.898     4.394
    90   1 H        0.936    -0.140     7.181     4.190
    91   1 H        0.937    -0.145     7.410     4.256
    92   1 H        0.934    -0.143     7.348     4.238

 Mol. C6AA /au·bohr⁶  :     152734.224703
 Mol. C8AA /au·bohr⁸  :    5058818.320113
 Mol. α(0) /au        :        629.283857


Wiberg/Mayer (AO) data.
largest (>0.10) Wiberg bond orders for each atom

 ---------------------------------------------------------------------------
     #   Z sym  total        # sym  WBO       # sym  WBO       # sym  WBO
 ---------------------------------------------------------------------------
     1   8 O    1.880 --     2 C    1.546
     2   6 C    3.843 --     1 O    1.546    22 C    1.102     3 C    1.087
     3   6 C    3.905 --     5 C    1.533     2 C    1.087     4 O    1.061
     4   8 O    2.082 --     3 C    1.061    23 H    0.865
     5   6 C    3.820 --     3 C    1.533     6 C    1.053    14 O    1.028
     6   6 C    3.959 --     7 C    1.372    13 C    1.364     5 C    1.053
     7   6 C    3.964 --     8 C    1.441     6 C    1.372    24 H    0.969
     8   6 C    3.980 --     7 C    1.441     9 C    1.386    25 H    0.966
     9   6 C    3.895 --     8 C    1.386    11 C    1.303    10 O    1.036
    10   8 O    2.075 --     9 C    1.036    26 H    0.885
    11   6 C    3.941 --    13 C    1.403     9 C    1.303    12 O    1.069
    12   8 O    2.107 --    11 C    1.069    27 H    0.873
    13   6 C    3.953 --    11 C    1.403     6 C    1.364    28 H    0.965
    14   8 O    2.316 --    15 C    1.055     5 C    1.028
    15   6 C    3.912 --    16 C    1.370    22 C    1.302    14 O    1.055
    16   6 C    3.909 --    15 C    1.370    17 C    1.357    29 H    0.837
    17   6 C    3.909 --    19 C    1.365    16 C    1.357    18 O    1.067
    18   8 O    2.106 --    17 C    1.067    30 H    0.886
    19   6 C    3.968 --    20 C    1.383    17 C    1.365    31 H    0.963
    20   6 C    3.907 --    19 C    1.383    22 C    1.277    21 O    1.108
    21   8 O    2.119 --    20 C    1.108    32 H    0.820
    22   6 C    3.976 --    15 C    1.302    20 C    1.277     2 C    1.102
    23   1 H    0.895 --     4 O    0.865
    24   1 H    0.997 --     7 C    0.969
    25   1 H    0.998 --     8 C    0.966
    26   1 H    0.908 --    10 O    0.885
    27   1 H    0.896 --    12 O    0.873
    28   1 H    0.995 --    13 C    0.965
    29   1 H    0.976 --    16 C    0.837
    30   1 H    0.908 --    18 O    0.886
    31   1 H    0.997 --    19 C    0.963
    32   1 H    0.884 --    21 O    0.820
    33   5 B    3.484 --    75 B    1.432    86 H    0.958    39 B    0.838
    34   5 B    3.490 --    75 B    1.119    76 B    0.983    40 B    0.551
                            39 B    0.507
    35   5 B    3.505 --    77 B    1.274    76 B    1.014    42 B    0.483
                            41 B    0.453
    36   5 B    3.466 --    77 B    1.285    37 B    1.014    42 B    0.564
                            78 B    0.360
    37   5 B    3.527 --    79 B    1.093    36 B    1.014    43 B    0.682
                            78 B    0.486
    38   5 B    3.595 --    90 H    0.941    79 B    0.855    50 B    0.810
                            44 B    0.800
    39   5 B    3.610 --    33 B    0.838    45 B    0.833    75 B    0.786
                            34 B    0.507    46 B    0.390
    40   5 B    3.555 --    46 B    1.105    76 B    0.759    41 B    0.692
                            34 B    0.551
    41   5 B    3.603 --    47 B    0.908    40 B    0.692    42 B    0.522
                            76 B    0.505    35 B    0.453    48 B    0.230
    42   5 B    3.597 --    48 B    0.623    78 B    0.615    77 B    0.593
                            36 B    0.564    41 B    0.522    35 B    0.483
    43   5 B    3.596 --    49 B    1.108    78 B    0.917    37 B    0.682
                            79 B    0.507
    44   5 B    3.596 --    50 B    0.845    38 B    0.800    56 B    0.686
                            79 B    0.593    49 B    0.516
    45   5 B    3.619 --    39 B    0.833    51 B    0.755    46 B    0.693
                            52 B    0.557    85 B    0.496
    46   5 B    3.546 --    40 B    1.105    52 B    0.930    45 B    0.693
                            39 B    0.390
    47   5 B    3.474 --    53 B    1.087    41 B    0.908    54 B    0.595
                            48 B    0.420
    48   5 B    3.592 --    54 B    1.107    78 B    0.908    42 B    0.623
                            47 B    0.420    41 B    0.230
    49   5 B    3.551 --    43 B    1.108    55 B    0.832    56 B    0.607
                            44 B    0.516    79 B    0.182
    50   5 B    3.513 --    91 H    0.953    44 B    0.845    38 B    0.810
                            56 B    0.678
    51   5 B    3.524 --    87 H    0.940    57 B    0.831    45 B    0.755
                            85 B    0.727
    52   5 B    3.624 --    58 B    1.268    46 B    0.930    45 B    0.557
                            85 B    0.545
    53   5 B    3.482 --    59 B    1.162    47 B    1.087    54 B    0.548
                            60 B    0.393
    54   5 B    3.561 --    48 B    1.107    60 B    0.972    47 B    0.595
                            53 B    0.548
    55   5 B    3.580 --    61 B    0.864    49 B    0.832    68 B    0.559
                            56 B    0.542    62 B    0.500
    56   5 B    3.605 --    62 B    0.870    44 B    0.686    50 B    0.678
                            49 B    0.607    55 B    0.542
    57   5 B    3.571 --    88 H    0.942    51 B    0.831    85 B    0.773
                            63 B    0.725
    58   5 B    3.413 --    64 B    1.330    52 B    1.268    85 B    0.204
                            80 B    0.157
    59   5 B    3.429 --    53 B    1.162    65 B    1.016    66 B    0.510
                            60 B    0.454
    60   5 B    3.579 --    54 B    0.972    83 B    0.783    66 B    0.659
                            59 B    0.454    53 B    0.393
    61   5 B    3.561 --    67 B    1.006    55 B    0.864    68 B    0.633
                            74 B    0.542    84 B    0.319
    62   5 B    3.415 --    92 H    0.925    68 B    0.891    56 B    0.870
                            55 B    0.500
    63   5 B    3.605 --    69 B    1.231    57 B    0.725    80 B    0.712
                            85 B    0.691
    64   5 B    3.570 --    58 B    1.330    70 B    0.687    80 B    0.605
                            81 B    0.574
    65   5 B    3.513 --    59 B    1.016    71 B    0.648    81 B    0.577
                            66 B    0.538    82 B    0.449
    66   5 B    3.612 --    60 B    0.659    83 B    0.629    65 B    0.538
                            72 B    0.525    59 B    0.510    82 B    0.506
    67   5 B    3.543 --    83 B    1.025    61 B    1.006    73 B    0.629
                            84 B    0.527
    68   5 B    3.505 --    74 B    1.233    62 B    0.891    61 B    0.633
                            55 B    0.559
    69   5 B    3.460 --    63 B    1.231    89 H    0.957    80 B    0.850
                            70 B    0.144
    70   5 B    3.402 --    81 B    1.161    80 B    1.107    64 B    0.687
                            69 B    0.144
    71   5 B    3.347 --    82 B    1.209    81 B    1.133    65 B    0.648
    72   5 B    3.383 --    82 B    1.129    73 B    1.079    66 B    0.525
                            83 B    0.391
    73   5 B    3.488 --    72 B    1.079    84 B    1.063    67 B    0.629
                            83 B    0.495
    74   5 B    3.339 --    84 B    1.264    68 B    1.233    61 B    0.542
    75   5 B    3.520 --    33 B    1.432    34 B    1.119    39 B    0.786
    76   5 B    3.515 --    35 B    1.014    34 B    0.983    40 B    0.759
                            41 B    0.505
    77   5 B    3.439 --    36 B    1.285    35 B    1.274    42 B    0.593
    78   5 B    3.555 --    43 B    0.917    48 B    0.908    42 B    0.615
                            37 B    0.486    36 B    0.360
    79   5 B    3.482 --    37 B    1.093    38 B    0.855    44 B    0.593
                            43 B    0.507    49 B    0.182
    80   5 B    3.628 --    70 B    1.107    69 B    0.850    63 B    0.712
                            64 B    0.605    58 B    0.157
    81   5 B    3.616 --    70 B    1.161    71 B    1.133    65 B    0.577
                            64 B    0.574
    82   5 B    3.498 --    71 B    1.209    72 B    1.129    66 B    0.506
                            65 B    0.449
    83   5 B    3.593 --    67 B    1.025    60 B    0.783    66 B    0.629
                            73 B    0.495    72 B    0.391
    84   5 B    3.388 --    74 B    1.264    73 B    1.063    67 B    0.527
                            61 B    0.319
    85   5 B    3.625 --    57 B    0.773    51 B    0.727    63 B    0.691
                            52 B    0.545    45 B    0.496    58 B    0.204
    86   1 H    0.968 --    33 B    0.958
    87   1 H    0.973 --    51 B    0.940
    88   1 H    0.975 --    57 B    0.942
    89   1 H    0.972 --    69 B    0.957
    90   1 H    0.969 --    38 B    0.941
    91   1 H    0.975 --    50 B    0.953
    92   1 H    0.973 --    62 B    0.925
 ---------------------------------------------------------------------------

Topologies differ in total number of bonds
Writing topology from bond orders to xtbtopo.mol

molecular dipole:
                 x           y           z       tot (Debye)
 q only:        3.052       0.543      -3.153
   full:        3.115       0.764      -3.506      12.077
molecular quadrupole (traceless):
                xx          xy          yy          xz          yz          zz
 q only:      -26.511      31.160      79.408      15.314      -7.310     -52.898
  q+dip:       10.833      13.251      39.283      18.356       9.105     -50.116
   full:       -3.364      17.895      29.851      22.470       7.972     -26.488


           -------------------------------------------------
          | TOTAL ENERGY             -133.374880702760 Eh   |
          | GRADIENT NORM               0.101499887885 Eh/α |
          | HOMO-LUMO GAP               0.078110451637 eV   |
           -------------------------------------------------

------------------------------------------------------------------------
 * finished run on 2026/08/31 at 21:15:28.977     
------------------------------------------------------------------------
 total:
 * wall-time:     0 d,  0 h,  0 min,  0.819 sec
 *  cpu-time:     0 d,  0 h,  0 min,  8.922 sec
 * ratio c/w:    10.894 speedup
 SCF:
 * wall-time:     0 d,  0 h,  0 min,  0.774 sec
 *  cpu-time:     0 d,  0 h,  0 min,  8.438 sec
 * ratio c/w:    10.901 speedup

normal termination of xtb
