      -----------------------------------------------------------      
     |                   =====================                   |     
     |                           x T B                           |     
     |                   =====================                   |     
     |                         S. Grimme                         |     
     |          Mulliken Center for Theoretical Chemistry        |     
     |                    University of Bonn                     |     
      -----------------------------------------------------------      

   * xtb version 6.7.1pre (5071a88) compiled by 'Marcel@Raven' on 2024-07-23

   xtb is free software: you can redistribute it and/or modify it under
   the terms of the GNU Lesser General Public License as published by
   the Free Software Foundation, either version 3 of the License, or
   (at your option) any later version.
   
   xtb is distributed in the hope that it will be useful,
   but WITHOUT ANY WARRANTY; without even the implied warranty of
   MERCHANTABILITY or FITNESS FOR A PARTICULAR PURPOSE.  See the
   GNU Lesser General Public License for more details.
   
   Cite this work as:
   * C. Bannwarth, E. Caldeweyher, S. Ehlert, A. Hansen, P. Pracht,
     J. Seibert, S. Spicher, S. Grimme, WIREs Comput. Mol. Sci., 2020, 11,
     e01493. DOI: 10.1002/wcms.1493
   
   for GFN2-xTB:
   * C. Bannwarth, S. Ehlert and S. Grimme., J. Chem. Theory Comput., 2019,
     15, 1652-1671. DOI: 10.1021/acs.jctc.8b01176
   for GFN1-xTB:
   * S. Grimme, C. Bannwarth, P. Shushkov, J. Chem. Theory Comput., 2017,
     13, 1989-2009. DOI: 10.1021/acs.jctc.7b00118
   for GFN0-xTB:
   * P. Pracht, E. Caldeweyher, S. Ehlert, S. Grimme, ChemRxiv, 2019, preprint.
     DOI: 10.26434/chemrxiv.8326202.v1
   for GFN-FF:
   * S. Spicher and S. Grimme, Angew. Chem. Int. Ed., 2020, 59, 15665-15673.
     DOI: 10.1002/anie.202004239
   
   for ALPB and GBSA implicit solvation:
   * S. Ehlert, M. Stahn, S. Spicher, S. Grimme, J. Chem. Theory Comput.,
     2021, 17, 4250-4261. DOI: 10.1021/acs.jctc.1c00471
   
   for ddCOSMO and CPCM-X implicit solvation:
   * M. Stahn, S. Ehlert, S. Grimme, J. Phys. Chem. A,
     2023, XX, XXXX-XXXX. DOI: 10.1021/acs.jpca.3c04382
   
   for DFT-D4:
   * E. Caldeweyher, C. Bannwarth and S. Grimme, J. Chem. Phys., 2017,
     147, 034112. DOI: 10.1063/1.4993215
   * E. Caldeweyher, S. Ehlert, A. Hansen, H. Neugebauer, S. Spicher,
     C. Bannwarth and S. Grimme, J. Chem. Phys., 2019, 150, 154122.
     DOI: 10.1063/1.5090222
   * E. Caldeweyher, J.-M. Mewes, S. Ehlert and S. Grimme, Phys. Chem. Chem. Phys.
     2020, 22, 8499-8512. DOI: 10.1039/D0CP00502A
   
   for sTDA-xTB:
   * S. Grimme and C. Bannwarth, J. Chem. Phys., 2016, 145, 054103.
     DOI: 10.1063/1.4959605
   
   in the mass-spec context:
   * V. Asgeirsson, C. Bauer and S. Grimme, Chem. Sci., 2017, 8, 4879.
     DOI: 10.1039/c7sc00601b
   * J. Koopman and S. Grimme, ACS Omega 2019, 4, 12, 15120-15133.
     DOI: 10.1021/acsomega.9b02011
   
   for metadynamics refer to:
   * S. Grimme, J. Chem. Theory Comput., 2019, 155, 2847-2862
     DOI: 10.1021/acs.jctc.9b00143
   
   for SPH calculations refer to:
   * S. Spicher and S. Grimme, J. Chem. Theory Comput., 2021, 17, 1701-1714
     DOI: 10.1021/acs.jctc.0c01306
   
   for ONIOM refer to:
   * C. Plett, A. Katbashev, S. Ehlert, S. Grimme, M. Bursch,
     Phys. Chem. Chem. Phys., 2023, 25, 17860-17868. DOI: 10.1039/D3CP02178E
   
   for DIPRO refer to:
   * J. Kohn, N. Gildemeister, S. Grimme, D. Fazzi, A. Hansen,
     J. Chem. Phys., 2023, just accepted.
   
   for PTB refer to:
   * S. Grimme, M. Mueller, A. Hansen, J. Chem. Phys., 2023, 158, 124111.
     DOI: 10.1063/5.0137838
   
   with help from (in alphabetical order)
   P. Atkinson, C. Bannwarth, F. Bohle, G. Brandenburg, E. Caldeweyher
   M. Checinski, S. Dohm, S. Ehlert, S. Ehrlich, I. Gerasimov, C. Hölzer
   A. Katbashev, J. Kohn, J. Koopman, C. Lavigne, S. Lehtola, F. März, M. Müller,
   F. Musil, H. Neugebauer, J. Pisarek, C. Plett, P. Pracht, F. Pultar,
   J. Seibert, P. Shushkov, S. Spicher, M. Stahn, M. Steiner, T. Strunk,
   J. Stückrath, T. Rose, and J. Unsleber
   
 * started run on 2026/09/01 at 16:34:37.236     
   ID    Z sym.   atoms
    1    8 O      1, 4, 10, 12, 14, 18, 21
    2    6 C      2, 3, 5-9, 11, 13, 15-17, 19, 20, 22
    3    1 H      23-32, 81-92
    4    5 B      33-80

           -------------------------------------------------
          |                Calculation Setup                |
           -------------------------------------------------

          program call               : "c:\Users\Andre\Proyectos doctorado\kras-pancreatic-gC3N4-ai\tools\xtb\xtb-6.7.1\bin\xtb.exe" "c:\Users\Andre\Proyectos doctorado\borophene-alzheimer-tau-ai\calculations\tau\Quercetin\Quercetin_B48H12_clean_complex.xyz" --gfn 2 --sp --chrg 0 --uhf 0 --etemp 300 --iterations 500 --norestart
          coordinate file            : c:\Users\Andre\Proyectos doctorado\borophene-alzheimer-tau-ai\calculations\tau\Quercetin\Quercetin_B48H12_clean_complex.xyz
          omp threads                :                    16


molecular fragmentation (1/2 indicates fragments):
111111111111111111111111111111112222222222222222222222222222222222222222
22222222222222222222
# atoms in fragment 1/2:    32    60
 fragment masses (1/2) :      302.24      531.02
CMA distance (Bohr)    :  14.233
constraining FC (au)   :  0.0500

           -------------------------------------------------
          |                 G F N 2 - x T B                 |
           -------------------------------------------------

        Reference                      10.1021/acs.jctc.8b01176
      * Hamiltonian:
        H0-scaling (s, p, d)           1.850000    2.230000    2.230000
        zeta-weighting                 0.500000
      * Dispersion:
        s8                             2.700000
        a1                             0.520000
        a2                             5.000000
        s9                             5.000000
      * Repulsion:
        kExp                           1.500000    1.000000
        rExp                           1.000000
      * Coulomb:
        alpha                          2.000000
        third order                    shell-resolved
        anisotropic                    true
        a3                             3.000000
        a5                             4.000000
        cn-shift                       1.200000
        cn-exp                         4.000000
        max-rad                        5.000000


          ...................................................
          :                      SETUP                      :
          :.................................................:
          :  # basis functions                 302          :
          :  # atomic orbitals                 302          :
          :  # shells                          162          :
          :  # electrons                       268          :
          :  max. iterations                   500          :
          :  Hamiltonian                  GFN2-xTB          :
          :  restarted?                      false          :
          :  GBSA solvation                  false          :
          :  PC potential                    false          :
          :  electronic temp.          300.0000000     K    :
          :  accuracy                    1.0000000          :
          :  -> integral cutoff          0.2500000E+02      :
          :  -> integral neglect         0.1000000E-07      :
          :  -> SCF convergence          0.1000000E-05 Eh   :
          :  -> wf. convergence          0.1000000E-03 e    :
          :  Broyden damping             0.4000000          :
          :  net charge                          0          :
          :  unpaired electrons                  0          :
          ...................................................

 iter      E             dE          RMSdq      gap      omega  full diag
   1   -131.0707996 -0.131071E+03  0.154E+01    0.41       0.0  T
   2   -126.7683711  0.430243E+01  0.998E+00    0.25       1.0  T
   3    -36.4055067  0.903629E+02  0.176E+01    0.08       1.0  T
   4    -75.9984079 -0.395929E+02  0.123E+01    0.08       1.0  T
   5    -97.9961443 -0.219977E+02  0.932E+00    0.06       1.0  T
   6   -107.1228909 -0.912675E+01  0.805E+00    0.06       1.0  T
   7   -103.4662384  0.365665E+01  0.725E+00    0.08       1.0  T
   8   -123.7657040 -0.202995E+02  0.466E+00    0.12       1.0  T
   9   -131.2398931 -0.747419E+01  0.262E+00    0.30       1.0  T
  10   -131.5073809 -0.267488E+00  0.229E+00    0.17       1.0  T
  11   -131.5747673 -0.673864E-01  0.196E+00    0.37       1.0  T
  12   -131.6502506 -0.754833E-01  0.181E+00    0.38       1.0  T
  13   -131.6017281  0.485224E-01  0.144E+00    0.42       1.0  T
  14   -131.2758378  0.325890E+00  0.154E+00    0.25       1.0  T
  15   -131.6770813 -0.401243E+00  0.880E-01    0.09       1.0  T
  16   -131.3109887  0.366093E+00  0.150E+00    0.25       1.0  T
  17   -131.3241130 -0.131243E-01  0.144E+00    0.24       1.0  T
  18   -131.4772470 -0.153134E+00  0.116E+00    0.10       1.0  T
  19   -131.7100890 -0.232842E+00  0.628E-01    0.24       1.0  T
  20   -131.7317695 -0.216805E-01  0.524E-01    0.19       1.0  T
  21   -131.7356497 -0.388022E-02  0.483E-01    0.17       1.0  T
  22   -131.7460872 -0.104375E-01  0.400E-01    0.13       1.0  T
  23   -131.7552381 -0.915087E-02  0.251E-01    0.07       1.0  T
  24   -131.7582211 -0.298303E-02  0.155E-01    0.08       1.0  T
  25   -131.7548729  0.334822E-02  0.176E-01    0.14       1.0  T
  26   -131.7524317  0.244119E-02  0.200E-01    0.17       1.0  T
  27   -131.7526840 -0.252354E-03  0.192E-01    0.17       1.0  T
  28   -131.7536963 -0.101224E-02  0.171E-01    0.16       1.0  T
  29   -131.7587708 -0.507447E-02  0.865E-02    0.11       1.0  T
  30   -131.7593966 -0.625812E-03  0.704E-02    0.10       1.0  T
  31   -131.7592498  0.146763E-03  0.696E-02    0.10       1.0  T
  32   -131.7596532 -0.403369E-03  0.537E-02    0.10       1.0  T
  33   -131.7599802 -0.327047E-03  0.358E-02    0.09       1.0  T
  34   -131.7600025 -0.222780E-04  0.293E-02    0.09       1.0  T
  35   -131.7600657 -0.632372E-04  0.210E-02    0.09       1.0  T
  36   -131.7600929 -0.271887E-04  0.124E-02    0.09       1.0  T
  37   -131.7601225 -0.295754E-04  0.550E-03    0.09       1.9  T
  38   -131.7601259 -0.345432E-05  0.301E-03    0.09       3.5  T
  39   -131.7601269 -0.939716E-06  0.254E-03    0.09       4.1  T
  40   -131.7601272 -0.317662E-06  0.226E-03    0.09       4.6  T
  41   -131.7601281 -0.907325E-06  0.182E-03    0.09       5.7  T
  42   -131.7601284 -0.267691E-06  0.127E-03    0.09       8.2  T
  43   -131.7601285 -0.132833E-06  0.102E-03    0.09      10.3  T
  44   -131.7601286 -0.767703E-07  0.750E-04    0.09      13.9  T
  45   -131.7601286  0.376929E-07  0.772E-04    0.09      13.5  T

   *** convergence criteria satisfied after 45 iterations ***

         #    Occupation            Energy/Eh            Energy/eV
      -------------------------------------------------------------
         1        2.0000           -0.7206735             -19.6105
       ...           ...                  ...                  ...
       128        2.0000           -0.2873573              -7.8194
       129        2.0000           -0.2838211              -7.7232
       130        2.0000           -0.2832000              -7.7063
       131        2.0000           -0.2794368              -7.6039
       132        2.0000           -0.2763429              -7.5197
       133        2.0000           -0.2734334              -7.4405
       134        1.6911           -0.2620241              -7.1300 (HOMO)
       135        0.3089           -0.2587938              -7.0421 (LUMO)
       136        0.0000           -0.2492676              -6.7829
       137                         -0.2351451              -6.3986
       138                         -0.2314591              -6.2983
       139                         -0.2285895              -6.2202
       ...                                ...                  ...
       302                          1.2092998              32.9067
      -------------------------------------------------------------
                  HL-Gap            0.0032303 Eh            0.0879 eV
             Fermi-level           -0.2604090 Eh           -7.0861 eV

 SCC (total)                   0 d,  0 h,  0 min,  0.832 sec
 SCC setup                      ...        0 min,  0.002 sec (  0.240%)
 Dispersion                     ...        0 min,  0.002 sec (  0.240%)
 classical contributions        ...        0 min,  0.000 sec (  0.000%)
 integral evaluation            ...        0 min,  0.008 sec (  0.962%)
 iterations                     ...        0 min,  0.795 sec ( 95.553%)
 molecular gradient             ...        0 min,  0.023 sec (  2.764%)
 printout                       ...        0 min,  0.002 sec (  0.240%)

         :::::::::::::::::::::::::::::::::::::::::::::::::::::
         ::                     SUMMARY                     ::
         :::::::::::::::::::::::::::::::::::::::::::::::::::::
         :: total energy            -129.992180759412 Eh    ::
         :: gradient norm              0.089404582167 Eh/a0 ::
         :: HOMO-LUMO gap              0.087900252503 eV    ::
         ::.................................................::
         :: SCC energy              -131.758738006663 Eh    ::
         :: -> isotropic ES            0.415657097733 Eh    ::
         :: -> anisotropic ES          0.001143447701 Eh    ::
         :: -> anisotropic XC         -0.038620232583 Eh    ::
         :: -> dispersion             -0.106230461328 Eh    ::
         :: repulsion energy           1.766557247251 Eh    ::
         :: add. restraining           0.000000000000 Eh    ::
         :: total charge              -0.000000000001 e     ::
         :::::::::::::::::::::::::::::::::::::::::::::::::::::

           -------------------------------------------------
          |                Property Printout                |
           -------------------------------------------------

    * Orbital Energies and Occupations

         #    Occupation            Energy/Eh            Energy/eV
      -------------------------------------------------------------
         1        2.0000           -0.7206735             -19.6105
       ...           ...                  ...                  ...
       122        2.0000           -0.3055919              -8.3156
       123        2.0000           -0.3028576              -8.2412
       124        2.0000           -0.2995167              -8.1503
       125        2.0000           -0.2992616              -8.1433
       126        2.0000           -0.2952576              -8.0344
       127        2.0000           -0.2923297              -7.9547
       128        2.0000           -0.2873573              -7.8194
       129        2.0000           -0.2838211              -7.7232
       130        2.0000           -0.2832000              -7.7063
       131        2.0000           -0.2794368              -7.6039
       132        2.0000           -0.2763429              -7.5197
       133        2.0000           -0.2734334              -7.4405
       134        1.6911           -0.2620241              -7.1300 (HOMO)
       135        0.3089           -0.2587938              -7.0421 (LUMO)
       136        0.0000           -0.2492676              -6.7829
       137                         -0.2351451              -6.3986
       138                         -0.2314591              -6.2983
       139                         -0.2285895              -6.2202
       140                         -0.2262699              -6.1571
       141                         -0.2223158              -6.0495
       142                         -0.2169016              -5.9022
       143                         -0.2114201              -5.7530
       144                         -0.2089134              -5.6848
       145                         -0.2048564              -5.5744
       ...                                ...                  ...
       302                          1.2092998              32.9067
      -------------------------------------------------------------
                  HL-Gap            0.0032303 Eh            0.0879 eV
             Fermi-level           -0.2604090 Eh           -7.0861 eV

     #   Z          covCN         q      C6AA      α(0)
     1   8 O        0.858    -0.487    23.489     6.498
     2   6 C        2.836     0.182    24.096     8.044
     3   6 C        2.820     0.077    26.266     8.397
     4   8 O        1.655    -0.400    20.847     6.164
     5   6 C        2.851     0.098    25.831     8.330
     6   6 C        2.966     0.001    27.998     8.679
     7   6 C        2.917    -0.046    29.150     8.854
     8   6 C        2.909    -0.076    29.900     8.966
     9   6 C        2.843     0.103    25.704     8.309
    10   8 O        1.658    -0.411    21.070     6.197
    11   6 C        2.843     0.122    25.308     8.245
    12   8 O        1.658    -0.396    20.764     6.151
    13   6 C        2.917    -0.062    29.535     8.912
    14   8 O        1.707    -0.227    17.762     5.690
    15   6 C        2.871     0.130    25.152     8.221
    16   6 C        2.914    -0.104    30.614     9.073
    17   6 C        2.845     0.138    24.981     8.191
    18   8 O        1.659    -0.393    20.719     6.145
    19   6 C        2.912    -0.111    30.811     9.102
    20   6 C        2.846     0.152    24.693     8.144
    21   8 O        1.657    -0.398    20.810     6.158
    22   6 C        2.971    -0.086    30.137     9.005
    23   1 H        0.803     0.326     0.648     1.264
    24   1 H        0.925     0.053     2.286     2.364
    25   1 H        0.925     0.038     2.478     2.462
    26   1 H        0.804     0.306     0.703     1.317
    27   1 H        0.804     0.323     0.657     1.273
    28   1 H        0.925     0.067     2.121     2.277
    29   1 H        0.925     0.067     2.114     2.274
    30   1 H        0.804     0.308     0.698     1.312
    31   1 H        0.925     0.052     2.290     2.366
    32   1 H        0.802     0.343     0.605     1.222
    33   5 B        2.839     0.116    19.507     7.376
    34   5 B        3.803     0.035    22.080     7.576
    35   5 B        3.718    -0.013    22.860     7.729
    36   5 B        2.746     0.021    21.187     7.705
    37   5 B        2.911    -0.041    22.153     7.854
    38   5 B        3.855     0.016    22.429     7.633
    39   5 B        2.869     0.063    20.344     7.529
    40   5 B        2.921     0.004    21.341     7.709
    41   5 B        3.823     0.060    21.644     7.499
    42   5 B        3.767     0.028    22.177     7.598
    43   5 B        3.849     0.006    22.621     7.666
    44   5 B        4.346     0.056    21.731     7.511
    45   5 B        4.682     0.089    21.154     7.411
    46   5 B        3.801     0.068    21.494     7.475
    47   5 B        3.829     0.061    21.619     7.495
    48   5 B        3.950     0.049    21.844     7.531
    49   5 B        4.552     0.063    21.607     7.490
    50   5 B        5.635     0.111    20.781     7.345
    51   5 B        4.742     0.037    22.058     7.567
    52   5 B        3.678     0.043    21.703     7.555
    53   5 B        4.781     0.082    21.270     7.431
    54   5 B        4.465     0.029    22.209     7.593
    55   5 B        3.855     0.047    21.879     7.539
    56   5 B        3.833     0.042    21.970     7.555
    57   5 B        3.834     0.012    22.511     7.647
    58   5 B        3.803    -0.018    23.050     7.741
    59   5 B        3.806     0.009    22.550     7.656
    60   5 B        4.226    -0.011    22.949     7.719
    61   5 B        3.802     0.020    22.346     7.622
    62   5 B        3.878     0.032    22.156     7.585
    63   5 B        2.888     0.103    19.689     7.406
    64   5 B        3.778     0.080    21.271     7.439
    65   5 B        3.898     0.055    21.749     7.515
    66   5 B        3.709     0.040    21.865     7.563
    67   5 B        3.761     0.031    22.119     7.589
    68   5 B        3.854     0.043    21.940     7.549
    69   5 B        4.286     0.047    21.895     7.539
    70   5 B        2.876     0.087    19.953     7.456
    71   5 B        3.771     0.081    21.243     7.436
    72   5 B        3.795     0.010    22.527     7.653
    73   5 B        2.925     0.013    21.181     7.679
    74   5 B        3.663     0.008    22.276     7.667
    75   5 B        2.926     0.026    20.955     7.638
    76   5 B        3.840     0.000    22.723     7.683
    77   5 B        3.860     0.017    22.424     7.632
    78   5 B        2.912     0.006    21.295     7.701
    79   5 B        2.915     0.009    21.249     7.692
    80   5 B        2.842     0.139    19.155     7.309
    81   1 H        0.935    -0.136     6.988     4.133
    82   1 H        0.939    -0.102     5.613     3.704
    83   1 H        0.934    -0.131     6.794     4.075
    84   1 H        0.932    -0.148     7.579     4.305
    85   1 H        0.938    -0.128     6.645     4.030
    86   1 H        0.940    -0.141     7.249     4.209
    87   1 H        0.936    -0.115     6.099     3.861
    88   1 H        0.939    -0.148     7.589     4.307
    89   1 H        0.938    -0.127     6.610     4.020
    90   1 H        0.936    -0.138     7.112     4.170
    91   1 H        0.935    -0.138     7.103     4.167
    92   1 H        0.933    -0.147     7.551     4.297

 Mol. C6AA /au·bohr⁶  :     141469.296085
 Mol. C8AA /au·bohr⁸  :    4502138.575578
 Mol. α(0) /au        :        602.373657


Wiberg/Mayer (AO) data.
largest (>0.10) Wiberg bond orders for each atom

 ---------------------------------------------------------------------------
     #   Z sym  total        # sym  WBO       # sym  WBO       # sym  WBO
 ---------------------------------------------------------------------------
     1   8 O    1.894 --     2 C    1.556
     2   6 C    3.850 --     1 O    1.556    22 C    1.102     3 C    1.082
     3   6 C    3.920 --     5 C    1.544     2 C    1.082     4 O    1.069
     4   8 O    2.092 --     3 C    1.069    23 H    0.864
     5   6 C    3.829 --     3 C    1.544     6 C    1.047    14 O    1.026
     6   6 C    3.973 --     7 C    1.379    13 C    1.373     5 C    1.047
     7   6 C    3.970 --     8 C    1.438     6 C    1.379    24 H    0.969
     8   6 C    3.983 --     7 C    1.438     9 C    1.390    25 H    0.966
     9   6 C    3.913 --     8 C    1.390    11 C    1.304    10 O    1.044
    10   8 O    2.087 --     9 C    1.044    26 H    0.884
    11   6 C    3.944 --    13 C    1.400     9 C    1.304    12 O    1.072
    12   8 O    2.111 --    11 C    1.072    27 H    0.872
    13   6 C    3.965 --    11 C    1.400     6 C    1.373    28 H    0.965
    14   8 O    2.326 --    15 C    1.066     5 C    1.026
    15   6 C    3.920 --    16 C    1.374    22 C    1.302    14 O    1.066
    16   6 C    3.955 --    15 C    1.374    17 C    1.360    29 H    0.964
    17   6 C    3.907 --    19 C    1.367    16 C    1.360    18 O    1.073
    18   8 O    2.105 --    17 C    1.073    30 H    0.884
    19   6 C    3.969 --    20 C    1.381    17 C    1.367    31 H    0.963
    20   6 C    3.907 --    19 C    1.381    22 C    1.274    21 O    1.120
    21   8 O    2.132 --    20 C    1.120    32 H    0.818
    22   6 C    3.976 --    15 C    1.302    20 C    1.274     2 C    1.102
    23   1 H    0.894 --     4 O    0.864
    24   1 H    0.997 --     7 C    0.969
    25   1 H    0.998 --     8 C    0.966
    26   1 H    0.906 --    10 O    0.884
    27   1 H    0.896 --    12 O    0.872
    28   1 H    0.995 --    13 C    0.965
    29   1 H    0.995 --    16 C    0.964
    30   1 H    0.905 --    18 O    0.884
    31   1 H    0.997 --    19 C    0.963
    32   1 H    0.882 --    21 O    0.818
    33   5 B    3.281 --    40 B    1.205    92 H    0.944    84 H    0.941
    34   5 B    3.544 --    35 B    1.197    40 B    0.852    41 B    0.530
                            49 B    0.485    48 B    0.140
    35   5 B    3.573 --    34 B    1.197    42 B    1.121    50 B    0.464
                            49 B    0.453
    36   5 B    3.370 --    37 B    1.373    43 B    1.082    52 B    0.428
                            53 B    0.105
    37   5 B    3.533 --    36 B    1.373    44 B    1.117    53 B    0.623
    38   5 B    3.566 --    39 B    1.306    44 B    0.751    45 B    0.686
                            46 B    0.680
    39   5 B    3.387 --    38 B    1.306    88 H    0.968    46 B    0.818
                            45 B    0.129
    40   5 B    3.394 --    33 B    1.205    41 B    1.070    34 B    0.852
    41   5 B    3.503 --    40 B    1.070    47 B    0.818    48 B    0.708
                            34 B    0.530
    42   5 B    3.440 --    35 B    1.121    43 B    0.996    51 B    0.545
                            50 B    0.443
    43   5 B    3.540 --    36 B    1.082    42 B    0.996    52 B    0.643
                            51 B    0.614
    44   5 B    3.527 --    37 B    1.117    38 B    0.751    53 B    0.637
                            45 B    0.459    54 B    0.320
    45   5 B    3.622 --    46 B    0.902    55 B    0.691    38 B    0.686
                            54 B    0.573    44 B    0.459    39 B    0.129
    46   5 B    3.567 --    90 H    0.937    45 B    0.902    39 B    0.818
                            38 B    0.680
    47   5 B    3.568 --    87 H    0.923    57 B    0.832    41 B    0.818
                            48 B    0.803
    48   5 B    3.646 --    57 B    0.850    49 B    0.810    47 B    0.803
                            41 B    0.708    34 B    0.140
    49   5 B    3.552 --    48 B    0.810    58 B    0.795    50 B    0.646
                            34 B    0.485    35 B    0.453
    50   5 B    3.669 --    58 B    0.727    59 B    0.705    49 B    0.646
                            51 B    0.517    35 B    0.464    42 B    0.443
    51   5 B    3.563 --    52 B    0.949    59 B    0.718    43 B    0.614
                            42 B    0.545    50 B    0.517
    52   5 B    3.495 --    60 B    1.037    51 B    0.949    43 B    0.643
                            36 B    0.428
    53   5 B    3.615 --    61 B    0.683    54 B    0.643    60 B    0.641
                            44 B    0.637    37 B    0.623    36 B    0.105
    54   5 B    3.600 --    61 B    1.024    55 B    0.772    53 B    0.643
                            45 B    0.573    44 B    0.320
    55   5 B    3.671 --    62 B    0.831    56 B    0.804    54 B    0.772
                            45 B    0.691    63 B    0.161
    56   5 B    3.627 --    63 B    1.016    82 H    0.909    55 B    0.804
                            62 B    0.737
    57   5 B    3.572 --    65 B    0.879    48 B    0.850    47 B    0.832
                            64 B    0.722
    58   5 B    3.625 --    66 B    1.106    49 B    0.795    50 B    0.727
                            59 B    0.598
    59   5 B    3.512 --    67 B    1.090    51 B    0.718    50 B    0.705
                            58 B    0.598
    60   5 B    3.594 --    52 B    1.037    68 B    0.898    53 B    0.641
                            61 B    0.462    69 B    0.266
    61   5 B    3.586 --    54 B    1.024    69 B    0.967    53 B    0.683
                            60 B    0.462
    62   5 B    3.603 --    63 B    0.961    70 B    0.899    55 B    0.831
                            56 B    0.737
    63   5 B    3.432 --    56 B    1.016    86 H    0.971    62 B    0.961
                            70 B    0.182    55 B    0.161
    64   5 B    3.545 --    89 H    0.955    71 B    0.862    65 B    0.827
                            57 B    0.722
    65   5 B    3.638 --    57 B    0.879    71 B    0.875    64 B    0.827
                            72 B    0.765
    66   5 B    3.596 --    58 B    1.106    73 B    0.828    72 B    0.688
                            74 B    0.549
    67   5 B    3.604 --    59 B    1.090    75 B    0.861    76 B    0.698
                            74 B    0.585
    68   5 B    3.554 --    60 B    0.898    76 B    0.788    77 B    0.710
                            69 B    0.662
    69   5 B    3.575 --    61 B    0.967    78 B    0.751    77 B    0.683
                            68 B    0.662    60 B    0.266
    70   5 B    3.435 --    79 B    0.988    83 H    0.933    62 B    0.899
                            63 B    0.182    80 B    0.158
    71   5 B    3.539 --    85 H    0.957    65 B    0.875    64 B    0.862
                            72 B    0.659
    72   5 B    3.578 --    73 B    1.260    65 B    0.765    66 B    0.688
                            71 B    0.659
    73   5 B    3.544 --    72 B    1.260    74 B    1.113    66 B    0.828
    74   5 B    3.549 --    75 B    1.115    73 B    1.113    67 B    0.585
                            66 B    0.549
    75   5 B    3.518 --    76 B    1.162    74 B    1.115    67 B    0.861
    76   5 B    3.593 --    75 B    1.162    68 B    0.788    77 B    0.739
                            67 B    0.698
    77   5 B    3.577 --    78 B    1.196    76 B    0.739    68 B    0.710
                            69 B    0.683
    78   5 B    3.516 --    77 B    1.196    79 B    1.062    69 B    0.751
                            80 B    0.120
    79   5 B    3.394 --    80 B    1.065    78 B    1.062    70 B    0.988
    80   5 B    3.281 --    79 B    1.065    81 H    0.953    91 H    0.952
                            70 B    0.158    78 B    0.120
    81   1 H    0.979 --    80 B    0.953
    82   1 H    0.983 --    56 B    0.909
    83   1 H    0.980 --    70 B    0.933
    84   1 H    0.969 --    33 B    0.941
    85   1 H    0.980 --    71 B    0.957
    86   1 H    0.979 --    63 B    0.971
    87   1 H    0.977 --    47 B    0.923
    88   1 H    0.976 --    39 B    0.968
    89   1 H    0.978 --    64 B    0.955
    90   1 H    0.973 --    46 B    0.937
    91   1 H    0.978 --    80 B    0.952
    92   1 H    0.970 --    33 B    0.944
 ---------------------------------------------------------------------------

Topologies differ in total number of bonds
Writing topology from bond orders to xtbtopo.mol

molecular dipole:
                 x           y           z       tot (Debye)
 q only:       -0.373       0.418      -4.890
   full:        0.174       1.538      -4.005      10.913
molecular quadrupole (traceless):
                xx          xy          yy          xz          yz          zz
 q only:      -21.945     -19.279      43.858      39.196     -11.771     -21.912
  q+dip:       30.781     -16.591      17.178      35.905      -4.824     -47.960
   full:       11.100     -17.771       7.311      38.742      -4.510     -18.411


           -------------------------------------------------
          | TOTAL ENERGY             -129.992180759412 Eh   |
          | GRADIENT NORM               0.089404582167 Eh/α |
          | HOMO-LUMO GAP               0.087900252503 eV   |
           -------------------------------------------------

------------------------------------------------------------------------
 * finished run on 2026/09/01 at 16:34:38.115     
------------------------------------------------------------------------
 total:
 * wall-time:     0 d,  0 h,  0 min,  0.878 sec
 *  cpu-time:     0 d,  0 h,  0 min,  7.594 sec
 * ratio c/w:     8.649 speedup
 SCF:
 * wall-time:     0 d,  0 h,  0 min,  0.833 sec
 *  cpu-time:     0 d,  0 h,  0 min,  7.281 sec
 * ratio c/w:     8.741 speedup

normal termination of xtb
