93
 energy: -131.378769845780 gnorm: 0.000865365947 xtb: 6.7.1 (edcfbbe)
O           -2.17080738708157        2.99535140839170        3.24624568107279
C           -1.70975289242161        1.80227201729654        3.35574564016013
C           -0.30790750335689        1.59650657719339        3.37469592360779
O            0.41591683940104        2.75585153489680        3.27199384881498
C            0.25271174160862        0.33034461333113        3.45341590440975
C            1.64241429419382       -0.00132869854969        3.45598127259600
C            2.63948412509742        0.99129728369403        3.45194297439291
C            3.97129767474726        0.64909230193918        3.40123422858500
O            4.97378973428126        1.59586919532180        3.38049627182227
C            4.36316510127888       -0.68661435993346        3.33475358066834
O            5.68743531462380       -1.05644001405790        3.22087570915499
C            3.38347178624033       -1.68366205757280        3.37138887308856
O            3.76489333383087       -2.99303802884820        3.29974631778867
C            2.04871874163532       -1.34957968903450        3.43689737936266
O           -0.58919656578275       -0.77516682815727        3.49378936131558
C           -1.93038804202538       -0.62957659257493        3.49019856695001
C           -2.70891414385410       -1.77773156226390        3.52133257084007
C           -4.09692103644915       -1.66200943257032        3.49802392667056
O           -4.82760046827729       -2.81487540355845        3.49956397184325
C           -4.71478134363786       -0.42144914162075        3.44403022233327
C           -3.94272662926184        0.73262767494744        3.40501920633450
O           -4.51683712712090        1.94224490596916        3.32105856931303
C           -2.53894397358017        0.62863738758724        3.42711657271016
H           -0.29054208303104        3.43630272757886        3.20322321666498
H            2.35955127608472        2.02823737799514        3.49769507092916
H            4.56965834263974        2.46894341202297        3.36706627244935
H            6.18591528895565       -0.24565643701194        3.06764424209337
H            4.72736654598631       -3.00291903138513        3.21016532577410
H            1.31571154842860       -2.13504485402894        3.46439643045167
H           -2.25279828330895       -2.75036361250655        3.57026145172157
H           -5.76201450227722       -2.59598174895262        3.41118332348431
H           -5.78922589749266       -0.33357701592658        3.41900062459503
H           -3.75153886190802        2.59645999743401        3.28393088206653
B           -5.84371609827869        3.41631533090499        0.24756864124703
B           -5.85170956347650        1.73390858100725       -0.08833867031666
B           -4.37834188102750        4.25145354417588       -0.06386631066769
B           -4.39051453671833        2.56536722965010        0.03036075145797
B           -4.39815341666390        0.86948144691206        0.03470939127734
B           -5.87123946891866       -1.65517249095728        0.25930440557300
B           -5.88118068771753       -3.33974910238236       -0.04565465556160
B           -4.40776484128737       -0.80822572725651        0.09243268599742
B           -4.41882366830876       -2.50353533054987        0.15553890162243
B           -4.42605069142645       -4.18852136019972        0.27183710007999
B           -2.91529501794648        3.40924969677335        0.09587409213252
B           -2.92608769754877        1.70728629030102        0.07825523262726
B           -1.44963272420838        4.23358118201892        0.28126930730758
B           -1.45884537734171        2.54984905603958        0.09917558980950
B           -1.46776044504577        0.85586170812138        0.02245814015056
B           -2.94501936629066       -1.66223637362887        0.05573508558071
B           -2.95275928810218       -3.36407034899917        0.12398034206027
B           -1.47744745213723       -0.82685436525876        0.07155048804251
B           -1.48717494802181       -2.52088520547799        0.08781011036423
B           -1.49561954038713       -4.20726330695337       -0.04074172284148
B            0.01244271514297        3.39223998696510        0.11996930641193
B            0.00317371322505        1.69126269539491        0.06306638494001
B            1.48159237373539        4.22068357624542       -0.00172444678564
B            1.47230519234105        2.53333564537395        0.09866449838421
B            1.46265936509613        0.83956590901723        0.06520195688116
B           -0.01553073188447       -1.67851034724622        0.08244255858546
B           -0.02515796445935       -3.37975169967189        0.12086509458030
B            1.45309133969481       -0.84324946308517        0.03120035599062
B            1.44388692259167       -2.53693923807999        0.13450495336644
B            1.43353635084811       -4.22198638847983        0.27244837554309
B            2.93987180418472        3.37625371424827        0.17030452409822
B            2.93269809217755        1.67507452936890        0.06686347360231
B            4.40931355520021        4.19880198875302        0.34492929518718
B            4.40317436591943        2.51533376328520        0.20354110819858
B            4.39275243964928        0.82088984499655        0.10978997679008
B            2.91363543015656       -1.69473160199829        0.09394270533337
B            2.90269642835667       -3.39681893930268        0.09955990529397
B            4.38330165744343       -0.85670986055676        0.05153734846845
B            4.37577112081078       -2.55248460412262        0.03538855479947
B            4.36416146254050       -4.23827100400798       -0.05707094804968
B            5.86915395119451        3.35366463245361        0.01488715033765
B            5.85814504415107        1.66667341319942        0.29110972504970
B            5.84046861229344       -1.72093105670516       -0.05616728899012
B            5.83020082852407       -3.40453610947912        0.26901048959853
H           -6.78891523516654        3.99088295824870        0.62768031231262
H           -6.80746950107893        1.24636741671038       -0.55453436938542
H           -4.41854220278732        5.35506724042242       -0.45986182730117
H           -6.82017655030058       -1.13797930199839        0.70916307563023
H           -6.82646221292343       -3.91295030993027       -0.43513889783558
H           -4.47993795273635       -5.30747112134507        0.61660933372917
H           -1.44829584158730        5.39434175298776        0.44571295403998
H           -1.50437290692849       -5.36865722358635       -0.20899741712623
H            1.49572681227714        5.38614518066671       -0.14092454738937
H            1.43447951115068       -5.38550321512223        0.41882192893526
H            4.46456745021513        5.30391562662663        0.73730530661596
H            4.40986224994369       -5.34356914259577       -0.44765017687107
H            6.81208377624720        3.93417022463757       -0.36791412903870
H            6.81149691545436        1.14387975932635        0.72308664476121
H            6.80603695012725       -1.22749640905492       -0.49589736277863
H            6.76510643184981       -3.98086716384339        0.67480709407578
