93
 energy: -131.378776239626 gnorm: 0.000986825377 xtb: 6.7.1 (edcfbbe)
O            2.17239119043839       -2.99791790619585        3.24295007141489
C            1.71054546111050       -1.80524123398141        3.35420423658926
C            0.30871390051102       -1.60000241351719        3.37475283725524
O           -0.41540126276458       -2.75922430218576        3.27153295745663
C           -0.25215533393775       -0.33401767974182        3.45441693114620
C           -1.64193119147862       -0.00263708204867        3.45733001068106
C           -2.63913096457613       -0.99513548892268        3.46006161141775
C           -3.97102158547844       -0.65289250778470        3.41103718370035
O           -4.97392663199154       -1.59947215838440        3.39738214237730
C           -4.36282038722212        0.68263648057106        3.34035853169241
O           -5.68749050388231        1.05236956111358        3.23045906713103
C           -3.38288061249378        1.67961621200198        3.36914468101674
O           -3.76400888507873        2.98881974335586        3.29262362475888
C           -2.04803603306933        1.34554469222200        3.43244116931836
O            0.58922516715933        0.77183379286859        3.49519250110117
C            1.93047820000685        0.62673688718359        3.49035107268312
C            2.70856147038887        1.77517026398325        3.52175995117981
C            4.09658976390782        1.66006262581198        3.49661991129496
O            4.82691386521183        2.81317351458499        3.49804074653001
C            4.71473146796100        0.41975792655522        3.44070772781471
C            3.94306891875816       -0.73457355310428        3.40139105166371
O            4.51746891404101       -1.94389308360079        3.31497979477314
C            2.53928210882901       -0.63119378034989        3.42545887361298
H            0.29039787683638       -3.43990472791493        3.20070181962426
H           -2.35931598313263       -2.03195319769937        3.51003128229503
H           -4.57010428463101       -2.47269660471906        3.39284714240353
H           -6.18776002296610        0.24023029929178        3.09041698828693
H           -4.72677909992215        2.99881653649684        3.20635302123016
H           -1.31481428654996        2.13098482211165        3.45401846996315
H            2.25195487316585        2.74750051059817        3.57228809584237
H            5.76101151602247        2.59469920915788        3.40527087296832
H            5.78914293349220        0.33218761557113        3.41403806343974
H            3.75198337321323       -2.59824070418108        3.27813177633220
B           -5.83265294040520        3.39972157811136        0.26233791237846
B           -5.84088085895907        1.71560590444973       -0.06089658610966
B           -4.37001710408279        4.23481957644779       -0.06426887301328
B           -4.37976405741851        2.54913044102498        0.03000138959505
B           -4.38540277385315        0.85333954554114        0.04954787970335
B           -5.85472057466562       -1.67142623969482        0.29225450917849
B           -5.86382445148643       -3.35876717944692        0.01541548303531
B           -4.39294003004286       -0.82422665689479        0.11048665139605
B           -4.40139350118419       -2.51865693618793        0.20497938863661
B           -4.40565829027175       -4.20213574628929        0.34538499536313
B           -2.90516856249063        3.39511938046239        0.09333917303687
B           -2.91416742875768        1.69301676806395        0.09127626378353
B           -1.43962061007239        4.22211992093798        0.26861319553634
B           -1.44792167275960        2.53700026647834        0.13108069147305
B           -1.45518460817613        0.84322447182658        0.02980062238418
B           -2.92936421049342       -1.67673774618800        0.06766066078953
B           -2.93459905324886       -3.37785066126816        0.17181305547580
B           -1.46283429104722       -0.83958557493276        0.06535117145849
B           -1.47052551076915       -2.53336780109787        0.09840031092817
B           -1.47792012577414       -4.22073121656718       -0.00152134251966
B            0.02268747871630        3.38143758464114        0.11971307064859
B            0.01503645497385        1.68018349266077        0.08023242539271
B            1.48974143731068        4.21058871088007       -0.04169894423252
B            1.48317839245231        2.52423191387532        0.08960854036685
B            1.47535803587060        0.83020128870799        0.07075842079390
B            0.00018901024212       -1.68960962415537        0.06382162785055
B           -0.00716529330683       -3.39060161848843        0.11870993994336
B            1.46760240634258       -0.85252763476259        0.02205455599918
B            1.46064634923919       -2.54648748757002        0.09936540039477
B            1.45329650079969       -4.23024592016426        0.28101728231693
B            2.95031644094271        3.36915737334886        0.12221937108845
B            2.94454570541579        1.66728007192049        0.05592041838587
B            4.42002278275164        4.19519918794682        0.27235041475207
B            4.41481115485834        2.51025595290177        0.15471365825083
B            4.40570501366103        0.81489970775641        0.09432976572235
B            2.92944550475309       -1.70231800891790        0.07841081603676
B            2.92059007483261       -3.40429042065130        0.09703610589850
B            4.39802564168837       -0.86276596233668        0.03668378248578
B            4.39234748973677       -2.55863606689131        0.03012945240356
B            4.38207603896744       -4.24468708379764       -0.06549345163759
B            5.87903854290790        3.34799971425313       -0.04217595082460
B            5.87067592773791        1.66369275929678        0.26421869321844
B            5.85527972692434       -1.72562405249573       -0.08700775053877
B            5.84910050917549       -3.40804845075610        0.24589788161086
H           -6.77178113218951        3.97393367305678        0.66178825223832
H           -6.80757798206910        1.22210983355054       -0.49803604585948
H           -4.41540003594322        5.33879857825588       -0.45919235313983
H           -6.81040224109045       -1.15160312835053        0.72238146297532
H           -6.80902367047108       -3.93820070645099       -0.36350113870186
H           -4.45805626108161       -5.30729939448080        0.73765768897946
H           -1.44077329143368        5.38564142590670        0.41524136107334
H           -1.48935316770554       -5.38616535213724       -0.14089887425970
H            1.49838872314089        5.37266038153792       -0.20573922161972
H            1.45467119791973       -5.39115298689739        0.44519548750211
H            4.47346307143882        5.31470611644083        0.61440736000002
H            4.42425372651292       -5.34697535220322       -0.46389083452678
H            6.82140265689642        3.92394908112258       -0.43341601004206
H            6.81475805651947        1.14875936046928        0.72672516944716
H            6.80864067627187       -1.23475319535645       -0.55534301993135
H            6.79391513036636       -3.98445010559517        0.62335971803311
