93
 energy: -131.371546700839 gnorm: 0.000924463289 xtb: 6.7.1 (edcfbbe)
O            2.96657438682799        2.21010122674904        3.20689096252832
C            1.78207072794160        1.73582584096172        3.34371667105511
C            1.58450082069390        0.33128942151176        3.34222532983125
O            2.73486142439587       -0.39324954919938        3.18148362676612
C            0.32407558813385       -0.23437054439815        3.46035242204220
C           -0.01087544150415       -1.62386230965730        3.48373544983771
C            0.97249765876586       -2.62906411865277        3.50891415474340
C            0.61312240837440       -3.95819585421755        3.47975702694218
O            1.54316957698758       -4.97547552811678        3.47364479421714
C           -0.72803011913281       -4.33532915918304        3.41979562812481
O           -1.10880350619519       -5.65820858033084        3.33652870367014
C           -1.71458672301677       -3.34514320147490        3.41885895379140
O           -3.02847050956098       -3.70697036110259        3.33680492816778
C           -1.36379256478395       -2.01365003801725        3.45512991706632
O           -0.78425426666374        0.59635734471592        3.53191187266769
C           -0.65096749066391        1.93675450022967        3.51625161737244
C           -1.80933277464343        2.69941922715595        3.53733811231121
C           -1.71293157247309        4.08820291265910        3.49655197527403
O           -2.87698141119224        4.79792803880935        3.47744524200454
C           -0.47796279691814        4.71981395232094        3.45622245873253
C            0.68742974764848        3.96279277290192        3.42921976441166
O            1.88924602989968        4.55248325400997        3.35994149394836
C            0.60246363534816        2.55587400692952        3.44829333119851
H            3.40742338633518        0.30854884085473        3.04616082256886
H            2.01196402131439       -2.35597680634842        3.55118887587109
H            2.42198485317416       -4.58810357864266        3.42031773287742
H           -0.29560895171609       -6.17142456939479        3.26926305582440
H           -3.05200514192847       -4.66880594722232        3.24752598431909
H           -2.13899554661862       -1.26982614143396        3.44295551832591
H           -2.77386259464793        2.22640330378568        3.58355101003395
H           -2.67394876969888        5.73587902332156        3.39073167372049
H           -0.40221826397596        5.79535158219438        3.42612409886406
H            2.55294464400292        3.80058909640037        3.29443781862563
B           -5.85040607044926        3.34234932720449        0.23952239627966
B           -5.83962726119421        1.65619674732097       -0.08797682773618
B           -4.39637352878163        4.19003824090446       -0.09322052489966
B           -4.38783191373538        2.50563640401480        0.02304521922011
B           -4.37623065156299        0.81074880056438        0.07087406959856
B           -5.81945836086035       -1.72999144610677        0.29617113371971
B           -5.81064625210875       -3.41555649400612       -0.01637466300523
B           -4.36618407601239       -0.86669304677975        0.13660616915443
B           -4.35776680204372       -2.56200184358066        0.18615030996025
B           -4.34529819512926       -4.24737516693179        0.28635187374288
B           -2.92237485123734        3.36646163201227        0.02655474355146
B           -2.91383446734966        1.66573355869022        0.17240911729652
B           -1.46594636826326        4.21308682652483        0.09193835792613
B           -1.45639002110388        2.52460689636726        0.09645354125236
B           -1.44600132857517        0.83098568395101        0.11201451473397
B           -2.89381483025767       -1.70394796104262        0.10642983316568
B           -2.88183456115933       -3.40610642911720        0.12020025882130
B           -1.43587900221719       -0.85165510731491        0.14715179893488
B           -1.42623170092146       -2.54588873130068        0.08207923579341
B           -1.41530960147837       -4.23084767963697       -0.06700540565092
B            0.00532351502367        3.38356003232899        0.15238670682748
B            0.01575540230200        1.68211767404979        0.02313104438081
B            1.46428941423394        4.22975885232020        0.17858658522261
B            1.47447839801229        2.54203154291062        0.08775801563036
B            1.48475929758229        0.84770803620461        0.00566082699962
B            0.03574018311661       -1.68656440373395        0.10554421883889
B            0.04549206856601       -3.38785146192941        0.10930241672229
B            1.49479147511207       -0.83538816020100        0.01673781770462
B            1.50474226844737       -2.52788657171682        0.14424975595840
B            1.51342416848158       -4.21421332111784        0.25610543006125
B            2.93310793298606        3.40142766483878        0.03342882475496
B            2.94427666570803        1.70034586406505        0.15486501676300
B            4.39577414357921        4.24214738657977       -0.07066008762494
B            4.40649726228802        2.55875017583993        0.08560874624248
B            4.41438107454560        0.86408451469114        0.17530627375139
B            2.96423906583992       -1.66824324741131        0.17555768960886
B            2.97306800263759       -3.37121988892554        0.11629907101580
B            4.42402693656322       -0.81406822310717        0.19714024532626
B            4.43666010510656       -2.51000430363373        0.14655849171760
B            4.44559521569745       -4.19665392389410        0.02062352163949
B            5.85971367039785        3.41257537111808        0.28974820441643
B            5.87217471454643        1.72758954002121       -0.00933868472232
B            5.89242538355529       -1.66335042825794        0.02993812504107
B            5.90015062679980       -3.34332967305209        0.34001696512063
H           -6.80448730147387        3.90068240020840        0.62638835767136
H           -6.79293993702021        1.15489095230482       -0.54669029631341
H           -4.45362664341924        5.29142111372201       -0.49534462713198
H           -6.77882080591132       -1.22706421884123        0.73585280112878
H           -6.74865476103750       -3.99039646379387       -0.41875034895685
H           -4.37925875371570       -5.36736525091693        0.63328206043547
H           -1.47101605784811        5.38591016364307        0.04238245435869
H           -1.40989076768269       -5.38287233915126       -0.29110646780677
H            1.46585695646358        5.39472593802531        0.30129933170304
H            1.52713203776146       -5.37607269153629        0.41861689299485
H            4.44903078113219        5.33835188809003       -0.48275879740605
H            4.50147279057360       -5.32515571877865       -0.29611271745383
H            6.79451487575243        3.99254010958800        0.68984643440160
H            6.83423474345894        1.22884688442342       -0.44628901299523
H            6.84618334915747       -1.14952168364589       -0.40630436607301
H            6.83612191268462       -3.91398235115133        0.75439220045270
