94
Hydromethylthionine 0 deg on B40H15
C      6.298459      0.068064      7.850377
N      5.112704     -0.388736      8.573962
C      5.221272     -1.709672      9.191405
C      3.855008      0.075833      8.169529
C      3.705357      1.240523      7.401359
C      2.448087      1.722304      7.008948
C      1.274118      1.069741      7.390608
N      0.039246      1.560677      6.936494
C     -1.230082      1.061008      7.270089
C     -2.366487      1.705514      6.777237
C     -3.652246      1.214863      7.047258
C     -3.866864      0.048902      7.797895
N     -5.154326     -0.424539      8.079830
C     -6.268215      0.024098      7.245421
C     -5.312499     -1.746328      8.684602
C     -2.707847     -0.586253      8.279070
C     -1.407395     -0.108326      8.015796
S     -0.035392     -1.045778      8.676222
C      1.387134     -0.098581      8.150288
C      2.659587     -0.567533      8.537390
H      6.446643      1.146177      7.973105
H      6.227880     -0.175485      6.784446
H      7.208277     -0.405439      8.236402
H      4.901379     -2.495717      8.498543
H      4.632064     -1.766775     10.113042
H      6.254943     -1.926187      9.484064
H      4.569503      1.816387      7.084810
H      2.403439      2.621631      6.400584
H      0.052602      2.510661      6.590122
H     -2.269883      2.605335      6.175674
H     -4.485989      1.784809      6.649006
H     -7.207576     -0.455906      7.542383
H     -6.435090      1.101107      7.352897
H     -6.093782     -0.218657      6.191307
H     -4.814106     -1.799533      9.658570
H     -6.367965     -1.970078      8.876778
H     -4.922125     -2.529984      8.026006
H     -2.791022     -1.488627      8.877463
H      2.691191     -1.469501      9.141316
B     -4.780602     -2.604513      0.317266
B     -4.569465     -1.356683     -0.648004
B     -4.463861     -0.247381     -1.882945
B     -3.396531     -2.661979     -0.502827
B     -3.038009      0.177607     -1.404773
B     -4.390872      0.342644     -0.192397
B     -5.031012      1.403078      0.819222
B     -4.620094      2.986388      0.997562
B     -2.808851      0.512803      0.199513
B     -3.218551      3.227540      1.793236
B     -2.161133     -3.775821     -0.584343
B     -1.876928     -2.248084     -0.933414
B     -1.697164     -0.613334     -0.835751
B     -0.584443     -3.218984     -0.835049
B     -0.219751     -0.148448     -0.311803
B     -1.394985      0.035818      0.852087
B     -1.775686      1.662110      0.759224
B     -1.897502      3.236989      0.882584
B     -0.215292      1.037200      1.069695
B     -0.752118      4.348002      0.558417
B      0.826501     -4.112870     -0.740049
B      0.925144     -2.505404     -0.749723
B      1.214364     -0.948979     -0.586972
B      2.200665     -3.402586     -0.168167
B      2.622046     -0.195651     -0.292977
B      1.234081      0.551562      0.142600
B      1.124844      2.000923      1.042986
B      0.536600      3.437229      0.618007
B      2.458015      1.672646      0.087495
B      1.213646      3.017073     -0.852963
B      3.220244     -3.850820      1.104428
B      3.624046     -2.653486      0.063737
B      4.025027     -1.121930     -0.236552
B      4.417376     -2.835474      1.420329
B      5.363640     -0.241898     -0.689778
B      4.104119      0.531009     -0.013477
B      4.018093      2.321775     -0.033810
B      2.821838      3.096833     -0.912930
B      5.422007      1.458254     -0.185288
B      4.296118      3.550090     -1.013979
H     -5.168734     -3.094856      1.310677
H     -5.716063     -2.076392     -0.393509
H     -5.264034     -0.120717     -2.741690
H     -5.771097      1.007443      1.664604
H     -5.364514      3.843125      0.672044
H     -3.234300      3.224974      2.975674
H     -2.359297     -4.926237     -0.473225
H     -0.896482      5.475480      0.244253
H      0.822346     -5.249794     -1.023329
H      0.553695      2.694294     -1.783686
H      2.970323     -4.817556      1.717250
H      5.263074     -2.512454      2.156542
H      6.384778     -0.646686     -1.095590
H      6.503197      1.838169      0.065012
H      5.138890      4.252414     -1.415442
