      -----------------------------------------------------------      
     |                   =====================                   |     
     |                           x T B                           |     
     |                   =====================                   |     
     |                         S. Grimme                         |     
     |          Mulliken Center for Theoretical Chemistry        |     
     |                    University of Bonn                     |     
      -----------------------------------------------------------      

   * xtb version 6.7.1pre (5071a88) compiled by 'Marcel@Raven' on 2024-07-23

   xtb is free software: you can redistribute it and/or modify it under
   the terms of the GNU Lesser General Public License as published by
   the Free Software Foundation, either version 3 of the License, or
   (at your option) any later version.
   
   xtb is distributed in the hope that it will be useful,
   but WITHOUT ANY WARRANTY; without even the implied warranty of
   MERCHANTABILITY or FITNESS FOR A PARTICULAR PURPOSE.  See the
   GNU Lesser General Public License for more details.
   
   Cite this work as:
   * C. Bannwarth, E. Caldeweyher, S. Ehlert, A. Hansen, P. Pracht,
     J. Seibert, S. Spicher, S. Grimme, WIREs Comput. Mol. Sci., 2020, 11,
     e01493. DOI: 10.1002/wcms.1493
   
   for GFN2-xTB:
   * C. Bannwarth, S. Ehlert and S. Grimme., J. Chem. Theory Comput., 2019,
     15, 1652-1671. DOI: 10.1021/acs.jctc.8b01176
   for GFN1-xTB:
   * S. Grimme, C. Bannwarth, P. Shushkov, J. Chem. Theory Comput., 2017,
     13, 1989-2009. DOI: 10.1021/acs.jctc.7b00118
   for GFN0-xTB:
   * P. Pracht, E. Caldeweyher, S. Ehlert, S. Grimme, ChemRxiv, 2019, preprint.
     DOI: 10.26434/chemrxiv.8326202.v1
   for GFN-FF:
   * S. Spicher and S. Grimme, Angew. Chem. Int. Ed., 2020, 59, 15665-15673.
     DOI: 10.1002/anie.202004239
   
   for ALPB and GBSA implicit solvation:
   * S. Ehlert, M. Stahn, S. Spicher, S. Grimme, J. Chem. Theory Comput.,
     2021, 17, 4250-4261. DOI: 10.1021/acs.jctc.1c00471
   
   for ddCOSMO and CPCM-X implicit solvation:
   * M. Stahn, S. Ehlert, S. Grimme, J. Phys. Chem. A,
     2023, XX, XXXX-XXXX. DOI: 10.1021/acs.jpca.3c04382
   
   for DFT-D4:
   * E. Caldeweyher, C. Bannwarth and S. Grimme, J. Chem. Phys., 2017,
     147, 034112. DOI: 10.1063/1.4993215
   * E. Caldeweyher, S. Ehlert, A. Hansen, H. Neugebauer, S. Spicher,
     C. Bannwarth and S. Grimme, J. Chem. Phys., 2019, 150, 154122.
     DOI: 10.1063/1.5090222
   * E. Caldeweyher, J.-M. Mewes, S. Ehlert and S. Grimme, Phys. Chem. Chem. Phys.
     2020, 22, 8499-8512. DOI: 10.1039/D0CP00502A
   
   for sTDA-xTB:
   * S. Grimme and C. Bannwarth, J. Chem. Phys., 2016, 145, 054103.
     DOI: 10.1063/1.4959605
   
   in the mass-spec context:
   * V. Asgeirsson, C. Bauer and S. Grimme, Chem. Sci., 2017, 8, 4879.
     DOI: 10.1039/c7sc00601b
   * J. Koopman and S. Grimme, ACS Omega 2019, 4, 12, 15120-15133.
     DOI: 10.1021/acsomega.9b02011
   
   for metadynamics refer to:
   * S. Grimme, J. Chem. Theory Comput., 2019, 155, 2847-2862
     DOI: 10.1021/acs.jctc.9b00143
   
   for SPH calculations refer to:
   * S. Spicher and S. Grimme, J. Chem. Theory Comput., 2021, 17, 1701-1714
     DOI: 10.1021/acs.jctc.0c01306
   
   for ONIOM refer to:
   * C. Plett, A. Katbashev, S. Ehlert, S. Grimme, M. Bursch,
     Phys. Chem. Chem. Phys., 2023, 25, 17860-17868. DOI: 10.1039/D3CP02178E
   
   for DIPRO refer to:
   * J. Kohn, N. Gildemeister, S. Grimme, D. Fazzi, A. Hansen,
     J. Chem. Phys., 2023, just accepted.
   
   for PTB refer to:
   * S. Grimme, M. Mueller, A. Hansen, J. Chem. Phys., 2023, 158, 124111.
     DOI: 10.1063/5.0137838
   
   with help from (in alphabetical order)
   P. Atkinson, C. Bannwarth, F. Bohle, G. Brandenburg, E. Caldeweyher
   M. Checinski, S. Dohm, S. Ehlert, S. Ehrlich, I. Gerasimov, C. Hölzer
   A. Katbashev, J. Kohn, J. Koopman, C. Lavigne, S. Lehtola, F. März, M. Müller,
   F. Musil, H. Neugebauer, J. Pisarek, C. Plett, P. Pracht, F. Pultar,
   J. Seibert, P. Shushkov, S. Spicher, M. Stahn, M. Steiner, T. Strunk,
   J. Stückrath, T. Rose, and J. Unsleber
   
 * started run on 2026/08/31 at 20:19:03.106     
   ID    Z sym.   atoms
    1    6 C      1, 3-7, 9-12, 14-17, 19, 20
    2    7 N      2, 8, 13
    3   16 S      18
    4    1 H      21-39, 93-99
    5    5 B      40-92

           -------------------------------------------------
          |                Calculation Setup                |
           -------------------------------------------------

          program call               : "c:\Users\Andre\Proyectos doctorado\kras-pancreatic-gC3N4-ai\tools\xtb\xtb-6.7.1\bin\xtb.exe" "c:\Users\Andre\Proyectos doctorado\borophene-alzheimer-tau-ai\calculations\tau\Hydromethylthionine\Hydromethylthionine_B48H12_complex.xyz" --gfn 2 --sp --chrg 0 --uhf 0 --iterations 500 --norestart
          coordinate file            : c:\Users\Andre\Proyectos doctorado\borophene-alzheimer-tau-ai\calculations\tau\Hydromethylthionine\Hydromethylthionine_B48H12_complex.xyz
          omp threads                :                    16


molecular fragmentation (1/2 indicates fragments):
111111111111111111111111111111111111111222222222222222222222222222222222
222222222222222222222222222
# atoms in fragment 1/2:    39    60
 fragment masses (1/2) :      285.41      580.04
CMA distance (Bohr)    :   6.659
constraining FC (au)   :  0.0500

           -------------------------------------------------
          |                 G F N 2 - x T B                 |
           -------------------------------------------------

        Reference                      10.1021/acs.jctc.8b01176
      * Hamiltonian:
        H0-scaling (s, p, d)           1.850000    2.230000    2.230000
        zeta-weighting                 0.500000
      * Dispersion:
        s8                             2.700000
        a1                             0.520000
        a2                             5.000000
        s9                             5.000000
      * Repulsion:
        kExp                           1.500000    1.000000
        rExp                           1.000000
      * Coulomb:
        alpha                          2.000000
        third order                    shell-resolved
        anisotropic                    true
        a3                             3.000000
        a5                             4.000000
        cn-shift                       1.200000
        cn-exp                         4.000000
        max-rad                        5.000000


          ...................................................
          :                      SETUP                      :
          :.................................................:
          :  # basis functions                 324          :
          :  # atomic orbitals                 323          :
          :  # shells                          173          :
          :  # electrons                       270          :
          :  max. iterations                   500          :
          :  Hamiltonian                  GFN2-xTB          :
          :  restarted?                      false          :
          :  GBSA solvation                  false          :
          :  PC potential                    false          :
          :  electronic temp.          300.0000000     K    :
          :  accuracy                    1.0000000          :
          :  -> integral cutoff          0.2500000E+02      :
          :  -> integral neglect         0.1000000E-07      :
          :  -> SCF convergence          0.1000000E-05 Eh   :
          :  -> wf. convergence          0.1000000E-03 e    :
          :  Broyden damping             0.4000000          :
          :  net charge                          0          :
          :  unpaired electrons                  0          :
          ...................................................

 iter      E             dE          RMSdq      gap      omega  full diag
   1   -121.5551219 -0.121555E+03  0.172E+01    0.28       0.0  T
   2      7.4033459  0.128958E+03  0.171E+01    0.17       1.0  T
   3    424.9319692  0.417529E+03  0.268E+01    0.12       1.0  T
   4     58.8116122 -0.366120E+03  0.169E+01    0.23       1.0  T
   5     78.6106909  0.197991E+02  0.179E+01    0.18       1.0  T
   6    -90.9928683 -0.169604E+03  0.114E+01    0.10       1.0  T
   7    -65.5592060  0.254337E+02  0.117E+01    0.12       1.0  T
   8    -76.4496227 -0.108904E+02  0.992E+00    0.19       1.0  T
   9   -111.0220948 -0.345725E+02  0.767E+00    0.01       1.0  T
  10   -122.0394216 -0.110173E+02  0.658E+00    0.17       1.0  T
  11   -123.4421726 -0.140275E+01  0.618E+00    0.23       1.0  T
  12   -123.1096681  0.332505E+00  0.605E+00    0.11       1.0  T
  13   -123.3575514 -0.247883E+00  0.577E+00    0.16       1.0  T
  14   -123.3106371  0.469143E-01  0.564E+00    0.04       1.0  T
  15   -122.5886383  0.721999E+00  0.557E+00    0.08       1.0  T
  16   -121.8937213  0.694917E+00  0.557E+00    0.25       1.0  T
  17   -121.8225302  0.711910E-01  0.560E+00    0.29       1.0  T
  18   -121.8166172  0.591309E-02  0.560E+00    0.29       1.0  T
  19   -121.9066137 -0.899965E-01  0.554E+00    0.26       1.0  T
  20   -123.8499261 -0.194331E+01  0.449E+00    0.17       1.0  T
  21   -123.8034957  0.464304E-01  0.378E+00    0.07       1.0  T
  22   -123.8283590 -0.248633E-01  0.353E+00    0.24       1.0  T
  23   -123.7586889  0.696700E-01  0.321E+00    0.08       1.0  T
  24   -124.0199151 -0.261226E+00  0.306E+00    0.18       1.0  T
  25   -124.1047325 -0.848174E-01  0.271E+00    0.11       1.0  T
  26   -123.2851815  0.819551E+00  0.297E+00    0.03       1.0  T
  27   -123.9918479 -0.706666E+00  0.245E+00    0.05       1.0  T
  28   -123.4937382  0.498110E+00  0.269E+00    0.02       1.0  T
  29   -124.1256917 -0.631954E+00  0.221E+00    0.06       1.0  T
  30   -124.3354280 -0.209736E+00  0.191E+00    0.09       1.0  T
  31   -124.4618689 -0.126441E+00  0.177E+00    0.16       1.0  T
  32   -124.5468191 -0.849502E-01  0.161E+00    0.17       1.0  T
  33   -124.6377676 -0.909484E-01  0.138E+00    0.18       1.0  T
  34   -124.7000915 -0.623239E-01  0.120E+00    0.21       1.0  T
  35   -124.7101853 -0.100938E-01  0.117E+00    0.21       1.0  T
  36   -124.7338326 -0.236473E-01  0.108E+00    0.23       1.0  T
  37   -124.8050248 -0.711922E-01  0.687E-01    0.17       1.0  T
  38   -124.8216798 -0.166550E-01  0.561E-01    0.14       1.0  T
  39   -124.8315235 -0.984374E-02  0.462E-01    0.14       1.0  T
  40   -124.8409504 -0.942692E-02  0.411E-01    0.15       1.0  T
  41   -124.8409580 -0.763183E-05  0.411E-01    0.15       1.0  T
  42   -124.8433755 -0.241744E-02  0.387E-01    0.12       1.0  T
  43   -124.8443664 -0.990905E-03  0.369E-01    0.11       1.0  T
  44   -124.8414843  0.288213E-02  0.395E-01    0.12       1.0  T
  45   -124.8441816 -0.269732E-02  0.363E-01    0.11       1.0  T
  46   -124.8447037 -0.522157E-03  0.337E-01    0.12       1.0  T
  47   -124.8519326 -0.722887E-02  0.222E-01    0.10       1.0  T
  48   -124.8543757 -0.244313E-02  0.139E-01    0.11       1.0  T
  49   -124.8546057 -0.229908E-03  0.119E-01    0.10       1.0  T
  50   -124.8543828  0.222851E-03  0.116E-01    0.09       1.0  T
  51   -124.8544800 -0.972032E-04  0.104E-01    0.10       1.0  T
  52   -124.8548317 -0.351727E-03  0.897E-02    0.10       1.0  T
  53   -124.8551070 -0.275256E-03  0.667E-02    0.10       1.0  T
  54   -124.8552205 -0.113536E-03  0.582E-02    0.10       1.0  T
  55   -124.8552039  0.165746E-04  0.613E-02    0.10       1.0  T
  56   -124.8552244 -0.204716E-04  0.580E-02    0.10       1.0  T
  57   -124.8554378 -0.213354E-03  0.387E-02    0.10       1.0  T
  58   -124.8554847 -0.468954E-04  0.322E-02    0.10       1.0  T
  59   -124.8555286 -0.439716E-04  0.258E-02    0.10       1.0  T
  60   -124.8555393 -0.106891E-04  0.258E-02    0.10       1.0  T
  61   -124.8555429 -0.357803E-05  0.267E-02    0.10       1.0  T
  62   -124.8555424  0.477409E-06  0.267E-02    0.10       1.0  T
  63   -124.8555616 -0.191794E-04  0.247E-02    0.10       1.0  T
  64   -124.8555747 -0.131235E-04  0.212E-02    0.10       1.0  T
  65   -124.8555861 -0.113586E-04  0.184E-02    0.10       1.0  T
  66   -124.8555931 -0.696657E-05  0.167E-02    0.10       1.0  T
  67   -124.8556037 -0.106286E-04  0.134E-02    0.10       1.0  T
  68   -124.8556111 -0.741613E-05  0.105E-02    0.10       1.0  T
  69   -124.8556163 -0.515597E-05  0.828E-03    0.10       1.2  T
  70   -124.8556190 -0.274845E-05  0.652E-03    0.10       1.5  T
  71   -124.8556193 -0.287805E-06  0.633E-03    0.10       1.6  T
  72   -124.8556223 -0.299646E-05  0.352E-03    0.10       2.9  T
  73   -124.8556230 -0.739183E-06  0.233E-03    0.10       4.3  T
  74   -124.8556236 -0.543716E-06  0.907E-04    0.10      11.1  T
  75   -124.8556236 -0.172435E-07  0.904E-04    0.10      11.1  T

   *** convergence criteria satisfied after 75 iterations ***

         #    Occupation            Energy/Eh            Energy/eV
      -------------------------------------------------------------
         1        2.0000           -0.6489650             -17.6592
       ...           ...                  ...                  ...
       129        2.0000           -0.2235344              -6.0827
       130        2.0000           -0.2208504              -6.0096
       131        2.0000           -0.2190301              -5.9601
       132        2.0000           -0.2173137              -5.9134
       133        1.9999           -0.2132660              -5.8033
       134        1.9455           -0.2074452              -5.6449
       135        1.7291           -0.2058102              -5.6004 (HOMO)
       136        0.2238           -0.2020811              -5.4989 (LUMO)
       137        0.1016           -0.2012674              -5.4768
       138        0.0001           -0.1950123              -5.3066
       139        0.0001           -0.1947265              -5.2988
       140        0.0000           -0.1932431              -5.2584
       ...           ...                  ...                  ...
       323                          1.6453029              44.7710
      -------------------------------------------------------------
                  HL-Gap            0.0037290 Eh            0.1015 eV
             Fermi-level           -0.2040493 Eh           -5.5525 eV

 SCC (total)                   0 d,  0 h,  0 min,  1.736 sec
 SCC setup                      ...        0 min,  0.000 sec (  0.000%)
 Dispersion                     ...        0 min,  0.003 sec (  0.173%)
 classical contributions        ...        0 min,  0.001 sec (  0.058%)
 integral evaluation            ...        0 min,  0.007 sec (  0.403%)
 iterations                     ...        0 min,  1.700 sec ( 97.926%)
 molecular gradient             ...        0 min,  0.023 sec (  1.325%)
 printout                       ...        0 min,  0.002 sec (  0.115%)

         :::::::::::::::::::::::::::::::::::::::::::::::::::::
         ::                     SUMMARY                     ::
         :::::::::::::::::::::::::::::::::::::::::::::::::::::
         :: total energy            -122.625468256841 Eh    ::
         :: gradient norm              0.439312508039 Eh/a0 ::
         :: HOMO-LUMO gap              0.101472165366 eV    ::
         ::.................................................::
         :: SCC energy              -124.849149561419 Eh    ::
         :: -> isotropic ES            0.377607084638 Eh    ::
         :: -> anisotropic ES          0.014328879196 Eh    ::
         :: -> anisotropic XC         -0.047192216791 Eh    ::
         :: -> dispersion             -0.162038507249 Eh    ::
         :: repulsion energy           2.223681304578 Eh    ::
         :: add. restraining           0.000000000000 Eh    ::
         :: total charge              -0.000000001609 e     ::
         :::::::::::::::::::::::::::::::::::::::::::::::::::::

           -------------------------------------------------
          |                Property Printout                |
           -------------------------------------------------

    * Orbital Energies and Occupations

         #    Occupation            Energy/Eh            Energy/eV
      -------------------------------------------------------------
         1        2.0000           -0.6489650             -17.6592
       ...           ...                  ...                  ...
       123        2.0000           -0.2425722              -6.6007
       124        2.0000           -0.2418691              -6.5816
       125        2.0000           -0.2387736              -6.4974
       126        2.0000           -0.2383886              -6.4869
       127        2.0000           -0.2321008              -6.3158
       128        2.0000           -0.2250291              -6.1234
       129        2.0000           -0.2235344              -6.0827
       130        2.0000           -0.2208504              -6.0096
       131        2.0000           -0.2190301              -5.9601
       132        2.0000           -0.2173137              -5.9134
       133        1.9999           -0.2132660              -5.8033
       134        1.9455           -0.2074452              -5.6449
       135        1.7291           -0.2058102              -5.6004 (HOMO)
       136        0.2238           -0.2020811              -5.4989 (LUMO)
       137        0.1016           -0.2012674              -5.4768
       138        0.0001           -0.1950123              -5.3066
       139        0.0001           -0.1947265              -5.2988
       140        0.0000           -0.1932431              -5.2584
       141                         -0.1868095              -5.0833
       142                         -0.1859017              -5.0586
       143                         -0.1829777              -4.9791
       144                         -0.1785579              -4.8588
       145                         -0.1749540              -4.7607
       146                         -0.1735067              -4.7214
       ...                                ...                  ...
       323                          1.6453029              44.7710
      -------------------------------------------------------------
                  HL-Gap            0.0037290 Eh            0.1015 eV
             Fermi-level           -0.2040493 Eh           -5.5525 eV

     #   Z          covCN         q      C6AA      α(0)
     1   6 C        3.691    -0.079    22.205     6.743
     2   7 N        2.728    -0.115    23.505     7.201
     3   6 C        3.690    -0.052    21.691     6.665
     4   6 C        2.896     0.044    27.008     8.521
     5   6 C        2.920    -0.087    30.171     9.007
     6   6 C        2.915    -0.103    30.588     9.069
     7   6 C        2.917     0.041    27.077     8.533
     8   7 N        2.693    -0.180    24.902     7.411
     9   6 C        2.917     0.041    27.089     8.535
    10   6 C        2.918    -0.116    30.944     9.122
    11   6 C        2.920    -0.101    30.546     9.063
    12   6 C        2.896     0.041    27.087     8.533
    13   7 N        2.728    -0.123    23.677     7.227
    14   6 C        3.691    -0.109    22.781     6.830
    15   6 C        3.690    -0.052    21.702     6.667
    16   6 C        2.963    -0.093    30.333     9.034
    17   6 C        2.957     0.006    27.883     8.661
    18  16 S        2.075    -0.160   147.792    20.461
    19   6 C        2.957     0.010    27.800     8.648
    20   6 C        2.963    -0.088    30.213     9.016
    21   1 H        0.924     0.045     2.378     2.412
    22   1 H        0.924     0.081     1.970     2.195
    23   1 H        0.924     0.035     2.523     2.484
    24   1 H        0.924     0.038     2.481     2.463
    25   1 H        0.924     0.042     2.425     2.435
    26   1 H        0.924     0.036     2.498     2.472
    27   1 H        0.925     0.046     2.375     2.410
    28   1 H        0.925     0.075     2.035     2.231
    29   1 H        0.860     0.174     1.248     1.750
    30   1 H        0.925     0.095     1.835     2.118
    31   1 H        0.925     0.053     2.285     2.364
    32   1 H        0.924     0.024     2.677     2.559
    33   1 H        0.924     0.035     2.523     2.484
    34   1 H        0.928     0.108     1.713     2.046
    35   1 H        0.924     0.039     2.456     2.451
    36   1 H        0.924     0.034     2.532     2.488
    37   1 H        0.924     0.037     2.483     2.464
    38   1 H        0.925     0.017     2.776     2.606
    39   1 H        0.925     0.022     2.707     2.573
    40   5 B        2.887    -0.010    21.595     7.756
    41   5 B        2.890     0.019    21.085     7.664
    42   5 B        2.890     0.024    20.999     7.648
    43   5 B        2.890     0.020    21.055     7.659
    44   5 B        2.890     0.024    20.986     7.646
    45   5 B        2.887     0.005    21.327     7.708
    46   5 B        2.916     0.005    21.321     7.705
    47   5 B        3.868    -0.013    22.984     7.726
    48   5 B        3.868     0.007    22.607     7.662
    49   5 B        3.868     0.008    22.590     7.660
    50   5 B        3.868     0.004    22.655     7.671
    51   5 B        2.916     0.051    20.535     7.562
    52   5 B        3.266    -0.017    21.691     7.767
    53   5 B        2.314     0.062    30.974    10.843
    54   5 B        1.958     0.018    43.462    13.864
    55   5 B        1.958     0.029    43.081    13.803
    56   5 B        1.958     0.022    43.320    13.841
    57   5 B        2.911    -0.066    22.614     7.936
    58   5 B        2.939    -0.008    21.539     7.743
    59   5 B        2.936    -0.096    23.185     8.034
    60   5 B        1.958    -0.058    46.295    14.309
    61   5 B        1.958    -0.052    46.054    14.272
    62   5 B        1.958    -0.052    46.057    14.272
    63   5 B        1.960     0.013    43.641    13.892
    64   5 B        3.266    -0.019    21.714     7.771
    65   5 B        2.314     0.073    30.707    10.796
    66   5 B        1.961     0.026    43.160    13.815
    67   5 B        1.958     0.034    42.886    13.772
    68   5 B        1.958     0.031    43.007    13.791
    69   5 B        2.911    -0.047    22.263     7.874
    70   5 B        2.916     0.005    21.317     7.705
    71   5 B        3.868    -0.013    22.980     7.725
    72   5 B        3.868     0.007    22.599     7.661
    73   5 B        3.868     0.003    22.676     7.674
    74   5 B        3.868     0.002    22.701     7.678
    75   5 B        2.914    -0.013    21.641     7.763
    76   5 B        2.887    -0.011    21.607     7.758
    77   5 B        2.890     0.017    21.123     7.671
    78   5 B        2.890     0.013    21.194     7.684
    79   5 B        2.890     0.010    21.232     7.691
    80   5 B        2.890     0.013    21.190     7.683
    81   5 B        1.934    -0.014    44.761    14.077
    82   5 B        3.822     0.040    21.988     7.559
    83   5 B        3.822     0.036    22.066     7.572
    84   5 B        3.822     0.041    21.983     7.558
    85   5 B        3.822     0.036    22.061     7.572
    86   5 B        3.822     0.044    21.922     7.548
    87   5 B        3.822     0.039    22.014     7.563
    88   5 B        3.822     0.032    22.135     7.584
    89   5 B        3.822     0.025    22.271     7.607
    90   5 B        3.822     0.030    22.168     7.590
    91   5 B        3.822     0.030    22.172     7.591
    92   5 B        3.385     0.115    19.485     7.358
    93   1 H        0.954    -0.087     5.130     3.540
    94   1 H        0.956     0.008     2.919     2.671
    95   1 H        0.956     0.008     2.919     2.670
    96   1 H        0.954    -0.088     5.140     3.544
    97   1 H        0.954    -0.086     5.075     3.521
    98   1 H        0.956    -0.014     3.309     2.843
    99   1 H        0.956    -0.025     3.517     2.931

 Mol. C6AA /au·bohr⁶  :     178423.861942
 Mol. C8AA /au·bohr⁸  :    6016778.125736
 Mol. α(0) /au        :        724.007709


Wiberg/Mayer (AO) data.
largest (>0.10) Wiberg bond orders for each atom

 ---------------------------------------------------------------------------
     #   Z sym  total        # sym  WBO       # sym  WBO       # sym  WBO
 ---------------------------------------------------------------------------
     1   6 C    3.970 --     2 N    1.003    23 H    0.982    21 H    0.978
                            22 H    0.958
     2   7 N    3.324 --     4 C    1.118     3 C    1.012     1 C    1.003
     3   6 C    3.985 --     2 N    1.012    26 H    0.982    25 H    0.979
                            24 H    0.976
     4   6 C    3.958 --    20 C    1.344     5 C    1.340     2 N    1.118
     5   6 C    3.976 --     6 C    1.435     4 C    1.340    27 H    0.961
     6   6 C    3.967 --     5 C    1.435     7 C    1.346    28 H    0.927
     7   6 C    3.966 --     6 C    1.346    19 C    1.333     8 N    1.098
     8   7 N    3.391 --     7 C    1.098     9 C    1.092    29 H    0.919
     9   6 C    3.961 --    17 C    1.346    10 C    1.328     8 N    1.092
    10   6 C    3.954 --    11 C    1.411     9 C    1.328    30 H    0.898
    11   6 C    3.960 --    10 C    1.411    12 C    1.331    31 H    0.943
    12   6 C    3.955 --    16 C    1.350    11 C    1.331    13 N    1.115
    13   7 N    3.323 --    12 C    1.115    15 C    1.012    14 C    0.999
    14   6 C    3.949 --    13 N    0.999    32 H    0.982    33 H    0.977
                            34 H    0.873
    15   6 C    3.985 --    13 N    1.012    36 H    0.982    35 H    0.979
                            37 H    0.976
    16   6 C    3.956 --    17 C    1.378    12 C    1.350    38 H    0.966
    17   6 C    3.936 --    16 C    1.378     9 C    1.346    18 S    1.008
    18  16 S    2.309 --    19 C    1.015    17 C    1.008
    19   6 C    3.948 --    20 C    1.399     7 C    1.333    18 S    1.015
    20   6 C    3.967 --    19 C    1.399     4 C    1.344    39 H    0.966
    21   1 H    0.998 --     1 C    0.978
    22   1 H    0.993 --     1 C    0.958
    23   1 H    0.998 --     1 C    0.982
    24   1 H    0.998 --     3 C    0.976
    25   1 H    0.998 --     3 C    0.979
    26   1 H    0.998 --     3 C    0.982
    27   1 H    0.997 --     5 C    0.961
    28   1 H    0.994 --     6 C    0.927
    29   1 H    0.968 --     8 N    0.919
    30   1 H    0.990 --    10 C    0.898
    31   1 H    0.996 --    11 C    0.943
    32   1 H    0.999 --    14 C    0.982
    33   1 H    0.999 --    14 C    0.977
    34   1 H    0.988 --    14 C    0.873
    35   1 H    0.998 --    15 C    0.979
    36   1 H    0.998 --    15 C    0.982
    37   1 H    0.998 --    15 C    0.976
    38   1 H    0.999 --    16 C    0.966
    39   1 H    0.999 --    20 C    0.966
    40   5 B    3.272 --    46 B    1.089    82 B    0.949    93 H    0.866
                            41 B    0.108    52 B    0.105
    41   5 B    3.423 --    83 B    1.001    82 B    0.973    47 B    0.934
                            42 B    0.144    40 B    0.108
    42   5 B    3.486 --    84 B    1.035    83 B    0.983    48 B    0.920
                            43 B    0.145    41 B    0.144
    43   5 B    3.432 --    85 B    0.996    84 B    0.975    49 B    0.919
                            42 B    0.145    44 B    0.136
    44   5 B    3.442 --    85 B    1.009    86 B    0.947    50 B    0.914
                            45 B    0.173    43 B    0.136
    45   5 B    3.398 --    86 B    1.090    51 B    1.005    97 H    0.861
                            44 B    0.173    57 B    0.101
    46   5 B    3.422 --    52 B    1.184    40 B    1.089    82 B    0.731
                            94 H    0.108
    47   5 B    3.662 --    53 B    1.167    41 B    0.934    83 B    0.681
                            82 B    0.677
    48   5 B    3.626 --    54 B    1.154    42 B    0.920    84 B    0.663
                            83 B    0.655
    49   5 B    3.635 --    55 B    1.151    43 B    0.919    84 B    0.664
                            85 B    0.662
    50   5 B    3.633 --    56 B    1.151    44 B    0.914    85 B    0.670
                            86 B    0.652
    51   5 B    3.473 --    57 B    1.240    45 B    1.005    86 B    0.696
                            98 H    0.155    63 B    0.107
    52   5 B    3.588 --    46 B    1.184    58 B    0.968    94 H    0.693
                            92 B    0.365    40 B    0.105
    53   5 B    3.382 --    59 B    1.275    47 B    1.167    92 B    0.362
                            65 B    0.173
    54   5 B    3.278 --    60 B    1.462    48 B    1.154    66 B    0.254
    55   5 B    3.325 --    61 B    1.441    49 B    1.151    67 B    0.227
    56   5 B    3.283 --    62 B    1.441    50 B    1.151    68 B    0.224
    57   5 B    3.548 --    63 B    1.271    51 B    1.240    98 H    0.663
                            69 B    0.115    45 B    0.101
    58   5 B    3.602 --    92 B    0.974    64 B    0.972    52 B    0.968
                            95 H    0.144    94 H    0.143
    59   5 B    3.670 --    53 B    1.275    65 B    1.260    92 B    0.890
    60   5 B    3.330 --    54 B    1.462    66 B    1.446    61 B    0.104
    61   5 B    3.435 --    55 B    1.441    67 B    1.427    62 B    0.110
                            60 B    0.104
    62   5 B    3.302 --    56 B    1.441    68 B    1.421    61 B    0.110
    63   5 B    3.303 --    69 B    1.335    57 B    1.271    99 H    0.160
                            98 H    0.135    51 B    0.107
    64   5 B    3.587 --    70 B    1.182    58 B    0.972    95 H    0.693
                            92 B    0.368    76 B    0.103
    65   5 B    3.357 --    59 B    1.260    71 B    1.151    92 B    0.360
                            53 B    0.173
    66   5 B    3.245 --    60 B    1.446    72 B    1.112    54 B    0.254
    67   5 B    3.308 --    61 B    1.427    73 B    1.137    55 B    0.227
    68   5 B    3.284 --    62 B    1.421    74 B    1.163    56 B    0.224
    69   5 B    3.462 --    63 B    1.335    75 B    1.045    99 H    0.690
                            57 B    0.115
    70   5 B    3.422 --    64 B    1.182    76 B    1.090    87 B    0.733
                            95 H    0.108
    71   5 B    3.665 --    65 B    1.151    77 B    0.941    88 B    0.687
                            87 B    0.676
    72   5 B    3.627 --    66 B    1.112    78 B    0.924    89 B    0.667
                            88 B    0.650
    73   5 B    3.642 --    67 B    1.137    79 B    0.921    89 B    0.669
                            90 B    0.655
    74   5 B    3.644 --    68 B    1.163    80 B    0.919    90 B    0.683
                            91 B    0.635
    75   5 B    3.628 --    81 B    1.588    69 B    1.045    91 B    0.691
    76   5 B    3.265 --    70 B    1.090    87 B    0.950    96 H    0.866
                            77 B    0.105    64 B    0.103
    77   5 B    3.413 --    88 B    0.999    87 B    0.973    71 B    0.941
                            78 B    0.137    76 B    0.105
    78   5 B    3.502 --    89 B    1.047    88 B    0.969    72 B    0.924
                            79 B    0.144    77 B    0.137
    79   5 B    3.437 --    90 B    1.016    89 B    0.960    73 B    0.921
                            78 B    0.144    80 B    0.121
    80   5 B    3.474 --    91 B    0.988    90 B    0.963    74 B    0.919
                            81 B    0.200    79 B    0.121
    81   5 B    3.174 --    75 B    1.588    91 B    1.134    80 B    0.200
    82   5 B    3.595 --    41 B    0.973    40 B    0.949    46 B    0.731
                            47 B    0.677
    83   5 B    3.603 --    41 B    1.001    42 B    0.983    47 B    0.681
                            48 B    0.655
    84   5 B    3.600 --    42 B    1.035    43 B    0.975    49 B    0.664
                            48 B    0.663
    85   5 B    3.611 --    44 B    1.009    43 B    0.996    50 B    0.670
                            49 B    0.662
    86   5 B    3.604 --    45 B    1.090    44 B    0.947    51 B    0.696
                            50 B    0.652
    87   5 B    3.595 --    77 B    0.973    76 B    0.950    70 B    0.733
                            71 B    0.676
    88   5 B    3.605 --    77 B    0.999    78 B    0.969    71 B    0.687
                            72 B    0.650
    89   5 B    3.617 --    78 B    1.047    79 B    0.960    73 B    0.669
                            72 B    0.667
    90   5 B    3.612 --    79 B    1.016    80 B    0.963    74 B    0.683
                            73 B    0.655
    91   5 B    3.625 --    81 B    1.134    80 B    0.988    75 B    0.691
                            74 B    0.635
    92   5 B    3.605 --    58 B    0.974    59 B    0.890    64 B    0.368
                            52 B    0.365    53 B    0.362    65 B    0.360
    93   1 H    0.978 --    40 B    0.866
    94   1 H    0.992 --    52 B    0.693    58 B    0.143    46 B    0.108
    95   1 H    0.991 --    64 B    0.693    58 B    0.144    70 B    0.108
    96   1 H    0.978 --    76 B    0.866
    97   1 H    0.987 --    45 B    0.861
    98   1 H    0.987 --    57 B    0.663    51 B    0.155    63 B    0.135
    99   1 H    0.971 --    69 B    0.690    63 B    0.160
 ---------------------------------------------------------------------------

Topologies differ in total number of bonds
Writing topology from bond orders to xtbtopo.mol

molecular dipole:
                 x           y           z       tot (Debye)
 q only:       -0.441       0.247      -2.400
   full:       -0.985       0.146      -1.939       5.542
molecular quadrupole (traceless):
                xx          xy          yy          xz          yz          zz
 q only:      -43.247       4.001      47.170       7.869       0.996      -3.922
  q+dip:       18.844      -0.678      68.097       4.828      -1.282     -86.941
   full:       12.695      -0.875      31.984       4.734       0.467     -44.679


           -------------------------------------------------
          | TOTAL ENERGY             -122.625468256841 Eh   |
          | GRADIENT NORM               0.439312508039 Eh/α |
          | HOMO-LUMO GAP               0.101472165366 eV   |
           -------------------------------------------------

------------------------------------------------------------------------
 * finished run on 2026/08/31 at 20:19:04.904     
------------------------------------------------------------------------
 total:
 * wall-time:     0 d,  0 h,  0 min,  1.795 sec
 *  cpu-time:     0 d,  0 h,  0 min, 13.734 sec
 * ratio c/w:     7.651 speedup
 SCF:
 * wall-time:     0 d,  0 h,  0 min,  1.737 sec
 *  cpu-time:     0 d,  0 h,  0 min, 13.391 sec
 * ratio c/w:     7.709 speedup

normal termination of xtb
