94
 energy: -112.290079355323 gnorm: 0.002933374697 xtb: 6.7.1pre (5071a88)
C            0.30759217180785       -6.21549965021701        8.03198544266468
N           -0.05415226327455       -4.92909007787911        8.58045863745393
C           -1.02599316879895       -4.93334285522180        9.64703014420652
C            0.03407268298090       -3.81506249437728        7.76014773898199
C            0.82814973356040       -3.81576627643735        6.60896501978756
C            0.97261158941977       -2.67804857592723        5.83809542469724
C            0.31202179269210       -1.49474492291569        6.14860704505003
N            0.45635056735386       -0.37165289024152        5.34766695666661
C            0.30384561211819        0.91921545479510        5.83986664009138
C            0.98046675877894        1.98123944788355        5.25224690115944
C            0.81715565539591        3.27776630704987        5.69484550062760
C           -0.02658417643936        3.57588630534688        6.76923583043984
N           -0.16147284843264        4.87539141115577        7.22645803594921
C            0.12569270195357        5.95143166309403        6.30296039427897
C           -1.10592578889545        5.15720931881959        8.27857841084847
C           -0.68780876460485        2.50333978359107        7.37655378556263
C           -0.52841522474130        1.20906207492941        6.91748818900270
S           -1.45798342607500       -0.06967791929067        7.72743863192805
C           -0.50390280317260       -1.49814559613996        7.27890021419295
C           -0.63160594111012       -2.62392520807327        8.07042923236011
H            1.37683178846540       -6.24532932986476        7.81423554220003
H           -0.24417893580810       -6.44918401486223        7.11270376172493
H            0.09750376901424       -6.99082130878964        8.76552820921762
H           -2.05930000825786       -4.85865446142142        9.28272484853348
H           -0.83381782474574       -4.10215113680982       10.32641184186325
H           -0.92627197176249       -5.85563164097446       10.21629609146074
H            1.35816867647833       -4.70208766934462        6.30461301465425
H            1.60577975789697       -2.70890475984270        4.96363070025567
H            1.10408714387749       -0.46524723605189        4.57804661559787
H            1.63763862900992        1.78572725040731        4.42052817449130
H            1.36540959741124        4.05853905754433        5.19715576540349
H           -0.25527954707668        6.88653811615591        6.70651129080391
H            1.20465465692101        6.05996769089466        6.16724583819486
H           -0.33523132669961        5.78342251402833        5.32367228705590
H           -0.89174445602673        4.52921974121758        9.14366507989513
H           -0.99420746537202        6.19540650095690        8.58731375027478
H           -2.14812645357698        4.99351495861887        7.97319206970479
H           -1.36066685218577        2.65328103154756        8.20364506241075
H           -1.28112020493704       -2.54993252393893        8.92569836570807
B           -4.47859978740789       -2.62851766919443        0.10294985215624
B           -4.19671377234585       -1.04010964451644       -0.02423369757442
B           -4.13618913447203        0.54951260710466       -0.55230900318001
B           -3.36458629341140       -2.17077475274975       -0.93877951298929
B           -2.62706182224518        0.68978689430643       -0.18458346444129
B           -3.67081431271155        0.12533950553336        1.17112773844867
B           -4.45060444939367        0.87186062643264        2.37537530137577
B           -3.91189995477182        2.38495797003624        2.54915905944608
B           -2.04092414289684        0.06258254677744        1.24398241449015
B           -2.49321497844803        2.61591121167934        3.29107915759242
B           -2.35172538051707       -3.05116940642407       -1.90010036573754
B           -1.81482331887703       -1.62571270830758       -1.26273129787150
B           -1.32174539456959       -0.28363018487871       -0.45951735427873
B           -0.79674821715303       -2.89222577740548       -1.42210965557114
B            0.20435716416373        0.20265947683717       -0.28067836496063
B           -0.57719345749202       -0.69348709793358        1.08468136674140
B           -0.78803481225445        0.71492820296992        2.17236027185875
B           -1.20919397905717        2.21658572183527        2.43643365230159
B            0.68744449193635        0.13227596619311        1.76534384533402
B            0.07716630516243        2.99192724200663        1.76633295178934
B            0.03300112724831       -3.57709812186557       -0.06543752492016
B            0.76967558025568       -2.71435873932092       -1.24798630657799
B            1.82115712687543       -1.55778688932504       -1.07302867280431
B            1.26930358636452       -2.63001284483720        0.38820433295514
B            3.07510876190724       -0.59576625845474       -1.16678211903540
B            1.57973467805903        0.14440013045671       -1.00637907242058
B            1.46691904951694        1.10037596150054        0.54696356285503
B            0.82975711331326        2.64282911451627        0.41407179281846
B            2.76581504820396        1.18535682137055       -0.65383795758191
B            1.41259090891034        3.08037170621706       -1.03632705213475
B            0.61457856086777       -1.70272155919815        1.72178207300631
B            2.37068360850166       -1.72314827211901        1.03383579616661
B            3.62014012120991       -0.75917083952134        1.09444687438314
B            2.28196310682492       -0.09155565670299        1.94867288380313
B            5.05503634647968       -0.13221944128791        0.99965696307456
B            4.36288191838853        0.07985143009812       -0.57093742294430
B            4.31800099030838        1.93485328676866       -0.49756493646179
B            3.01137786525895        2.83726544704189       -0.97243829306080
B            5.64281066353062        0.98176682054410       -0.31858007284653
B            4.39496030653902        3.49760010128163       -0.62069336013873
H           -4.74454685725100       -3.57629874317059        0.73922634152204
H           -5.37531991247377       -1.70285657820353        0.20870622117847
H           -5.04806288470026        1.09534870707451       -1.05830017992153
H           -5.28714308556099        0.35851343922071        3.03482605209883
H           -4.47991072640156        3.28931317887973        2.04600782394968
H           -2.44613242461300        2.98569262903787        4.41023310564515
H           -2.70796338239850       -3.72494334271528       -2.79700087907521
H            0.67105143055275        3.53655388788538        2.63372629043946
H           -0.49318486147290       -4.48167240372077        0.46202517084494
H            0.82633580880733        3.28681855852303       -2.04045052110518
H            0.44278952943996       -2.23854873833753        2.76786025503697
H            2.68383842759014        0.16588708655996        3.04085958691421
H            5.95469602251355       -0.07386857489688        1.74837177587383
H            6.78552468529037        1.17709535150834       -0.49432947964732
H            5.04673817589377        4.46062753551530       -0.52366243242386
