      -----------------------------------------------------------      
     |                   =====================                   |     
     |                           x T B                           |     
     |                   =====================                   |     
     |                         S. Grimme                         |     
     |          Mulliken Center for Theoretical Chemistry        |     
     |                    University of Bonn                     |     
      -----------------------------------------------------------      

   * xtb version 6.7.1pre (5071a88) compiled by 'Marcel@Raven' on 2024-07-23

   xtb is free software: you can redistribute it and/or modify it under
   the terms of the GNU Lesser General Public License as published by
   the Free Software Foundation, either version 3 of the License, or
   (at your option) any later version.
   
   xtb is distributed in the hope that it will be useful,
   but WITHOUT ANY WARRANTY; without even the implied warranty of
   MERCHANTABILITY or FITNESS FOR A PARTICULAR PURPOSE.  See the
   GNU Lesser General Public License for more details.
   
   Cite this work as:
   * C. Bannwarth, E. Caldeweyher, S. Ehlert, A. Hansen, P. Pracht,
     J. Seibert, S. Spicher, S. Grimme, WIREs Comput. Mol. Sci., 2020, 11,
     e01493. DOI: 10.1002/wcms.1493
   
   for GFN2-xTB:
   * C. Bannwarth, S. Ehlert and S. Grimme., J. Chem. Theory Comput., 2019,
     15, 1652-1671. DOI: 10.1021/acs.jctc.8b01176
   for GFN1-xTB:
   * S. Grimme, C. Bannwarth, P. Shushkov, J. Chem. Theory Comput., 2017,
     13, 1989-2009. DOI: 10.1021/acs.jctc.7b00118
   for GFN0-xTB:
   * P. Pracht, E. Caldeweyher, S. Ehlert, S. Grimme, ChemRxiv, 2019, preprint.
     DOI: 10.26434/chemrxiv.8326202.v1
   for GFN-FF:
   * S. Spicher and S. Grimme, Angew. Chem. Int. Ed., 2020, 59, 15665-15673.
     DOI: 10.1002/anie.202004239
   
   for ALPB and GBSA implicit solvation:
   * S. Ehlert, M. Stahn, S. Spicher, S. Grimme, J. Chem. Theory Comput.,
     2021, 17, 4250-4261. DOI: 10.1021/acs.jctc.1c00471
   
   for ddCOSMO and CPCM-X implicit solvation:
   * M. Stahn, S. Ehlert, S. Grimme, J. Phys. Chem. A,
     2023, XX, XXXX-XXXX. DOI: 10.1021/acs.jpca.3c04382
   
   for DFT-D4:
   * E. Caldeweyher, C. Bannwarth and S. Grimme, J. Chem. Phys., 2017,
     147, 034112. DOI: 10.1063/1.4993215
   * E. Caldeweyher, S. Ehlert, A. Hansen, H. Neugebauer, S. Spicher,
     C. Bannwarth and S. Grimme, J. Chem. Phys., 2019, 150, 154122.
     DOI: 10.1063/1.5090222
   * E. Caldeweyher, J.-M. Mewes, S. Ehlert and S. Grimme, Phys. Chem. Chem. Phys.
     2020, 22, 8499-8512. DOI: 10.1039/D0CP00502A
   
   for sTDA-xTB:
   * S. Grimme and C. Bannwarth, J. Chem. Phys., 2016, 145, 054103.
     DOI: 10.1063/1.4959605
   
   in the mass-spec context:
   * V. Asgeirsson, C. Bauer and S. Grimme, Chem. Sci., 2017, 8, 4879.
     DOI: 10.1039/c7sc00601b
   * J. Koopman and S. Grimme, ACS Omega 2019, 4, 12, 15120-15133.
     DOI: 10.1021/acsomega.9b02011
   
   for metadynamics refer to:
   * S. Grimme, J. Chem. Theory Comput., 2019, 155, 2847-2862
     DOI: 10.1021/acs.jctc.9b00143
   
   for SPH calculations refer to:
   * S. Spicher and S. Grimme, J. Chem. Theory Comput., 2021, 17, 1701-1714
     DOI: 10.1021/acs.jctc.0c01306
   
   for ONIOM refer to:
   * C. Plett, A. Katbashev, S. Ehlert, S. Grimme, M. Bursch,
     Phys. Chem. Chem. Phys., 2023, 25, 17860-17868. DOI: 10.1039/D3CP02178E
   
   for DIPRO refer to:
   * J. Kohn, N. Gildemeister, S. Grimme, D. Fazzi, A. Hansen,
     J. Chem. Phys., 2023, just accepted.
   
   for PTB refer to:
   * S. Grimme, M. Mueller, A. Hansen, J. Chem. Phys., 2023, 158, 124111.
     DOI: 10.1063/5.0137838
   
   with help from (in alphabetical order)
   P. Atkinson, C. Bannwarth, F. Bohle, G. Brandenburg, E. Caldeweyher
   M. Checinski, S. Dohm, S. Ehlert, S. Ehrlich, I. Gerasimov, C. Hölzer
   A. Katbashev, J. Kohn, J. Koopman, C. Lavigne, S. Lehtola, F. März, M. Müller,
   F. Musil, H. Neugebauer, J. Pisarek, C. Plett, P. Pracht, F. Pultar,
   J. Seibert, P. Shushkov, S. Spicher, M. Stahn, M. Steiner, T. Strunk,
   J. Stückrath, T. Rose, and J. Unsleber
   
 * started run on 2026/09/02 at 15:06:07.286     
   ID    Z sym.   atoms
    1    6 C      1, 3-7, 9-12, 14-17, 19, 20
    2    7 N      2, 8, 13
    3   16 S      18
    4    1 H      21-39, 80-94
    5    5 B      40-79

           -------------------------------------------------
          |                Calculation Setup                |
           -------------------------------------------------

          program call               : "c:\Users\Andre\Proyectos doctorado\nano-qsar-ai-papers\kras-pancreatic-gC3N4-ai\tools\xtb\xtb-6.7.1\bin\xtb.exe" "c:\Users\Andre\Proyectos doctorado\borophene-alzheimer-tau-ai\calculations\tau\Hydromethylthionine\Hydromethylthionine_opt_90deg_input.xyz" --opt loose --gfn 2 --chrg 0 --uhf 0 --iterations 500 --cycles 400 --norestart
          coordinate file            : c:\Users\Andre\Proyectos doctorado\borophene-alzheimer-tau-ai\calculations\tau\Hydromethylthionine\Hydromethylthionine_opt_90deg_input.xyz
          omp threads                :                    16


molecular fragmentation (1/2 indicates fragments):
111111111111111111111111111111111111111222222222222222222222222222222222
2222222222222222222222
# atoms in fragment 1/2:    39    55
 fragment masses (1/2) :      285.41      447.56
CMA distance (Bohr)    :  15.034
constraining FC (au)   :  0.0500

           -------------------------------------------------
          |                 G F N 2 - x T B                 |
           -------------------------------------------------

        Reference                      10.1021/acs.jctc.8b01176
      * Hamiltonian:
        H0-scaling (s, p, d)           1.850000    2.230000    2.230000
        zeta-weighting                 0.500000
      * Dispersion:
        s8                             2.700000
        a1                             0.520000
        a2                             5.000000
        s9                             5.000000
      * Repulsion:
        kExp                           1.500000    1.000000
        rExp                           1.000000
      * Coulomb:
        alpha                          2.000000
        third order                    shell-resolved
        anisotropic                    true
        a3                             3.000000
        a5                             4.000000
        cn-shift                       1.200000
        cn-exp                         4.000000
        max-rad                        5.000000


          ...................................................
          :                      SETUP                      :
          :.................................................:
          :  # basis functions                 280          :
          :  # atomic orbitals                 279          :
          :  # shells                          155          :
          :  # electrons                       239          :
          :  max. iterations                   500          :
          :  Hamiltonian                  GFN2-xTB          :
          :  restarted?                      false          :
          :  GBSA solvation                  false          :
          :  PC potential                    false          :
          :  electronic temp.          300.0000000     K    :
          :  accuracy                    1.0000000          :
          :  -> integral cutoff          0.2500000E+02      :
          :  -> integral neglect         0.1000000E-07      :
          :  -> SCF convergence          0.1000000E-05 Eh   :
          :  -> wf. convergence          0.1000000E-03 e    :
          :  Broyden damping             0.4000000          :
          :  net charge                          0          :
          :  unpaired electrons                  0          :
          ...................................................

 iter      E             dE          RMSdq      gap      omega  full diag
   1   -113.0971874 -0.113097E+03  0.132E+01    0.25       0.0  T
   2   -112.1950029  0.902185E+00  0.860E+00    0.48       1.0  T
   3    -69.2976031  0.428974E+02  0.125E+01    0.05       1.0  T
   4    -74.8148559 -0.551725E+01  0.962E+00    0.04       1.0  T
   5   -102.2654171 -0.274506E+02  0.573E+00    0.16       1.0  T
   6   -111.5382698 -0.927285E+01  0.338E+00    0.08       1.0  T
   7   -113.3486230 -0.181035E+01  0.201E+00    0.36       1.0  T
   8   -113.6620187 -0.313396E+00  0.149E+00    0.38       1.0  T
   9   -113.7603284 -0.983097E-01  0.122E+00    0.44       1.0  T
  10   -113.7225480  0.377804E-01  0.100E+00    0.48       1.0  T
  11   -113.7110029  0.115451E-01  0.678E-01    0.33       1.0  T
  12   -113.7658051 -0.548022E-01  0.451E-01    0.49       1.0  T
  13   -113.7796133 -0.138081E-01  0.341E-01    0.41       1.0  T
  14   -113.7824661 -0.285283E-02  0.311E-01    0.42       1.0  T
  15   -113.7826708 -0.204747E-03  0.271E-01    0.40       1.0  T
  16   -113.7832298 -0.558938E-03  0.229E-01    0.41       1.0  T
  17   -113.7837648 -0.535001E-03  0.138E-01    0.41       1.0  T
  18   -113.7839431 -0.178311E-03  0.100E-01    0.41       1.0  T
  19   -113.7840882 -0.145091E-03  0.837E-02    0.41       1.0  T
  20   -113.7841899 -0.101759E-03  0.646E-02    0.41       1.0  T
  21   -113.7843001 -0.110154E-03  0.318E-02    0.41       1.0  T
  22   -113.7843254 -0.252817E-04  0.184E-02    0.41       1.0  T
  23   -113.7843319 -0.655710E-05  0.717E-03    0.41       1.4  T
  24   -113.7843326 -0.708741E-06  0.421E-03    0.41       2.4  T
  25   -113.7843342 -0.154691E-05  0.361E-03    0.41       2.9  T
  26   -113.7843352 -0.104273E-05  0.275E-03    0.41       3.7  T
  27   -113.7843361 -0.850890E-06  0.136E-03    0.41       7.6  T
  28   -113.7843362 -0.822701E-07  0.103E-03    0.41      10.0  T
  29   -113.7843363 -0.158149E-06  0.654E-04    0.41      15.8  T
  30   -113.7843364 -0.766036E-07  0.386E-04    0.41      26.8  T

   *** convergence criteria satisfied after 30 iterations ***

         #    Occupation            Energy/Eh            Energy/eV
      -------------------------------------------------------------
         1        2.0000           -0.6976182             -18.9832
       ...           ...                  ...                  ...
       114        2.0000           -0.2850499              -7.7566
       115        2.0000           -0.2793275              -7.6009
       116        2.0000           -0.2765945              -7.5265
       117        2.0000           -0.2734211              -7.4402
       118        2.0000           -0.2682466              -7.2994
       119        1.9994           -0.2652126              -7.2168
       120        1.0003           -0.2511766              -6.8349 (HOMO)
       121        0.0004           -0.2360675              -6.4237 (LUMO)
       122                         -0.2221152              -6.0441
       123                         -0.2185091              -5.9459
       124                         -0.2116979              -5.7606
       125                         -0.2112188              -5.7476
       ...                                ...                  ...
       279                          1.0765998              29.2958
      -------------------------------------------------------------
                  HL-Gap            0.0151091 Eh            0.4111 eV
             Fermi-level           -0.2508987 Eh           -6.8273 eV

 SCC (total)                   0 d,  0 h,  0 min,  0.907 sec
 SCC setup                      ...        0 min,  0.000 sec (  0.000%)
 Dispersion                     ...        0 min,  0.002 sec (  0.221%)
 classical contributions        ...        0 min,  0.001 sec (  0.110%)
 integral evaluation            ...        0 min,  0.013 sec (  1.433%)
 iterations                     ...        0 min,  0.867 sec ( 95.590%)
 molecular gradient             ...        0 min,  0.020 sec (  2.205%)
 printout                       ...        0 min,  0.004 sec (  0.441%)

         :::::::::::::::::::::::::::::::::::::::::::::::::::::
         ::                     SUMMARY                     ::
         :::::::::::::::::::::::::::::::::::::::::::::::::::::
         :: total energy            -112.170793714810 Eh    ::
         :: gradient norm              0.053301090682 Eh/a0 ::
         :: HOMO-LUMO gap              0.411138805206 eV    ::
         ::.................................................::
         :: SCC energy              -113.782093397005 Eh    ::
         :: -> isotropic ES            0.229449449973 Eh    ::
         :: -> anisotropic ES          0.019459294484 Eh    ::
         :: -> anisotropic XC          0.014755556932 Eh    ::
         :: -> dispersion             -0.114953690221 Eh    ::
         :: repulsion energy           1.611299682195 Eh    ::
         :: add. restraining           0.000000000000 Eh    ::
         :: total charge              -0.000000000011 e     ::
         :::::::::::::::::::::::::::::::::::::::::::::::::::::

      ----------------------------------------------------------- 
     |                   =====================                   |
     |                        A N C O P T                        |
     |                   =====================                   |
     |               Approximate Normal Coordinate               |
     |                Rational Function Optimizer                |
      ----------------------------------------------------------- 
      ----------------------------------------------------------- 
     |                   =====================                   |
     |                        A N C O P T                        |
     |                   =====================                   |
     |               Approximate Normal Coordinate               |
     |                Rational Function Optimizer                |
      ----------------------------------------------------------- 

          ...................................................
          :                      SETUP                      :
          :.................................................:
          :   optimization level             loose          :
          :   max. optcycles                   400          :
          :   ANC micro-cycles                  20          :
          :   degrees of freedom               276          :
          :.................................................:
          :   RF solver                   davidson          :
          :   write xtbopt.log                true          :
          :   linear?                        false          :
          :   energy convergence         0.5000000E-04 Eh   :
          :   grad. convergence          0.4000000E-02 Eh/α :
          :   maxmium RF displ.          1.0000000          :
          :   Hlow (freq-cutoff)         0.1000000E-01      :
          :   Hmax (freq-cutoff)         5.0000000          :
          :   S6 in model hess.         20.0000000          :
          ...................................................

generating ANC from exact Hessian ...
Using Lindh-Hessian (1995)
 Shifting diagonal of input Hessian by   1.029951982892075E-002
 Lowest  eigenvalues of input Hessian
    0.010000    0.010096    0.010114    0.010118    0.010266    0.000000
    0.000000    0.000000    0.000000    0.000000    0.000000    0.010319
    0.010326    0.010354    0.010472    0.010723    0.010761    0.010819
 Highest eigenvalues
    1.858204    1.892905    1.943405    1.984364    2.032496    2.114116
 

........................................................................
.............................. CYCLE    1 ..............................
........................................................................

 iter      E             dE          RMSdq      gap      omega  full diag
   1   -113.7843364 -0.113784E+03  0.199E-04    0.41       0.0  T
   2   -113.7843364  0.331265E-07  0.419E-04    0.41      24.6  T
   3   -113.7843364 -0.395243E-07  0.168E-04    0.41      61.5  T
     SCC iter.                  ...        0 min,  0.070 sec
     gradient                   ...        0 min,  0.021 sec
 * total energy  :  -112.1707937 Eh     change       -0.2944206E-07 Eh
   gradient norm :     0.0533008 Eh/α   predicted     0.0000000E+00 (-100.00%)
   displ. norm   :     0.3483658 α      lambda       -0.8646184E-02
   maximum displ.:     0.1739429 α      in ANC's #35, #64, #78, ...

........................................................................
.............................. CYCLE    2 ..............................
........................................................................

 iter      E             dE          RMSdq      gap      omega  full diag
   1   -113.8249615 -0.113825E+03  0.112E-01    0.41       0.0  T
   2   -113.8250199 -0.584125E-04  0.663E-02    0.41       1.0  T
   3   -113.8249754  0.444795E-04  0.237E-02    0.41       1.0  T
   4   -113.8249008  0.746620E-04  0.220E-02    0.41       1.0  T
   5   -113.8249717 -0.709214E-04  0.144E-02    0.41       1.0  T
   6   -113.8250249 -0.531801E-04  0.399E-03    0.41       2.6  T
   7   -113.8250257 -0.856644E-06  0.305E-03    0.41       3.4  T
   8   -113.8250269 -0.117552E-05  0.171E-03    0.41       6.0  T
   9   -113.8250273 -0.438879E-06  0.103E-03    0.41      10.1  T
  10   -113.8250275 -0.188877E-06  0.425E-04    0.41      24.3  T
  11   -113.8250276 -0.180861E-07  0.259E-04    0.41      39.9  T
     SCC iter.                  ...        0 min,  0.341 sec
     gradient                   ...        0 min,  0.032 sec
 * total energy  :  -112.1768495 Eh     change       -0.6055797E-02 Eh
   gradient norm :     0.0222593 Eh/α   predicted    -0.4849825E-02 ( -19.91%)
   displ. norm   :     0.3303926 α      lambda       -0.2868089E-02
   maximum displ.:     0.2219879 α      in ANC's #35, #64, #30, ...

........................................................................
.............................. CYCLE    3 ..............................
........................................................................

 iter      E             dE          RMSdq      gap      omega  full diag
   1   -113.8485004 -0.113849E+03  0.842E-02    0.41       0.0  T
   2   -113.8485497 -0.492310E-04  0.485E-02    0.41       1.0  T
   3   -113.8484861  0.635390E-04  0.240E-02    0.41       1.0  T
   4   -113.8483405  0.145632E-03  0.303E-02    0.41       1.0  T
   5   -113.8485351 -0.194585E-03  0.100E-02    0.41       1.0  T
   6   -113.8485534 -0.183134E-04  0.497E-03    0.41       2.1  T
   7   -113.8485566 -0.317582E-05  0.310E-03    0.41       3.3  T
   8   -113.8485579 -0.128807E-05  0.168E-03    0.41       6.1  T
   9   -113.8485584 -0.532162E-06  0.749E-04    0.41      13.8  T
  10   -113.8485585 -0.779081E-07  0.447E-04    0.41      23.1  T
     SCC iter.                  ...        0 min,  0.416 sec
     gradient                   ...        0 min,  0.020 sec
 * total energy  :  -112.1785737 Eh     change       -0.1724118E-02 Eh
   gradient norm :     0.0062771 Eh/α   predicted    -0.1591032E-02 (  -7.72%)
   displ. norm   :     0.1820161 α      lambda       -0.4789607E-03
   maximum displ.:     0.1177347 α      in ANC's #35, #18, #30, ...

........................................................................
.............................. CYCLE    4 ..............................
........................................................................

 iter      E             dE          RMSdq      gap      omega  full diag
   1   -113.8524898 -0.113852E+03  0.480E-02    0.41       0.0  T
   2   -113.8524935 -0.370956E-05  0.287E-02    0.41       1.0  T
   3   -113.8523330  0.160446E-03  0.306E-02    0.41       1.0  T
   4   -113.8524404 -0.107396E-03  0.170E-02    0.41       1.0  T
   5   -113.8524897 -0.492894E-04  0.730E-03    0.41       1.4  T
   6   -113.8524996 -0.989998E-05  0.376E-03    0.41       2.7  T
   7   -113.8525021 -0.251169E-05  0.188E-03    0.41       5.5  T
   8   -113.8525024 -0.295234E-06  0.121E-03    0.41       8.5  T
   9   -113.8525027 -0.250467E-06  0.552E-04    0.41      18.7  T
  10   -113.8525027 -0.628837E-07  0.259E-04    0.41      39.8  T
     SCC iter.                  ...        0 min,  0.231 sec
     gradient                   ...        0 min,  0.019 sec
 * total energy  :  -112.1788956 Eh     change       -0.3219766E-03 Eh
   gradient norm :     0.0060890 Eh/α   predicted    -0.2474274E-03 ( -23.15%)
   displ. norm   :     0.2289012 α      lambda       -0.3885040E-03
   maximum displ.:     0.1073311 α      in ANC's #35, #18, #5, ...

........................................................................
.............................. CYCLE    5 ..............................
........................................................................

 iter      E             dE          RMSdq      gap      omega  full diag
   1   -113.8534557 -0.113853E+03  0.967E-02    0.41       0.0  T
   2   -113.8534273  0.284322E-04  0.601E-02    0.41       1.0  T
   3   -113.8518018  0.162542E-02  0.900E-02    0.41       1.0  T
   4   -113.8533852 -0.158333E-02  0.190E-02    0.41       1.0  T
   5   -113.8534494 -0.642250E-04  0.101E-02    0.41       1.0  T
   6   -113.8534678 -0.184530E-04  0.493E-03    0.41       2.1  T
   7   -113.8534708 -0.296469E-05  0.313E-03    0.41       3.3  T
   8   -113.8534723 -0.147734E-05  0.160E-03    0.41       6.4  T
   9   -113.8534727 -0.408291E-06  0.885E-04    0.41      11.6  T
  10   -113.8534729 -0.156284E-06  0.401E-04    0.41      25.7  T
     SCC iter.                  ...        0 min,  0.186 sec
     gradient                   ...        0 min,  0.018 sec
 * total energy  :  -112.1789836 Eh     change       -0.8794834E-04 Eh
   gradient norm :     0.0071789 Eh/α   predicted    -0.2044318E-03 ( 132.45%)
   displ. norm   :     0.1261844 α      lambda       -0.3230574E-03
   maximum displ.:     0.0553346 α      in ANC's #5, #18, #9, ...

........................................................................
.............................. CYCLE    6 ..............................
........................................................................

 iter      E             dE          RMSdq      gap      omega  full diag
   1   -113.8522317 -0.113852E+03  0.803E-02    0.41       0.0  T
   2   -113.8521923  0.393818E-04  0.513E-02    0.41       1.0  T
   3   -113.8507439  0.144842E-02  0.874E-02    0.41       1.0  T
   4   -113.8521774 -0.143349E-02  0.157E-02    0.42       1.0  T
   5   -113.8522375 -0.601162E-04  0.438E-03    0.41       2.4  T
   6   -113.8522397 -0.224199E-05  0.289E-03    0.41       3.6  T
   7   -113.8522408 -0.108791E-05  0.151E-03    0.41       6.8  T
   8   -113.8522411 -0.331668E-06  0.821E-04    0.41      12.6  T
   9   -113.8522412 -0.356612E-07  0.670E-04    0.41      15.4  T
     SCC iter.                  ...        0 min,  0.186 sec
     gradient                   ...        0 min,  0.018 sec
 * total energy  :  -112.1791584 Eh     change       -0.1747959E-03 Eh
   gradient norm :     0.0046589 Eh/α   predicted    -0.1641022E-03 (  -6.12%)
   displ. norm   :     0.0969597 α      lambda       -0.1255042E-03
   maximum displ.:     0.0443651 α      in ANC's #5, #9, #35, ...

........................................................................
.............................. CYCLE    7 ..............................
........................................................................

 iter      E             dE          RMSdq      gap      omega  full diag
   1   -113.8518152 -0.113852E+03  0.336E-02    0.41       0.0  T
   2   -113.8518121  0.312862E-05  0.212E-02    0.41       1.0  T
   3   -113.8516767  0.135340E-03  0.263E-02    0.41       1.0  T
   4   -113.8518064 -0.129675E-03  0.764E-03    0.41       1.4  T
   5   -113.8518148 -0.845617E-05  0.383E-03    0.41       2.7  T
   6   -113.8518178 -0.300059E-05  0.154E-03    0.41       6.7  T
   7   -113.8518182 -0.340024E-06  0.958E-04    0.41      10.8  T
   8   -113.8518183 -0.126376E-06  0.530E-04    0.41      19.5  T
     SCC iter.                  ...        0 min,  0.164 sec
     gradient                   ...        0 min,  0.023 sec
 * total energy  :  -112.1792479 Eh     change       -0.8948404E-04 Eh
   gradient norm :     0.0024404 Eh/α   predicted    -0.6334466E-04 ( -29.21%)
   displ. norm   :     0.2374323 α      lambda       -0.1922774E-03
   maximum displ.:     0.1178972 α      in ANC's #5, #9, #6, ...

........................................................................
.............................. CYCLE    8 ..............................
........................................................................

 iter      E             dE          RMSdq      gap      omega  full diag
   1   -113.8514233 -0.113851E+03  0.505E-02    0.41       0.0  T
   2   -113.8514203  0.306116E-05  0.315E-02    0.41       1.0  T
   3   -113.8512185  0.201771E-03  0.352E-02    0.41       1.0  T
   4   -113.8514142 -0.195735E-03  0.898E-03    0.41       1.1  T
   5   -113.8514236 -0.938574E-05  0.454E-03    0.41       2.3  T
   6   -113.8514272 -0.359788E-05  0.218E-03    0.41       4.7  T
   7   -113.8514278 -0.647022E-06  0.143E-03    0.41       7.2  T
   8   -113.8514282 -0.359273E-06  0.696E-04    0.41      14.8  T
   9   -113.8514282 -0.204662E-07  0.515E-04    0.41      20.0  T
     SCC iter.                  ...        0 min,  0.395 sec
     gradient                   ...        0 min,  0.020 sec
 * total energy  :  -112.1793785 Eh     change       -0.1306218E-03 Eh
   gradient norm :     0.0034170 Eh/α   predicted    -0.1015588E-03 ( -22.25%)
   displ. norm   :     0.2549140 α      lambda       -0.1159824E-03
   maximum displ.:     0.1312602 α      in ANC's #5, #9, #6, ...

........................................................................
.............................. CYCLE    9 ..............................
........................................................................

 iter      E             dE          RMSdq      gap      omega  full diag
   1   -113.8513962 -0.113851E+03  0.550E-02    0.41       0.0  T
   2   -113.8513920  0.415380E-05  0.339E-02    0.41       1.0  T
   3   -113.8511640  0.227982E-03  0.360E-02    0.42       1.0  T
   4   -113.8513922 -0.228171E-03  0.648E-03    0.41       1.6  T
   5   -113.8513977 -0.555321E-05  0.308E-03    0.41       3.3  T
   6   -113.8513983 -0.602677E-06  0.214E-03    0.41       4.8  T
   7   -113.8513989 -0.574752E-06  0.129E-03    0.41       8.0  T
   8   -113.8513992 -0.283315E-06  0.725E-04    0.41      14.2  T
   9   -113.8513993 -0.105654E-06  0.307E-04    0.41      33.6  T
     SCC iter.                  ...        0 min,  0.227 sec
     gradient                   ...        0 min,  0.036 sec
 * total energy  :  -112.1794591 Eh     change       -0.8057554E-04 Eh
   gradient norm :     0.0032099 Eh/α   predicted    -0.6176006E-04 ( -23.35%)
   displ. norm   :     0.2016249 α      lambda       -0.7784800E-04
   maximum displ.:     0.1103944 α      in ANC's #5, #9, #6, ...

........................................................................
.............................. CYCLE   10 ..............................
........................................................................

 iter      E             dE          RMSdq      gap      omega  full diag
   1   -113.8522056 -0.113852E+03  0.448E-02    0.41       0.0  T
   2   -113.8522009  0.473906E-05  0.277E-02    0.41       1.0  T
   3   -113.8519844  0.216438E-03  0.361E-02    0.42       1.0  T
   4   -113.8522003 -0.215925E-03  0.637E-03    0.41       1.6  T
   5   -113.8522063 -0.592190E-05  0.286E-03    0.41       3.6  T
   6   -113.8522074 -0.115957E-05  0.162E-03    0.41       6.4  T
   7   -113.8522078 -0.396651E-06  0.103E-03    0.41      10.0  T
   8   -113.8522080 -0.177600E-06  0.625E-04    0.41      16.5  T
   9   -113.8522081 -0.716505E-07  0.262E-04    0.41      39.3  T
     SCC iter.                  ...        0 min,  0.223 sec
     gradient                   ...        0 min,  0.077 sec
 * total energy  :  -112.1795199 Eh     change       -0.6081830E-04 Eh
   gradient norm :     0.0021815 Eh/α   predicted    -0.4050666E-04 ( -33.40%)
   displ. norm   :     0.2289422 α      lambda       -0.8401748E-04
   maximum displ.:     0.1239941 α      in ANC's #5, #9, #6, ...

........................................................................
.............................. CYCLE   11 ..............................
........................................................................

 iter      E             dE          RMSdq      gap      omega  full diag
   1   -113.8530935 -0.113853E+03  0.502E-02    0.41       0.0  T
   2   -113.8530818  0.116282E-04  0.317E-02    0.41       1.0  T
   3   -113.8526931  0.388760E-03  0.486E-02    0.42       1.0  T
   4   -113.8530830 -0.389957E-03  0.843E-03    0.41       1.2  T
   5   -113.8530947 -0.116178E-04  0.360E-03    0.41       2.9  T
   6   -113.8530970 -0.231094E-05  0.194E-03    0.41       5.3  T
   7   -113.8530976 -0.678670E-06  0.105E-03    0.41       9.9  T
   8   -113.8530978 -0.115241E-06  0.739E-04    0.41      14.0  T
   9   -113.8530979 -0.100365E-06  0.318E-04    0.41      32.5  T
     SCC iter.                  ...        0 min,  0.415 sec
     gradient                   ...        0 min,  0.033 sec
 * total energy  :  -112.1795922 Eh     change       -0.7230596E-04 Eh
   gradient norm :     0.0027584 Eh/α   predicted    -0.4421582E-04 ( -38.85%)
   displ. norm   :     0.3427317 α      lambda       -0.1328609E-03
   maximum displ.:     0.1785250 α      in ANC's #5, #9, #6, ...

........................................................................
.............................. CYCLE   12 ..............................
........................................................................

 iter      E             dE          RMSdq      gap      omega  full diag
   1   -113.8538443 -0.113854E+03  0.751E-02    0.41       0.0  T
   2   -113.8538115  0.327913E-04  0.476E-02    0.41       1.0  T
   3   -113.8528616  0.949915E-03  0.765E-02    0.42       1.0  T
   4   -113.8538164 -0.954823E-03  0.132E-02    0.41       1.0  T
   5   -113.8538484 -0.319852E-04  0.502E-03    0.41       2.1  T
   6   -113.8538528 -0.434335E-05  0.291E-03    0.41       3.5  T
   7   -113.8538542 -0.146615E-05  0.159E-03    0.41       6.5  T
   8   -113.8538545 -0.302652E-06  0.106E-03    0.41       9.8  T
   9   -113.8538547 -0.202695E-06  0.485E-04    0.41      21.3  T
  10   -113.8538548 -0.299410E-07  0.320E-04    0.41      32.3  T
     SCC iter.                  ...        0 min,  0.207 sec
     gradient                   ...        0 min,  0.021 sec
 * total energy  :  -112.1797074 Eh     change       -0.1152085E-03 Eh
   gradient norm :     0.0047931 Eh/α   predicted    -0.7423406E-04 ( -35.57%)
   displ. norm   :     0.5033712 α      lambda       -0.1913483E-03
   maximum displ.:     0.2551179 α      in ANC's #9, #5, #6, ...

........................................................................
.............................. CYCLE   13 ..............................
........................................................................

 iter      E             dE          RMSdq      gap      omega  full diag
   1   -113.8537669 -0.113854E+03  0.109E-01    0.41       0.0  T
   2   -113.8536873  0.795376E-04  0.695E-02    0.41       1.0  T
   3   -113.8516326  0.205474E-02  0.113E-01    0.43       1.0  T
   4   -113.8537117 -0.207908E-02  0.191E-02    0.41       1.0  T
   5   -113.8537792 -0.675158E-04  0.664E-03    0.41       1.6  T
   6   -113.8537852 -0.604813E-05  0.439E-03    0.41       2.4  T
   7   -113.8537884 -0.318158E-05  0.244E-03    0.41       4.2  T
   8   -113.8537894 -0.977448E-06  0.130E-03    0.41       7.9  T
   9   -113.8537897 -0.285478E-06  0.653E-04    0.41      15.8  T
  10   -113.8537897 -0.527020E-07  0.436E-04    0.41      23.6  T
     SCC iter.                  ...        0 min,  0.200 sec
     gradient                   ...        0 min,  0.023 sec
 * total energy  :  -112.1798716 Eh     change       -0.1641672E-03 Eh
   gradient norm :     0.0063783 Eh/α   predicted    -0.1199168E-03 ( -26.95%)
   displ. norm   :     0.6116327 α      lambda       -0.2269974E-03
   maximum displ.:     0.3119890 α      in ANC's #9, #5, #6, ...

........................................................................
.............................. CYCLE   14 ..............................
........................................................................

 iter      E             dE          RMSdq      gap      omega  full diag
   1   -113.8527799 -0.113853E+03  0.132E-01    0.42       0.0  T
   2   -113.8526690  0.110922E-03  0.837E-02    0.41       1.0  T
   3   -113.8497342  0.293486E-02  0.135E-01    0.43       1.0  T
   4   -113.8526974 -0.296328E-02  0.229E-02    0.42       1.0  T
   5   -113.8527969 -0.994743E-04  0.776E-03    0.41       1.3  T
   6   -113.8528050 -0.804845E-05  0.522E-03    0.42       2.0  T
   7   -113.8528093 -0.431523E-05  0.297E-03    0.41       3.5  T
   8   -113.8528108 -0.156098E-05  0.143E-03    0.42       7.2  T
   9   -113.8528112 -0.318312E-06  0.789E-04    0.41      13.1  T
  10   -113.8528112 -0.794542E-07  0.511E-04    0.41      20.2  T
     SCC iter.                  ...        0 min,  0.152 sec
     gradient                   ...        0 min,  0.021 sec
 * total energy  :  -112.1800627 Eh     change       -0.1911582E-03 Eh
   gradient norm :     0.0058159 Eh/α   predicted    -0.1559594E-03 ( -18.41%)
   displ. norm   :     0.5983022 α      lambda       -0.2138352E-03
   maximum displ.:     0.3087034 α      in ANC's #9, #5, #6, ...

........................................................................
.............................. CYCLE   15 ..............................
........................................................................

 iter      E             dE          RMSdq      gap      omega  full diag
   1   -113.8524706 -0.113852E+03  0.126E-01    0.42       0.0  T
   2   -113.8523696  0.101034E-03  0.802E-02    0.41       1.0  T
   3   -113.8496837  0.268591E-02  0.128E-01    0.44       1.0  T
   4   -113.8524066 -0.272287E-02  0.210E-02    0.42       1.0  T
   5   -113.8524858 -0.792637E-04  0.773E-03    0.41       1.3  T
   6   -113.8524935 -0.770634E-05  0.517E-03    0.42       2.0  T
   7   -113.8524977 -0.412696E-05  0.301E-03    0.42       3.4  T
   8   -113.8524994 -0.173698E-05  0.130E-03    0.42       7.9  T
   9   -113.8524997 -0.253880E-06  0.707E-04    0.42      14.6  T
  10   -113.8524997 -0.593469E-07  0.467E-04    0.42      22.1  T
     SCC iter.                  ...        0 min,  0.211 sec
     gradient                   ...        0 min,  0.021 sec
 * total energy  :  -112.1802406 Eh     change       -0.1779127E-03 Eh
   gradient norm :     0.0039387 Eh/α   predicted    -0.1451936E-03 ( -18.39%)
   displ. norm   :     0.5632972 α      lambda       -0.1858179E-03
   maximum displ.:     0.2998464 α      in ANC's #9, #6, #5, ...

........................................................................
.............................. CYCLE   16 ..............................
........................................................................

 iter      E             dE          RMSdq      gap      omega  full diag
   1   -113.8527790 -0.113853E+03  0.117E-01    0.42       0.0  T
   2   -113.8527057  0.732442E-04  0.737E-02    0.42       1.0  T
   3   -113.8505283  0.217743E-02  0.115E-01    0.44       1.0  T
   4   -113.8527248 -0.219647E-02  0.189E-02    0.42       1.0  T
   5   -113.8527883 -0.635472E-04  0.740E-03    0.42       1.4  T
   6   -113.8527973 -0.905039E-05  0.426E-03    0.42       2.4  T
   7   -113.8527999 -0.253726E-05  0.262E-03    0.42       3.9  T
   8   -113.8528011 -0.122193E-05  0.120E-03    0.42       8.6  T
   9   -113.8528013 -0.214113E-06  0.647E-04    0.42      16.0  T
  10   -113.8528014 -0.525500E-07  0.421E-04    0.42      24.5  T
     SCC iter.                  ...        0 min,  0.273 sec
     gradient                   ...        0 min,  0.040 sec
 * total energy  :  -112.1803968 Eh     change       -0.1561357E-03 Eh
   gradient norm :     0.0020666 Eh/α   predicted    -0.1223902E-03 ( -21.61%)
   displ. norm   :     0.5371182 α      lambda       -0.1737426E-03
   maximum displ.:     0.2939056 α      in ANC's #9, #6, #5, ...

........................................................................
.............................. CYCLE   17 ..............................
........................................................................

 iter      E             dE          RMSdq      gap      omega  full diag
   1   -113.8535970 -0.113854E+03  0.108E-01    0.42       0.0  T
   2   -113.8535438  0.531943E-04  0.679E-02    0.42       1.0  T
   3   -113.8517937  0.175010E-02  0.102E-01    0.44       1.0  T
   4   -113.8535594 -0.176564E-02  0.163E-02    0.42       1.0  T
   5   -113.8536036 -0.441826E-04  0.692E-03    0.42       1.5  T
   6   -113.8536121 -0.853018E-05  0.360E-03    0.42       2.9  T
   7   -113.8536137 -0.160263E-05  0.234E-03    0.42       4.4  T
   8   -113.8536147 -0.992214E-06  0.107E-03    0.42       9.7  T
   9   -113.8536148 -0.153922E-06  0.600E-04    0.42      17.2  T
  10   -113.8536149 -0.525019E-07  0.339E-04    0.42      30.4  T
     SCC iter.                  ...        0 min,  0.212 sec
     gradient                   ...        0 min,  0.021 sec
 * total energy  :  -112.1805508 Eh     change       -0.1539864E-03 Eh
   gradient norm :     0.0038052 Eh/α   predicted    -0.1119362E-03 ( -27.31%)
   displ. norm   :     0.5588229 α      lambda       -0.2106558E-03
   maximum displ.:     0.3125872 α      in ANC's #9, #6, #5, ...

........................................................................
.............................. CYCLE   18 ..............................
........................................................................

 iter      E             dE          RMSdq      gap      omega  full diag
   1   -113.8550803 -0.113855E+03  0.107E-01    0.42       0.0  T
   2   -113.8550405  0.397910E-04  0.667E-02    0.42       1.0  T
   3   -113.8535297  0.151077E-02  0.939E-02    0.44       1.0  T
   4   -113.8550432 -0.151348E-02  0.160E-02    0.42       1.0  T
   5   -113.8550839 -0.407254E-04  0.707E-03    0.42       1.5  T
   6   -113.8550937 -0.972984E-05  0.326E-03    0.42       3.2  T
   7   -113.8550949 -0.123470E-05  0.220E-03    0.42       4.7  T
   8   -113.8550957 -0.854114E-06  0.103E-03    0.42      10.0  T
   9   -113.8550959 -0.133212E-06  0.595E-04    0.42      17.3  T
  10   -113.8550959 -0.501276E-07  0.341E-04    0.42      30.2  T
     SCC iter.                  ...        0 min,  0.410 sec
     gradient                   ...        0 min,  0.058 sec
 * total energy  :  -112.1807438 Eh     change       -0.1930361E-03 Eh
   gradient norm :     0.0058900 Eh/α   predicted    -0.1382242E-03 ( -28.39%)
   displ. norm   :     0.6327901 α      lambda       -0.2790578E-03
   maximum displ.:     0.3587437 α      in ANC's #9, #6, #5, ...

........................................................................
.............................. CYCLE   19 ..............................
........................................................................

 iter      E             dE          RMSdq      gap      omega  full diag
   1   -113.8563651 -0.113856E+03  0.114E-01    0.43       0.0  T
   2   -113.8563289  0.361813E-04  0.710E-02    0.42       1.0  T
   3   -113.8548227  0.150620E-02  0.924E-02    0.44       1.0  T
   4   -113.8563291 -0.150646E-02  0.163E-02    0.42       1.0  T
   5   -113.8563701 -0.409643E-04  0.709E-03    0.42       1.5  T
   6   -113.8563790 -0.884621E-05  0.356E-03    0.43       2.9  T
   7   -113.8563804 -0.146720E-05  0.237E-03    0.42       4.4  T
   8   -113.8563814 -0.991593E-06  0.112E-03    0.43       9.2  T
   9   -113.8563816 -0.176959E-06  0.632E-04    0.42      16.3  T
  10   -113.8563816 -0.492143E-07  0.388E-04    0.42      26.6  T
     SCC iter.                  ...        0 min,  0.647 sec
     gradient                   ...        0 min,  0.021 sec
 * total energy  :  -112.1809997 Eh     change       -0.2558902E-03 Eh
   gradient norm :     0.0068526 Eh/α   predicted    -0.1954020E-03 ( -23.64%)
   displ. norm   :     0.6704401 α      lambda       -0.3336927E-03
   maximum displ.:     0.3811489 α      in ANC's #9, #6, #4, ...

........................................................................
.............................. CYCLE   20 ..............................
........................................................................

 iter      E             dE          RMSdq      gap      omega  full diag
   1   -113.8568922 -0.113857E+03  0.114E-01    0.43       0.0  T
   2   -113.8568624  0.297210E-04  0.708E-02    0.43       1.0  T
   3   -113.8555416  0.132086E-02  0.856E-02    0.44       1.0  T
   4   -113.8568569 -0.131536E-02  0.160E-02    0.43       1.0  T
   5   -113.8568970 -0.400638E-04  0.674E-03    0.43       1.5  T
   6   -113.8569041 -0.708599E-05  0.386E-03    0.43       2.7  T
   7   -113.8569061 -0.199187E-05  0.234E-03    0.43       4.4  T
   8   -113.8569070 -0.927281E-06  0.116E-03    0.43       8.9  T
   9   -113.8569072 -0.230167E-06  0.576E-04    0.43      17.9  T
  10   -113.8569073 -0.356219E-07  0.372E-04    0.43      27.7  T
     SCC iter.                  ...        0 min,  0.184 sec
     gradient                   ...        0 min,  0.024 sec
 * total energy  :  -112.1812959 Eh     change       -0.2962334E-03 Eh
   gradient norm :     0.0059089 Eh/α   predicted    -0.2418455E-03 ( -18.36%)
   displ. norm   :     0.6598026 α      lambda       -0.3347324E-03
   maximum displ.:     0.3745121 α      in ANC's #9, #6, #4, ...
 * RMSD in coord.:     0.6944980 α      energy gain  -0.1050220E-01 Eh

generating ANC from exact Hessian ...
Using Lindh-Hessian (1995)
 Shifting diagonal of input Hessian by   1.029377401724183E-002
 Lowest  eigenvalues of input Hessian
    0.010000    0.010087    0.010121    0.010195    0.000000    0.000000
    0.000000    0.000000    0.000000    0.000000    0.010307    0.010321
    0.010362    0.010415    0.010512    0.010686    0.010809    0.010823
 Highest eigenvalues
    1.937264    1.977071    2.029556    2.069206    2.131261    2.214104
 

........................................................................
.............................. CYCLE   21 ..............................
........................................................................

 iter      E             dE          RMSdq      gap      omega  full diag
   1   -113.8568455 -0.113857E+03  0.109E-01    0.43       0.0  T
   2   -113.8568198  0.256190E-04  0.673E-02    0.43       1.0  T
   3   -113.8556875  0.113228E-02  0.774E-02    0.44       1.0  T
   4   -113.8568185 -0.113096E-02  0.145E-02    0.43       1.0  T
   5   -113.8568509 -0.323652E-04  0.630E-03    0.43       1.6  T
   6   -113.8568544 -0.355548E-05  0.465E-03    0.43       2.2  T
   7   -113.8568580 -0.355112E-05  0.216E-03    0.43       4.8  T
   8   -113.8568586 -0.668730E-06  0.124E-03    0.43       8.3  T
   9   -113.8568590 -0.324579E-06  0.552E-04    0.43      18.7  T
  10   -113.8568590 -0.362744E-07  0.342E-04    0.43      30.2  T
     SCC iter.                  ...        0 min,  0.201 sec
     gradient                   ...        0 min,  0.019 sec
 * total energy  :  -112.1815761 Eh     change       -0.2801851E-03 Eh
   gradient norm :     0.0038777 Eh/α   predicted     0.0000000E+00 (-100.00%)
   displ. norm   :     0.0603935 α      lambda       -0.6987470E-04
   maximum displ.:     0.0324312 α      in ANC's #9, #5, #21, ...

........................................................................
.............................. CYCLE   22 ..............................
........................................................................

 iter      E             dE          RMSdq      gap      omega  full diag
   1   -113.8568066 -0.113857E+03  0.178E-02    0.43       0.0  T
   2   -113.8568058  0.814607E-06  0.111E-02    0.43       1.0  T
   3   -113.8567734  0.323347E-04  0.138E-02    0.43       1.0  T
   4   -113.8568038 -0.303248E-04  0.414E-03    0.43       2.5  T
   5   -113.8568063 -0.252863E-05  0.209E-03    0.43       4.9  T
   6   -113.8568072 -0.946429E-06  0.904E-04    0.43      11.4  T
   7   -113.8568074 -0.118947E-06  0.580E-04    0.43      17.8  T
     SCC iter.                  ...        0 min,  0.127 sec
     gradient                   ...        0 min,  0.020 sec
 * total energy  :  -112.1816367 Eh     change       -0.6056991E-04 Eh
   gradient norm :     0.0023321 Eh/α   predicted    -0.3509350E-04 ( -42.06%)
   displ. norm   :     0.2851555 α      lambda       -0.2553433E-03
   maximum displ.:     0.1469909 α      in ANC's #9, #5, #8, ...

........................................................................
.............................. CYCLE   23 ..............................
........................................................................

 iter      E             dE          RMSdq      gap      omega  full diag
   1   -113.8559968 -0.113856E+03  0.868E-02    0.43       0.0  T
   2   -113.8559735  0.232624E-04  0.537E-02    0.43       1.0  T
   3   -113.8548269  0.114664E-02  0.707E-02    0.45       1.0  T
   4   -113.8558624 -0.103552E-02  0.245E-02    0.43       1.0  T
   5   -113.8559947 -0.132296E-03  0.951E-03    0.43       1.1  T
   6   -113.8560117 -0.169935E-04  0.373E-03    0.43       2.8  T
   7   -113.8560129 -0.119309E-05  0.257E-03    0.43       4.0  T
   8   -113.8560137 -0.823808E-06  0.137E-03    0.43       7.6  T
   9   -113.8560140 -0.239444E-06  0.814E-04    0.43      12.7  T
  10   -113.8560141 -0.125955E-06  0.363E-04    0.43      28.4  T
     SCC iter.                  ...        0 min,  0.356 sec
     gradient                   ...        0 min,  0.104 sec
 * total energy  :  -112.1817617 Eh     change       -0.1250057E-03 Eh
   gradient norm :     0.0051209 Eh/α   predicted    -0.1380531E-03 (  10.44%)
   displ. norm   :     0.2300758 α      lambda       -0.1908671E-03
   maximum displ.:     0.1243058 α      in ANC's #9, #5, #11, ...

........................................................................
.............................. CYCLE   24 ..............................
........................................................................

 iter      E             dE          RMSdq      gap      omega  full diag
   1   -113.8551280 -0.113855E+03  0.797E-02    0.43       0.0  T
   2   -113.8551052  0.228366E-04  0.496E-02    0.43       1.0  T
   3   -113.8542147  0.890523E-03  0.691E-02    0.43       1.0  T
   4   -113.8550509 -0.836274E-03  0.188E-02    0.44       1.0  T
   5   -113.8551230 -0.721065E-04  0.810E-03    0.43       1.3  T
   6   -113.8551394 -0.163033E-04  0.265E-03    0.43       3.9  T
   7   -113.8551399 -0.565449E-06  0.182E-03    0.43       5.7  T
   8   -113.8551403 -0.431423E-06  0.789E-04    0.43      13.1  T
   9   -113.8551404 -0.500321E-07  0.573E-04    0.43      18.0  T
     SCC iter.                  ...        0 min,  0.182 sec
     gradient                   ...        0 min,  0.018 sec
 * total energy  :  -112.1818438 Eh     change       -0.8208560E-04 Eh
   gradient norm :     0.0059236 Eh/α   predicted    -0.1004854E-03 (  22.42%)
   displ. norm   :     0.0997667 α      lambda       -0.9583226E-04
   maximum displ.:     0.0583667 α      in ANC's #9, #5, #8, ...

........................................................................
.............................. CYCLE   25 ..............................
........................................................................

 iter      E             dE          RMSdq      gap      omega  full diag
   1   -113.8553995 -0.113855E+03  0.309E-02    0.43       0.0  T
   2   -113.8553959  0.356668E-05  0.197E-02    0.44       1.0  T
   3   -113.8552709  0.124986E-03  0.262E-02    0.43       1.0  T
   4   -113.8553934 -0.122438E-03  0.595E-03    0.43       1.7  T
   5   -113.8554000 -0.664070E-05  0.222E-03    0.44       4.7  T
   6   -113.8554011 -0.102774E-05  0.957E-04    0.43      10.8  T
   7   -113.8554012 -0.101808E-06  0.631E-04    0.43      16.3  T
   8   -113.8554012 -0.513393E-07  0.338E-04    0.43      30.5  T
     SCC iter.                  ...        0 min,  0.151 sec
     gradient                   ...        0 min,  0.021 sec
 * total energy  :  -112.1819211 Eh     change       -0.7729048E-04 Eh
   gradient norm :     0.0040987 Eh/α   predicted    -0.4839488E-04 ( -37.39%)
   displ. norm   :     0.2621601 α      lambda       -0.1951863E-03
   maximum displ.:     0.1531000 α      in ANC's #9, #5, #8, ...

........................................................................
.............................. CYCLE   26 ..............................
........................................................................

 iter      E             dE          RMSdq      gap      omega  full diag
   1   -113.8560067 -0.113856E+03  0.650E-02    0.44       0.0  T
   2   -113.8559854  0.212460E-04  0.417E-02    0.44       1.0  T
   3   -113.8552689  0.716568E-03  0.617E-02    0.44       1.0  T
   4   -113.8559491 -0.680246E-03  0.166E-02    0.43       1.0  T
   5   -113.8560099 -0.608160E-04  0.452E-03    0.44       2.3  T
   6   -113.8560141 -0.421447E-05  0.204E-03    0.43       5.0  T
   7   -113.8560148 -0.607451E-06  0.105E-03    0.44       9.8  T
   8   -113.8560148 -0.532704E-07  0.763E-04    0.44      13.5  T
   9   -113.8560149 -0.782962E-07  0.428E-04    0.44      24.1  T
     SCC iter.                  ...        0 min,  0.164 sec
     gradient                   ...        0 min,  0.021 sec
 * total energy  :  -112.1820554 Eh     change       -0.1343919E-03 Eh
   gradient norm :     0.0029225 Eh/α   predicted    -0.1043045E-03 ( -22.39%)
   displ. norm   :     0.3206295 α      lambda       -0.1315045E-03
   maximum displ.:     0.1862429 α      in ANC's #9, #5, #11, ...

........................................................................
.............................. CYCLE   27 ..............................
........................................................................

 iter      E             dE          RMSdq      gap      omega  full diag
   1   -113.8555458 -0.113856E+03  0.708E-02    0.44       0.0  T
   2   -113.8555242  0.215690E-04  0.450E-02    0.44       1.0  T
   3   -113.8547534  0.770785E-03  0.611E-02    0.44       1.0  T
   4   -113.8554902 -0.736820E-03  0.164E-02    0.43       1.0  T
   5   -113.8555499 -0.596558E-04  0.429E-03    0.44       2.4  T
   6   -113.8555538 -0.388246E-05  0.196E-03    0.44       5.3  T
   7   -113.8555542 -0.438042E-06  0.117E-03    0.44       8.8  T
   8   -113.8555543 -0.889825E-07  0.819E-04    0.44      12.6  T
   9   -113.8555544 -0.982871E-07  0.433E-04    0.44      23.8  T
     SCC iter.                  ...        0 min,  0.174 sec
     gradient                   ...        0 min,  0.019 sec
 * total energy  :  -112.1821646 Eh     change       -0.1091498E-03 Eh
   gradient norm :     0.0049217 Eh/α   predicted    -0.7251279E-04 ( -33.57%)
   displ. norm   :     0.4028883 α      lambda       -0.1762910E-03
   maximum displ.:     0.2338124 α      in ANC's #9, #5, #11, ...

........................................................................
.............................. CYCLE   28 ..............................
........................................................................

 iter      E             dE          RMSdq      gap      omega  full diag
   1   -113.8548134 -0.113855E+03  0.869E-02    0.44       0.0  T
   2   -113.8547908  0.225758E-04  0.548E-02    0.44       1.0  T
   3   -113.8538395  0.951335E-03  0.693E-02    0.44       1.0  T
   4   -113.8547315 -0.892050E-03  0.197E-02    0.43       1.0  T
   5   -113.8548176 -0.860607E-04  0.509E-03    0.44       2.0  T
   6   -113.8548229 -0.529253E-05  0.234E-03    0.44       4.4  T
   7   -113.8548235 -0.686423E-06  0.124E-03    0.44       8.3  T
   8   -113.8548237 -0.109176E-06  0.805E-04    0.44      12.8  T
   9   -113.8548237 -0.707229E-07  0.470E-04    0.44      21.9  T
     SCC iter.                  ...        0 min,  0.202 sec
     gradient                   ...        0 min,  0.025 sec
 * total energy  :  -112.1823192 Eh     change       -0.1546298E-03 Eh
   gradient norm :     0.0058136 Eh/α   predicted    -0.1024534E-03 ( -33.74%)
   displ. norm   :     0.5288298 α      lambda       -0.2493245E-03
   maximum displ.:     0.3108773 α      in ANC's #9, #5, #7, ...

........................................................................
.............................. CYCLE   29 ..............................
........................................................................

 iter      E             dE          RMSdq      gap      omega  full diag
   1   -113.8540526 -0.113854E+03  0.112E-01    0.44       0.0  T
   2   -113.8540087  0.438622E-04  0.707E-02    0.44       1.0  T
   3   -113.8522132  0.179550E-02  0.922E-02    0.45       1.0  T
   4   -113.8538571 -0.164382E-02  0.296E-02    0.43       1.0  T
   5   -113.8540597 -0.202593E-03  0.809E-03    0.44       1.3  T
   6   -113.8540735 -0.138384E-04  0.313E-03    0.44       3.3  T
   7   -113.8540745 -0.103036E-05  0.190E-03    0.44       5.4  T
   8   -113.8540747 -0.214009E-06  0.129E-03    0.44       8.0  T
   9   -113.8540749 -0.210680E-06  0.712E-04    0.44      14.5  T
  10   -113.8540750 -0.755570E-07  0.417E-04    0.44      24.7  T
     SCC iter.                  ...        0 min,  0.195 sec
     gradient                   ...        0 min,  0.021 sec
 * total energy  :  -112.1825233 Eh     change       -0.2040800E-03 Eh
   gradient norm :     0.0050379 Eh/α   predicted    -0.1595268E-03 ( -21.83%)
   displ. norm   :     0.5469630 α      lambda       -0.2130381E-03
   maximum displ.:     0.3310485 α      in ANC's #9, #5, #7, ...

........................................................................
.............................. CYCLE   30 ..............................
........................................................................

 iter      E             dE          RMSdq      gap      omega  full diag
   1   -113.8534187 -0.113853E+03  0.108E-01    0.44       0.0  T
   2   -113.8533886  0.301173E-04  0.680E-02    0.44       1.0  T
   3   -113.8520541  0.133447E-02  0.821E-02    0.45       1.0  T
   4   -113.8532474 -0.119324E-02  0.281E-02    0.44       1.0  T
   5   -113.8534228 -0.175382E-03  0.837E-03    0.44       1.2  T
   6   -113.8534376 -0.147973E-04  0.324E-03    0.44       3.2  T
   7   -113.8534389 -0.129473E-05  0.179E-03    0.44       5.8  T
   8   -113.8534391 -0.272196E-06  0.990E-04    0.44      10.4  T
   9   -113.8534392 -0.952596E-07  0.600E-04    0.44      17.2  T
     SCC iter.                  ...        0 min,  0.163 sec
     gradient                   ...        0 min,  0.017 sec
 * total energy  :  -112.1826908 Eh     change       -0.1675287E-03 Eh
   gradient norm :     0.0037703 Eh/α   predicted    -0.1383884E-03 ( -17.39%)
   displ. norm   :     0.4351725 α      lambda       -0.1383676E-03
   maximum displ.:     0.2738794 α      in ANC's #9, #5, #7, ...

........................................................................
.............................. CYCLE   31 ..............................
........................................................................

 iter      E             dE          RMSdq      gap      omega  full diag
   1   -113.8540340 -0.113854E+03  0.802E-02    0.44       0.0  T
   2   -113.8540138  0.202742E-04  0.506E-02    0.44       1.0  T
   3   -113.8531747  0.839028E-03  0.624E-02    0.45       1.0  T
   4   -113.8539472 -0.772497E-03  0.199E-02    0.44       1.0  T
   5   -113.8540369 -0.896744E-04  0.599E-03    0.44       1.7  T
   6   -113.8540446 -0.774040E-05  0.242E-03    0.44       4.3  T
   7   -113.8540452 -0.549999E-06  0.159E-03    0.44       6.5  T
   8   -113.8540454 -0.238553E-06  0.911E-04    0.44      11.3  T
   9   -113.8540455 -0.110493E-06  0.502E-04    0.44      20.5  T
     SCC iter.                  ...        0 min,  0.167 sec
     gradient                   ...        0 min,  0.020 sec
 * total energy  :  -112.1828042 Eh     change       -0.1133522E-03 Eh
   gradient norm :     0.0025089 Eh/α   predicted    -0.8228604E-04 ( -27.41%)
   displ. norm   :     0.3376400 α      lambda       -0.1045908E-03
   maximum displ.:     0.2205823 α      in ANC's #9, #5, #11, ...

........................................................................
.............................. CYCLE   32 ..............................
........................................................................

 iter      E             dE          RMSdq      gap      omega  full diag
   1   -113.8553299 -0.113855E+03  0.552E-02    0.45       0.0  T
   2   -113.8553219  0.797723E-05  0.348E-02    0.44       1.0  T
   3   -113.8550067  0.315183E-03  0.388E-02    0.45       1.0  T
   4   -113.8553116 -0.304899E-03  0.987E-03    0.44       1.0  T
   5   -113.8553313 -0.196733E-04  0.362E-03    0.45       2.9  T
   6   -113.8553338 -0.248315E-05  0.193E-03    0.44       5.4  T
   7   -113.8553343 -0.531469E-06  0.943E-04    0.44      10.9  T
   8   -113.8553344 -0.115660E-06  0.420E-04    0.44      24.5  T
     SCC iter.                  ...        0 min,  0.150 sec
     gradient                   ...        0 min,  0.018 sec
 * total energy  :  -112.1828939 Eh     change       -0.8967134E-04 Eh
   gradient norm :     0.0022976 Eh/α   predicted    -0.5825802E-04 ( -35.03%)
   displ. norm   :     0.2874657 α      lambda       -0.9832843E-04
   maximum displ.:     0.1925965 α      in ANC's #9, #5, #11, ...

........................................................................
.............................. CYCLE   33 ..............................
........................................................................

 iter      E             dE          RMSdq      gap      omega  full diag
   1   -113.8567185 -0.113857E+03  0.455E-02    0.45       0.0  T
   2   -113.8567114  0.702976E-05  0.288E-02    0.45       1.0  T
   3   -113.8564388  0.272642E-03  0.337E-02    0.45       1.0  T
   4   -113.8567118 -0.272994E-03  0.641E-03    0.44       1.6  T
   5   -113.8567196 -0.783914E-05  0.284E-03    0.45       3.6  T
   6   -113.8567210 -0.131720E-05  0.177E-03    0.45       5.8  T
   7   -113.8567214 -0.449088E-06  0.906E-04    0.45      11.4  T
   8   -113.8567215 -0.137075E-06  0.305E-04    0.45      33.8  T
     SCC iter.                  ...        0 min,  0.173 sec
     gradient                   ...        0 min,  0.021 sec
 * total energy  :  -112.1829803 Eh     change       -0.8642197E-04 Eh
   gradient norm :     0.0029147 Eh/α   predicted    -0.5322947E-04 ( -38.41%)
   displ. norm   :     0.2854615 α      lambda       -0.1063427E-03
   maximum displ.:     0.1922128 α      in ANC's #9, #11, #6, ...

........................................................................
.............................. CYCLE   34 ..............................
........................................................................

 iter      E             dE          RMSdq      gap      omega  full diag
   1   -113.8578314 -0.113858E+03  0.404E-02    0.45       0.0  T
   2   -113.8578247  0.671387E-05  0.258E-02    0.45       1.0  T
   3   -113.8575972  0.227510E-03  0.314E-02    0.45       1.0  T
   4   -113.8578297 -0.232492E-03  0.481E-03    0.45       2.1  T
   5   -113.8578330 -0.330540E-05  0.247E-03    0.45       4.2  T
   6   -113.8578332 -0.189288E-06  0.217E-03    0.45       4.8  T
   7   -113.8578342 -0.994437E-06  0.870E-04    0.45      11.9  T
   8   -113.8578343 -0.130636E-06  0.248E-04    0.45      41.6  T
     SCC iter.                  ...        0 min,  0.158 sec
     gradient                   ...        0 min,  0.022 sec
 * total energy  :  -112.1830789 Eh     change       -0.9859814E-04 Eh
   gradient norm :     0.0033796 Eh/α   predicted    -0.5750552E-04 ( -41.68%)
   displ. norm   :     0.3488765 α      lambda       -0.1412154E-03
   maximum displ.:     0.2318171 α      in ANC's #9, #6, #11, ...

........................................................................
.............................. CYCLE   35 ..............................
........................................................................

 iter      E             dE          RMSdq      gap      omega  full diag
   1   -113.8586261 -0.113859E+03  0.524E-02    0.45       0.0  T
   2   -113.8586149  0.111985E-04  0.332E-02    0.45       1.0  T
   3   -113.8582407  0.374178E-03  0.421E-02    0.45       1.0  T
   4   -113.8586240 -0.383330E-03  0.623E-03    0.45       1.7  T
   5   -113.8586295 -0.547536E-05  0.290E-03    0.45       3.6  T
   6   -113.8586291  0.397791E-06  0.281E-03    0.45       3.7  T
   7   -113.8586308 -0.164654E-05  0.132E-03    0.45       7.8  T
   8   -113.8586311 -0.342290E-06  0.472E-04    0.45      21.8  T
   9   -113.8586311 -0.269076E-07  0.267E-04    0.45      38.6  T
     SCC iter.                  ...        0 min,  0.182 sec
     gradient                   ...        0 min,  0.027 sec
 * total energy  :  -112.1832125 Eh     change       -0.1336288E-03 Eh
   gradient norm :     0.0034178 Eh/α   predicted    -0.7920500E-04 ( -40.73%)
   displ. norm   :     0.4896175 α      lambda       -0.2059874E-03
   maximum displ.:     0.3192310 α      in ANC's #9, #6, #11, ...

........................................................................
.............................. CYCLE   36 ..............................
........................................................................

 iter      E             dE          RMSdq      gap      omega  full diag
   1   -113.8586871 -0.113859E+03  0.812E-02    0.45       0.0  T
   2   -113.8586602  0.268952E-04  0.514E-02    0.45       1.0  T
   3   -113.8577878  0.872480E-03  0.663E-02    0.45       1.0  T
   4   -113.8586798 -0.892025E-03  0.105E-02    0.45       1.0  T
   5   -113.8586964 -0.165795E-04  0.448E-03    0.45       2.3  T
   6   -113.8586967 -0.325435E-06  0.382E-03    0.45       2.7  T
   7   -113.8586993 -0.261951E-05  0.197E-03    0.45       5.2  T
   8   -113.8587000 -0.735665E-06  0.868E-04    0.45      11.9  T
   9   -113.8587001 -0.104030E-06  0.518E-04    0.45      19.9  T
     SCC iter.                  ...        0 min,  0.188 sec
     gradient                   ...        0 min,  0.020 sec
 * total energy  :  -112.1834067 Eh     change       -0.1942104E-03 Eh
   gradient norm :     0.0030370 Eh/α   predicted    -0.1276888E-03 ( -34.25%)
   displ. norm   :     0.6391486 α      lambda       -0.2659214E-03
   maximum displ.:     0.4116411 α      in ANC's #9, #6, #11, ...

........................................................................
.............................. CYCLE   37 ..............................
........................................................................

 iter      E             dE          RMSdq      gap      omega  full diag
   1   -113.8579904 -0.113858E+03  0.114E-01    0.45       0.0  T
   2   -113.8579402  0.502438E-04  0.724E-02    0.45       1.0  T
   3   -113.8562688  0.167135E-02  0.933E-02    0.45       1.0  T
   4   -113.8579641 -0.169524E-02  0.165E-02    0.45       1.0  T
   5   -113.8580040 -0.399405E-04  0.770E-03    0.45       1.3  T
   6   -113.8580108 -0.682020E-05  0.524E-03    0.45       2.0  T
   7   -113.8580153 -0.452193E-05  0.254E-03    0.45       4.1  T
   8   -113.8580163 -0.950153E-06  0.123E-03    0.45       8.4  T
   9   -113.8580164 -0.152393E-06  0.879E-04    0.45      11.7  T
  10   -113.8580166 -0.161166E-06  0.390E-04    0.45      26.5  T
     SCC iter.                  ...        0 min,  0.204 sec
     gradient                   ...        0 min,  0.020 sec
 * total energy  :  -112.1836561 Eh     change       -0.2493633E-03 Eh
   gradient norm :     0.0028286 Eh/α   predicted    -0.1872800E-03 ( -24.90%)
   displ. norm   :     0.7375157 α      lambda       -0.2994354E-03
   maximum displ.:     0.4717326 α      in ANC's #9, #6, #11, ...

........................................................................
.............................. CYCLE   38 ..............................
........................................................................

 iter      E             dE          RMSdq      gap      omega  full diag
   1   -113.8565479 -0.113857E+03  0.141E-01    0.45       0.0  T
   2   -113.8564777  0.702295E-04  0.896E-02    0.45       1.0  T
   3   -113.8539704  0.250733E-02  0.114E-01    0.45       1.0  T
   4   -113.8564878 -0.251746E-02  0.219E-02    0.45       1.0  T
   5   -113.8565599 -0.720636E-04  0.106E-02    0.45       1.0  T
   6   -113.8565793 -0.193984E-04  0.568E-03    0.45       1.8  T
   7   -113.8565841 -0.480899E-05  0.295E-03    0.45       3.5  T
   8   -113.8565852 -0.108790E-05  0.161E-03    0.45       6.4  T
   9   -113.8565855 -0.299388E-06  0.115E-03    0.45       9.0  T
  10   -113.8565858 -0.295196E-06  0.427E-04    0.45      24.2  T
  11   -113.8565858 -0.269021E-07  0.228E-04    0.45      45.2  T
     SCC iter.                  ...        0 min,  0.226 sec
     gradient                   ...        0 min,  0.021 sec
 * total energy  :  -112.1839372 Eh     change       -0.2811536E-03 Eh
   gradient norm :     0.0033989 Eh/α   predicted    -0.2311537E-03 ( -17.78%)
   displ. norm   :     0.8005295 α      lambda       -0.3304030E-03
   maximum displ.:     0.5104775 α      in ANC's #9, #6, #11, ...

........................................................................
.............................. CYCLE   39 ..............................
........................................................................

 iter      E             dE          RMSdq      gap      omega  full diag
   1   -113.8550069 -0.113855E+03  0.159E-01    0.45       0.0  T
   2   -113.8549191  0.877421E-04  0.101E-01    0.45       1.0  T
   3   -113.8515225  0.339662E-02  0.129E-01    0.45       1.0  T
   4   -113.8548748 -0.335226E-02  0.280E-02    0.46       1.0  T
   5   -113.8550119 -0.137107E-03  0.131E-02    0.45       1.0  T
   6   -113.8550480 -0.360874E-04  0.536E-03    0.45       1.9  T
   7   -113.8550510 -0.303673E-05  0.325E-03    0.45       3.2  T
   8   -113.8550521 -0.108832E-05  0.204E-03    0.45       5.1  T
   9   -113.8550528 -0.674453E-06  0.129E-03    0.45       8.0  T
  10   -113.8550531 -0.361303E-06  0.439E-04    0.45      23.5  T
  11   -113.8550531 -0.239463E-07  0.232E-04    0.45      44.4  T
     SCC iter.                  ...        0 min,  0.228 sec
     gradient                   ...        0 min,  0.037 sec
 * total energy  :  -112.1842498 Eh     change       -0.3125740E-03 Eh
   gradient norm :     0.0042752 Eh/α   predicted    -0.2710718E-03 ( -13.28%)
   displ. norm   :     0.8441360 α      lambda       -0.3823776E-03
   maximum displ.:     0.5365655 α      in ANC's #9, #6, #7, ...

........................................................................
.............................. CYCLE   40 ..............................
........................................................................

 iter      E             dE          RMSdq      gap      omega  full diag
   1   -113.8538075 -0.113854E+03  0.178E-01    0.45       0.0  T
   2   -113.8536998  0.107665E-03  0.114E-01    0.45       1.0  T
   3   -113.8490063  0.469354E-02  0.147E-01    0.44       1.0  T
   4   -113.8535828 -0.457653E-02  0.338E-02    0.46       1.0  T
   5   -113.8538140 -0.231169E-03  0.140E-02    0.45       1.0  T
   6   -113.8538557 -0.417580E-04  0.507E-03    0.45       2.0  T
   7   -113.8538574 -0.167068E-05  0.353E-03    0.45       2.9  T
   8   -113.8538587 -0.132880E-05  0.234E-03    0.45       4.4  T
   9   -113.8538597 -0.101863E-05  0.132E-03    0.45       7.8  T
  10   -113.8538601 -0.345751E-06  0.457E-04    0.45      22.6  T
  11   -113.8538601 -0.240007E-07  0.237E-04    0.45      43.5  T
     SCC iter.                  ...        0 min,  0.361 sec
     gradient                   ...        0 min,  0.021 sec
 * total energy  :  -112.1846158 Eh     change       -0.3659943E-03 Eh
   gradient norm :     0.0051724 Eh/α   predicted    -0.3274264E-03 ( -10.54%)
   displ. norm   :     0.8012953 α      lambda       -0.4711631E-03
   maximum displ.:     0.5001105 α      in ANC's #9, #6, #7, ...

........................................................................
.............................. CYCLE   41 ..............................
........................................................................

 iter      E             dE          RMSdq      gap      omega  full diag
   1   -113.8552374 -0.113855E+03  0.189E-01    0.45       0.0  T
   2   -113.8551127  0.124702E-03  0.121E-01    0.45       1.0  T
   3   -113.8487787  0.633404E-02  0.162E-01    0.43       1.0  T
   4   -113.8549356 -0.615687E-02  0.378E-02    0.46       1.0  T
   5   -113.8552511 -0.315514E-03  0.132E-02    0.45       1.0  T
   6   -113.8552865 -0.353709E-04  0.461E-03    0.45       2.2  T
   7   -113.8552871 -0.635526E-06  0.372E-03    0.45       2.8  T
   8   -113.8552892 -0.207223E-05  0.230E-03    0.45       4.5  T
   9   -113.8552901 -0.890561E-06  0.128E-03    0.45       8.1  T
  10   -113.8552903 -0.278088E-06  0.486E-04    0.45      21.2  T
  11   -113.8552904 -0.289232E-07  0.245E-04    0.45      42.0  T
     SCC iter.                  ...        0 min,  0.207 sec
     gradient                   ...        0 min,  0.019 sec
 * total energy  :  -112.1850497 Eh     change       -0.4338573E-03 Eh
   gradient norm :     0.0056145 Eh/α   predicted    -0.3868446E-03 ( -10.84%)
   displ. norm   :     0.8231413 α      lambda       -0.5181218E-03
   maximum displ.:     0.5080248 α      in ANC's #9, #6, #7, ...

........................................................................
.............................. CYCLE   42 ..............................
........................................................................

 iter      E             dE          RMSdq      gap      omega  full diag
   1   -113.8553457 -0.113855E+03  0.208E-01    0.45       0.0  T
   2   -113.8551820  0.163693E-03  0.133E-01    0.45       1.0  T
   3   -113.8466387  0.854335E-02  0.182E-01    0.42       1.0  T
   4   -113.8550841 -0.844543E-02  0.354E-02    0.46       1.0  T
   5   -113.8553737 -0.289578E-03  0.107E-02    0.45       1.0  T
   6   -113.8553948 -0.211812E-04  0.432E-03    0.45       2.4  T
   7   -113.8553950 -0.150885E-06  0.360E-03    0.45       2.9  T
   8   -113.8553969 -0.190556E-05  0.218E-03    0.45       4.7  T
   9   -113.8553977 -0.765939E-06  0.117E-03    0.45       8.8  T
  10   -113.8553979 -0.224971E-06  0.570E-04    0.45      18.1  T
  11   -113.8553979 -0.547280E-07  0.253E-04    0.45      40.7  T
     SCC iter.                  ...        0 min,  0.187 sec
     gradient                   ...        0 min,  0.018 sec
 * total energy  :  -112.1855308 Eh     change       -0.4811701E-03 Eh
   gradient norm :     0.0062768 Eh/α   predicted    -0.4345962E-03 (  -9.68%)
   displ. norm   :     0.7814349 α      lambda       -0.5897637E-03
   maximum displ.:     0.4599681 α      in ANC's #9, #6, #7, ...
 * RMSD in coord.:     0.9293828 α      energy gain  -0.4234912E-02 Eh

generating ANC from exact Hessian ...
Using Lindh-Hessian (1995)
 Shifting diagonal of input Hessian by   1.027788627071616E-002
 Lowest  eigenvalues of input Hessian
    0.010000    0.010070    0.010118    0.010195    0.010252    0.000000
    0.000000    0.000000    0.000000    0.000000    0.000000    0.010320
    0.010385    0.010435    0.010582    0.010681    0.010777    0.010801
 Highest eigenvalues
    1.930058    1.964088    2.027716    2.054529    2.127845    2.185373
 

........................................................................
.............................. CYCLE   43 ..............................
........................................................................

 iter      E             dE          RMSdq      gap      omega  full diag
   1   -113.8581490 -0.113858E+03  0.206E-01    0.44       0.0  T
   2   -113.8579580  0.191005E-03  0.132E-01    0.45       1.0  T
   3   -113.8489243  0.903367E-02  0.188E-01    0.42       1.0  T
   4   -113.8579077 -0.898336E-02  0.339E-02    0.45       1.0  T
   5   -113.8581832 -0.275520E-03  0.977E-03    0.44       1.1  T
   6   -113.8581994 -0.161947E-04  0.411E-03    0.44       2.5  T
   7   -113.8581998 -0.405561E-06  0.305E-03    0.45       3.4  T
   8   -113.8582012 -0.134192E-05  0.164E-03    0.44       6.3  T
   9   -113.8582015 -0.359673E-06  0.935E-04    0.44      11.0  T
  10   -113.8582016 -0.993685E-07  0.557E-04    0.44      18.5  T
     SCC iter.                  ...        0 min,  0.188 sec
     gradient                   ...        0 min,  0.021 sec
 * total energy  :  -112.1860437 Eh     change       -0.5128515E-03 Eh
   gradient norm :     0.0065342 Eh/α   predicted     0.0000000E+00 (-100.00%)
   displ. norm   :     0.0831187 α      lambda       -0.1678460E-03
   maximum displ.:     0.0399221 α      in ANC's #10, #9, #8, ...

........................................................................
.............................. CYCLE   44 ..............................
........................................................................

 iter      E             dE          RMSdq      gap      omega  full diag
   1   -113.8596063 -0.113860E+03  0.306E-02    0.44       0.0  T
   2   -113.8595864  0.198570E-04  0.215E-02    0.44       1.0  T
   3   -113.8593316  0.254833E-03  0.359E-02    0.45       1.0  T
   4   -113.8595813 -0.249720E-03  0.109E-02    0.44       1.0  T
   5   -113.8596092 -0.278759E-04  0.277E-03    0.45       3.7  T
   6   -113.8596104 -0.117943E-05  0.121E-03    0.44       8.5  T
   7   -113.8596104 -0.646827E-07  0.996E-04    0.44      10.4  T
   8   -113.8596106 -0.179342E-06  0.435E-04    0.44      23.7  T
     SCC iter.                  ...        0 min,  0.209 sec
     gradient                   ...        0 min,  0.020 sec
 * total energy  :  -112.1861770 Eh     change       -0.1333300E-03 Eh
   gradient norm :     0.0035884 Eh/α   predicted    -0.8491839E-04 ( -36.31%)
   displ. norm   :     0.3055108 α      lambda       -0.4222123E-03
   maximum displ.:     0.1296354 α      in ANC's #10, #9, #4, ...

........................................................................
.............................. CYCLE   45 ..............................
........................................................................

 iter      E             dE          RMSdq      gap      omega  full diag
   1   -113.8627001 -0.113863E+03  0.104E-01    0.44       0.0  T
   2   -113.8626279  0.722610E-04  0.679E-02    0.44       1.0  T
   3   -113.8601280  0.249986E-02  0.104E-01    0.45       1.0  T
   4   -113.8625375 -0.240952E-02  0.290E-02    0.44       1.0  T
   5   -113.8627097 -0.172129E-03  0.903E-03    0.45       1.1  T
   6   -113.8627231 -0.134527E-04  0.388E-03    0.44       2.7  T
   7   -113.8627237 -0.617341E-06  0.306E-03    0.44       3.4  T
   8   -113.8627253 -0.159133E-05  0.152E-03    0.44       6.8  T
   9   -113.8627257 -0.373507E-06  0.868E-04    0.44      11.9  T
  10   -113.8627258 -0.125483E-06  0.470E-04    0.44      22.0  T
     SCC iter.                  ...        0 min,  0.214 sec
     gradient                   ...        0 min,  0.022 sec
 * total energy  :  -112.1863217 Eh     change       -0.1447408E-03 Eh
   gradient norm :     0.0072436 Eh/α   predicted    -0.2308104E-03 (  59.46%)
   displ. norm   :     0.1812503 α      lambda       -0.2834236E-03
   maximum displ.:     0.0946786 α      in ANC's #10, #9, #8, ...

........................................................................
.............................. CYCLE   46 ..............................
........................................................................

 iter      E             dE          RMSdq      gap      omega  full diag
   1   -113.8627054 -0.113863E+03  0.746E-02    0.44       0.0  T
   2   -113.8626312  0.742581E-04  0.483E-02    0.44       1.0  T
   3   -113.8608266  0.180453E-02  0.936E-02    0.45       1.0  T
   4   -113.8626333 -0.180667E-02  0.179E-02    0.44       1.0  T
   5   -113.8627150 -0.816950E-04  0.475E-03    0.44       2.2  T
   6   -113.8627184 -0.343669E-05  0.215E-03    0.44       4.8  T
   7   -113.8627185 -0.593764E-07  0.167E-03    0.44       6.2  T
   8   -113.8627190 -0.460908E-06  0.769E-04    0.44      13.4  T
   9   -113.8627190 -0.793363E-07  0.477E-04    0.44      21.6  T
     SCC iter.                  ...        0 min,  0.211 sec
     gradient                   ...        0 min,  0.019 sec
 * total energy  :  -112.1865029 Eh     change       -0.1811818E-03 Eh
   gradient norm :     0.0066335 Eh/α   predicted    -0.1463677E-03 ( -19.22%)
   displ. norm   :     0.2167994 α      lambda       -0.2254989E-03
   maximum displ.:     0.1061031 α      in ANC's #10, #9, #8, ...

........................................................................
.............................. CYCLE   47 ..............................
........................................................................

 iter      E             dE          RMSdq      gap      omega  full diag
   1   -113.8617303 -0.113862E+03  0.490E-02    0.44       0.0  T
   2   -113.8617076  0.226660E-04  0.313E-02    0.44       1.0  T
   3   -113.8611458  0.561835E-03  0.541E-02    0.44       1.0  T
   4   -113.8616966 -0.550785E-03  0.124E-02    0.44       1.0  T
   5   -113.8617317 -0.351116E-04  0.448E-03    0.44       2.3  T
   6   -113.8617357 -0.394700E-05  0.214E-03    0.44       4.8  T
   7   -113.8617360 -0.344662E-06  0.142E-03    0.44       7.3  T
   8   -113.8617363 -0.345628E-06  0.641E-04    0.44      16.1  T
   9   -113.8617364 -0.763906E-07  0.305E-04    0.44      33.8  T
     SCC iter.                  ...        0 min,  0.214 sec
     gradient                   ...        0 min,  0.025 sec
 * total energy  :  -112.1866921 Eh     change       -0.1892138E-03 Eh
   gradient norm :     0.0045387 Eh/α   predicted    -0.1180498E-03 ( -37.61%)
   displ. norm   :     0.5228870 α      lambda       -0.4663937E-03
   maximum displ.:     0.2547671 α      in ANC's #10, #9, #6, ...

........................................................................
.............................. CYCLE   48 ..............................
........................................................................

 iter      E             dE          RMSdq      gap      omega  full diag
   1   -113.8591231 -0.113859E+03  0.109E-01    0.44       0.0  T
   2   -113.8590535  0.695635E-04  0.689E-02    0.44       1.0  T
   3   -113.8566730  0.238049E-02  0.109E-01    0.43       1.0  T
   4   -113.8590278 -0.235476E-02  0.216E-02    0.43       1.0  T
   5   -113.8591213 -0.934753E-04  0.969E-03    0.44       1.1  T
   6   -113.8591402 -0.189065E-04  0.465E-03    0.44       2.2  T
   7   -113.8591424 -0.222161E-05  0.299E-03    0.44       3.4  T
   8   -113.8591439 -0.156712E-05  0.124E-03    0.44       8.3  T
   9   -113.8591442 -0.285693E-06  0.548E-04    0.44      18.8  T
  10   -113.8591443 -0.278232E-07  0.352E-04    0.44      29.3  T
     SCC iter.                  ...        0 min,  0.239 sec
     gradient                   ...        0 min,  0.025 sec
 * total energy  :  -112.1870666 Eh     change       -0.3744893E-03 Eh
   gradient norm :     0.0051762 Eh/α   predicted    -0.2969604E-03 ( -20.70%)
   displ. norm   :     0.6605903 α      lambda       -0.4778659E-03
   maximum displ.:     0.3192985 α      in ANC's #10, #9, #6, ...

........................................................................
.............................. CYCLE   49 ..............................
........................................................................

 iter      E             dE          RMSdq      gap      omega  full diag
   1   -113.8560115 -0.113856E+03  0.134E-01    0.43       0.0  T
   2   -113.8559155  0.959900E-04  0.842E-02    0.44       1.0  T
   3   -113.8524016  0.351395E-02  0.130E-01    0.42       1.0  T
   4   -113.8558946 -0.349301E-02  0.244E-02    0.43       1.0  T
   5   -113.8560101 -0.115563E-03  0.112E-02    0.44       1.0  T
   6   -113.8560341 -0.239458E-04  0.550E-03    0.43       1.9  T
   7   -113.8560365 -0.242341E-05  0.386E-03    0.44       2.7  T
   8   -113.8560395 -0.301792E-05  0.138E-03    0.44       7.5  T
   9   -113.8560399 -0.332769E-06  0.669E-04    0.44      15.4  T
  10   -113.8560399 -0.993205E-08  0.550E-04    0.44      18.8  T
     SCC iter.                  ...        0 min,  0.223 sec
     gradient                   ...        0 min,  0.030 sec
 * total energy  :  -112.1874706 Eh     change       -0.4039848E-03 Eh
   gradient norm :     0.0079522 Eh/α   predicted    -0.3431995E-03 ( -15.05%)
   displ. norm   :     0.6748792 α      lambda       -0.4997120E-03
   maximum displ.:     0.3259793 α      in ANC's #10, #9, #6, ...

........................................................................
.............................. CYCLE   50 ..............................
........................................................................

 iter      E             dE          RMSdq      gap      omega  full diag
   1   -113.8546512 -0.113855E+03  0.141E-01    0.43       0.0  T
   2   -113.8545655  0.856929E-04  0.880E-02    0.44       1.0  T
   3   -113.8509256  0.363993E-02  0.128E-01    0.41       1.0  T
   4   -113.8545917 -0.366608E-02  0.191E-02    0.44       1.0  T
   5   -113.8546529 -0.612737E-04  0.997E-03    0.44       1.0  T
   6   -113.8546690 -0.160807E-04  0.579E-03    0.43       1.8  T
   7   -113.8546737 -0.462378E-05  0.352E-03    0.44       2.9  T
   8   -113.8546760 -0.236971E-05  0.138E-03    0.43       7.5  T
   9   -113.8546763 -0.280644E-06  0.738E-04    0.44      14.0  T
  10   -113.8546763 -0.301203E-07  0.614E-04    0.43      16.8  T
     SCC iter.                  ...        0 min,  0.205 sec
     gradient                   ...        0 min,  0.019 sec
 * total energy  :  -112.1879073 Eh     change       -0.4366561E-03 Eh
   gradient norm :     0.0081433 Eh/α   predicted    -0.3636578E-03 ( -16.72%)
   displ. norm   :     0.6725611 α      lambda       -0.5806811E-03
   maximum displ.:     0.3223310 α      in ANC's #9, #10, #6, ...

........................................................................
.............................. CYCLE   51 ..............................
........................................................................

 iter      E             dE          RMSdq      gap      omega  full diag
   1   -113.8577094 -0.113858E+03  0.145E-01    0.43       0.0  T
   2   -113.8576309  0.785599E-04  0.898E-02    0.44       1.0  T
   3   -113.8534191  0.421182E-02  0.128E-01    0.41       1.0  T
   4   -113.8576561 -0.423705E-02  0.180E-02    0.44       1.0  T
   5   -113.8577149 -0.588208E-04  0.853E-03    0.44       1.2  T
   6   -113.8577237 -0.872107E-05  0.546E-03    0.43       1.9  T
   7   -113.8577284 -0.474840E-05  0.286E-03    0.44       3.6  T
   8   -113.8577297 -0.132849E-05  0.160E-03    0.43       6.4  T
   9   -113.8577301 -0.327607E-06  0.980E-04    0.44      10.5  T
  10   -113.8577302 -0.178957E-06  0.483E-04    0.44      21.3  T
     SCC iter.                  ...        0 min,  0.178 sec
     gradient                   ...        0 min,  0.018 sec
 * total energy  :  -112.1883897 Eh     change       -0.4824525E-03 Eh
   gradient norm :     0.0052920 Eh/α   predicted    -0.4216729E-03 ( -12.60%)
   displ. norm   :     0.7158261 α      lambda       -0.5297825E-03
   maximum displ.:     0.3517192 α      in ANC's #9, #10, #6, ...

........................................................................
.............................. CYCLE   52 ..............................
........................................................................

 iter      E             dE          RMSdq      gap      omega  full diag
   1   -113.8592828 -0.113859E+03  0.145E-01    0.43       0.0  T
   2   -113.8591859  0.969592E-04  0.902E-02    0.44       1.0  T
   3   -113.8545764  0.460953E-02  0.136E-01    0.41       1.0  T
   4   -113.8592223 -0.464596E-02  0.189E-02    0.44       1.0  T
   5   -113.8592890 -0.667293E-04  0.917E-03    0.44       1.1  T
   6   -113.8592992 -0.101767E-04  0.613E-03    0.43       1.7  T
   7   -113.8593059 -0.672941E-05  0.281E-03    0.44       3.7  T
   8   -113.8593071 -0.118125E-05  0.164E-03    0.44       6.3  T
   9   -113.8593074 -0.314617E-06  0.106E-03    0.44       9.8  T
  10   -113.8593077 -0.215573E-06  0.484E-04    0.44      21.3  T
  11   -113.8593077 -0.330859E-07  0.208E-04    0.44      49.5  T
     SCC iter.                  ...        0 min,  0.257 sec
     gradient                   ...        0 min,  0.023 sec
 * total energy  :  -112.1888341 Eh     change       -0.4443498E-03 Eh
   gradient norm :     0.0046751 Eh/α   predicted    -0.4006248E-03 (  -9.84%)
   displ. norm   :     0.6928909 α      lambda       -0.4664688E-03
   maximum displ.:     0.3490959 α      in ANC's #9, #10, #6, ...

........................................................................
.............................. CYCLE   53 ..............................
........................................................................

 iter      E             dE          RMSdq      gap      omega  full diag
   1   -113.8614238 -0.113861E+03  0.144E-01    0.43       0.0  T
   2   -113.8613510  0.727656E-04  0.885E-02    0.44       1.0  T
   3   -113.8572106  0.414038E-02  0.124E-01    0.41       1.0  T
   4   -113.8613774 -0.416684E-02  0.175E-02    0.44       1.0  T
   5   -113.8614315 -0.540243E-04  0.791E-03    0.44       1.3  T
   6   -113.8614339 -0.246773E-05  0.636E-03    0.43       1.6  T
   7   -113.8614419 -0.800426E-05  0.238E-03    0.44       4.3  T
   8   -113.8614427 -0.786776E-06  0.142E-03    0.44       7.3  T
   9   -113.8614430 -0.234012E-06  0.919E-04    0.44      11.2  T
  10   -113.8614431 -0.160753E-06  0.427E-04    0.44      24.2  T
     SCC iter.                  ...        0 min,  0.342 sec
     gradient                   ...        0 min,  0.021 sec
 * total energy  :  -112.1892228 Eh     change       -0.3887099E-03 Eh
   gradient norm :     0.0052368 Eh/α   predicted    -0.3452120E-03 ( -11.19%)
   displ. norm   :     0.6588008 α      lambda       -0.4145469E-03
   maximum displ.:     0.3382023 α      in ANC's #9, #6, #10, ...

........................................................................
.............................. CYCLE   54 ..............................
........................................................................

 iter      E             dE          RMSdq      gap      omega  full diag
   1   -113.8642444 -0.113864E+03  0.132E-01    0.43       0.0  T
   2   -113.8641940  0.503519E-04  0.812E-02    0.44       1.0  T
   3   -113.8613607  0.283336E-02  0.102E-01    0.41       1.0  T
   4   -113.8641690 -0.280837E-02  0.201E-02    0.44       1.0  T
   5   -113.8642512 -0.822013E-04  0.783E-03    0.43       1.3  T
   6   -113.8642526 -0.133007E-05  0.676E-03    0.43       1.5  T
   7   -113.8642605 -0.796938E-05  0.262E-03    0.43       3.9  T
   8   -113.8642615 -0.946166E-06  0.133E-03    0.43       7.8  T
   9   -113.8642617 -0.221346E-06  0.786E-04    0.43      13.1  T
  10   -113.8642618 -0.101581E-06  0.472E-04    0.43      21.8  T
     SCC iter.                  ...        0 min,  0.247 sec
     gradient                   ...        0 min,  0.035 sec
 * total energy  :  -112.1895668 Eh     change       -0.3440499E-03 Eh
   gradient norm :     0.0055354 Eh/α   predicted    -0.2972379E-03 ( -13.61%)
   displ. norm   :     0.6609829 α      lambda       -0.3999680E-03
   maximum displ.:     0.3384265 α      in ANC's #9, #6, #10, ...

........................................................................
.............................. CYCLE   55 ..............................
........................................................................

 iter      E             dE          RMSdq      gap      omega  full diag
   1   -113.8632948 -0.113863E+03  0.133E-01    0.43       0.0  T
   2   -113.8632564  0.383901E-04  0.806E-02    0.44       1.0  T
   3   -113.8612739  0.198246E-02  0.899E-02    0.40       1.0  T
   4   -113.8631985 -0.192457E-02  0.214E-02    0.44       1.0  T
   5   -113.8632947 -0.962148E-04  0.972E-03    0.43       1.1  T
   6   -113.8633034 -0.869454E-05  0.731E-03    0.43       1.4  T
   7   -113.8633116 -0.820157E-05  0.333E-03    0.43       3.1  T
   8   -113.8633133 -0.175882E-05  0.154E-03    0.43       6.7  T
   9   -113.8633137 -0.399117E-06  0.748E-04    0.43      13.8  T
  10   -113.8633138 -0.723323E-07  0.496E-04    0.43      20.8  T
     SCC iter.                  ...        0 min,  0.222 sec
     gradient                   ...        0 min,  0.024 sec
 * total energy  :  -112.1898983 Eh     change       -0.3315030E-03 Eh
   gradient norm :     0.0048144 Eh/α   predicted    -0.2873597E-03 ( -13.32%)
   displ. norm   :     0.6131155 α      lambda       -0.4602820E-03
   maximum displ.:     0.3019521 α      in ANC's #9, #6, #8, ...

........................................................................
.............................. CYCLE   56 ..............................
........................................................................

 iter      E             dE          RMSdq      gap      omega  full diag
   1   -113.8710892 -0.113871E+03  0.160E-01    0.43       0.0  T
   2   -113.8709811  0.108073E-03  0.100E-01    0.43       1.0  T
   3   -113.8671221  0.385903E-02  0.135E-01    0.40       1.0  T
   4   -113.8708119 -0.368981E-02  0.349E-02    0.44       1.0  T
   5   -113.8710970 -0.285085E-03  0.129E-02    0.43       1.0  T
   6   -113.8711261 -0.291347E-04  0.715E-03    0.43       1.4  T
   7   -113.8711327 -0.652672E-05  0.341E-03    0.43       3.0  T
   8   -113.8711341 -0.146464E-05  0.185E-03    0.43       5.6  T
   9   -113.8711348 -0.640913E-06  0.871E-04    0.43      11.8  T
  10   -113.8711349 -0.125303E-06  0.471E-04    0.43      21.9  T
     SCC iter.                  ...        0 min,  0.224 sec
     gradient                   ...        0 min,  0.019 sec
 * total energy  :  -112.1901973 Eh     change       -0.2989928E-03 Eh
   gradient norm :     0.0073302 Eh/α   predicted    -0.3166542E-03 (   5.91%)
   displ. norm   :     0.6484745 α      lambda       -0.4539204E-03
   maximum displ.:     0.3228450 α      in ANC's #9, #6, #10, ...

........................................................................
.............................. CYCLE   57 ..............................
........................................................................

 iter      E             dE          RMSdq      gap      omega  full diag
   1   -113.8617727 -0.113862E+03  0.152E-01    0.42       0.0  T
   2   -113.8617136  0.590729E-04  0.930E-02    0.43       1.0  T
   3   -113.8588532  0.286039E-02  0.112E-01    0.40       1.0  T
   4   -113.8616367 -0.278347E-02  0.259E-02    0.43       1.0  T
   5   -113.8617770 -0.140275E-03  0.109E-02    0.42       1.0  T
   6   -113.8617879 -0.108865E-04  0.849E-03    0.42       1.2  T
   7   -113.8617996 -0.117293E-04  0.403E-03    0.43       2.6  T
   8   -113.8618021 -0.248301E-05  0.192E-03    0.42       5.4  T
   9   -113.8618027 -0.621346E-06  0.878E-04    0.42      11.7  T
  10   -113.8618028 -0.876880E-07  0.564E-04    0.42      18.3  T
     SCC iter.                  ...        0 min,  0.230 sec
     gradient                   ...        0 min,  0.026 sec
 * total energy  :  -112.1905013 Eh     change       -0.3039820E-03 Eh
   gradient norm :     0.0074434 Eh/α   predicted    -0.3224053E-03 (   6.06%)
   displ. norm   :     0.4568664 α      lambda       -0.3165623E-03
   maximum displ.:     0.2120231 α      in ANC's #6, #9, #8, ...

........................................................................
.............................. CYCLE   58 ..............................
........................................................................

 iter      E             dE          RMSdq      gap      omega  full diag
   1   -113.8598807 -0.113860E+03  0.131E-01    0.42       0.0  T
   2   -113.8598142  0.665749E-04  0.814E-02    0.43       1.0  T
   3   -113.8571296  0.268456E-02  0.108E-01    0.39       1.0  T
   4   -113.8597573 -0.262769E-02  0.238E-02    0.43       1.0  T
   5   -113.8598903 -0.132971E-03  0.867E-03    0.42       1.2  T
   6   -113.8598986 -0.832373E-05  0.617E-03    0.42       1.7  T
   7   -113.8599033 -0.472527E-05  0.350E-03    0.42       2.9  T
   8   -113.8599057 -0.232450E-05  0.110E-03    0.42       9.4  T
   9   -113.8599058 -0.146886E-06  0.642E-04    0.42      16.1  T
  10   -113.8599058 -0.358371E-07  0.454E-04    0.42      22.7  T
     SCC iter.                  ...        0 min,  0.284 sec
     gradient                   ...        0 min,  0.021 sec
 * total energy  :  -112.1907614 Eh     change       -0.2600446E-03 Eh
   gradient norm :     0.0072253 Eh/α   predicted    -0.1913206E-03 ( -26.43%)
   displ. norm   :     0.5056058 α      lambda       -0.4661554E-03
   maximum displ.:     0.2269111 α      in ANC's #6, #9, #12, ...

........................................................................
.............................. CYCLE   59 ..............................
........................................................................

 iter      E             dE          RMSdq      gap      omega  full diag
   1   -113.8612409 -0.113861E+03  0.195E-01    0.41       0.0  T
   2   -113.8610989  0.141969E-03  0.123E-01    0.42       1.0  T
   3   -113.8555658  0.553319E-02  0.169E-01    0.38       1.0  T
   4   -113.8610725 -0.550674E-02  0.318E-02    0.42       1.0  T
   5   -113.8612763 -0.203800E-03  0.952E-03    0.42       1.1  T
   6   -113.8612829 -0.657281E-05  0.710E-03    0.42       1.5  T
   7   -113.8612882 -0.535794E-05  0.425E-03    0.42       2.4  T
   8   -113.8612921 -0.384046E-05  0.147E-03    0.42       7.0  T
   9   -113.8612924 -0.356206E-06  0.824E-04    0.42      12.5  T
  10   -113.8612925 -0.676650E-07  0.548E-04    0.42      18.8  T
     SCC iter.                  ...        0 min,  0.923 sec
     gradient                   ...        0 min,  0.022 sec
 * total energy  :  -112.1911080 Eh     change       -0.3466456E-03 Eh
   gradient norm :     0.0060936 Eh/α   predicted    -0.2926630E-03 ( -15.57%)
   displ. norm   :     0.6121543 α      lambda       -0.3626471E-03
   maximum displ.:     0.2876622 α      in ANC's #6, #9, #8, ...

........................................................................
.............................. CYCLE   60 ..............................
........................................................................

 iter      E             dE          RMSdq      gap      omega  full diag
   1   -113.8582297 -0.113858E+03  0.196E-01    0.41       0.0  T
   2   -113.8580776  0.152102E-03  0.123E-01    0.42       1.0  T
   3   -113.8524468  0.563076E-02  0.174E-01    0.38       1.0  T
   4   -113.8580902 -0.564339E-02  0.309E-02    0.42       1.0  T
   5   -113.8582687 -0.178461E-03  0.960E-03    0.41       1.1  T
   6   -113.8582682  0.475369E-06  0.857E-03    0.41       1.2  T
   7   -113.8582788 -0.106484E-04  0.433E-03    0.41       2.4  T
   8   -113.8582830 -0.412247E-05  0.186E-03    0.41       5.5  T
   9   -113.8582836 -0.679862E-06  0.940E-04    0.41      11.0  T
  10   -113.8582838 -0.132195E-06  0.494E-04    0.41      20.9  T
     SCC iter.                  ...        0 min,  0.227 sec
     gradient                   ...        0 min,  0.025 sec
 * total energy  :  -112.1913999 Eh     change       -0.2918887E-03 Eh
   gradient norm :     0.0068902 Eh/α   predicted    -0.2492778E-03 ( -14.60%)
   displ. norm   :     0.5480051 α      lambda       -0.4263909E-03
   maximum displ.:     0.2523725 α      in ANC's #6, #12, #9, ...

........................................................................
.............................. CYCLE   61 ..............................
........................................................................

 iter      E             dE          RMSdq      gap      omega  full diag
   1   -113.8623149 -0.113862E+03  0.209E-01    0.41       0.0  T
   2   -113.8621006  0.214358E-03  0.133E-01    0.41       1.0  T
   3   -113.8548510  0.724957E-02  0.204E-01    0.38       1.0  T
   4   -113.8620185 -0.716753E-02  0.404E-02    0.41       1.0  T
   5   -113.8623523 -0.333802E-03  0.117E-02    0.41       1.0  T
   6   -113.8623658 -0.135155E-04  0.879E-03    0.41       1.2  T
   7   -113.8623791 -0.132101E-04  0.481E-03    0.41       2.1  T
   8   -113.8623835 -0.445807E-05  0.201E-03    0.41       5.1  T
   9   -113.8623840 -0.526182E-06  0.125E-03    0.41       8.3  T
  10   -113.8623843 -0.271866E-06  0.629E-04    0.41      16.4  T
  11   -113.8623843 -0.327928E-07  0.414E-04    0.41      24.9  T
     SCC iter.                  ...        0 min,  0.283 sec
     gradient                   ...        0 min,  0.028 sec
 * total energy  :  -112.1917080 Eh     change       -0.3081500E-03 Eh
   gradient norm :     0.0073920 Eh/α   predicted    -0.2772239E-03 ( -10.04%)
   displ. norm   :     0.6177416 α      lambda       -0.3963830E-03
   maximum displ.:     0.2995836 α      in ANC's #6, #9, #8, ...

........................................................................
.............................. CYCLE   62 ..............................
........................................................................

 iter      E             dE          RMSdq      gap      omega  full diag
   1   -113.8596191 -0.113860E+03  0.181E-01    0.40       0.0  T
   2   -113.8594848  0.134367E-03  0.113E-01    0.41       1.0  T
   3   -113.8545484  0.493635E-02  0.168E-01    0.38       1.0  T
   4   -113.8594513 -0.490293E-02  0.322E-02    0.41       1.0  T
   5   -113.8596433 -0.191991E-03  0.108E-02    0.41       1.0  T
   6   -113.8596432  0.118301E-06  0.974E-03    0.40       1.1  T
   7   -113.8596634 -0.201453E-04  0.445E-03    0.41       2.3  T
   8   -113.8596672 -0.380142E-05  0.215E-03    0.40       4.8  T
   9   -113.8596680 -0.831196E-06  0.107E-03    0.41       9.6  T
  10   -113.8596682 -0.176512E-06  0.632E-04    0.40      16.3  T
  11   -113.8596682 -0.303096E-07  0.420E-04    0.40      24.6  T
     SCC iter.                  ...        0 min,  0.200 sec
     gradient                   ...        0 min,  0.025 sec
 * total energy  :  -112.1920047 Eh     change       -0.2966146E-03 Eh
   gradient norm :     0.0075995 Eh/α   predicted    -0.2738240E-03 (  -7.68%)
   displ. norm   :     0.5006307 α      lambda       -0.3997084E-03
   maximum displ.:     0.2457601 α      in ANC's #6, #9, #5, ...

........................................................................
.............................. CYCLE   63 ..............................
........................................................................

 iter      E             dE          RMSdq      gap      omega  full diag
   1   -113.8645496 -0.113865E+03  0.166E-01    0.40       0.0  T
   2   -113.8644778  0.718049E-04  0.104E-01    0.40       1.0  T
   3   -113.8613813  0.309654E-02  0.132E-01    0.39       1.0  T
   4   -113.8643327 -0.295143E-02  0.343E-02    0.40       1.0  T
   5   -113.8645682 -0.235456E-03  0.924E-03    0.40       1.1  T
   6   -113.8645723 -0.410165E-05  0.784E-03    0.40       1.3  T
   7   -113.8645842 -0.118980E-04  0.361E-03    0.40       2.9  T
   8   -113.8645864 -0.224083E-05  0.175E-03    0.40       5.9  T
   9   -113.8645870 -0.542452E-06  0.961E-04    0.40      10.7  T
  10   -113.8645871 -0.160113E-06  0.573E-04    0.40      18.0  T
     SCC iter.                  ...        0 min,  0.207 sec
     gradient                   ...        0 min,  0.019 sec
 * total energy  :  -112.1922880 Eh     change       -0.2833482E-03 Eh
   gradient norm :     0.0071232 Eh/α   predicted    -0.2499479E-03 ( -11.79%)
   displ. norm   :     0.6160375 α      lambda       -0.3282980E-03
   maximum displ.:     0.3116586 α      in ANC's #6, #9, #8, ...

........................................................................
.............................. CYCLE   64 ..............................
........................................................................

 iter      E             dE          RMSdq      gap      omega  full diag
   1   -113.8603146 -0.113860E+03  0.180E-01    0.39       0.0  T
   2   -113.8602302  0.844096E-04  0.112E-01    0.40       1.0  T
   3   -113.8566672  0.356301E-02  0.135E-01    0.37       1.0  T
   4   -113.8601901 -0.352293E-02  0.283E-02    0.40       1.0  T
   5   -113.8603376 -0.147545E-03  0.101E-02    0.39       1.0  T
   6   -113.8603421 -0.450720E-05  0.832E-03    0.40       1.2  T
   7   -113.8603542 -0.120234E-04  0.349E-03    0.39       3.0  T
   8   -113.8603557 -0.150725E-05  0.205E-03    0.39       5.0  T
   9   -113.8603564 -0.728476E-06  0.992E-04    0.39      10.4  T
  10   -113.8603566 -0.171949E-06  0.510E-04    0.39      20.2  T
     SCC iter.                  ...        0 min,  0.548 sec
     gradient                   ...        0 min,  0.032 sec
 * total energy  :  -112.1924942 Eh     change       -0.2062146E-03 Eh
   gradient norm :     0.0077495 Eh/α   predicted    -0.2264487E-03 (   9.81%)
   displ. norm   :     0.3587794 α      lambda       -0.3236643E-03
   maximum displ.:     0.1814142 α      in ANC's #6, #14, #9, ...

........................................................................
.............................. CYCLE   65 ..............................
........................................................................

 iter      E             dE          RMSdq      gap      omega  full diag
   1   -113.8687701 -0.113869E+03  0.122E-01    0.39       0.0  T
   2   -113.8687177  0.523144E-04  0.768E-02    0.39       1.0  T
   3   -113.8668549  0.186281E-02  0.936E-02    0.38       1.0  T
   4   -113.8686570 -0.180205E-02  0.232E-02    0.39       1.0  T
   5   -113.8687820 -0.125010E-03  0.794E-03    0.39       1.3  T
   6   -113.8687910 -0.901098E-05  0.562E-03    0.39       1.8  T
   7   -113.8687955 -0.454703E-05  0.261E-03    0.39       4.0  T
   8   -113.8687964 -0.811247E-06  0.128E-03    0.39       8.1  T
   9   -113.8687965 -0.154585E-06  0.860E-04    0.39      12.0  T
  10   -113.8687966 -0.115249E-06  0.367E-04    0.39      28.1  T
     SCC iter.                  ...        0 min,  0.685 sec
     gradient                   ...        0 min,  0.023 sec
 * total energy  :  -112.1926391 Eh     change       -0.1448494E-03 Eh
   gradient norm :     0.0082503 Eh/α   predicted    -0.1826696E-03 (  26.11%)
   displ. norm   :     0.5313255 α      lambda       -0.3309724E-03
   maximum displ.:     0.2757189 α      in ANC's #6, #9, #8, ...

........................................................................
.............................. CYCLE   66 ..............................
........................................................................

 iter      E             dE          RMSdq      gap      omega  full diag
   1   -113.8615619 -0.113862E+03  0.154E-01    0.38       0.0  T
   2   -113.8614140  0.147895E-03  0.981E-02    0.39       1.0  T
   3   -113.8558222  0.559182E-02  0.148E-01    0.36       1.0  T
   4   -113.8613407 -0.551851E-02  0.318E-02    0.39       1.0  T
   5   -113.8615841 -0.243418E-03  0.106E-02    0.38       1.0  T
   6   -113.8615969 -0.127723E-04  0.731E-03    0.39       1.4  T
   7   -113.8616024 -0.551340E-05  0.444E-03    0.39       2.3  T
   8   -113.8616055 -0.310872E-05  0.153E-03    0.39       6.8  T
   9   -113.8616057 -0.208527E-06  0.112E-03    0.39       9.2  T
  10   -113.8616060 -0.213354E-06  0.529E-04    0.39      19.5  T
  11   -113.8616060 -0.287822E-07  0.339E-04    0.39      30.4  T
     SCC iter.                  ...        0 min,  0.736 sec
     gradient                   ...        0 min,  0.019 sec
 * total energy  :  -112.1928179 Eh     change       -0.1788428E-03 Eh
   gradient norm :     0.0073325 Eh/α   predicted    -0.2122044E-03 (  18.65%)
   displ. norm   :     0.2920213 α      lambda       -0.1876653E-03
   maximum displ.:     0.1618773 α      in ANC's #6, #9, #10, ...
 * RMSD in coord.:     1.1202296 α      energy gain  -0.7287087E-02 Eh

generating ANC from exact Hessian ...
Using Lindh-Hessian (1995)
 Shifting diagonal of input Hessian by   1.024713127528779E-002
 Lowest  eigenvalues of input Hessian
    0.010000    0.010035    0.010050    0.010083    0.000000    0.000000
    0.000000    0.000000    0.000000    0.000000    0.010270    0.010317
    0.010341    0.010497    0.010588    0.010715    0.010778    0.010893
 Highest eigenvalues
    1.930535    1.965599    2.024990    2.054914    2.124123    2.200651
 

........................................................................
.............................. CYCLE   67 ..............................
........................................................................

 iter      E             dE          RMSdq      gap      omega  full diag
   1   -113.8613817 -0.113861E+03  0.748E-02    0.38       0.0  T
   2   -113.8612991  0.826170E-04  0.493E-02    0.39       1.0  T
   3   -113.8595895  0.170960E-02  0.835E-02    0.36       1.0  T
   4   -113.8613184 -0.172893E-02  0.179E-02    0.39       1.0  T
   5   -113.8613939 -0.754806E-04  0.603E-03    0.38       1.7  T
   6   -113.8613985 -0.466085E-05  0.382E-03    0.38       2.7  T
   7   -113.8613996 -0.109015E-05  0.253E-03    0.38       4.1  T
   8   -113.8614007 -0.112233E-05  0.890E-04    0.38      11.6  T
   9   -113.8614008 -0.817326E-07  0.635E-04    0.38      16.3  T
  10   -113.8614009 -0.598033E-07  0.321E-04    0.38      32.2  T
     SCC iter.                  ...        0 min,  0.224 sec
     gradient                   ...        0 min,  0.025 sec
 * total energy  :  -112.1929560 Eh     change       -0.1381070E-03 Eh
   gradient norm :     0.0055251 Eh/α   predicted     0.0000000E+00 (-100.00%)
   displ. norm   :     0.0649525 α      lambda       -0.1231589E-03
   maximum displ.:     0.0262405 α      in ANC's #5, #6, #9, ...

........................................................................
.............................. CYCLE   68 ..............................
........................................................................

 iter      E             dE          RMSdq      gap      omega  full diag
   1   -113.8649171 -0.113865E+03  0.441E-02    0.38       0.0  T
   2   -113.8649106  0.659239E-05  0.274E-02    0.39       1.0  T
   3   -113.8645668  0.343724E-03  0.377E-02    0.37       1.0  T
   4   -113.8648961 -0.329298E-03  0.966E-03    0.39       1.1  T
   5   -113.8649188 -0.226312E-04  0.246E-03    0.38       4.2  T
   6   -113.8649195 -0.731694E-06  0.149E-03    0.38       6.9  T
   7   -113.8649196 -0.133431E-06  0.994E-04    0.38      10.4  T
   8   -113.8649198 -0.141417E-06  0.513E-04    0.38      20.1  T
     SCC iter.                  ...        0 min,  0.147 sec
     gradient                   ...        0 min,  0.020 sec
 * total energy  :  -112.1930388 Eh     change       -0.8275476E-04 Eh
   gradient norm :     0.0028773 Eh/α   predicted    -0.6217882E-04 ( -24.86%)
   displ. norm   :     0.1441535 α      lambda       -0.1523806E-03
   maximum displ.:     0.0577064 α      in ANC's #5, #9, #6, ...

........................................................................
.............................. CYCLE   69 ..............................
........................................................................

 iter      E             dE          RMSdq      gap      omega  full diag
   1   -113.8698589 -0.113870E+03  0.707E-02    0.39       0.0  T
   2   -113.8698385  0.204274E-04  0.453E-02    0.39       1.0  T
   3   -113.8690966  0.741919E-03  0.646E-02    0.38       1.0  T
   4   -113.8698449 -0.748318E-03  0.105E-02    0.39       1.0  T
   5   -113.8698626 -0.177265E-04  0.417E-03    0.39       2.5  T
   6   -113.8698647 -0.206923E-05  0.285E-03    0.39       3.6  T
   7   -113.8698660 -0.125374E-05  0.184E-03    0.39       5.6  T
   8   -113.8698666 -0.590983E-06  0.786E-04    0.39      13.1  T
   9   -113.8698666 -0.941619E-07  0.441E-04    0.39      23.4  T
     SCC iter.                  ...        0 min,  0.708 sec
     gradient                   ...        0 min,  0.022 sec
 * total energy  :  -112.1931007 Eh     change       -0.6188290E-04 Eh
   gradient norm :     0.0039242 Eh/α   predicted    -0.7777409E-04 (  25.68%)
   displ. norm   :     0.1554091 α      lambda       -0.1436554E-03
   maximum displ.:     0.0698027 α      in ANC's #5, #6, #9, ...

........................................................................
.............................. CYCLE   70 ..............................
........................................................................

 iter      E             dE          RMSdq      gap      omega  full diag
   1   -113.8710049 -0.113871E+03  0.693E-02    0.39       0.0  T
   2   -113.8709778  0.270454E-04  0.438E-02    0.39       1.0  T
   3   -113.8698027  0.117509E-02  0.694E-02    0.38       1.0  T
   4   -113.8709533 -0.115054E-02  0.151E-02    0.39       1.0  T
   5   -113.8710097 -0.564167E-04  0.367E-03    0.39       2.8  T
   6   -113.8710108 -0.116718E-05  0.270E-03    0.39       3.8  T
   7   -113.8710115 -0.686020E-06  0.163E-03    0.39       6.3  T
   8   -113.8710121 -0.545060E-06  0.695E-04    0.39      14.8  T
   9   -113.8710122 -0.794087E-07  0.394E-04    0.39      26.2  T
     SCC iter.                  ...        0 min,  0.229 sec
     gradient                   ...        0 min,  0.019 sec
 * total energy  :  -112.1931709 Eh     change       -0.7028797E-04 Eh
   gradient norm :     0.0053973 Eh/α   predicted    -0.7356252E-04 (   4.66%)
   displ. norm   :     0.1315797 α      lambda       -0.1101548E-03
   maximum displ.:     0.0573238 α      in ANC's #5, #9, #6, ...

........................................................................
.............................. CYCLE   71 ..............................
........................................................................

 iter      E             dE          RMSdq      gap      omega  full diag
   1   -113.8679497 -0.113868E+03  0.489E-02    0.39       0.0  T
   2   -113.8679403  0.945184E-05  0.305E-02    0.39       1.0  T
   3   -113.8675329  0.407334E-03  0.424E-02    0.38       1.0  T
   4   -113.8679315 -0.398597E-03  0.901E-03    0.39       1.1  T
   5   -113.8679512 -0.196271E-04  0.294E-03    0.39       3.5  T
   6   -113.8679524 -0.129397E-05  0.186E-03    0.39       5.5  T
   7   -113.8679527 -0.296958E-06  0.119E-03    0.39       8.7  T
   8   -113.8679530 -0.236571E-06  0.389E-04    0.39      26.5  T
   9   -113.8679530 -0.159805E-07  0.257E-04    0.39      40.2  T
     SCC iter.                  ...        0 min,  0.179 sec
     gradient                   ...        0 min,  0.216 sec
 * total energy  :  -112.1932613 Eh     change       -0.9032665E-04 Eh
   gradient norm :     0.0036708 Eh/α   predicted    -0.5603552E-04 ( -37.96%)
   displ. norm   :     0.3636435 α      lambda       -0.2176719E-03
   maximum displ.:     0.1595416 α      in ANC's #5, #9, #6, ...

........................................................................
.............................. CYCLE   72 ..............................
........................................................................

 iter      E             dE          RMSdq      gap      omega  full diag
   1   -113.8619480 -0.113862E+03  0.117E-01    0.39       0.0  T
   2   -113.8619010  0.469647E-04  0.734E-02    0.39       1.0  T
   3   -113.8598427  0.205833E-02  0.993E-02    0.37       1.0  T
   4   -113.8618810 -0.203831E-02  0.185E-02    0.40       1.0  T
   5   -113.8619520 -0.709811E-04  0.742E-03    0.39       1.4  T
   6   -113.8619606 -0.857849E-05  0.486E-03    0.39       2.1  T
   7   -113.8619632 -0.262666E-05  0.298E-03    0.39       3.5  T
   8   -113.8619647 -0.150617E-05  0.964E-04    0.39      10.7  T
   9   -113.8619648 -0.105552E-06  0.618E-04    0.39      16.7  T
  10   -113.8619649 -0.637442E-07  0.295E-04    0.39      34.9  T
     SCC iter.                  ...        0 min,  0.485 sec
     gradient                   ...        0 min,  0.019 sec
 * total energy  :  -112.1934087 Eh     change       -0.1473959E-03 Eh
   gradient norm :     0.0037191 Eh/α   predicted    -0.1232282E-03 ( -16.40%)
   displ. norm   :     0.3478375 α      lambda       -0.1346595E-03
   maximum displ.:     0.1558695 α      in ANC's #5, #9, #6, ...

........................................................................
.............................. CYCLE   73 ..............................
........................................................................

 iter      E             dE          RMSdq      gap      omega  full diag
   1   -113.8600244 -0.113860E+03  0.103E-01    0.39       0.0  T
   2   -113.8599850  0.394217E-04  0.648E-02    0.40       1.0  T
   3   -113.8582550  0.173006E-02  0.889E-02    0.37       1.0  T
   4   -113.8599799 -0.172497E-02  0.154E-02    0.40       1.0  T
   5   -113.8600288 -0.488671E-04  0.618E-03    0.39       1.7  T
   6   -113.8600335 -0.465559E-05  0.456E-03    0.39       2.3  T
   7   -113.8600361 -0.260493E-05  0.270E-03    0.39       3.8  T
   8   -113.8600374 -0.134860E-05  0.786E-04    0.39      13.1  T
   9   -113.8600375 -0.726602E-07  0.516E-04    0.39      20.0  T
  10   -113.8600375 -0.417846E-07  0.238E-04    0.39      43.2  T
     SCC iter.                  ...        0 min,  0.289 sec
     gradient                   ...        0 min,  0.067 sec
 * total energy  :  -112.1935087 Eh     change       -0.1000246E-03 Eh
   gradient norm :     0.0046278 Eh/α   predicted    -0.7547751E-04 ( -24.54%)
   displ. norm   :     0.3706884 α      lambda       -0.1523105E-03
   maximum displ.:     0.1699588 α      in ANC's #5, #9, #6, ...

........................................................................
.............................. CYCLE   74 ..............................
........................................................................

 iter      E             dE          RMSdq      gap      omega  full diag
   1   -113.8604827 -0.113860E+03  0.100E-01    0.39       0.0  T
   2   -113.8604555  0.271814E-04  0.624E-02    0.40       1.0  T
   3   -113.8591373  0.131818E-02  0.803E-02    0.37       1.0  T
   4   -113.8604486 -0.131131E-02  0.139E-02    0.40       1.0  T
   5   -113.8604848 -0.362063E-04  0.595E-03    0.39       1.7  T
   6   -113.8604888 -0.393512E-05  0.450E-03    0.39       2.3  T
   7   -113.8604914 -0.263895E-05  0.262E-03    0.39       3.9  T
   8   -113.8604927 -0.129274E-05  0.779E-04    0.39      13.2  T
   9   -113.8604928 -0.802479E-07  0.457E-04    0.39      22.6  T
  10   -113.8604928 -0.258706E-07  0.261E-04    0.39      39.6  T
     SCC iter.                  ...        0 min,  1.633 sec
     gradient                   ...        0 min,  0.177 sec
 * total energy  :  -112.1936380 Eh     change       -0.1292890E-03 Eh
   gradient norm :     0.0043054 Eh/α   predicted    -0.8662186E-04 ( -33.00%)
   displ. norm   :     0.4536932 α      lambda       -0.2229601E-03
   maximum displ.:     0.2100127 α      in ANC's #5, #9, #6, ...

........................................................................
.............................. CYCLE   75 ..............................
........................................................................

 iter      E             dE          RMSdq      gap      omega  full diag
   1   -113.8644615 -0.113864E+03  0.110E-01    0.39       0.0  T
   2   -113.8644329  0.286302E-04  0.686E-02    0.40       1.0  T
   3   -113.8630341  0.139873E-02  0.830E-02    0.37       1.0  T
   4   -113.8644205 -0.138640E-02  0.158E-02    0.40       1.0  T
   5   -113.8644668 -0.462264E-04  0.603E-03    0.39       1.7  T
   6   -113.8644691 -0.231550E-05  0.489E-03    0.39       2.1  T
   7   -113.8644723 -0.324125E-05  0.278E-03    0.39       3.7  T
   8   -113.8644738 -0.143550E-05  0.109E-03    0.39       9.5  T
   9   -113.8644740 -0.208375E-06  0.495E-04    0.39      20.9  T
  10   -113.8644740 -0.240067E-07  0.306E-04    0.39      33.7  T
     SCC iter.                  ...        0 min,  1.481 sec
     gradient                   ...        0 min,  0.026 sec
 * total energy  :  -112.1938150 Eh     change       -0.1770032E-03 Eh
   gradient norm :     0.0032177 Eh/α   predicted    -0.1344281E-03 ( -24.05%)
   displ. norm   :     0.5410558 α      lambda       -0.1950517E-03
   maximum displ.:     0.2551096 α      in ANC's #9, #5, #6, ...

........................................................................
.............................. CYCLE   76 ..............................
........................................................................

 iter      E             dE          RMSdq      gap      omega  full diag
   1   -113.8661414 -0.113866E+03  0.130E-01    0.39       0.0  T
   2   -113.8661121  0.293222E-04  0.807E-02    0.40       1.0  T
   3   -113.8645909  0.152114E-02  0.857E-02    0.37       1.0  T
   4   -113.8660801 -0.148918E-02  0.176E-02    0.40       1.0  T
   5   -113.8661421 -0.619246E-04  0.796E-03    0.39       1.3  T
   6   -113.8661481 -0.609373E-05  0.629E-03    0.40       1.6  T
   7   -113.8661544 -0.628148E-05  0.298E-03    0.39       3.5  T
   8   -113.8661560 -0.153611E-05  0.113E-03    0.39       9.1  T
   9   -113.8661562 -0.195551E-06  0.582E-04    0.39      17.7  T
  10   -113.8661562 -0.365522E-07  0.335E-04    0.39      30.8  T
     SCC iter.                  ...        0 min,  0.264 sec
     gradient                   ...        0 min,  0.019 sec
 * total energy  :  -112.1939765 Eh     change       -0.1615606E-03 Eh
   gradient norm :     0.0035764 Eh/α   predicted    -0.1260807E-03 ( -21.96%)
   displ. norm   :     0.5569461 α      lambda       -0.1915383E-03
   maximum displ.:     0.2725643 α      in ANC's #9, #5, #6, ...

........................................................................
.............................. CYCLE   77 ..............................
........................................................................

 iter      E             dE          RMSdq      gap      omega  full diag
   1   -113.8673751 -0.113867E+03  0.124E-01    0.40       0.0  T
   2   -113.8673453  0.298331E-04  0.768E-02    0.40       1.0  T
   3   -113.8658469  0.149843E-02  0.818E-02    0.38       1.0  T
   4   -113.8673114 -0.146451E-02  0.172E-02    0.40       1.0  T
   5   -113.8673759 -0.645715E-04  0.787E-03    0.39       1.3  T
   6   -113.8673818 -0.588204E-05  0.615E-03    0.40       1.7  T
   7   -113.8673880 -0.618214E-05  0.280E-03    0.40       3.7  T
   8   -113.8673893 -0.129651E-05  0.119E-03    0.40       8.7  T
   9   -113.8673895 -0.202476E-06  0.662E-04    0.40      15.6  T
  10   -113.8673896 -0.584641E-07  0.359E-04    0.40      28.7  T
     SCC iter.                  ...        0 min,  0.160 sec
     gradient                   ...        0 min,  0.020 sec
 * total energy  :  -112.1941406 Eh     change       -0.1640642E-03 Eh
   gradient norm :     0.0038788 Eh/α   predicted    -0.1254791E-03 ( -23.52%)
   displ. norm   :     0.5897215 α      lambda       -0.2147714E-03
   maximum displ.:     0.2976010 α      in ANC's #9, #5, #6, ...

........................................................................
.............................. CYCLE   78 ..............................
........................................................................

 iter      E             dE          RMSdq      gap      omega  full diag
   1   -113.8680840 -0.113868E+03  0.131E-01    0.40       0.0  T
   2   -113.8680459  0.380840E-04  0.808E-02    0.40       1.0  T
   3   -113.8661159  0.193005E-02  0.933E-02    0.38       1.0  T
   4   -113.8679963 -0.188036E-02  0.201E-02    0.40       1.0  T
   5   -113.8680869 -0.906235E-04  0.818E-03    0.40       1.3  T
   6   -113.8680918 -0.492330E-05  0.649E-03    0.40       1.6  T
   7   -113.8680990 -0.720365E-05  0.255E-03    0.40       4.0  T
   8   -113.8680998 -0.818409E-06  0.141E-03    0.40       7.3  T
   9   -113.8681002 -0.349980E-06  0.746E-04    0.40      13.8  T
  10   -113.8681003 -0.104343E-06  0.322E-04    0.40      32.1  T
     SCC iter.                  ...        0 min,  0.166 sec
     gradient                   ...        0 min,  0.021 sec
 * total energy  :  -112.1943238 Eh     change       -0.1832107E-03 Eh
   gradient norm :     0.0038806 Eh/α   predicted    -0.1447328E-03 ( -21.00%)
   displ. norm   :     0.6168638 α      lambda       -0.2337384E-03
   maximum displ.:     0.3170162 α      in ANC's #9, #5, #6, ...

........................................................................
.............................. CYCLE   79 ..............................
........................................................................

 iter      E             dE          RMSdq      gap      omega  full diag
   1   -113.8671222 -0.113867E+03  0.141E-01    0.40       0.0  T
   2   -113.8670559  0.663124E-04  0.874E-02    0.40       1.0  T
   3   -113.8638325  0.322340E-02  0.119E-01    0.39       1.0  T
   4   -113.8670026 -0.317009E-02  0.239E-02    0.40       1.0  T
   5   -113.8671338 -0.131245E-03  0.765E-03    0.40       1.3  T
   6   -113.8671357 -0.184875E-05  0.648E-03    0.40       1.6  T
   7   -113.8671425 -0.686909E-05  0.278E-03    0.40       3.7  T
   8   -113.8671435 -0.985569E-06  0.155E-03    0.40       6.7  T
   9   -113.8671439 -0.397402E-06  0.922E-04    0.40      11.2  T
  10   -113.8671441 -0.167484E-06  0.342E-04    0.40      30.1  T
     SCC iter.                  ...        0 min,  0.278 sec
     gradient                   ...        0 min,  0.055 sec
 * total energy  :  -112.1945185 Eh     change       -0.1946945E-03 Eh
   gradient norm :     0.0039502 Eh/α   predicted    -0.1613452E-03 ( -17.13%)
   displ. norm   :     0.6086976 α      lambda       -0.2285079E-03
   maximum displ.:     0.3225259 α      in ANC's #9, #5, #6, ...

........................................................................
.............................. CYCLE   80 ..............................
........................................................................

 iter      E             dE          RMSdq      gap      omega  full diag
   1   -113.8661246 -0.113866E+03  0.143E-01    0.40       0.0  T
   2   -113.8660464  0.782226E-04  0.884E-02    0.41       1.0  T
   3   -113.8623915  0.365485E-02  0.130E-01    0.39       1.0  T
   4   -113.8660111 -0.361957E-02  0.232E-02    0.41       1.0  T
   5   -113.8661374 -0.126338E-03  0.731E-03    0.40       1.4  T
   6   -113.8661404 -0.295179E-05  0.596E-03    0.40       1.7  T
   7   -113.8661460 -0.558419E-05  0.241E-03    0.40       4.3  T
   8   -113.8661466 -0.658303E-06  0.136E-03    0.40       7.6  T
   9   -113.8661469 -0.215967E-06  0.101E-03    0.40      10.2  T
  10   -113.8661471 -0.224685E-06  0.339E-04    0.40      30.4  T
  11   -113.8661471 -0.960166E-08  0.214E-04    0.40      48.2  T
     SCC iter.                  ...        0 min,  1.249 sec
     gradient                   ...        0 min,  0.026 sec
 * total energy  :  -112.1947074 Eh     change       -0.1888598E-03 Eh
   gradient norm :     0.0043450 Eh/α   predicted    -0.1565873E-03 ( -17.09%)
   displ. norm   :     0.6121002 α      lambda       -0.2158052E-03
   maximum displ.:     0.3266578 α      in ANC's #9, #5, #6, ...

........................................................................
.............................. CYCLE   81 ..............................
........................................................................

 iter      E             dE          RMSdq      gap      omega  full diag
   1   -113.8636412 -0.113864E+03  0.144E-01    0.41       0.0  T
   2   -113.8635642  0.770412E-04  0.899E-02    0.41       1.0  T
   3   -113.8598869  0.367730E-02  0.128E-01    0.40       1.0  T
   4   -113.8635045 -0.361760E-02  0.252E-02    0.41       1.0  T
   5   -113.8636569 -0.152453E-03  0.680E-03    0.41       1.5  T
   6   -113.8636598 -0.281068E-05  0.531E-03    0.41       1.9  T
   7   -113.8636639 -0.416950E-05  0.191E-03    0.41       5.4  T
   8   -113.8636644 -0.484269E-06  0.809E-04    0.41      12.7  T
   9   -113.8636645 -0.377986E-07  0.566E-04    0.41      18.2  T
     SCC iter.                  ...        0 min,  0.256 sec
     gradient                   ...        0 min,  0.033 sec
 * total energy  :  -112.1948872 Eh     change       -0.1798210E-03 Eh
   gradient norm :     0.0044488 Eh/α   predicted    -0.1483307E-03 ( -17.51%)
   displ. norm   :     0.5892956 α      lambda       -0.2473049E-03
   maximum displ.:     0.3283351 α      in ANC's #9, #5, #1, ...

........................................................................
.............................. CYCLE   82 ..............................
........................................................................

 iter      E             dE          RMSdq      gap      omega  full diag
   1   -113.8659479 -0.113866E+03  0.151E-01    0.41       0.0  T
   2   -113.8658786  0.692766E-04  0.944E-02    0.41       1.0  T
   3   -113.8628784  0.300017E-02  0.125E-01    0.41       1.0  T
   4   -113.8657523 -0.287383E-02  0.298E-02    0.41       1.0  T
   5   -113.8659630 -0.210773E-03  0.784E-03    0.41       1.3  T
   6   -113.8659711 -0.802637E-05  0.487E-03    0.41       2.1  T
   7   -113.8659719 -0.809982E-06  0.360E-03    0.41       2.9  T
   8   -113.8659744 -0.253178E-05  0.161E-03    0.41       6.4  T
   9   -113.8659749 -0.525779E-06  0.659E-04    0.41      15.7  T
  10   -113.8659750 -0.493296E-07  0.390E-04    0.41      26.5  T
     SCC iter.                  ...        0 min,  0.395 sec
     gradient                   ...        0 min,  0.025 sec
 * total energy  :  -112.1950704 Eh     change       -0.1831743E-03 Eh
   gradient norm :     0.0047909 Eh/α   predicted    -0.1665982E-03 (  -9.05%)
   displ. norm   :     0.7058774 α      lambda       -0.2610649E-03
   maximum displ.:     0.3827637 α      in ANC's #9, #5, #6, ...

........................................................................
.............................. CYCLE   83 ..............................
........................................................................

 iter      E             dE          RMSdq      gap      omega  full diag
   1   -113.8600477 -0.113860E+03  0.158E-01    0.41       0.0  T
   2   -113.8599884  0.593356E-04  0.986E-02    0.41       1.0  T
   3   -113.8571210  0.286739E-02  0.115E-01    0.40       1.0  T
   4   -113.8599124 -0.279137E-02  0.255E-02    0.41       1.0  T
   5   -113.8600577 -0.145325E-03  0.864E-03    0.41       1.2  T
   6   -113.8600661 -0.836940E-05  0.594E-03    0.41       1.7  T
   7   -113.8600700 -0.390616E-05  0.324E-03    0.41       3.2  T
   8   -113.8600720 -0.204891E-05  0.173E-03    0.41       6.0  T
   9   -113.8600726 -0.633783E-06  0.818E-04    0.41      12.6  T
  10   -113.8600727 -0.934116E-07  0.420E-04    0.41      24.6  T
     SCC iter.                  ...        0 min,  0.200 sec
     gradient                   ...        0 min,  0.019 sec
 * total energy  :  -112.1952679 Eh     change       -0.1975606E-03 Eh
   gradient norm :     0.0055101 Eh/α   predicted    -0.1955734E-03 (  -1.01%)
   displ. norm   :     0.5087813 α      lambda       -0.2739669E-03
   maximum displ.:     0.2918949 α      in ANC's #9, #5, #1, ...

........................................................................
.............................. CYCLE   84 ..............................
........................................................................

 iter      E             dE          RMSdq      gap      omega  full diag
   1   -113.8645629 -0.113865E+03  0.123E-01    0.41       0.0  T
   2   -113.8645051  0.578173E-04  0.778E-02    0.41       1.0  T
   3   -113.8624498  0.205530E-02  0.104E-01    0.41       1.0  T
   4   -113.8644167 -0.196687E-02  0.268E-02    0.40       1.0  T
   5   -113.8645734 -0.156750E-03  0.756E-03    0.41       1.4  T
   6   -113.8645844 -0.109841E-04  0.387E-03    0.41       2.7  T
   7   -113.8645856 -0.118943E-05  0.277E-03    0.41       3.7  T
   8   -113.8645867 -0.114313E-05  0.132E-03    0.41       7.8  T
   9   -113.8645870 -0.267297E-06  0.736E-04    0.41      14.0  T
  10   -113.8645871 -0.993092E-07  0.374E-04    0.41      27.5  T
     SCC iter.                  ...        0 min,  0.416 sec
     gradient                   ...        0 min,  0.021 sec
 * total energy  :  -112.1954558 Eh     change       -0.1878473E-03 Eh
   gradient norm :     0.0059105 Eh/α   predicted    -0.1724476E-03 (  -8.20%)
   displ. norm   :     0.6083750 α      lambda       -0.2629151E-03
   maximum displ.:     0.3475102 α      in ANC's #9, #5, #1, ...

........................................................................
.............................. CYCLE   85 ..............................
........................................................................

 iter      E             dE          RMSdq      gap      omega  full diag
   1   -113.8647034 -0.113865E+03  0.135E-01    0.41       0.0  T
   2   -113.8646577  0.456728E-04  0.849E-02    0.40       1.0  T
   3   -113.8626181  0.203957E-02  0.101E-01    0.42       1.0  T
   4   -113.8646379 -0.201978E-02  0.194E-02    0.40       1.0  T
   5   -113.8647109 -0.729605E-04  0.677E-03    0.41       1.5  T
   6   -113.8647170 -0.611654E-05  0.476E-03    0.41       2.2  T
   7   -113.8647205 -0.353672E-05  0.267E-03    0.41       3.9  T
   8   -113.8647217 -0.119865E-05  0.118E-03    0.41       8.7  T
   9   -113.8647219 -0.185452E-06  0.751E-04    0.41      13.7  T
  10   -113.8647220 -0.107330E-06  0.317E-04    0.41      32.5  T
     SCC iter.                  ...        0 min,  0.261 sec
     gradient                   ...        0 min,  0.024 sec
 * total energy  :  -112.1956702 Eh     change       -0.2143772E-03 Eh
   gradient norm :     0.0050396 Eh/α   predicted    -0.1801154E-03 ( -15.98%)
   displ. norm   :     0.5796644 α      lambda       -0.2700541E-03
   maximum displ.:     0.3365251 α      in ANC's #9, #5, #1, ...

........................................................................
.............................. CYCLE   86 ..............................
........................................................................

 iter      E             dE          RMSdq      gap      omega  full diag
   1   -113.8681419 -0.113868E+03  0.120E-01    0.41       0.0  T
   2   -113.8680879  0.540062E-04  0.763E-02    0.40       1.0  T
   3   -113.8657967  0.229120E-02  0.106E-01    0.41       1.0  T
   4   -113.8680487 -0.225203E-02  0.214E-02    0.41       1.0  T
   5   -113.8681519 -0.103201E-03  0.609E-03    0.41       1.7  T
   6   -113.8681576 -0.569071E-05  0.387E-03    0.41       2.7  T
   7   -113.8681590 -0.141188E-05  0.244E-03    0.41       4.2  T
   8   -113.8681599 -0.867489E-06  0.129E-03    0.41       8.0  T
   9   -113.8681601 -0.275314E-06  0.816E-04    0.41      12.6  T
  10   -113.8681603 -0.150432E-06  0.307E-04    0.41      33.6  T
     SCC iter.                  ...        0 min,  0.178 sec
     gradient                   ...        0 min,  0.021 sec
 * total energy  :  -112.1958879 Eh     change       -0.2177667E-03 Eh
   gradient norm :     0.0045370 Eh/α   predicted    -0.1804029E-03 ( -17.16%)
   displ. norm   :     0.7033958 α      lambda       -0.2499646E-03
   maximum displ.:     0.4045385 α      in ANC's #9, #5, #1, ...

........................................................................
.............................. CYCLE   87 ..............................
........................................................................

 iter      E             dE          RMSdq      gap      omega  full diag
   1   -113.8663152 -0.113866E+03  0.139E-01    0.41       0.0  T
   2   -113.8662833  0.319093E-04  0.872E-02    0.41       1.0  T
   3   -113.8646801  0.160328E-02  0.890E-02    0.41       1.0  T
   4   -113.8662873 -0.160726E-02  0.146E-02    0.41       1.0  T
   5   -113.8663223 -0.349407E-04  0.658E-03    0.41       1.6  T
   6   -113.8663246 -0.231437E-05  0.537E-03    0.41       1.9  T
   7   -113.8663305 -0.595239E-05  0.199E-03    0.41       5.2  T
   8   -113.8663311 -0.530069E-06  0.106E-03    0.41       9.8  T
   9   -113.8663311 -0.706014E-07  0.788E-04    0.41      13.1  T
  10   -113.8663313 -0.141107E-06  0.361E-04    0.41      28.6  T
     SCC iter.                  ...        0 min,  0.188 sec
     gradient                   ...        0 min,  0.023 sec
 * total energy  :  -112.1961053 Eh     change       -0.2174110E-03 Eh
   gradient norm :     0.0049337 Eh/α   predicted    -0.1868221E-03 ( -14.07%)
   displ. norm   :     0.6009057 α      lambda       -0.2887167E-03
   maximum displ.:     0.3430460 α      in ANC's #9, #1, #5, ...

........................................................................
.............................. CYCLE   88 ..............................
........................................................................

 iter      E             dE          RMSdq      gap      omega  full diag
   1   -113.8703791 -0.113870E+03  0.122E-01    0.41       0.0  T
   2   -113.8703148  0.643278E-04  0.775E-02    0.41       1.0  T
   3   -113.8677000  0.261479E-02  0.113E-01    0.40       1.0  T
   4   -113.8702704 -0.257045E-02  0.233E-02    0.41       1.0  T
   5   -113.8703924 -0.121960E-03  0.630E-03    0.41       1.6  T
   6   -113.8703983 -0.590386E-05  0.405E-03    0.41       2.5  T
   7   -113.8704008 -0.254250E-05  0.213E-03    0.41       4.8  T
   8   -113.8704012 -0.386645E-06  0.132E-03    0.41       7.8  T
   9   -113.8704014 -0.173104E-06  0.829E-04    0.41      12.4  T
  10   -113.8704015 -0.130704E-06  0.416E-04    0.41      24.8  T
     SCC iter.                  ...        0 min,  0.179 sec
     gradient                   ...        0 min,  0.022 sec
 * total energy  :  -112.1963125 Eh     change       -0.2071637E-03 Eh
   gradient norm :     0.0052149 Eh/α   predicted    -0.1964898E-03 (  -5.15%)
   displ. norm   :     0.7096873 α      lambda       -0.2625418E-03
   maximum displ.:     0.4066911 α      in ANC's #9, #5, #1, ...

........................................................................
.............................. CYCLE   89 ..............................
........................................................................

 iter      E             dE          RMSdq      gap      omega  full diag
   1   -113.8654849 -0.113865E+03  0.138E-01    0.41       0.0  T
   2   -113.8654337  0.511787E-04  0.869E-02    0.41       1.0  T
   3   -113.8628935  0.254022E-02  0.109E-01    0.40       1.0  T
   4   -113.8653863 -0.249281E-02  0.228E-02    0.41       1.0  T
   5   -113.8654912 -0.104935E-03  0.776E-03    0.41       1.3  T
   6   -113.8654976 -0.639327E-05  0.551E-03    0.41       1.9  T
   7   -113.8655020 -0.443366E-05  0.307E-03    0.41       3.4  T
   8   -113.8655041 -0.206834E-05  0.128E-03    0.41       8.1  T
   9   -113.8655044 -0.257181E-06  0.759E-04    0.41      13.6  T
  10   -113.8655044 -0.771494E-07  0.416E-04    0.41      24.8  T
     SCC iter.                  ...        0 min,  0.321 sec
     gradient                   ...        0 min,  0.054 sec
 * total energy  :  -112.1965346 Eh     change       -0.2221317E-03 Eh
   gradient norm :     0.0051549 Eh/α   predicted    -0.1973917E-03 ( -11.14%)
   displ. norm   :     0.5857575 α      lambda       -0.2521267E-03
   maximum displ.:     0.3302628 α      in ANC's #9, #1, #5, ...

........................................................................
.............................. CYCLE   90 ..............................
........................................................................

 iter      E             dE          RMSdq      gap      omega  full diag
   1   -113.8645313 -0.113865E+03  0.117E-01    0.41       0.0  T
   2   -113.8644639  0.673848E-04  0.749E-02    0.42       1.0  T
   3   -113.8619020  0.256194E-02  0.112E-01    0.40       1.0  T
   4   -113.8644234 -0.252148E-02  0.235E-02    0.41       1.0  T
   5   -113.8645417 -0.118290E-03  0.670E-03    0.42       1.5  T
   6   -113.8645479 -0.614244E-05  0.432E-03    0.41       2.4  T
   7   -113.8645501 -0.220118E-05  0.288E-03    0.42       3.6  T
   8   -113.8645519 -0.185968E-05  0.106E-03    0.41       9.7  T
   9   -113.8645521 -0.168944E-06  0.591E-04    0.41      17.5  T
  10   -113.8645521 -0.360648E-07  0.385E-04    0.41      26.8  T
     SCC iter.                  ...        0 min,  0.205 sec
     gradient                   ...        0 min,  0.022 sec
 * total energy  :  -112.1967547 Eh     change       -0.2200946E-03 Eh
   gradient norm :     0.0045973 Eh/α   predicted    -0.1693187E-03 ( -23.07%)
   displ. norm   :     0.6035117 α      lambda       -0.2872274E-03
   maximum displ.:     0.3235508 α      in ANC's #9, #1, #3, ...

........................................................................
.............................. CYCLE   91 ..............................
........................................................................

 iter      E             dE          RMSdq      gap      omega  full diag
   1   -113.8665179 -0.113867E+03  0.123E-01    0.42       0.0  T
   2   -113.8664186  0.993499E-04  0.805E-02    0.42       1.0  T
   3   -113.8634598  0.295879E-02  0.123E-01    0.40       1.0  T
   4   -113.8663830 -0.292325E-02  0.267E-02    0.42       1.0  T
   5   -113.8665353 -0.152306E-03  0.738E-03    0.42       1.4  T
   6   -113.8665444 -0.905851E-05  0.412E-03    0.42       2.5  T
   7   -113.8665462 -0.179395E-05  0.294E-03    0.42       3.5  T
   8   -113.8665480 -0.183656E-05  0.114E-03    0.42       9.1  T
   9   -113.8665482 -0.194149E-06  0.647E-04    0.42      16.0  T
  10   -113.8665483 -0.500820E-07  0.376E-04    0.42      27.4  T
     SCC iter.                  ...        0 min,  0.187 sec
     gradient                   ...        0 min,  0.021 sec
 * total energy  :  -112.1969952 Eh     change       -0.2404534E-03 Eh
   gradient norm :     0.0042817 Eh/α   predicted    -0.1959262E-03 ( -18.52%)
   displ. norm   :     0.6279499 α      lambda       -0.2584624E-03
   maximum displ.:     0.3366317 α      in ANC's #1, #9, #3, ...

........................................................................
.............................. CYCLE   92 ..............................
........................................................................

 iter      E             dE          RMSdq      gap      omega  full diag
   1   -113.8681732 -0.113868E+03  0.126E-01    0.42       0.0  T
   2   -113.8681096  0.636254E-04  0.804E-02    0.43       1.0  T
   3   -113.8657497  0.235990E-02  0.108E-01    0.41       1.0  T
   4   -113.8680746 -0.232492E-02  0.230E-02    0.42       1.0  T
   5   -113.8681862 -0.111551E-03  0.685E-03    0.42       1.5  T
   6   -113.8681939 -0.776199E-05  0.374E-03    0.42       2.8  T
   7   -113.8681953 -0.134715E-05  0.255E-03    0.42       4.1  T
   8   -113.8681966 -0.132789E-05  0.115E-03    0.42       9.0  T
   9   -113.8681968 -0.205363E-06  0.729E-04    0.42      14.1  T
  10   -113.8681969 -0.865457E-07  0.329E-04    0.42      31.4  T
     SCC iter.                  ...        0 min,  0.185 sec
     gradient                   ...        0 min,  0.017 sec
 * total energy  :  -112.1972192 Eh     change       -0.2240249E-03 Eh
   gradient norm :     0.0047234 Eh/α   predicted    -0.1801953E-03 ( -19.56%)
   displ. norm   :     0.6806847 α      lambda       -0.2784947E-03
   maximum displ.:     0.3863389 α      in ANC's #1, #9, #3, ...
 * RMSD in coord.:     1.2066238 α      energy gain  -0.4401288E-02 Eh

generating ANC from exact Hessian ...
Using Lindh-Hessian (1995)
 Shifting diagonal of input Hessian by   1.021353959414631E-002
 Lowest  eigenvalues of input Hessian
    0.010000    0.010007    0.010021    0.010083    0.000000    0.000000
    0.000000    0.000000    0.000000    0.000000    0.010274    0.010363
    0.010465    0.010566    0.010686    0.010732    0.010967    0.010980
 Highest eigenvalues
    1.934694    1.972645    2.026266    2.064632    2.127915    2.209576
 

........................................................................
.............................. CYCLE   93 ..............................
........................................................................

 iter      E             dE          RMSdq      gap      omega  full diag
   1   -113.8701154 -0.113870E+03  0.134E-01    0.43       0.0  T
   2   -113.8700396  0.757908E-04  0.861E-02    0.43       1.0  T
   3   -113.8674887  0.255085E-02  0.116E-01    0.42       1.0  T
   4   -113.8700270 -0.253823E-02  0.232E-02    0.43       1.0  T
   5   -113.8701312 -0.104287E-03  0.731E-03    0.43       1.4  T
   6   -113.8701409 -0.961464E-05  0.391E-03    0.43       2.6  T
   7   -113.8701428 -0.193050E-05  0.243E-03    0.43       4.2  T
   8   -113.8701438 -0.999901E-06  0.103E-03    0.43      10.1  T
   9   -113.8701439 -0.119718E-06  0.666E-04    0.43      15.5  T
  10   -113.8701440 -0.783661E-07  0.297E-04    0.43      34.7  T
     SCC iter.                  ...        0 min,  0.198 sec
     gradient                   ...        0 min,  0.023 sec
 * total energy  :  -112.1974573 Eh     change       -0.2381304E-03 Eh
   gradient norm :     0.0041398 Eh/α   predicted     0.0000000E+00 (-100.00%)
   displ. norm   :     0.0601328 α      lambda       -0.7689054E-04
   maximum displ.:     0.0275597 α      in ANC's #1, #2, #5, ...

........................................................................
.............................. CYCLE   94 ..............................
........................................................................

 iter      E             dE          RMSdq      gap      omega  full diag
   1   -113.8701584 -0.113870E+03  0.230E-02    0.43       0.0  T
   2   -113.8701548  0.356188E-05  0.150E-02    0.43       1.0  T
   3   -113.8700442  0.110617E-03  0.235E-02    0.43       1.0  T
   4   -113.8701485 -0.104303E-03  0.699E-03    0.43       1.5  T
   5   -113.8701589 -0.103712E-04  0.174E-03    0.43       5.9  T
   6   -113.8701594 -0.531770E-06  0.982E-04    0.43      10.5  T
   7   -113.8701596 -0.138760E-06  0.623E-04    0.43      16.5  T
     SCC iter.                  ...        0 min,  0.131 sec
     gradient                   ...        0 min,  0.021 sec
 * total energy  :  -112.1975210 Eh     change       -0.6362259E-04 Eh
   gradient norm :     0.0024395 Eh/α   predicted    -0.3872615E-04 ( -39.13%)
   displ. norm   :     0.2215082 α      lambda       -0.1933397E-03
   maximum displ.:     0.1036992 α      in ANC's #1, #2, #5, ...

........................................................................
.............................. CYCLE   95 ..............................
........................................................................

 iter      E             dE          RMSdq      gap      omega  full diag
   1   -113.8702055 -0.113870E+03  0.844E-02    0.42       0.0  T
   2   -113.8701655  0.400096E-04  0.533E-02    0.42       1.0  T
   3   -113.8688719  0.129358E-02  0.772E-02    0.44       1.0  T
   4   -113.8700922 -0.122035E-02  0.226E-02    0.42       1.0  T
   5   -113.8702164 -0.124177E-03  0.433E-03    0.42       2.4  T
   6   -113.8702191 -0.273478E-05  0.276E-03    0.42       3.7  T
   7   -113.8702200 -0.820450E-06  0.189E-03    0.42       5.5  T
   8   -113.8702205 -0.494290E-06  0.970E-04    0.42      10.6  T
   9   -113.8702206 -0.158053E-06  0.498E-04    0.42      20.7  T
     SCC iter.                  ...        0 min,  0.180 sec
     gradient                   ...        0 min,  0.020 sec
 * total energy  :  -112.1976096 Eh     change       -0.8861130E-04 Eh
   gradient norm :     0.0039319 Eh/α   predicted    -0.1014183E-03 (  14.45%)
   displ. norm   :     0.1941898 α      lambda       -0.1580866E-03
   maximum displ.:     0.0867927 α      in ANC's #1, #2, #8, ...

........................................................................
.............................. CYCLE   96 ..............................
........................................................................

 iter      E             dE          RMSdq      gap      omega  full diag
   1   -113.8703185 -0.113870E+03  0.726E-02    0.42       0.0  T
   2   -113.8703078  0.106995E-04  0.454E-02    0.42       1.0  T
   3   -113.8698128  0.494954E-03  0.522E-02    0.42       1.0  T
   4   -113.8702715 -0.458697E-03  0.152E-02    0.42       1.0  T
   5   -113.8703220 -0.504386E-04  0.345E-03    0.42       3.0  T
   6   -113.8703237 -0.169147E-05  0.207E-03    0.42       5.0  T
   7   -113.8703240 -0.338842E-06  0.155E-03    0.42       6.6  T
   8   -113.8703245 -0.473202E-06  0.610E-04    0.42      16.9  T
   9   -113.8703245 -0.475612E-07  0.351E-04    0.42      29.3  T
     SCC iter.                  ...        0 min,  0.241 sec
     gradient                   ...        0 min,  0.021 sec
 * total energy  :  -112.1976831 Eh     change       -0.7354101E-04 Eh
   gradient norm :     0.0053566 Eh/α   predicted    -0.8202453E-04 (  11.54%)
   displ. norm   :     0.1229435 α      lambda       -0.9872112E-04
   maximum displ.:     0.0615587 α      in ANC's #1, #2, #5, ...

........................................................................
.............................. CYCLE   97 ..............................
........................................................................

 iter      E             dE          RMSdq      gap      omega  full diag
   1   -113.8704280 -0.113870E+03  0.340E-02    0.42       0.0  T
   2   -113.8704205  0.747657E-05  0.220E-02    0.42       1.0  T
   3   -113.8701552  0.265251E-03  0.370E-02    0.42       1.0  T
   4   -113.8704109 -0.255700E-03  0.879E-03    0.42       1.2  T
   5   -113.8704288 -0.178357E-04  0.237E-03    0.42       4.4  T
   6   -113.8704299 -0.111165E-05  0.785E-04    0.42      13.1  T
   7   -113.8704298  0.377892E-07  0.739E-04    0.42      14.0  T
   8   -113.8704299 -0.103599E-06  0.278E-04    0.42      37.1  T
     SCC iter.                  ...        0 min,  0.131 sec
     gradient                   ...        0 min,  0.018 sec
 * total energy  :  -112.1977680 Eh     change       -0.8486780E-04 Eh
   gradient norm :     0.0041765 Eh/α   predicted    -0.5010979E-04 ( -40.96%)
   displ. norm   :     0.3472802 α      lambda       -0.2551979E-03
   maximum displ.:     0.1702819 α      in ANC's #1, #2, #8, ...

........................................................................
.............................. CYCLE   98 ..............................
........................................................................

 iter      E             dE          RMSdq      gap      omega  full diag
   1   -113.8702310 -0.113870E+03  0.842E-02    0.41       0.0  T
   2   -113.8701657  0.652712E-04  0.558E-02    0.41       1.0  T
   3   -113.8681877  0.197797E-02  0.991E-02    0.42       1.0  T
   4   -113.8701072 -0.191948E-02  0.231E-02    0.41       1.0  T
   5   -113.8702395 -0.132299E-03  0.542E-03    0.42       1.9  T
   6   -113.8702450 -0.547048E-05  0.184E-03    0.41       5.6  T
   7   -113.8702449  0.134454E-06  0.172E-03    0.41       6.0  T
   8   -113.8702454 -0.490061E-06  0.669E-04    0.41      15.4  T
   9   -113.8702454 -0.442952E-07  0.441E-04    0.41      23.4  T
     SCC iter.                  ...        0 min,  0.133 sec
     gradient                   ...        0 min,  0.018 sec
 * total energy  :  -112.1979478 Eh     change       -0.1798624E-03 Eh
   gradient norm :     0.0029362 Eh/α   predicted    -0.1429930E-03 ( -20.50%)
   displ. norm   :     0.4297681 α      lambda       -0.1726479E-03
   maximum displ.:     0.2103805 α      in ANC's #1, #2, #8, ...

........................................................................
.............................. CYCLE   99 ..............................
........................................................................

 iter      E             dE          RMSdq      gap      omega  full diag
   1   -113.8692698 -0.113869E+03  0.954E-02    0.41       0.0  T
   2   -113.8692375  0.322376E-04  0.606E-02    0.41       1.0  T
   3   -113.8677694  0.146815E-02  0.865E-02    0.42       1.0  T
   4   -113.8691678 -0.139840E-02  0.209E-02    0.40       1.0  T
   5   -113.8692740 -0.106174E-03  0.539E-03    0.41       1.9  T
   6   -113.8692800 -0.607096E-05  0.174E-03    0.41       5.9  T
   7   -113.8692800  0.209174E-07  0.141E-03    0.41       7.3  T
   8   -113.8692803 -0.238357E-06  0.671E-04    0.41      15.4  T
   9   -113.8692803 -0.345768E-07  0.477E-04    0.41      21.6  T
     SCC iter.                  ...        0 min,  0.135 sec
     gradient                   ...        0 min,  0.016 sec
 * total energy  :  -112.1980918 Eh     change       -0.1439255E-03 Eh
   gradient norm :     0.0044184 Eh/α   predicted    -0.1022683E-03 ( -28.94%)
   displ. norm   :     0.5205712 α      lambda       -0.2020690E-03
   maximum displ.:     0.2563720 α      in ANC's #1, #2, #8, ...

........................................................................
.............................. CYCLE  100 ..............................
........................................................................

 iter      E             dE          RMSdq      gap      omega  full diag
   1   -113.8682233 -0.113868E+03  0.116E-01    0.41       0.0  T
   2   -113.8682021  0.212662E-04  0.722E-02    0.40       1.0  T
   3   -113.8670874  0.111465E-02  0.755E-02    0.41       1.0  T
   4   -113.8681697 -0.108230E-02  0.158E-02    0.40       1.0  T
   5   -113.8682246 -0.549115E-04  0.592E-03    0.41       1.7  T
   6   -113.8682327 -0.808015E-05  0.210E-03    0.41       4.9  T
   7   -113.8682330 -0.243867E-06  0.131E-03    0.41       7.9  T
   8   -113.8682331 -0.159519E-06  0.787E-04    0.41      13.1  T
   9   -113.8682332 -0.810481E-07  0.446E-04    0.41      23.1  T
     SCC iter.                  ...        0 min,  0.244 sec
     gradient                   ...        0 min,  0.026 sec
 * total energy  :  -112.1982676 Eh     change       -0.1758363E-03 Eh
   gradient norm :     0.0045754 Eh/α   predicted    -0.1284155E-03 ( -26.97%)
   displ. norm   :     0.5995383 α      lambda       -0.2458333E-03
   maximum displ.:     0.3001009 α      in ANC's #1, #2, #5, ...

........................................................................
.............................. CYCLE  101 ..............................
........................................................................

 iter      E             dE          RMSdq      gap      omega  full diag
   1   -113.8679690 -0.113868E+03  0.129E-01    0.40       0.0  T
   2   -113.8679517  0.172928E-04  0.803E-02    0.40       1.0  T
   3   -113.8669199  0.103181E-02  0.690E-02    0.41       1.0  T
   4   -113.8679518 -0.103193E-02  0.109E-02    0.40       1.0  T
   5   -113.8679742 -0.224082E-04  0.404E-03    0.40       2.6  T
   6   -113.8679761 -0.187994E-05  0.288E-03    0.40       3.6  T
   7   -113.8679769 -0.806149E-06  0.153E-03    0.40       6.8  T
   8   -113.8679772 -0.230924E-06  0.113E-03    0.40       9.2  T
   9   -113.8679774 -0.259868E-06  0.488E-04    0.40      21.2  T
  10   -113.8679774 -0.257919E-07  0.287E-04    0.40      35.9  T
     SCC iter.                  ...        0 min,  0.178 sec
     gradient                   ...        0 min,  0.024 sec
 * total energy  :  -112.1984741 Eh     change       -0.2065309E-03 Eh
   gradient norm :     0.0036054 Eh/α   predicted    -0.1670996E-03 ( -19.09%)
   displ. norm   :     0.6061257 α      lambda       -0.2289915E-03
   maximum displ.:     0.3100281 α      in ANC's #1, #2, #5, ...

........................................................................
.............................. CYCLE  102 ..............................
........................................................................

 iter      E             dE          RMSdq      gap      omega  full diag
   1   -113.8687011 -0.113869E+03  0.134E-01    0.40       0.0  T
   2   -113.8686761  0.249159E-04  0.834E-02    0.40       1.0  T
   3   -113.8671372  0.153891E-02  0.841E-02    0.41       1.0  T
   4   -113.8686611 -0.152390E-02  0.150E-02    0.40       1.0  T
   5   -113.8687059 -0.447807E-04  0.457E-03    0.40       2.3  T
   6   -113.8687081 -0.220679E-05  0.348E-03    0.40       3.0  T
   7   -113.8687100 -0.185198E-05  0.187E-03    0.40       5.5  T
   8   -113.8687105 -0.578475E-06  0.899E-04    0.40      11.5  T
   9   -113.8687107 -0.105179E-06  0.501E-04    0.40      20.6  T
     SCC iter.                  ...        0 min,  0.553 sec
     gradient                   ...        0 min,  0.065 sec
 * total energy  :  -112.1986602 Eh     change       -0.1860587E-03 Eh
   gradient norm :     0.0029378 Eh/α   predicted    -0.1565624E-03 ( -15.85%)
   displ. norm   :     0.5593296 α      lambda       -0.1785015E-03
   maximum displ.:     0.2937463 α      in ANC's #1, #2, #5, ...

........................................................................
.............................. CYCLE  103 ..............................
........................................................................

 iter      E             dE          RMSdq      gap      omega  full diag
   1   -113.8698995 -0.113870E+03  0.125E-01    0.40       0.0  T
   2   -113.8698756  0.239319E-04  0.777E-02    0.40       1.0  T
   3   -113.8685273  0.134828E-02  0.818E-02    0.41       1.0  T
   4   -113.8698549 -0.132765E-02  0.157E-02    0.40       1.0  T
   5   -113.8699051 -0.501734E-04  0.430E-03    0.40       2.4  T
   6   -113.8699067 -0.154083E-05  0.340E-03    0.40       3.0  T
   7   -113.8699084 -0.176732E-05  0.182E-03    0.40       5.7  T
   8   -113.8699090 -0.621345E-06  0.780E-04    0.40      13.2  T
   9   -113.8699091 -0.822676E-07  0.429E-04    0.40      24.0  T
     SCC iter.                  ...        0 min,  0.956 sec
     gradient                   ...        0 min,  0.073 sec
 * total energy  :  -112.1988037 Eh     change       -0.1434733E-03 Eh
   gradient norm :     0.0029410 Eh/α   predicted    -0.1171741E-03 ( -18.33%)
   displ. norm   :     0.4772125 α      lambda       -0.1338433E-03
   maximum displ.:     0.2584525 α      in ANC's #1, #2, #5, ...

........................................................................
.............................. CYCLE  104 ..............................
........................................................................

 iter      E             dE          RMSdq      gap      omega  full diag
   1   -113.8710272 -0.113871E+03  0.112E-01    0.40       0.0  T
   2   -113.8710034  0.238875E-04  0.697E-02    0.40       1.0  T
   3   -113.8697284  0.127493E-02  0.782E-02    0.41       1.0  T
   4   -113.8709708 -0.124236E-02  0.168E-02    0.40       1.0  T
   5   -113.8710333 -0.625234E-04  0.401E-03    0.40       2.6  T
   6   -113.8710346 -0.125090E-05  0.315E-03    0.40       3.3  T
   7   -113.8710358 -0.122302E-05  0.184E-03    0.40       5.6  T
   8   -113.8710365 -0.674401E-06  0.740E-04    0.40      13.9  T
   9   -113.8710365 -0.623645E-07  0.519E-04    0.40      19.9  T
     SCC iter.                  ...        0 min,  0.779 sec
     gradient                   ...        0 min,  0.152 sec
 * total energy  :  -112.1989102 Eh     change       -0.1065752E-03 Eh
   gradient norm :     0.0027419 Eh/α   predicted    -0.8216466E-04 ( -22.90%)
   displ. norm   :     0.3859153 α      lambda       -0.1057583E-03
   maximum displ.:     0.2177030 α      in ANC's #1, #2, #5, ...

........................................................................
.............................. CYCLE  105 ..............................
........................................................................

 iter      E             dE          RMSdq      gap      omega  full diag
   1   -113.8722191 -0.113872E+03  0.969E-02    0.40       0.0  T
   2   -113.8721920  0.271436E-04  0.603E-02    0.40       1.0  T
   3   -113.8708796  0.131235E-02  0.769E-02    0.41       1.0  T
   4   -113.8721404 -0.126081E-02  0.187E-02    0.40       1.0  T
   5   -113.8722263 -0.859195E-04  0.364E-03    0.40       2.8  T
   6   -113.8722274 -0.104016E-05  0.264E-03    0.40       3.9  T
   7   -113.8722277 -0.360675E-06  0.178E-03    0.40       5.8  T
   8   -113.8722284 -0.705719E-06  0.711E-04    0.40      14.5  T
   9   -113.8722285 -0.774098E-07  0.455E-04    0.40      22.6  T
     SCC iter.                  ...        0 min,  1.560 sec
     gradient                   ...        0 min,  0.145 sec
 * total energy  :  -112.1989916 Eh     change       -0.8139384E-04 Eh
   gradient norm :     0.0025344 Eh/α   predicted    -0.6075489E-04 ( -25.36%)
   displ. norm   :     0.3246551 α      lambda       -0.9067846E-04
   maximum displ.:     0.1899065 α      in ANC's #1, #2, #5, ...

........................................................................
.............................. CYCLE  106 ..............................
........................................................................

 iter      E             dE          RMSdq      gap      omega  full diag
   1   -113.8726759 -0.113873E+03  0.860E-02    0.40       0.0  T
   2   -113.8726374  0.385119E-04  0.538E-02    0.40       1.0  T
   3   -113.8709564  0.168099E-02  0.840E-02    0.40       1.0  T
   4   -113.8726186 -0.166217E-02  0.168E-02    0.40       1.0  T
   5   -113.8726834 -0.648379E-04  0.349E-03    0.40       3.0  T
   6   -113.8726840 -0.619778E-06  0.273E-03    0.40       3.8  T
   7   -113.8726845 -0.450228E-06  0.190E-03    0.40       5.4  T
   8   -113.8726853 -0.821924E-06  0.724E-04    0.40      14.2  T
   9   -113.8726854 -0.903510E-07  0.412E-04    0.40      25.0  T
     SCC iter.                  ...        0 min,  1.448 sec
     gradient                   ...        0 min,  0.112 sec
 * total energy  :  -112.1990596 Eh     change       -0.6801188E-04 Eh
   gradient norm :     0.0022415 Eh/α   predicted    -0.5011920E-04 ( -26.31%)
   displ. norm   :     0.2814350 α      lambda       -0.7741982E-04
   maximum displ.:     0.1680083 α      in ANC's #1, #2, #5, ...

........................................................................
.............................. CYCLE  107 ..............................
........................................................................

 iter      E             dE          RMSdq      gap      omega  full diag
   1   -113.8725828 -0.113873E+03  0.772E-02    0.40       0.0  T
   2   -113.8725459  0.369776E-04  0.484E-02    0.40       1.0  T
   3   -113.8709931  0.155279E-02  0.799E-02    0.41       1.0  T
   4   -113.8725457 -0.155261E-02  0.143E-02    0.40       1.0  T
   5   -113.8725895 -0.438629E-04  0.319E-03    0.40       3.2  T
   6   -113.8725898 -0.207179E-06  0.266E-03    0.40       3.9  T
   7   -113.8725904 -0.629135E-06  0.160E-03    0.40       6.4  T
   8   -113.8725909 -0.557795E-06  0.701E-04    0.40      14.7  T
   9   -113.8725910 -0.969206E-07  0.352E-04    0.40      29.3  T
     SCC iter.                  ...        0 min,  1.455 sec
     gradient                   ...        0 min,  0.228 sec
 * total energy  :  -112.1991217 Eh     change       -0.6205922E-04 Eh
   gradient norm :     0.0021258 Eh/α   predicted    -0.4177758E-04 ( -32.68%)
   displ. norm   :     0.2815758 α      lambda       -0.7877802E-04
   maximum displ.:     0.1676647 α      in ANC's #1, #2, #5, ...

........................................................................
.............................. CYCLE  108 ..............................
........................................................................

 iter      E             dE          RMSdq      gap      omega  full diag
   1   -113.8720331 -0.113872E+03  0.754E-02    0.40       0.0  T
   2   -113.8719983  0.347563E-04  0.472E-02    0.40       1.0  T
   3   -113.8704108  0.158747E-02  0.798E-02    0.41       1.0  T
   4   -113.8720139 -0.160303E-02  0.112E-02    0.41       1.0  T
   5   -113.8720381 -0.242322E-04  0.346E-03    0.40       3.0  T
   6   -113.8720381  0.454534E-07  0.306E-03    0.41       3.4  T
   7   -113.8720392 -0.110530E-05  0.180E-03    0.40       5.7  T
   8   -113.8720399 -0.730758E-06  0.722E-04    0.40      14.3  T
   9   -113.8720400 -0.103353E-06  0.315E-04    0.40      32.7  T
     SCC iter.                  ...        0 min,  0.408 sec
     gradient                   ...        0 min,  0.299 sec
 * total energy  :  -112.1991866 Eh     change       -0.6491016E-04 Eh
   gradient norm :     0.0022823 Eh/α   predicted    -0.4251245E-04 ( -34.51%)
   displ. norm   :     0.3159588 α      lambda       -0.8926469E-04
   maximum displ.:     0.1859058 α      in ANC's #1, #2, #12, ...

........................................................................
.............................. CYCLE  109 ..............................
........................................................................

 iter      E             dE          RMSdq      gap      omega  full diag
   1   -113.8713050 -0.113871E+03  0.789E-02    0.41       0.0  T
   2   -113.8712730  0.319973E-04  0.494E-02    0.41       1.0  T
   3   -113.8696878  0.158518E-02  0.786E-02    0.41       1.0  T
   4   -113.8712829 -0.159508E-02  0.118E-02    0.41       1.0  T
   5   -113.8713090 -0.260816E-04  0.419E-03    0.41       2.5  T
   6   -113.8713098 -0.835147E-06  0.336E-03    0.41       3.1  T
   7   -113.8713111 -0.127815E-05  0.199E-03    0.41       5.2  T
   8   -113.8713119 -0.844223E-06  0.884E-04    0.41      11.7  T
   9   -113.8713121 -0.169480E-06  0.383E-04    0.41      26.9  T
     SCC iter.                  ...        0 min,  1.445 sec
     gradient                   ...        0 min,  0.162 sec
 * total energy  :  -112.1992587 Eh     change       -0.7212996E-04 Eh
   gradient norm :     0.0027349 Eh/α   predicted    -0.4909244E-04 ( -31.94%)
   displ. norm   :     0.3579271 α      lambda       -0.9861472E-04
   maximum displ.:     0.2089630 α      in ANC's #1, #2, #9, ...

........................................................................
.............................. CYCLE  110 ..............................
........................................................................

 iter      E             dE          RMSdq      gap      omega  full diag
   1   -113.8705977 -0.113871E+03  0.871E-02    0.41       0.0  T
   2   -113.8705770  0.206842E-04  0.542E-02    0.41       1.0  T
   3   -113.8693344  0.124257E-02  0.702E-02    0.41       1.0  T
   4   -113.8705744 -0.124002E-02  0.117E-02    0.41       1.0  T
   5   -113.8705987 -0.242549E-04  0.518E-03    0.41       2.0  T
   6   -113.8706011 -0.239459E-05  0.356E-03    0.41       2.9  T
   7   -113.8706025 -0.146705E-05  0.211E-03    0.41       4.9  T
   8   -113.8706035 -0.951482E-06  0.922E-04    0.41      11.2  T
   9   -113.8706037 -0.182960E-06  0.463E-04    0.41      22.3  T
     SCC iter.                  ...        0 min,  1.438 sec
     gradient                   ...        0 min,  0.166 sec
 * total energy  :  -112.1993367 Eh     change       -0.7800481E-04 Eh
   gradient norm :     0.0031852 Eh/α   predicted    -0.5562658E-04 ( -28.69%)
   displ. norm   :     0.3933697 α      lambda       -0.1068933E-03
   maximum displ.:     0.2292891 α      in ANC's #1, #2, #9, ...

........................................................................
.............................. CYCLE  111 ..............................
........................................................................

 iter      E             dE          RMSdq      gap      omega  full diag
   1   -113.8704744 -0.113870E+03  0.895E-02    0.41       0.0  T
   2   -113.8704457  0.287147E-04  0.562E-02    0.41       1.0  T
   3   -113.8691679  0.127781E-02  0.755E-02    0.42       1.0  T
   4   -113.8704539 -0.128604E-02  0.120E-02    0.41       1.0  T
   5   -113.8704762 -0.222228E-04  0.610E-03    0.41       1.7  T
   6   -113.8704804 -0.420400E-05  0.406E-03    0.41       2.5  T
   7   -113.8704825 -0.209556E-05  0.224E-03    0.41       4.6  T
   8   -113.8704835 -0.101482E-05  0.973E-04    0.41      10.6  T
   9   -113.8704837 -0.198348E-06  0.509E-04    0.41      20.3  T
  10   -113.8704837 -0.316183E-07  0.324E-04    0.41      31.8  T
     SCC iter.                  ...        0 min,  1.833 sec
     gradient                   ...        0 min,  0.044 sec
 * total energy  :  -112.1994222 Eh     change       -0.8546730E-04 Eh
   gradient norm :     0.0034427 Eh/α   predicted    -0.6171758E-04 ( -27.79%)
   displ. norm   :     0.4288016 α      lambda       -0.1177473E-03
   maximum displ.:     0.2522618 α      in ANC's #1, #2, #9, ...

........................................................................
.............................. CYCLE  112 ..............................
........................................................................

 iter      E             dE          RMSdq      gap      omega  full diag
   1   -113.8708470 -0.113871E+03  0.977E-02    0.41       0.0  T
   2   -113.8708077  0.393155E-04  0.615E-02    0.41       1.0  T
   3   -113.8693545  0.145325E-02  0.876E-02    0.43       1.0  T
   4   -113.8708365 -0.148200E-02  0.114E-02    0.41       1.0  T
   5   -113.8708529 -0.164188E-04  0.586E-03    0.41       1.8  T
   6   -113.8708546 -0.168765E-05  0.473E-03    0.41       2.2  T
   7   -113.8708583 -0.375965E-05  0.212E-03    0.41       4.9  T
   8   -113.8708591 -0.784994E-06  0.118E-03    0.41       8.7  T
   9   -113.8708595 -0.340559E-06  0.471E-04    0.41      21.9  T
  10   -113.8708595 -0.196312E-07  0.314E-04    0.41      32.9  T
     SCC iter.                  ...        0 min,  0.181 sec
     gradient                   ...        0 min,  0.033 sec
 * total energy  :  -112.1995172 Eh     change       -0.9502438E-04 Eh
   gradient norm :     0.0033612 Eh/α   predicted    -0.6970051E-04 ( -26.65%)
   displ. norm   :     0.4521083 α      lambda       -0.1259787E-03
   maximum displ.:     0.2704491 α      in ANC's #1, #2, #9, ...

........................................................................
.............................. CYCLE  113 ..............................
........................................................................

 iter      E             dE          RMSdq      gap      omega  full diag
   1   -113.8716813 -0.113872E+03  0.103E-01    0.42       0.0  T
   2   -113.8716228  0.584411E-04  0.657E-02    0.41       1.0  T
   3   -113.8699308  0.169207E-02  0.973E-02    0.43       1.0  T
   4   -113.8716664 -0.173560E-02  0.135E-02    0.41       1.0  T
   5   -113.8716916 -0.252740E-04  0.610E-03    0.42       1.7  T
   6   -113.8716926 -0.936805E-06  0.541E-03    0.41       1.9  T
   7   -113.8716986 -0.606010E-05  0.192E-03    0.42       5.4  T
   8   -113.8716991 -0.499351E-06  0.113E-03    0.42       9.1  T
   9   -113.8716994 -0.248368E-06  0.486E-04    0.42      21.2  T
  10   -113.8716994 -0.213342E-07  0.326E-04    0.42      31.6  T
     SCC iter.                  ...        0 min,  0.571 sec
     gradient                   ...        0 min,  0.018 sec
 * total energy  :  -112.1996160 Eh     change       -0.9872652E-04 Eh
   gradient norm :     0.0033033 Eh/α   predicted    -0.7586747E-04 ( -23.15%)
   displ. norm   :     0.4585534 α      lambda       -0.1194039E-03
   maximum displ.:     0.2810280 α      in ANC's #1, #2, #8, ...

........................................................................
.............................. CYCLE  114 ..............................
........................................................................

 iter      E             dE          RMSdq      gap      omega  full diag
   1   -113.8721176 -0.113872E+03  0.107E-01    0.42       0.0  T
   2   -113.8720543  0.633341E-04  0.677E-02    0.42       1.0  T
   3   -113.8702442  0.181006E-02  0.101E-01    0.43       1.0  T
   4   -113.8720985 -0.185426E-02  0.140E-02    0.42       1.0  T
   5   -113.8721266 -0.280852E-04  0.686E-03    0.42       1.5  T
   6   -113.8721282 -0.166568E-05  0.613E-03    0.42       1.7  T
   7   -113.8721357 -0.749985E-05  0.234E-03    0.42       4.4  T
   8   -113.8721367 -0.924733E-06  0.104E-03    0.42       9.9  T
   9   -113.8721368 -0.172892E-06  0.524E-04    0.42      19.7  T
  10   -113.8721369 -0.303830E-07  0.334E-04    0.42      30.9  T
     SCC iter.                  ...        0 min,  0.264 sec
     gradient                   ...        0 min,  0.019 sec
 * total energy  :  -112.1997060 Eh     change       -0.9000169E-04 Eh
   gradient norm :     0.0032709 Eh/α   predicted    -0.7226075E-04 ( -19.71%)
   displ. norm   :     0.4335483 α      lambda       -0.1067312E-03
   maximum displ.:     0.2716946 α      in ANC's #1, #2, #10, ...

........................................................................
.............................. CYCLE  115 ..............................
........................................................................

 iter      E             dE          RMSdq      gap      omega  full diag
   1   -113.8724026 -0.113872E+03  0.102E-01    0.42       0.0  T
   2   -113.8723581  0.445234E-04  0.642E-02    0.42       1.0  T
   3   -113.8708705  0.148762E-02  0.888E-02    0.43       1.0  T
   4   -113.8723810 -0.151056E-02  0.132E-02    0.42       1.0  T
   5   -113.8724088 -0.278027E-04  0.618E-03    0.42       1.7  T
   6   -113.8724089 -0.356926E-07  0.597E-03    0.42       1.7  T
   7   -113.8724164 -0.755917E-05  0.215E-03    0.42       4.8  T
   8   -113.8724172 -0.799130E-06  0.802E-04    0.42      12.9  T
   9   -113.8724173 -0.871041E-07  0.476E-04    0.42      21.7  T
     SCC iter.                  ...        0 min,  0.207 sec
     gradient                   ...        0 min,  0.028 sec
 * total energy  :  -112.1997869 Eh     change       -0.8092207E-04 Eh
   gradient norm :     0.0032531 Eh/α   predicted    -0.6340229E-04 ( -21.65%)
   displ. norm   :     0.4196806 α      lambda       -0.9776645E-04
   maximum displ.:     0.2681774 α      in ANC's #1, #2, #7, ...

........................................................................
.............................. CYCLE  116 ..............................
........................................................................

 iter      E             dE          RMSdq      gap      omega  full diag
   1   -113.8721050 -0.113872E+03  0.101E-01    0.42       0.0  T
   2   -113.8720708  0.341899E-04  0.629E-02    0.42       1.0  T
   3   -113.8705788  0.149209E-02  0.819E-02    0.44       1.0  T
   4   -113.8720646 -0.148588E-02  0.142E-02    0.42       1.0  T
   5   -113.8721070 -0.424057E-04  0.651E-03    0.42       1.6  T
   6   -113.8721122 -0.519758E-05  0.455E-03    0.42       2.3  T
   7   -113.8721151 -0.285753E-05  0.208E-03    0.42       5.0  T
   8   -113.8721158 -0.696044E-06  0.842E-04    0.42      12.2  T
   9   -113.8721159 -0.926726E-07  0.541E-04    0.42      19.1  T
     SCC iter.                  ...        0 min,  0.162 sec
     gradient                   ...        0 min,  0.020 sec
 * total energy  :  -112.1998647 Eh     change       -0.7778598E-04 Eh
   gradient norm :     0.0030732 Eh/α   predicted    -0.5749424E-04 ( -26.09%)
   displ. norm   :     0.4302828 α      lambda       -0.9735058E-04
   maximum displ.:     0.2774581 α      in ANC's #1, #2, #7, ...

........................................................................
.............................. CYCLE  117 ..............................
........................................................................

 iter      E             dE          RMSdq      gap      omega  full diag
   1   -113.8718619 -0.113872E+03  0.102E-01    0.42       0.0  T
   2   -113.8718289  0.329548E-04  0.630E-02    0.42       1.0  T
   3   -113.8700433  0.178564E-02  0.839E-02    0.44       1.0  T
   4   -113.8718272 -0.178391E-02  0.138E-02    0.42       1.0  T
   5   -113.8718650 -0.377462E-04  0.586E-03    0.42       1.8  T
   6   -113.8718682 -0.326576E-05  0.399E-03    0.42       2.6  T
   7   -113.8718702 -0.200496E-05  0.196E-03    0.42       5.3  T
   8   -113.8718708 -0.578358E-06  0.775E-04    0.42      13.3  T
   9   -113.8718709 -0.679024E-07  0.461E-04    0.42      22.4  T
     SCC iter.                  ...        0 min,  0.301 sec
     gradient                   ...        0 min,  0.120 sec
 * total energy  :  -112.1999411 Eh     change       -0.7639404E-04 Eh
   gradient norm :     0.0030193 Eh/α   predicted    -0.5769012E-04 ( -24.48%)
   displ. norm   :     0.4529594 α      lambda       -0.8951010E-04
   maximum displ.:     0.2936066 α      in ANC's #1, #2, #7, ...

........................................................................
.............................. CYCLE  118 ..............................
........................................................................

 iter      E             dE          RMSdq      gap      omega  full diag
   1   -113.8710713 -0.113871E+03  0.110E-01    0.42       0.0  T
   2   -113.8710349  0.363898E-04  0.679E-02    0.42       1.0  T
   3   -113.8688908  0.214413E-02  0.917E-02    0.44       1.0  T
   4   -113.8710475 -0.215677E-02  0.124E-02    0.42       1.0  T
   5   -113.8710739 -0.263970E-04  0.575E-03    0.42       1.8  T
   6   -113.8710769 -0.294211E-05  0.408E-03    0.42       2.5  T
   7   -113.8710794 -0.256405E-05  0.207E-03    0.42       5.0  T
   8   -113.8710802 -0.722216E-06  0.891E-04    0.42      11.6  T
   9   -113.8710803 -0.895666E-07  0.591E-04    0.42      17.5  T
     SCC iter.                  ...        0 min,  0.218 sec
     gradient                   ...        0 min,  0.022 sec
 * total energy  :  -112.2000098 Eh     change       -0.6869052E-04 Eh
   gradient norm :     0.0031930 Eh/α   predicted    -0.5394151E-04 ( -21.47%)
   displ. norm   :     0.4453116 α      lambda       -0.8337280E-04
   maximum displ.:     0.2895363 α      in ANC's #1, #2, #7, ...

........................................................................
.............................. CYCLE  119 ..............................
........................................................................

 iter      E             dE          RMSdq      gap      omega  full diag
   1   -113.8720833 -0.113872E+03  0.104E-01    0.42       0.0  T
   2   -113.8720452  0.381378E-04  0.644E-02    0.42       1.0  T
   3   -113.8699405  0.210474E-02  0.913E-02    0.44       1.0  T
   4   -113.8720668 -0.212633E-02  0.110E-02    0.42       1.0  T
   5   -113.8720853 -0.185187E-04  0.566E-03    0.42       1.8  T
   6   -113.8720892 -0.391246E-05  0.379E-03    0.42       2.7  T
   7   -113.8720917 -0.248629E-05  0.193E-03    0.42       5.3  T
   8   -113.8720923 -0.563245E-06  0.805E-04    0.42      12.8  T
   9   -113.8720923 -0.449481E-07  0.570E-04    0.42      18.1  T
     SCC iter.                  ...        0 min,  0.198 sec
     gradient                   ...        0 min,  0.042 sec
 * total energy  :  -112.2000737 Eh     change       -0.6396966E-04 Eh
   gradient norm :     0.0034225 Eh/α   predicted    -0.4995693E-04 ( -21.91%)
   displ. norm   :     0.5138052 α      lambda       -0.8611041E-04
   maximum displ.:     0.3339111 α      in ANC's #1, #2, #7, ...

........................................................................
.............................. CYCLE  120 ..............................
........................................................................

 iter      E             dE          RMSdq      gap      omega  full diag
   1   -113.8702501 -0.113870E+03  0.120E-01    0.43       0.0  T
   2   -113.8702040  0.460900E-04  0.743E-02    0.42       1.0  T
   3   -113.8676650  0.253896E-02  0.101E-01    0.45       1.0  T
   4   -113.8702325 -0.256746E-02  0.119E-02    0.42       1.0  T
   5   -113.8702530 -0.204893E-04  0.618E-03    0.42       1.7  T
   6   -113.8702561 -0.311555E-05  0.471E-03    0.43       2.2  T
   7   -113.8702605 -0.447446E-05  0.200E-03    0.42       5.2  T
   8   -113.8702612 -0.606956E-06  0.975E-04    0.43      10.6  T
   9   -113.8702613 -0.113502E-06  0.633E-04    0.42      16.3  T
     SCC iter.                  ...        0 min,  0.277 sec
     gradient                   ...        0 min,  0.035 sec
 * total energy  :  -112.2001351 Eh     change       -0.6136230E-04 Eh
   gradient norm :     0.0036761 Eh/α   predicted    -0.5442732E-04 ( -11.30%)
   displ. norm   :     0.4316392 α      lambda       -0.1094296E-03
   maximum displ.:     0.2785265 α      in ANC's #1, #2, #7, ...
 * RMSD in coord.:     0.8116955 α      energy gain  -0.2915890E-02 Eh

generating ANC from exact Hessian ...
Using Lindh-Hessian (1995)
 Shifting diagonal of input Hessian by   1.021865793007278E-002
 Lowest  eigenvalues of input Hessian
    0.010000    0.010030    0.010034    0.010154    0.000000    0.000000
    0.000000    0.000000    0.000000    0.000000    0.010300    0.010372
    0.010490    0.010535    0.010764    0.010857    0.010908    0.011062
 Highest eigenvalues
    1.932406    1.971852    2.024990    2.063203    2.126642    2.202935
 

........................................................................
.............................. CYCLE  121 ..............................
........................................................................

 iter      E             dE          RMSdq      gap      omega  full diag
   1   -113.8752439 -0.113875E+03  0.102E-01    0.43       0.0  T
   2   -113.8752092  0.346695E-04  0.638E-02    0.42       1.0  T
   3   -113.8734245  0.178469E-02  0.861E-02    0.44       1.0  T
   4   -113.8752122 -0.178771E-02  0.139E-02    0.42       1.0  T
   5   -113.8752487 -0.364564E-04  0.503E-03    0.42       2.0  T
   6   -113.8752514 -0.271136E-05  0.364E-03    0.43       2.8  T
   7   -113.8752538 -0.244915E-05  0.180E-03    0.42       5.7  T
   8   -113.8752542 -0.404929E-06  0.108E-03    0.43       9.6  T
   9   -113.8752544 -0.154042E-06  0.643E-04    0.43      16.0  T
  10   -113.8752545 -0.847438E-07  0.355E-04    0.43      29.0  T
     SCC iter.                  ...        0 min,  0.459 sec
     gradient                   ...        0 min,  0.020 sec
 * total energy  :  -112.2001917 Eh     change       -0.5664577E-04 Eh
   gradient norm :     0.0037608 Eh/α   predicted     0.0000000E+00 (-100.00%)
   displ. norm   :     0.0374346 α      lambda       -0.4368031E-04
   maximum displ.:     0.0255753 α      in ANC's #5, #6, #3, ...

........................................................................
.............................. CYCLE  122 ..............................
........................................................................

 iter      E             dE          RMSdq      gap      omega  full diag
   1   -113.8739061 -0.113874E+03  0.172E-02    0.42       0.0  T
   2   -113.8739050  0.110210E-05  0.110E-02    0.43       1.0  T
   3   -113.8738566  0.484331E-04  0.156E-02    0.42       1.0  T
   4   -113.8739018 -0.452284E-04  0.456E-03    0.42       2.3  T
   5   -113.8739063 -0.447005E-05  0.126E-03    0.43       8.2  T
   6   -113.8739065 -0.262340E-06  0.726E-04    0.42      14.2  T
   7   -113.8739066 -0.968996E-07  0.387E-04    0.43      26.6  T
     SCC iter.                  ...        0 min,  0.164 sec
     gradient                   ...        0 min,  0.033 sec
 * total energy  :  -112.2002249 Eh     change       -0.3319731E-04 Eh
   gradient norm :     0.0020663 Eh/α   predicted    -0.2198730E-04 ( -33.77%)
   displ. norm   :     0.0888345 α      lambda       -0.5810387E-04
   maximum displ.:     0.0613260 α      in ANC's #5, #6, #4, ...

   *** GEOMETRY OPTIMIZATION CONVERGED AFTER 122 ITERATIONS ***

------------------------------------------------------------------------
 total energy gain   :        -0.0294312 Eh      -18.4684 kcal/mol
 total RMSD          :         3.0309881 a0        1.6039 Å
 total power (kW/mol):        -0.6333742 (step)   -1.4576 (real)
------------------------------------------------------------------------

 ANCopt (total)                0 d,  0 h,  0 min, 53.012 sec
 optimizer setup                ...        0 min,  0.001 sec (  0.002%)
 model hessian                  ...        0 min,  0.258 sec (  0.487%)
 ANC generation                 ...        0 min,  0.132 sec (  0.249%)
 coordinate transformation      ...        0 min,  0.019 sec (  0.036%)
 single point calculation       ...        0 min, 52.018 sec ( 98.125%)
 optimization log               ...        0 min,  0.169 sec (  0.319%)
 hessian update                 ...        0 min,  0.359 sec (  0.677%)
 rational function              ...        0 min,  0.036 sec (  0.068%)

================
 final structure:
================
94
 xtb: 6.7.1pre (5071a88)
C            0.48513866326875        6.54866775536226        7.04960242261884
N            0.45790897456368        5.26603895595702        7.71358223656074
C            1.02189509689685        5.21032162729612        9.04012489472064
C            0.45007453397525        4.11959032009352        6.93632391774036
C            0.05658372631858        4.14952296863100        5.59408690868339
C           -0.02890068278427        2.99177048235715        4.84520290077947
C            0.29797005205703        1.75125105657899        5.38384920728226
N            0.20979146048600        0.60621068940779        4.60563677861587
C            0.03990064715609       -0.66099193123126        5.14611708829952
C           -0.56164700864879       -1.66638951767396        4.39781694917172
C           -0.69671427070683       -2.95261542093796        4.87783116048252
C           -0.24123963723956       -3.29483561239995        6.15442461751655
N           -0.39088898523779       -4.58168035449070        6.63476582236093
C           -0.52546453477408       -5.65345347355305        5.67139726110897
C            0.14717945615195       -4.92450973574812        7.92697590740929
C            0.33481391787925       -2.27598551892306        6.92236539168688
C            0.47487521431714       -0.99298211848070        6.42801249815983
S            1.26733417739330        0.20690780048996        7.47032355056851
C            0.72811800043463        1.71945832295693        6.70907615365963
C            0.79451124694462        2.87219136699195        7.46913094784158
H           -0.44996253930482        6.71549763113939        6.51187642332685
H            1.31756565654356        6.63440737775608        6.34030309350572
H            0.58518707593551        7.33609606401225        7.79329896911669
H            2.09491403662716        4.97672292492598        9.03833060655821
H            0.50092271748339        4.45745484177191        9.63258123831696
H            0.87902236135577        6.17239964192857        9.52849485259870
H           -0.20515328685970        5.07757099038463        5.11639692782845
H           -0.35275218201990        3.05159796589746        3.81751787931285
H           -0.17798265962473        0.74135923013080        3.66828294492879
H           -0.93255981950438       -1.43313481811972        3.40994298161198
H           -1.16663007460842       -3.68242684519842        4.24319331016650
H           -0.37031507047350       -6.60762780388895        6.16870596450985
H           -1.52948457107059       -5.65561123012072        5.24092687746895
H            0.20304855692744       -5.56111709497838        4.86021548783198
H           -0.23600752634860       -4.23637608771218        8.68069286767285
H           -0.18308530155416       -5.92659840093045        8.19503570053325
H            1.24493062490168       -4.89895201164426        7.95317538460126
H            0.71158283657215       -2.46570912181481        7.91289438853698
H            1.13930326563460        2.77119764694358        8.48398828449954
B           -4.98337390969893       -2.81546110620530        1.70789843550432
B           -4.68671841832963       -1.84827773318793        0.47883586449287
B           -4.54613978462760       -1.06374450652317       -0.98462801396821
B           -3.54287239519305       -3.05450377456078        1.03493306129387
B           -3.11562515678563       -0.57386302120271       -0.60269845635294
B           -4.47700830436467       -0.08182099245197        0.51028977187796
B           -5.07352685223669        1.16721206773743        1.30568276274448
B           -4.67995390129883        2.76226079252964        1.19772635324193
B           -2.89729095057429        0.18766431019816        0.85307877247391
B           -3.23915641793270        3.11412631247346        1.87513563822224
B           -2.31070245677890       -4.10841343315357        1.40596200993503
B           -1.99934657112598       -2.77894349158476        0.58043151505273
B           -1.78186870053281       -1.19551390696617        0.16979239447916
B           -0.72172914813566       -3.61974809043872        1.13248041691456
B           -0.29491856362779       -0.60703418676878        0.52198726122005
B           -1.48151973784518       -0.10337027344229        1.58861155097728
B           -1.86372468240421        1.44608302526306        1.08155055057010
B           -1.97048185833493        3.01757668706281        0.89879237318864
B           -0.30380897522460        0.92409877908690        1.52592730935700
B           -0.82518488768743        4.03102296950367        0.34742803934332
B            0.63658922397073       -4.33434710360403        1.81005149204330
B            0.78701761268623       -2.92593446046006        1.03750145738135
B            1.14450744346084       -1.44628539108173        0.56076708056866
B            1.94169275783698       -3.39556408299901        2.14150664825795
B            2.53666992134247       -0.63270029233958        0.64912594400328
B            1.14259022595511        0.21420852300457        0.78827591071467
B            1.04871278837990        1.84388895854102        1.29233240407715
B            0.47107379958177        3.14530118128635        0.55231865451829
B            2.37994890544996        1.27322741687991        0.45801866002939
B            1.11962014190112        2.36900145885418       -0.78112876106633
B            2.75529853757392       -3.12607159806911        3.60307959811832
B            3.36720952746583       -2.61811500482994        2.18067366333388
B            3.90279152835193       -1.40135168043540        1.27994717320367
B            3.94298945739544       -2.04919241844918        3.53807360240072
B            5.29578004405168       -0.79744979973174        0.62236861941696
B            4.00064314391848        0.17748456359063        0.71583599852525
B            3.94502970469540        1.85935099959185        0.14817687776294
B            2.72590165502268        2.38618638940163       -0.88297715783618
B            5.33339390083627        0.96473785782778        0.25312298632709
B            4.19798501457269        2.78066632879475       -1.13444507537451
H           -5.46039356568670       -3.06742406441380        2.74848139365774
H           -5.85751875046893       -2.44096640682244        0.82723062755995
H           -5.33926046049577       -1.13268351846764       -1.85605686487190
H           -5.77503594014671        0.94253199183260        2.24177364752900
H           -5.45472893982991        3.55437026419265        0.79226444644687
H           -3.19604677430517        3.25887868619142        3.04833239762525
H           -2.52664430308691       -5.17464583924394        1.84612315546467
H           -0.97268402182868        5.07757999932199       -0.17570346741892
H            0.61746485172407       -5.46917365380850        2.10376497238707
H            0.43338879549968        1.84018150121182       -1.59033694475204
H            2.38127640736984       -3.66459625130042        4.57225440846126
H            4.68888215163626       -1.38649280347493        4.14005127928624
H            6.35437617789014       -1.28725610563453        0.51888403447201
H            6.42902952987702        1.37537241346360        0.20899139760426
H            5.04096403155403        3.33714995037067       -1.72009866877279
 
 Bond Distances (Angstroems)
 ---------------------------
C1-N2=1.4446         C1-H21=1.0915        C1-H22=1.0970        C1-H23=1.0877        N2-C1=1.4446         N2-C3=1.4425         
N2-C4=1.3851         C3-N2=1.4425         C3-H24=1.0982        C3-H25=1.0905        C3-H26=1.0884        C4-N2=1.3851         
C4-C5=1.3990         C4-C20=1.3995        C5-C4=1.3990         C5-C6=1.3815         C5-H27=1.0761        C6-C5=1.3815         
C6-C7=1.3914         C6-H28=1.0792        C7-C6=1.3914         C7-N8=1.3873         C7-C19=1.3937        N8-C7=1.3873         
N8-C9=1.3881         N8-H29=1.0234        C9-N8=1.3881         C9-C10=1.3902        C9-C17=1.3938        C10-C9=1.3902        
C10-C11=1.3795       C10-H30=1.0807       C11-C10=1.3795       C11-C12=1.3979       C11-H31=1.0753       C12-C11=1.3979       
C12-N13=1.3817       C12-C16=1.3999       N13-C12=1.3817       N13-C14=1.4474       N13-C15=1.4411       C14-N13=1.4474       
C14-H32=1.0871       C14-H33=1.0924       C14-H34=1.0942       C15-N13=1.4411       C15-H35=1.0902       C15-H36=1.0886       
C15-H37=1.0984       C16-C12=1.3999       C16-C17=1.3821       C16-H38=1.0766       C17-C9=1.3938        C17-C16=1.3821       
C17-S18=1.7760       S18-C17=1.7760       S18-C19=1.7771       C19-C7=1.3937        C19-S18=1.7771       C19-C20=1.3823       
C20-C4=1.3995        C20-C19=1.3823       C20-H39=1.0766       H21-C1=1.0915        H22-C1=1.0970        H23-C1=1.0877        
H24-C3=1.0982        H25-C3=1.0905        H26-C3=1.0884        H27-C5=1.0761        H28-C6=1.0792        H29-N8=1.0234        
H30-C10=1.0807       H31-C11=1.0753       H32-C14=1.0871       H33-C14=1.0924       H34-C14=1.0942       H35-C15=1.0902       
H36-C15=1.0886       H37-C15=1.0984       H38-C16=1.0766       H39-C20=1.0766       B40-B41=1.5919       B40-B43=1.6078       
B40-H80=1.1721       B40-H81=1.2961       B41-B40=1.5919       B41-B42=1.6664       B41-B43=1.7529       B41-B45=1.7791       
B41-H81=1.3577       B42-B41=1.6664       B42-B44=1.5596       B42-B45=1.7899       B42-H82=1.1803       B43-B40=1.6078       
B43-B41=1.7529       B43-B50=1.6633       B43-B51=1.6325       B44-B42=1.5596       B44-B45=1.8260       B44-B48=1.6574       
B44-B52=1.6620       B45-B41=1.7791       B45-B42=1.7899       B45-B44=1.8260       B45-B46=1.5964       B45-B48=1.6388       
B46-B45=1.5964       B46-B47=1.6464       B46-H83=1.1912       B47-B46=1.6464       B47-B49=1.6305       B47-H84=1.1799       
B48-B44=1.6574       B48-B45=1.6388       B48-B52=1.9037       B48-B55=1.6218       B48-B56=1.6444       B49-B47=1.6305       
B49-B57=1.6038       B49-H85=1.1829       B50-B43=1.6633       B50-B51=1.5956       B50-B53=1.6848       B50-H86=1.1736       
B51-B43=1.6325       B51-B50=1.5956       B51-B52=1.6502       B51-B53=1.6260       B52-B44=1.6620       B52-B48=1.9037       
B52-B51=1.6502       B52-B54=1.6375       B52-B55=1.8155       B53-B50=1.6848       B53-B51=1.6260       B53-B60=1.6777       
B53-B61=1.6633       B54-B52=1.6375       B54-B55=1.6731       B54-B58=1.8309       B54-B62=1.6667       B54-B65=1.6768       
B55-B48=1.6218       B55-B52=1.8155       B55-B54=1.6731       B55-B56=1.6745       B55-B58=1.5642       B56-B48=1.6444       
B56-B55=1.6745       B56-B57=1.5857       B56-B58=1.7039       B57-B49=1.6038       B57-B56=1.5857       B57-B59=1.6257       
B58-B54=1.8309       B58-B55=1.5642       B58-B56=1.7039       B58-B65=1.7720       B58-B66=1.6522       B59-B57=1.6257       
B59-B67=1.5833       B59-H87=1.1793       B60-B53=1.6777       B60-B61=1.6134       B60-B63=1.6415       B60-H88=1.1724       
B61-B53=1.6633       B61-B60=1.6134       B61-B62=1.5951       B61-B63=1.6651       B62-B54=1.6667       B62-B61=1.5951       
B62-B64=1.6149       B62-B65=1.6760       B63-B60=1.6415       B63-B61=1.6651       B63-B70=1.6943       B63-B71=1.6242       
B64-B62=1.6149       B64-B65=1.6371       B64-B68=1.9219       B64-B72=1.6897       B64-B75=1.6745       B65-B54=1.6768       
B65-B58=1.7720       B65-B62=1.6760       B65-B64=1.6371       B65-B66=1.7084       B65-B68=1.6618       B66-B58=1.6522       
B66-B65=1.7084       B66-B67=1.6047       B66-B68=1.6715       B66-B69=2.1401       B67-B59=1.5833       B67-B66=1.6047       
B67-B69=1.6737       B68-B64=1.9219       B68-B65=1.6618       B68-B66=1.6715       B68-B69=2.0796       B68-B75=1.9733       
B68-B76=1.6997       B68-B77=1.7767       B69-B66=2.1401       B69-B67=1.6737       B69-B68=2.0796       B69-B77=1.6096       
B69-H89=1.1855       B70-B63=1.6943       B70-B71=1.6296       B70-B73=1.6045       B70-H90=1.1701       B71-B63=1.6242       
B71-B70=1.6296       B71-B72=1.6058       B71-B73=1.5804       B72-B64=1.6897       B72-B71=1.6058       B72-B74=1.6545       
B72-B75=1.6794       B73-B70=1.6045       B73-B71=1.5804       B73-H91=1.1653       B74-B72=1.6545       B74-B75=1.6238       
B74-B78=1.8009       B74-H92=1.1710       B75-B64=1.6745       B75-B68=1.9733       B75-B72=1.6794       B75-B74=1.6238       
B75-B76=1.7760       B75-B78=1.6156       B76-B68=1.6997       B76-B75=1.7760       B76-B77=1.6814       B76-B78=1.6550       
B76-B79=1.5994       B77-B68=1.7767       B77-B69=1.6096       B77-B76=1.6814       B77-B79=1.5446       B78-B74=1.8009       
B78-B75=1.6156       B78-B76=1.6550       B78-H93=1.1709       B79-B76=1.5994       B79-B77=1.5446       B79-H94=1.1676       
H80-B40=1.1721       H81-B40=1.2961       H81-B41=1.3577       H82-B42=1.1803       H83-B46=1.1912       H84-B47=1.1799       
H85-B49=1.1829       H86-B50=1.1736       H87-B59=1.1793       H88-B60=1.1724       H89-B69=1.1855       H90-B70=1.1701       
H91-B73=1.1653       H92-B74=1.1710       H93-B78=1.1709       H94-B79=1.1676       
 B  H  Rav=1.1947 sigma=0.0516  Rmin=1.1653  Rmax=1.3577    16
 B  B  Rav=1.6822 sigma=0.1076  Rmin=1.5446  Rmax=2.1401    77
 C  H  Rav=1.0871 sigma=0.0077  Rmin=1.0753  Rmax=1.0984    18
 C  C  Rav=1.3909 sigma=0.0074  Rmin=1.3795  Rmax=1.3999    12
 N  H  Rav=1.0234 sigma=0.0000  Rmin=1.0234  Rmax=1.0234     1
 N  C  Rav=1.4147 sigma=0.0293  Rmin=1.3817  Rmax=1.4474     8
 S  C  Rav=1.7765 sigma=0.0006  Rmin=1.7760  Rmax=1.7771     2
 
 selected bond angles (degree)
 --------------------
H21-C1-N2=110.24               H22-C1-N2=112.39               H22-C1-H21=108.64              H23-C1-N2=109.28               
H23-C1-H21=107.76              H23-C1-H22=108.40              C3-N2-C1=116.72                C4-N2-C1=118.50                
C4-N2-C3=119.10                H24-C3-N2=112.88               H25-C3-N2=109.85               H25-C3-H24=108.71              
H26-C3-N2=109.10               H26-C3-H24=108.48              H26-C3-H25=107.68              C5-C4-N2=121.48                
C20-C4-N2=121.51               C20-C4-C5=116.97               C6-C5-C4=121.30                H27-C5-C4=120.85               
H27-C5-C6=117.84               C7-C6-C5=121.52                H28-C6-C5=119.23               H28-C6-C7=119.25               
N8-C7-C6=120.25                C19-C7-C6=117.45               C19-C7-N8=122.29               C9-N8-C7=122.88                
H29-N8-C7=115.40               H29-N8-C9=115.52               C10-C9-N8=120.24               C17-C9-N8=122.50               
C17-C9-C10=117.25              C11-C10-C9=121.96              H30-C10-C9=118.98              H30-C10-C11=119.06             
 
 selected dihedral angles (degree)
 ---------------------------------
C3-N2-C1-H21=220.39           C3-N2-C1-H22= 99.03           C3-N2-C1-H23=338.64           C4-N2-C1-H21= 67.18           
C4-N2-C1-H22=305.82           C4-N2-C1-H23=185.43           H24-C3-N2-C1=270.35           H24-C3-N2-C4= 63.40           
H25-C3-N2-C1=148.85           H25-C3-N2-C4=301.90           H26-C3-N2-C1= 31.03           H26-C3-N2-C4=184.08           
C5-C4-N2-C1=339.90            C5-C4-N2-C3=187.33            C20-C4-N2-C1=161.96           C20-C4-N2-C3=  9.39           
C6-C5-C4-N2=184.04            C6-C5-C4-C20=  2.07           H27-C5-C4-N2=  3.03           H27-C5-C4-C20=181.07          
C7-C6-C5-C4=358.67            C7-C6-C5-H27=179.65           H28-C6-C5-C4=178.93           H28-C6-C5-H27=359.91          
N8-C7-C6-C5=180.37            N8-C7-C6-H28=  0.11           C19-C7-C6-C5=359.45           C19-C7-C6-H28=179.19          
C9-N8-C7-C6=204.06            C9-N8-C7-C19= 25.02           H29-N8-C7-C6=355.08           H29-N8-C7-C19=176.04          
C10-C9-N8-C7=154.16           C10-C9-N8-H29=  3.17          C17-C9-N8-C7=332.97           C17-C9-N8-H29=181.98          
C11-C10-C9-N8=177.17          C11-C10-C9-C17=358.30         H30-C10-C9-N8=357.29          H30-C10-C9-C17=178.42         
 
 CMA Distance (Angstroems)
 ---------------------------
R(CMA):  5.6041
           -------------------------------------------------
          |                Final Singlepoint                |
           -------------------------------------------------

          ...................................................
          :                      SETUP                      :
          :.................................................:
          :  # basis functions                 280          :
          :  # atomic orbitals                 279          :
          :  # shells                          155          :
          :  # electrons                       239          :
          :  max. iterations                   500          :
          :  Hamiltonian                  GFN2-xTB          :
          :  restarted?                      false          :
          :  GBSA solvation                  false          :
          :  PC potential                    false          :
          :  electronic temp.          300.0000000     K    :
          :  accuracy                    1.0000000          :
          :  -> integral cutoff          0.2500000E+02      :
          :  -> integral neglect         0.1000000E-07      :
          :  -> SCF convergence          0.1000000E-05 Eh   :
          :  -> wf. convergence          0.1000000E-03 e    :
          :  Broyden damping             0.4000000          :
          :  net charge                          0          :
          :  unpaired electrons                  0          :
          ...................................................

 iter      E             dE          RMSdq      gap      omega  full diag
   1   -113.8739066 -0.113874E+03  0.242E-04    0.43       0.0  T
   2   -113.8739066  0.542141E-07  0.514E-04    0.43      20.1  T
   3   -113.8739066 -0.628259E-07  0.102E-04    0.43     101.0  T

   *** convergence criteria satisfied after 3 iterations ***

         #    Occupation            Energy/Eh            Energy/eV
      -------------------------------------------------------------
         1        2.0000           -0.6883793             -18.7318
       ...           ...                  ...                  ...
       114        2.0000           -0.2879083              -7.8344
       115        2.0000           -0.2830209              -7.7014
       116        2.0000           -0.2801183              -7.6224
       117        2.0000           -0.2759794              -7.5098
       118        1.9999           -0.2709006              -7.3716
       119        1.9997           -0.2692852              -7.3276
       120        1.0001           -0.2540082              -6.9119 (HOMO)
       121        0.0003           -0.2383868              -6.4868 (LUMO)
       122                         -0.2218937              -6.0380
       123                         -0.2145421              -5.8380
       124                         -0.2093340              -5.6963
       125                         -0.2084491              -5.6722
       ...                                ...                  ...
       279                          1.0747037              29.2442
      -------------------------------------------------------------
                  HL-Gap            0.0156214 Eh            0.4251 eV
             Fermi-level           -0.2538821 Eh           -6.9085 eV

 SCC (total)                   0 d,  0 h,  0 min,  0.135 sec
 SCC setup                      ...        0 min,  0.004 sec (  2.963%)
 Dispersion                     ...        0 min,  0.000 sec (  0.000%)
 classical contributions        ...        0 min,  0.000 sec (  0.000%)
 integral evaluation            ...        0 min,  0.008 sec (  5.926%)
 iterations                     ...        0 min,  0.094 sec ( 69.630%)
 molecular gradient             ...        0 min,  0.023 sec ( 17.037%)
 printout                       ...        0 min,  0.006 sec (  4.444%)

         :::::::::::::::::::::::::::::::::::::::::::::::::::::
         ::                     SUMMARY                     ::
         :::::::::::::::::::::::::::::::::::::::::::::::::::::
         :: total energy            -112.200224959271 Eh    ::
         :: gradient norm              0.002076195460 Eh/a0 ::
         :: HOMO-LUMO gap              0.425080553498 eV    ::
         ::.................................................::
         :: SCC energy              -113.869433413109 Eh    ::
         :: -> isotropic ES            0.222744137768 Eh    ::
         :: -> anisotropic ES          0.015216150797 Eh    ::
         :: -> anisotropic XC          0.013393993812 Eh    ::
         :: -> dispersion             -0.133770632991 Eh    ::
         :: repulsion energy           1.669208453838 Eh    ::
         :: add. restraining           0.000000000000 Eh    ::
         :: total charge               0.000000000025 e     ::
         :::::::::::::::::::::::::::::::::::::::::::::::::::::

           -------------------------------------------------
          |                Property Printout                |
           -------------------------------------------------

    * Orbital Energies and Occupations

         #    Occupation            Energy/Eh            Energy/eV
      -------------------------------------------------------------
         1        2.0000           -0.6883793             -18.7318
       ...           ...                  ...                  ...
       108        2.0000           -0.3032612              -8.2522
       109        2.0000           -0.3025499              -8.2328
       110        2.0000           -0.3004883              -8.1767
       111        2.0000           -0.2984729              -8.1219
       112        2.0000           -0.2944962              -8.0136
       113        2.0000           -0.2903241              -7.9001
       114        2.0000           -0.2879083              -7.8344
       115        2.0000           -0.2830209              -7.7014
       116        2.0000           -0.2801183              -7.6224
       117        2.0000           -0.2759794              -7.5098
       118        1.9999           -0.2709006              -7.3716
       119        1.9997           -0.2692852              -7.3276
       120        1.0001           -0.2540082              -6.9119 (HOMO)
       121        0.0003           -0.2383868              -6.4868 (LUMO)
       122                         -0.2218937              -6.0380
       123                         -0.2145421              -5.8380
       124                         -0.2093340              -5.6963
       125                         -0.2084491              -5.6722
       126                         -0.1989011              -5.4124
       127                         -0.1970895              -5.3631
       128                         -0.1953512              -5.3158
       129                         -0.1941558              -5.2832
       130                         -0.1857658              -5.0549
       131                         -0.1789608              -4.8698
       ...                                ...                  ...
       279                          1.0747037              29.2442
      -------------------------------------------------------------
                  HL-Gap            0.0156214 Eh            0.4251 eV
             Fermi-level           -0.2538821 Eh           -6.9085 eV

     #   Z          covCN         q      C6AA      α(0)
     1   6 C        3.699    -0.046    21.560     6.641
     2   7 N        2.733    -0.106    23.324     7.173
     3   6 C        3.698    -0.043    21.518     6.635
     4   6 C        2.914     0.050    26.872     8.500
     5   6 C        2.923    -0.073    29.823     8.956
     6   6 C        2.925    -0.086    30.142     9.003
     7   6 C        2.937     0.043    27.037     8.528
     8   7 N        2.696    -0.202    25.387     7.483
     9   6 C        2.938     0.039    27.117     8.540
    10   6 C        2.927    -0.101    30.533     9.062
    11   6 C        2.923    -0.083    30.079     8.994
    12   6 C        2.917     0.052    26.833     8.494
    13   7 N        2.733    -0.105    23.309     7.170
    14   6 C        3.699    -0.056    21.751     6.670
    15   6 C        3.697    -0.045    21.552     6.640
    16   6 C        2.980    -0.078    29.949     8.977
    17   6 C        2.970     0.022    27.503     8.602
    18  16 S        2.124    -0.156   147.626    20.450
    19   6 C        2.969     0.022    27.518     8.605
    20   6 C        2.981    -0.078    29.948     8.977
    21   1 H        0.924     0.049     2.331     2.388
    22   1 H        0.924     0.035     2.516     2.481
    23   1 H        0.925     0.045     2.379     2.412
    24   1 H        0.923     0.032     2.559     2.502
    25   1 H        0.924     0.051     2.312     2.378
    26   1 H        0.925     0.044     2.397     2.421
    27   1 H        0.926     0.034     2.533     2.489
    28   1 H        0.926     0.052     2.296     2.370
    29   1 H        0.859     0.181     1.207     1.721
    30   1 H        0.926     0.049     2.333     2.388
    31   1 H        0.926     0.049     2.337     2.390
    32   1 H        0.925     0.045     2.380     2.412
    33   1 H        0.924     0.049     2.333     2.388
    34   1 H        0.924     0.054     2.271     2.357
    35   1 H        0.925     0.050     2.324     2.384
    36   1 H        0.925     0.044     2.400     2.422
    37   1 H        0.923     0.033     2.542     2.493
    38   1 H        0.926     0.036     2.504     2.475
    39   1 H        0.926     0.035     2.515     2.480
    40   5 B        3.718     0.069    21.382     7.475
    41   5 B        4.587     0.064    21.582     7.485
    42   5 B        3.765     0.028    22.172     7.598
    43   5 B        3.818     0.035    22.085     7.576
    44   5 B        3.864     0.058    21.685     7.505
    45   5 B        4.600     0.028    22.231     7.597
    46   5 B        2.892     0.048    20.586     7.572
    47   5 B        2.866     0.089    19.927     7.452
    48   5 B        4.649     0.032    22.156     7.584
    49   5 B        2.969     0.068    20.236     7.505
    50   5 B        3.822     0.057    21.695     7.508
    51   5 B        3.869     0.021    22.347     7.618
    52   5 B        4.527    -0.007    22.880     7.707
    53   5 B        3.835     0.046    21.896     7.542
    54   5 B        4.697     0.059    21.667     7.500
    55   5 B        4.730     0.050    21.827     7.528
    56   5 B        3.937     0.043    21.954     7.550
    57   5 B        2.928     0.023    21.004     7.647
    58   5 B        4.656     0.013    22.508     7.644
    59   5 B        2.877     0.053    20.502     7.558
    60   5 B        3.827     0.065    21.553     7.483
    61   5 B        3.862     0.024    22.300     7.611
    62   5 B        3.857    -0.008    22.890     7.711
    63   5 B        3.842     0.050    21.830     7.531
    64   5 B        4.581     0.026    22.266     7.603
    65   5 B        5.690     0.103    20.926     7.371
    66   5 B        4.155     0.014    22.484     7.640
    67   5 B        2.922     0.029    20.890     7.627
    68   5 B        5.593     0.062    21.618     7.491
    69   5 B        3.619     0.065    21.021     7.495
    70   5 B        3.826     0.052    21.784     7.524
    71   5 B        3.880     0.031    22.163     7.587
    72   5 B        3.900     0.015    22.467     7.638
    73   5 B        2.947     0.090    19.882     7.439
    74   5 B        3.755     0.076    21.317     7.452
    75   5 B        5.402     0.099    20.988     7.382
    76   5 B        4.741     0.041    22.003     7.558
    77   5 B        3.807     0.012    22.490     7.646
    78   5 B        3.761     0.080    21.260     7.441
    79   5 B        2.893     0.052    20.519     7.560
    80   1 H        0.938    -0.125     6.516     3.991
    81   1 H        1.562     0.030     2.570     2.503
    82   1 H        0.935    -0.152     7.790     4.364
    83   1 H        0.931    -0.139     7.168     4.186
    84   1 H        0.936    -0.130     6.736     4.058
    85   1 H        0.934    -0.126     6.556     4.003
    86   1 H        0.938    -0.117     6.186     3.889
    87   1 H        0.936    -0.143     7.309     4.227
    88   1 H        0.938    -0.105     5.723     3.740
    89   1 H        0.933    -0.154     7.913     4.398
    90   1 H        0.939    -0.109     5.887     3.793
    91   1 H        0.940    -0.138     7.097     4.165
    92   1 H        0.939    -0.119     6.281     3.918
    93   1 H        0.939    -0.115     6.122     3.868
    94   1 H        0.940    -0.146     7.490     4.279

 Mol. C6AA /au·bohr⁶  :     131213.014689
 Mol. C8AA /au·bohr⁸  :    4016923.252475
 Mol. α(0) /au        :        580.774924


Wiberg/Mayer (AO) data.
largest (>0.10) Wiberg bond orders for each atom

 ---------------------------------------------------------------------------
     #   Z sym  total        # sym  WBO       # sym  WBO       # sym  WBO
 ---------------------------------------------------------------------------
     1   6 C    3.981 --     2 N    1.010    23 H    0.981    21 H    0.977
                            22 H    0.976
     2   7 N    3.352 --     4 C    1.132     3 C    1.013     1 C    1.010
     3   6 C    3.982 --     2 N    1.013    26 H    0.980    25 H    0.977
                            24 H    0.974
     4   6 C    3.963 --     5 C    1.337    20 C    1.332     2 N    1.132
     5   6 C    3.983 --     6 C    1.454     4 C    1.337    27 H    0.966
     6   6 C    3.978 --     5 C    1.454     7 C    1.354    28 H    0.962
     7   6 C    3.969 --     6 C    1.354    19 C    1.319     8 N    1.102
     8   7 N    3.376 --     7 C    1.102     9 C    1.100    29 H    0.875
     9   6 C    3.968 --    10 C    1.355    17 C    1.317     8 N    1.100
    10   6 C    3.973 --    11 C    1.453     9 C    1.355    30 H    0.939
    11   6 C    3.982 --    10 C    1.453    12 C    1.335    31 H    0.962
    12   6 C    3.964 --    11 C    1.335    16 C    1.330    13 N    1.138
    13   7 N    3.356 --    12 C    1.138    15 C    1.014    14 C    1.005
    14   6 C    3.977 --    13 N    1.005    32 H    0.982    33 H    0.977
                            34 H    0.974
    15   6 C    3.982 --    13 N    1.014    36 H    0.981    35 H    0.977
                            37 H    0.974
    16   6 C    3.980 --    17 C    1.430    12 C    1.330    38 H    0.964
    17   6 C    3.956 --    16 C    1.430     9 C    1.317    18 S    1.014
    18  16 S    2.314 --    19 C    1.014    17 C    1.014
    19   6 C    3.957 --    20 C    1.428     7 C    1.319    18 S    1.014
    20   6 C    3.980 --    19 C    1.428     4 C    1.332    39 H    0.964
    21   1 H    0.997 --     1 C    0.977
    22   1 H    0.998 --     1 C    0.976
    23   1 H    0.998 --     1 C    0.981
    24   1 H    0.998 --     3 C    0.974
    25   1 H    0.997 --     3 C    0.977
    26   1 H    0.998 --     3 C    0.980
    27   1 H    0.998 --     5 C    0.966
    28   1 H    0.997 --     6 C    0.962
    29   1 H    0.965 --     8 N    0.875
    30   1 H    0.997 --    10 C    0.939
    31   1 H    0.996 --    11 C    0.962
    32   1 H    0.997 --    14 C    0.982
    33   1 H    0.997 --    14 C    0.977
    34   1 H    0.997 --    14 C    0.974
    35   1 H    0.997 --    15 C    0.977
    36   1 H    0.998 --    15 C    0.981
    37   1 H    0.998 --    15 C    0.974
    38   1 H    0.998 --    16 C    0.964
    39   1 H    0.998 --    20 C    0.964
    40   5 B    3.564 --    80 H    0.951    43 B    0.929    41 B    0.877
                            81 H    0.525
    41   5 B    3.553 --    40 B    0.877    42 B    0.749    43 B    0.622
                            45 B    0.528    81 H    0.440    44 B    0.139
    42   5 B    3.580 --    44 B    1.128    82 H    0.947    41 B    0.749
                            45 B    0.461
    43   5 B    3.576 --    40 B    0.929    50 B    0.841    51 B    0.818
                            41 B    0.622    53 B    0.107
    44   5 B    3.385 --    42 B    1.128    52 B    0.798    48 B    0.626
                            45 B    0.433    41 B    0.139
    45   5 B    3.594 --    46 B    1.093    48 B    0.756    41 B    0.528
                            42 B    0.461    44 B    0.433
    46   5 B    3.448 --    45 B    1.093    47 B    0.990    83 H    0.906
                            48 B    0.170    49 B    0.100
    47   5 B    3.249 --    49 B    1.014    46 B    0.990    84 H    0.941
                            57 B    0.108
    48   5 B    3.680 --    56 B    0.783    45 B    0.756    55 B    0.712
                            44 B    0.626    52 B    0.366    46 B    0.170
    49   5 B    3.421 --    47 B    1.014    57 B    0.984    85 H    0.923
                            56 B    0.211    46 B    0.100
    50   5 B    3.628 --    86 H    0.926    43 B    0.841    51 B    0.838
                            53 B    0.798
    51   5 B    3.617 --    53 B    0.840    50 B    0.838    52 B    0.824
                            43 B    0.818
    52   5 B    3.649 --    54 B    0.839    51 B    0.824    44 B    0.798
                            55 B    0.445    48 B    0.366
    53   5 B    3.594 --    51 B    0.840    50 B    0.798    60 B    0.771
                            61 B    0.742    43 B    0.107
    54   5 B    3.579 --    52 B    0.839    62 B    0.684    55 B    0.608
                            65 B    0.575    58 B    0.448
    55   5 B    3.605 --    58 B    0.916    48 B    0.712    54 B    0.608
                            56 B    0.589    52 B    0.445
    56   5 B    3.554 --    57 B    0.958    48 B    0.783    58 B    0.672
                            55 B    0.589    49 B    0.211
    57   5 B    3.443 --    49 B    0.984    59 B    0.979    56 B    0.958
                            67 B    0.171    47 B    0.108
    58   5 B    3.656 --    55 B    0.916    66 B    0.759    56 B    0.672
                            65 B    0.451    54 B    0.448
    59   5 B    3.411 --    67 B    1.135    57 B    0.979    87 H    0.950
                            69 B    0.103
    60   5 B    3.577 --    88 H    0.921    63 B    0.862    61 B    0.783
                            53 B    0.771
    61   5 B    3.603 --    62 B    0.993    60 B    0.783    53 B    0.742
                            63 B    0.702
    62   5 B    3.628 --    61 B    0.993    64 B    0.921    54 B    0.684
                            65 B    0.591
    63   5 B    3.597 --    60 B    0.862    71 B    0.831    70 B    0.742
                            61 B    0.702    73 B    0.134
    64   5 B    3.665 --    62 B    0.921    72 B    0.685    65 B    0.672
                            75 B    0.607    68 B    0.382
    65   5 B    3.671 --    64 B    0.672    62 B    0.591    68 B    0.587
                            54 B    0.575    66 B    0.522    58 B    0.451
    66   5 B    3.534 --    67 B    0.974    68 B    0.776    58 B    0.759
                            65 B    0.522    69 B    0.201
    67   5 B    3.397 --    59 B    1.135    66 B    0.974    69 B    0.785
                            57 B    0.171
    68   5 B    3.638 --    66 B    0.776    76 B    0.609    65 B    0.587
                            77 B    0.491    64 B    0.382    75 B    0.311
                            69 B    0.260
    69   5 B    3.492 --    77 B    0.979    89 H    0.938    67 B    0.785
                            68 B    0.260    66 B    0.201    59 B    0.103
    70   5 B    3.605 --    73 B    1.018    90 H    0.921    71 B    0.760
                            63 B    0.742
    71   5 B    3.610 --    73 B    0.924    72 B    0.896    63 B    0.831
                            70 B    0.760
    72   5 B    3.616 --    71 B    0.896    74 B    0.883    64 B    0.685
                            75 B    0.597    73 B    0.256
    73   5 B    3.476 --    70 B    1.018    91 H    0.971    71 B    0.924
                            72 B    0.256    63 B    0.134
    74   5 B    3.507 --    92 H    0.955    72 B    0.883    75 B    0.773
                            78 B    0.655
    75   5 B    3.663 --    78 B    0.785    74 B    0.773    64 B    0.607
                            72 B    0.597    76 B    0.451    68 B    0.311
    76   5 B    3.640 --    79 B    0.949    78 B    0.777    77 B    0.693
                            68 B    0.609    75 B    0.451
    77   5 B    3.564 --    79 B    1.165    69 B    0.979    76 B    0.693
                            68 B    0.491
    78   5 B    3.548 --    93 H    0.954    75 B    0.785    76 B    0.777
                            74 B    0.655    79 B    0.175
    79   5 B    3.501 --    77 B    1.165    94 H    0.968    76 B    0.949
                            78 B    0.175
    80   1 H    0.979 --    40 B    0.951
    81   1 H    0.995 --    40 B    0.525    41 B    0.440
    82   1 H    0.974 --    42 B    0.947
    83   1 H    0.977 --    46 B    0.906
    84   1 H    0.980 --    47 B    0.941
    85   1 H    0.980 --    49 B    0.923
    86   1 H    0.976 --    50 B    0.926
    87   1 H    0.977 --    59 B    0.950
    88   1 H    0.977 --    60 B    0.921
    89   1 H    0.973 --    69 B    0.938
    90   1 H    0.979 --    70 B    0.921
    91   1 H    0.980 --    73 B    0.971
    92   1 H    0.982 --    74 B    0.955
    93   1 H    0.982 --    78 B    0.954
    94   1 H    0.977 --    79 B    0.968
 ---------------------------------------------------------------------------

Topologies differ in total number of bonds
Writing topology from bond orders to xtbtopo.mol

molecular dipole:
                 x           y           z       tot (Debye)
 q only:        0.853      -1.343      -1.017
   full:        0.383      -1.552      -0.036       4.063
molecular quadrupole (traceless):
                xx          xy          yy          xz          yz          zz
 q only:      -33.203       5.202      31.790       4.188      15.569       1.412
  q+dip:      -12.845      14.798      22.742       2.240       9.479      -9.897
   full:      -20.506       9.815      22.203       1.537      15.241      -1.697

           -------------------------------------------------
          |                Geometry Summary                 |
           -------------------------------------------------

      molecular mass/u    :      732.9677789
   center of mass at/Å    :        0.0673240      -0.0090787       3.0581858
  moments of inertia/u·Å² :        0.1010205E+05   0.1138082E+05   0.1272821E+05
rotational constants/cm⁻¹ :        0.1668733E-02   0.1481231E-02   0.1324431E-02

 * 119 selected distances

     #   Z          #   Z                                           value/Å
     1   6 C        2   7 N                                       1.4445580
     2   7 N        3   6 C                                       1.4425327
     2   7 N        4   6 C                                       1.3851125
     4   6 C        5   6 C                                       1.3990467
     5   6 C        6   6 C                                       1.3814941
     6   6 C        7   6 C                                       1.3913566
     7   6 C        8   7 N                                       1.3872663
     8   7 N        9   6 C                                       1.3880867
     9   6 C       10   6 C                                       1.3901933
    10   6 C       11   6 C                                       1.3795051
    11   6 C       12   6 C                                       1.3979496
    12   6 C       13   7 N                                       1.3816991
    13   7 N       14   6 C                                       1.4473726
    13   7 N       15   6 C                                       1.4411304
    12   6 C       16   6 C                                       1.3998666
     9   6 C       17   6 C                                       1.3937993
    16   6 C       17   6 C                                       1.3820637
     7   6 C       19   6 C                                       1.3936516
     4   6 C       20   6 C                                       1.3994729
    19   6 C       20   6 C                                       1.3823477
     1   6 C       21   1 H                                       1.0915109
     1   6 C       22   1 H                                       1.0969921
     1   6 C       23   1 H                                       1.0877214
     3   6 C       24   1 H                                       1.0981537
     3   6 C       25   1 H                                       1.0905161
     3   6 C       26   1 H                                       1.0883530
     5   6 C       27   1 H                                       1.0760889
     6   6 C       28   1 H                                       1.0791644
     8   7 N       29   1 H                                       1.0233603 (min)
    10   6 C       30   1 H                                       1.0806846
    11   6 C       31   1 H                                       1.0752725
    14   6 C       32   1 H                                       1.0871229
    14   6 C       33   1 H                                       1.0924129
    14   6 C       34   1 H                                       1.0941999
    15   6 C       35   1 H                                       1.0901604
    15   6 C       36   1 H                                       1.0886289
    15   6 C       37   1 H                                       1.0983613
    16   6 C       38   1 H                                       1.0766140
    20   6 C       39   1 H                                       1.0765765
    40   5 B       41   5 B                                       1.5918679
    41   5 B       42   5 B                                       1.6664278
    40   5 B       43   5 B                                       1.6078149
    42   5 B       44   5 B                                       1.5595597
    45   5 B       46   5 B                                       1.5964236
    46   5 B       47   5 B                                       1.6464310
    44   5 B       48   5 B                                       1.6573719
    45   5 B       48   5 B                                       1.6387904
    47   5 B       49   5 B                                       1.6305185
    43   5 B       50   5 B                                       1.6633194
    43   5 B       51   5 B                                       1.6324759
    50   5 B       51   5 B                                       1.5955983
    44   5 B       52   5 B                                       1.6619563
    51   5 B       52   5 B                                       1.6502033
    50   5 B       53   5 B                                       1.6847619
    51   5 B       53   5 B                                       1.6260434
    52   5 B       54   5 B                                       1.6374892
    48   5 B       55   5 B                                       1.6217639
    54   5 B       55   5 B                                       1.6731370
    48   5 B       56   5 B                                       1.6444077
    55   5 B       56   5 B                                       1.6745141
    49   5 B       57   5 B                                       1.6037779
    56   5 B       57   5 B                                       1.5856830
    55   5 B       58   5 B                                       1.5641691
    56   5 B       58   5 B                                       1.7039002
    57   5 B       59   5 B                                       1.6256634
    53   5 B       60   5 B                                       1.6777317
    53   5 B       61   5 B                                       1.6633447
    60   5 B       61   5 B                                       1.6134091
    54   5 B       62   5 B                                       1.6666716
    61   5 B       62   5 B                                       1.5951290
    60   5 B       63   5 B                                       1.6414846
    61   5 B       63   5 B                                       1.6651290
    62   5 B       64   5 B                                       1.6148823
    54   5 B       65   5 B                                       1.6768367
    58   5 B       65   5 B                                       1.7720454
    62   5 B       65   5 B                                       1.6760085
    64   5 B       65   5 B                                       1.6370938
    58   5 B       66   5 B                                       1.6522397
    65   5 B       66   5 B                                       1.7084334
    59   5 B       67   5 B                                       1.5832783
    66   5 B       67   5 B                                       1.6046686
    65   5 B       68   5 B                                       1.6618207
    66   5 B       68   5 B                                       1.6715036
    67   5 B       69   5 B                                       1.6737193
    63   5 B       70   5 B                                       1.6943366
    63   5 B       71   5 B                                       1.6242105
    70   5 B       71   5 B                                       1.6296300
    64   5 B       72   5 B                                       1.6896891
    71   5 B       72   5 B                                       1.6058237
    70   5 B       73   5 B                                       1.6045263
    71   5 B       73   5 B                                       1.5804210
    72   5 B       74   5 B                                       1.6545466
    64   5 B       75   5 B                                       1.6745351
    72   5 B       75   5 B                                       1.6794406
    74   5 B       75   5 B                                       1.6237651
    68   5 B       76   5 B                                       1.6997121
    75   5 B       76   5 B                                       1.7759519
    68   5 B       77   5 B                                       1.7766911 (max)
    69   5 B       77   5 B                                       1.6095991
    76   5 B       77   5 B                                       1.6814006
    75   5 B       78   5 B                                       1.6155792
    76   5 B       78   5 B                                       1.6549628
    76   5 B       79   5 B                                       1.5993523
    77   5 B       79   5 B                                       1.5446295
    40   5 B       80   1 H                                       1.1721119
    40   5 B       81   1 H                                       1.2961295
    42   5 B       82   1 H                                       1.1803311
    46   5 B       83   1 H                                       1.1911602
    47   5 B       84   1 H                                       1.1798785
    49   5 B       85   1 H                                       1.1828789
    50   5 B       86   1 H                                       1.1735521
    59   5 B       87   1 H                                       1.1792813
    60   5 B       88   1 H                                       1.1723758
    69   5 B       89   1 H                                       1.1854881
    70   5 B       90   1 H                                       1.1701288
    73   5 B       91   1 H                                       1.1652914
    74   5 B       92   1 H                                       1.1710018
    78   5 B       93   1 H                                       1.1708911
    79   5 B       94   1 H                                       1.1675950

 * 6 distinct bonds (by element types)

   Z      Z             #   av. dist./Å        max./Å        min./Å
   1 H    5 B          15     1.1838730     1.2961295     1.1652914
   5 B    5 B          65     1.6448970     1.7766911     1.5446295
   1 H    6 C          18     1.0871408     1.0983613     1.0752725
   6 C    6 C          12     1.3908956     1.3998666     1.3795051
   1 H    7 N           1     1.0233603     1.0233603     1.0233603
   6 C    7 N           8     1.4147198     1.4473726     1.3816991


optimized geometry written to: xtbopt.xyz


           -------------------------------------------------
          | TOTAL ENERGY             -112.200224959271 Eh   |
          | GRADIENT NORM               0.002076195460 Eh/α |
          | HOMO-LUMO GAP               0.425080553498 eV   |
           -------------------------------------------------

------------------------------------------------------------------------
 * finished run on 2026/09/02 at 15:07:01.415     
------------------------------------------------------------------------
 total:
 * wall-time:     0 d,  0 h,  0 min, 54.128 sec
 *  cpu-time:     0 d,  0 h,  6 min, 47.766 sec
 * ratio c/w:     7.533 speedup
 SCF:
 * wall-time:     0 d,  0 h,  0 min,  0.909 sec
 *  cpu-time:     0 d,  0 h,  0 min,  5.531 sec
 * ratio c/w:     6.085 speedup
 ANC optimizer:
 * wall-time:     0 d,  0 h,  0 min, 53.155 sec
 *  cpu-time:     0 d,  0 h,  6 min, 41.859 sec
 * ratio c/w:     7.560 speedup

