94
 energy: -112.273647497120 gnorm: 0.004363908452 xtb: 6.7.1pre (5071a88)
C           -6.17960362776650       -0.19110622794274        6.77199986707923
N           -5.06167719851947        0.03869062577848        7.66115361867822
C           -5.26977989275312        1.00351215443908        8.71368209056225
C           -3.78418967008952       -0.11347673244034        7.14104941273314
C           -3.55173783897744       -0.91593145618269        6.02081727543808
C           -2.27882629067100       -1.08681585069993        5.51446483789966
C           -1.17453742807975       -0.46682099525255        6.08907308417289
N            0.07992282284978       -0.63035064233354        5.53152191414525
C            1.27272008979840       -0.38474529148739        6.18509677841391
C            2.45667898820183       -0.93082095116882        5.70251895876615
C            3.67574600932024       -0.66765178200061        6.29675733148655
C            3.76539865135436        0.13893801967079        7.43476420518372
N            4.97690384826045        0.37457394222307        8.06799439071327
C            6.19300581767320        0.09064930801921        7.34232189474959
C            5.04532510636712        1.43328958652827        9.04771411722684
C            2.56896026432951        0.66542989802804        7.93552989076300
C            1.35584847299378        0.41601483003762        7.32238714959191
S           -0.07852448654795        1.19517526470732        8.02405404209759
C           -1.39852126569158        0.32193896620189        7.21549998085424
C           -2.66997175290139        0.49320446435167        7.73023279124311
H           -6.28207650830547       -1.25808532026019        6.56295077345921
H           -6.06987624031776        0.34407757380318        5.82144953448545
H           -7.09694258253739        0.14197243960411        7.25245722747187
H           -5.05719916207321        2.03365855737013        8.39764699665381
H           -4.63530381457725        0.76090868071236        9.56638421148222
H           -6.30519431958355        0.94958722083464        9.04564171362329
H           -4.36464782118092       -1.42293823227263        5.53128434718229
H           -2.13348560613126       -1.70187934890713        4.63883899210594
H            0.13447540486663       -1.20345080536928        4.70175959149867
H            2.41882575506528       -1.56409108871594        4.82937304762806
H            4.55471307620188       -1.10569145671574        5.85684351240198
H            7.04825006229206        0.37390102732270        7.95223614435303
H            6.26768094241941       -0.97952311147530        7.14342208412249
H            6.25137410512990        0.63032280036465        6.38842104347051
H            4.39594491592219        1.20126837764347        9.89293827908570
H            6.06372123140745        1.50813427358971        9.42329379992158
H            4.75274796675531        2.40840029149963        8.63728396179481
H            2.55507942808903        1.29647158548606        8.80768520296395
H           -2.76668691128050        1.13079812471093        8.59251556584914
B           -4.61550210041688       -3.20969158756963        0.48447653333767
B           -4.42084970059712       -1.70909558983732       -0.05292696262429
B           -4.49720037838544       -0.22995760395408       -0.83030553280970
B           -3.42161693008518       -2.98889838807395       -0.57010758334403
B           -2.97533150349621        0.06271024351341       -0.65183172697555
B           -3.86001670915461       -0.33486837558972        0.86989337593759
B           -4.05382238332424        0.30389657180845        2.31507678229687
B           -3.57363861001590        1.78293729624793        2.81372948909758
B           -2.21694697605014       -0.18456384065818        0.77521400149499
B           -1.94717408400864        1.76064908883271        2.80625828911742
B           -2.21901484485678       -4.01970516770978       -1.07479233491798
B           -2.00551293279533       -2.42352131004429       -1.12055787851326
B           -1.58153275709236       -0.85063088179957       -0.80053129046884
B           -0.69020318353151       -3.37730318099815       -1.07485591779257
B           -0.06909674780270       -0.28627774324094       -0.91260899639352
B           -0.60779340310026       -0.57512172005102        0.82354971416187
B           -1.20634033601113        1.07687196734030        1.01653786809557
B           -1.19727603562315        2.54741750539299        1.60772102795588
B            0.30333446354600        0.82665876191100        0.38942432611379
B           -0.16607555097617        3.75553469189025        1.63819088956145
B            0.43229679731744       -3.78639519718802        0.19247606059732
B            0.78411889911357       -2.74253980104791       -1.05241413854978
B            1.37899532609641       -1.29811036920569       -1.16443368656864
B            1.31271626190229       -2.51581082826380        0.52753478603641
B            2.74799070529843       -0.44603983830243       -1.09254488163371
B            1.28239675211175        0.50577490638574       -0.97431387879057
B            1.56691167783098        1.45799928231571        1.22695900727517
B            1.10856743274264        2.96276576951100        1.03927224296426
B            2.71894440088507        1.27367853898346       -1.08521986011516
B            1.52563436342660        3.58318584092444       -0.46971083979443
B            0.50977285017207       -1.41843005673522        1.73558557778422
B            2.11997346766794       -1.36077579270594        1.25267047695584
B            3.39163499877087       -0.48900648397008        0.73803133040876
B            2.28982934887192        0.17395733028888        1.93772110604124
B            4.99282035581510       -0.23168050437035        0.67110014032411
B            4.16325677798344        0.15674618194737       -0.83502478732052
B            4.26186222697012        1.94837789099755       -0.72607234990254
B            2.92248168904202        2.89725133259455       -0.81805682691858
B            5.54093534186782        0.94415127703568       -0.34814333567225
B            4.36577872657993        3.44424482559835       -0.35250934662237
H           -4.87376699930176       -4.00880311620674        1.30152641995296
H           -5.57207750630042       -2.36907527908910        0.29955848855223
H           -5.48544456581593        0.21093913513413       -1.29993903426522
H           -4.42122928257565       -0.37740883665554        3.21437020302910
H           -4.29561492355803        2.61580512757392        3.23179605529493
H           -1.40942140358160        1.25016898865629        3.72330953557257
H           -2.37319783134538       -5.15628870763546       -1.31651792471104
H           -0.24964122253428        4.87908418361209        1.97872944886025
H            0.23196550407092       -4.81506555569884        0.71811522784793
H            0.82411493832780        4.23390213580869       -1.16946877938854
H            0.24933956166741       -1.79888085047370        2.83304025167463
H            2.57029092318923        0.23915239105997        3.08704700450561
H            5.76494686546848       -0.98317895721176        1.15696273549727
H            6.65163537799489        1.14601318227996       -0.69211672935857
H            4.95559632631520        4.37416839687703        0.02836656560362
