      -----------------------------------------------------------      
     |                   =====================                   |     
     |                           x T B                           |     
     |                   =====================                   |     
     |                         S. Grimme                         |     
     |          Mulliken Center for Theoretical Chemistry        |     
     |                    University of Bonn                     |     
      -----------------------------------------------------------      

   * xtb version 6.7.1pre (5071a88) compiled by 'Marcel@Raven' on 2024-07-23

   xtb is free software: you can redistribute it and/or modify it under
   the terms of the GNU Lesser General Public License as published by
   the Free Software Foundation, either version 3 of the License, or
   (at your option) any later version.
   
   xtb is distributed in the hope that it will be useful,
   but WITHOUT ANY WARRANTY; without even the implied warranty of
   MERCHANTABILITY or FITNESS FOR A PARTICULAR PURPOSE.  See the
   GNU Lesser General Public License for more details.
   
   Cite this work as:
   * C. Bannwarth, E. Caldeweyher, S. Ehlert, A. Hansen, P. Pracht,
     J. Seibert, S. Spicher, S. Grimme, WIREs Comput. Mol. Sci., 2020, 11,
     e01493. DOI: 10.1002/wcms.1493
   
   for GFN2-xTB:
   * C. Bannwarth, S. Ehlert and S. Grimme., J. Chem. Theory Comput., 2019,
     15, 1652-1671. DOI: 10.1021/acs.jctc.8b01176
   for GFN1-xTB:
   * S. Grimme, C. Bannwarth, P. Shushkov, J. Chem. Theory Comput., 2017,
     13, 1989-2009. DOI: 10.1021/acs.jctc.7b00118
   for GFN0-xTB:
   * P. Pracht, E. Caldeweyher, S. Ehlert, S. Grimme, ChemRxiv, 2019, preprint.
     DOI: 10.26434/chemrxiv.8326202.v1
   for GFN-FF:
   * S. Spicher and S. Grimme, Angew. Chem. Int. Ed., 2020, 59, 15665-15673.
     DOI: 10.1002/anie.202004239
   
   for ALPB and GBSA implicit solvation:
   * S. Ehlert, M. Stahn, S. Spicher, S. Grimme, J. Chem. Theory Comput.,
     2021, 17, 4250-4261. DOI: 10.1021/acs.jctc.1c00471
   
   for ddCOSMO and CPCM-X implicit solvation:
   * M. Stahn, S. Ehlert, S. Grimme, J. Phys. Chem. A,
     2023, XX, XXXX-XXXX. DOI: 10.1021/acs.jpca.3c04382
   
   for DFT-D4:
   * E. Caldeweyher, C. Bannwarth and S. Grimme, J. Chem. Phys., 2017,
     147, 034112. DOI: 10.1063/1.4993215
   * E. Caldeweyher, S. Ehlert, A. Hansen, H. Neugebauer, S. Spicher,
     C. Bannwarth and S. Grimme, J. Chem. Phys., 2019, 150, 154122.
     DOI: 10.1063/1.5090222
   * E. Caldeweyher, J.-M. Mewes, S. Ehlert and S. Grimme, Phys. Chem. Chem. Phys.
     2020, 22, 8499-8512. DOI: 10.1039/D0CP00502A
   
   for sTDA-xTB:
   * S. Grimme and C. Bannwarth, J. Chem. Phys., 2016, 145, 054103.
     DOI: 10.1063/1.4959605
   
   in the mass-spec context:
   * V. Asgeirsson, C. Bauer and S. Grimme, Chem. Sci., 2017, 8, 4879.
     DOI: 10.1039/c7sc00601b
   * J. Koopman and S. Grimme, ACS Omega 2019, 4, 12, 15120-15133.
     DOI: 10.1021/acsomega.9b02011
   
   for metadynamics refer to:
   * S. Grimme, J. Chem. Theory Comput., 2019, 155, 2847-2862
     DOI: 10.1021/acs.jctc.9b00143
   
   for SPH calculations refer to:
   * S. Spicher and S. Grimme, J. Chem. Theory Comput., 2021, 17, 1701-1714
     DOI: 10.1021/acs.jctc.0c01306
   
   for ONIOM refer to:
   * C. Plett, A. Katbashev, S. Ehlert, S. Grimme, M. Bursch,
     Phys. Chem. Chem. Phys., 2023, 25, 17860-17868. DOI: 10.1039/D3CP02178E
   
   for DIPRO refer to:
   * J. Kohn, N. Gildemeister, S. Grimme, D. Fazzi, A. Hansen,
     J. Chem. Phys., 2023, just accepted.
   
   for PTB refer to:
   * S. Grimme, M. Mueller, A. Hansen, J. Chem. Phys., 2023, 158, 124111.
     DOI: 10.1063/5.0137838
   
   with help from (in alphabetical order)
   P. Atkinson, C. Bannwarth, F. Bohle, G. Brandenburg, E. Caldeweyher
   M. Checinski, S. Dohm, S. Ehlert, S. Ehrlich, I. Gerasimov, C. Hölzer
   A. Katbashev, J. Kohn, J. Koopman, C. Lavigne, S. Lehtola, F. März, M. Müller,
   F. Musil, H. Neugebauer, J. Pisarek, C. Plett, P. Pracht, F. Pultar,
   J. Seibert, P. Shushkov, S. Spicher, M. Stahn, M. Steiner, T. Strunk,
   J. Stückrath, T. Rose, and J. Unsleber
   
 * started run on 2026/09/01 at 20:28:33.701     
   ID    Z sym.   atoms
    1    6 C      1, 3-7, 9-12, 14-17, 19, 20
    2    7 N      2, 8, 13
    3   16 S      18
    4    1 H      21-39, 80-94
    5    5 B      40-79

           -------------------------------------------------
          |                Calculation Setup                |
           -------------------------------------------------

          program call               : "c:\Users\Andre\Proyectos doctorado\nano-qsar-ai-papers\kras-pancreatic-gC3N4-ai\tools\xtb\xtb-6.7.1\bin\xtb.exe" "c:\Users\Andre\Proyectos doctorado\borophene-alzheimer-tau-ai\calculations\tau\Hydromethylthionine\Hydromethylthionine_B40H15_clean_complex.xyz" --gfn 2 --sp --chrg 0 --uhf 0 --iterations 500 --norestart
          coordinate file            : c:\Users\Andre\Proyectos doctorado\borophene-alzheimer-tau-ai\calculations\tau\Hydromethylthionine\Hydromethylthionine_B40H15_clean_complex.xyz
          omp threads                :                    16


molecular fragmentation (1/2 indicates fragments):
111111111111111111111111111111111111111222222222222222222222222222222222
2222222222222222222222
# atoms in fragment 1/2:    39    55
 fragment masses (1/2) :      285.41      447.56
CMA distance (Bohr)    :  15.033
constraining FC (au)   :  0.0500

           -------------------------------------------------
          |                 G F N 2 - x T B                 |
           -------------------------------------------------

        Reference                      10.1021/acs.jctc.8b01176
      * Hamiltonian:
        H0-scaling (s, p, d)           1.850000    2.230000    2.230000
        zeta-weighting                 0.500000
      * Dispersion:
        s8                             2.700000
        a1                             0.520000
        a2                             5.000000
        s9                             5.000000
      * Repulsion:
        kExp                           1.500000    1.000000
        rExp                           1.000000
      * Coulomb:
        alpha                          2.000000
        third order                    shell-resolved
        anisotropic                    true
        a3                             3.000000
        a5                             4.000000
        cn-shift                       1.200000
        cn-exp                         4.000000
        max-rad                        5.000000


          ...................................................
          :                      SETUP                      :
          :.................................................:
          :  # basis functions                 280          :
          :  # atomic orbitals                 279          :
          :  # shells                          155          :
          :  # electrons                       239          :
          :  max. iterations                   500          :
          :  Hamiltonian                  GFN2-xTB          :
          :  restarted?                      false          :
          :  GBSA solvation                  false          :
          :  PC potential                    false          :
          :  electronic temp.          300.0000000     K    :
          :  accuracy                    1.0000000          :
          :  -> integral cutoff          0.2500000E+02      :
          :  -> integral neglect         0.1000000E-07      :
          :  -> SCF convergence          0.1000000E-05 Eh   :
          :  -> wf. convergence          0.1000000E-03 e    :
          :  Broyden damping             0.4000000          :
          :  net charge                          0          :
          :  unpaired electrons                  0          :
          ...................................................

 iter      E             dE          RMSdq      gap      omega  full diag
   1   -113.0948077 -0.113095E+03  0.132E+01    0.25       0.0  T
   2   -112.2213832  0.873425E+00  0.859E+00    0.46       1.0  T
   3    -73.4041354  0.388172E+02  0.122E+01    0.16       1.0  T
   4    -76.5846454 -0.318051E+01  0.940E+00    0.12       1.0  T
   5    -99.5487143 -0.229641E+02  0.623E+00    0.02       1.0  T
   6   -110.2432961 -0.106946E+02  0.373E+00    0.13       1.0  T
   7   -113.2785004 -0.303520E+01  0.208E+00    0.41       1.0  T
   8   -113.6321122 -0.353612E+00  0.150E+00    0.31       1.0  T
   9   -113.7556938 -0.123582E+00  0.123E+00    0.45       1.0  T
  10   -113.7271296  0.285641E-01  0.104E+00    0.40       1.0  T
  11   -113.7335670 -0.643736E-02  0.695E-01    0.39       1.0  T
  12   -113.7631954 -0.296284E-01  0.481E-01    0.44       1.0  T
  13   -113.7741896 -0.109942E-01  0.398E-01    0.38       1.0  T
  14   -113.7811644 -0.697481E-02  0.349E-01    0.42       1.0  T
  15   -113.7821003 -0.935910E-03  0.320E-01    0.39       1.0  T
  16   -113.7836122 -0.151187E-02  0.276E-01    0.40       1.0  T
  17   -113.7845073 -0.895174E-03  0.195E-01    0.40       1.0  T
  18   -113.7842734  0.233982E-03  0.127E-01    0.40       1.0  T
  19   -113.7844144 -0.141061E-03  0.104E-01    0.40       1.0  T
  20   -113.7844944 -0.800231E-04  0.827E-02    0.40       1.0  T
  21   -113.7847405 -0.246041E-03  0.498E-02    0.41       1.0  T
  22   -113.7848540 -0.113568E-03  0.363E-02    0.41       1.0  T
  23   -113.7849345 -0.804087E-04  0.210E-02    0.41       1.0  T
  24   -113.7849549 -0.204141E-04  0.953E-03    0.41       1.1  T
  25   -113.7849568 -0.192514E-05  0.529E-03    0.41       2.0  T
  26   -113.7849571 -0.347440E-06  0.381E-03    0.41       2.7  T
  27   -113.7849578 -0.694463E-06  0.252E-03    0.41       4.1  T
  28   -113.7849583 -0.438588E-06  0.157E-03    0.41       6.6  T
  29   -113.7849585 -0.202207E-06  0.955E-04    0.41      10.8  T
  30   -113.7849586 -0.148934E-06  0.670E-04    0.41      15.4  T

   *** convergence criteria satisfied after 30 iterations ***

         #    Occupation            Energy/Eh            Energy/eV
      -------------------------------------------------------------
         1        2.0000           -0.6974854             -18.9795
       ...           ...                  ...                  ...
       114        2.0000           -0.2851111              -7.7583
       115        2.0000           -0.2794736              -7.6049
       116        2.0000           -0.2767494              -7.5307
       117        2.0000           -0.2735225              -7.4429
       118        2.0000           -0.2683726              -7.3028
       119        1.9994           -0.2654214              -7.2225
       120        1.0002           -0.2512758              -6.8376 (HOMO)
       121        0.0004           -0.2362992              -6.4300 (LUMO)
       122                         -0.2220927              -6.0435
       123                         -0.2186409              -5.9495
       124                         -0.2118209              -5.7639
       125                         -0.2111753              -5.7464
       ...                                ...                  ...
       279                          1.0763157              29.2880
      -------------------------------------------------------------
                  HL-Gap            0.0149766 Eh            0.4075 eV
             Fermi-level           -0.2510576 Eh           -6.8316 eV

 SCC (total)                   0 d,  0 h,  0 min,  0.381 sec
 SCC setup                      ...        0 min,  0.000 sec (  0.000%)
 Dispersion                     ...        0 min,  0.002 sec (  0.525%)
 classical contributions        ...        0 min,  0.000 sec (  0.000%)
 integral evaluation            ...        0 min,  0.005 sec (  1.312%)
 iterations                     ...        0 min,  0.349 sec ( 91.601%)
 molecular gradient             ...        0 min,  0.022 sec (  5.774%)
 printout                       ...        0 min,  0.003 sec (  0.787%)

         :::::::::::::::::::::::::::::::::::::::::::::::::::::
         ::                     SUMMARY                     ::
         :::::::::::::::::::::::::::::::::::::::::::::::::::::
         :: total energy            -112.171372817423 Eh    ::
         :: gradient norm              0.053258271099 Eh/a0 ::
         :: HOMO-LUMO gap              0.407534214066 eV    ::
         ::.................................................::
         :: SCC energy              -113.782672573094 Eh    ::
         :: -> isotropic ES            0.229345510416 Eh    ::
         :: -> anisotropic ES          0.019250456457 Eh    ::
         :: -> anisotropic XC          0.014766604789 Eh    ::
         :: -> dispersion             -0.115245414079 Eh    ::
         :: repulsion energy           1.611299755671 Eh    ::
         :: add. restraining           0.000000000000 Eh    ::
         :: total charge               0.000000000009 e     ::
         :::::::::::::::::::::::::::::::::::::::::::::::::::::

           -------------------------------------------------
          |                Property Printout                |
           -------------------------------------------------

    * Orbital Energies and Occupations

         #    Occupation            Energy/Eh            Energy/eV
      -------------------------------------------------------------
         1        2.0000           -0.6974854             -18.9795
       ...           ...                  ...                  ...
       108        2.0000           -0.3025776              -8.2336
       109        2.0000           -0.2991271              -8.1397
       110        2.0000           -0.2969840              -8.0813
       111        2.0000           -0.2961809              -8.0595
       112        2.0000           -0.2907273              -7.9111
       113        2.0000           -0.2888446              -7.8599
       114        2.0000           -0.2851111              -7.7583
       115        2.0000           -0.2794736              -7.6049
       116        2.0000           -0.2767494              -7.5307
       117        2.0000           -0.2735225              -7.4429
       118        2.0000           -0.2683726              -7.3028
       119        1.9994           -0.2654214              -7.2225
       120        1.0002           -0.2512758              -6.8376 (HOMO)
       121        0.0004           -0.2362992              -6.4300 (LUMO)
       122                         -0.2220927              -6.0435
       123                         -0.2186409              -5.9495
       124                         -0.2118209              -5.7639
       125                         -0.2111753              -5.7464
       126                         -0.2066356              -5.6228
       127                         -0.2052446              -5.5850
       128                         -0.1934215              -5.2633
       129                         -0.1883811              -5.1261
       130                         -0.1839114              -5.0045
       131                         -0.1798316              -4.8935
       ...                                ...                  ...
       279                          1.0763157              29.2880
      -------------------------------------------------------------
                  HL-Gap            0.0149766 Eh            0.4075 eV
             Fermi-level           -0.2510576 Eh           -6.8316 eV

     #   Z          covCN         q      C6AA      α(0)
     1   6 C        3.691    -0.045    21.561     6.645
     2   7 N        2.728    -0.108    23.371     7.180
     3   6 C        3.690    -0.044    21.548     6.643
     4   6 C        2.896     0.054    26.778     8.484
     5   6 C        2.920    -0.069    29.718     8.940
     6   6 C        2.915    -0.070    29.748     8.944
     7   6 C        2.917     0.049    26.896     8.504
     8   7 N        2.693    -0.170    24.684     7.379
     9   6 C        2.917     0.049    26.904     8.506
    10   6 C        2.915    -0.069    29.714     8.939
    11   6 C        2.920    -0.068    29.689     8.935
    12   6 C        2.896     0.055    26.772     8.483
    13   7 N        2.728    -0.108    23.364     7.179
    14   6 C        3.691    -0.046    21.584     6.648
    15   6 C        3.690    -0.044    21.547     6.643
    16   6 C        2.963    -0.074    29.854     8.962
    17   6 C        2.957     0.026    27.419     8.589
    18  16 S        2.075    -0.149   147.332    20.429
    19   6 C        2.957     0.027    27.409     8.587
    20   6 C        2.963    -0.074    29.848     8.961
    21   1 H        0.924     0.048     2.346     2.395
    22   1 H        0.924     0.037     2.493     2.469
    23   1 H        0.924     0.046     2.375     2.410
    24   1 H        0.924     0.036     2.499     2.472
    25   1 H        0.924     0.050     2.324     2.384
    26   1 H        0.924     0.045     2.389     2.417
    27   1 H        0.925     0.029     2.606     2.524
    28   1 H        0.925     0.028     2.612     2.527
    29   1 H        0.860     0.157     1.353     1.822
    30   1 H        0.925     0.033     2.542     2.493
    31   1 H        0.925     0.033     2.538     2.491
    32   1 H        0.924     0.045     2.379     2.412
    33   1 H        0.924     0.049     2.330     2.387
    34   1 H        0.924     0.039     2.457     2.451
    35   1 H        0.924     0.049     2.331     2.387
    36   1 H        0.924     0.045     2.390     2.418
    37   1 H        0.924     0.036     2.506     2.476
    38   1 H        0.925     0.036     2.502     2.473
    39   1 H        0.925     0.037     2.493     2.469
    40   5 B        3.729     0.063    21.492     7.490
    41   5 B        4.543     0.067    21.533     7.477
    42   5 B        3.764     0.029    22.156     7.595
    43   5 B        3.812     0.037    22.038     7.568
    44   5 B        3.866     0.057    21.695     7.506
    45   5 B        4.607     0.023    22.315     7.611
    46   5 B        2.881     0.051    20.541     7.565
    47   5 B        2.866     0.086    19.971     7.460
    48   5 B        4.657     0.032    22.161     7.585
    49   5 B        2.924     0.070    20.214     7.502
    50   5 B        3.820     0.054    21.736     7.516
    51   5 B        3.871     0.021    22.348     7.618
    52   5 B        4.530    -0.006    22.848     7.702
    53   5 B        3.833     0.044    21.930     7.548
    54   5 B        4.711     0.059    21.672     7.501
    55   5 B        4.714     0.048    21.874     7.536
    56   5 B        3.891     0.047    21.889     7.539
    57   5 B        2.930     0.021    21.036     7.653
    58   5 B        4.652     0.017    22.432     7.631
    59   5 B        2.877     0.054    20.494     7.557
    60   5 B        3.828     0.063    21.595     7.491
    61   5 B        3.859     0.020    22.358     7.620
    62   5 B        3.858    -0.009    22.894     7.711
    63   5 B        3.841     0.048    21.857     7.535
    64   5 B        4.594     0.025    22.288     7.607
    65   5 B        5.681     0.106    20.879     7.362
    66   5 B        4.131     0.010    22.552     7.652
    67   5 B        2.924     0.028    20.914     7.631
    68   5 B        5.586     0.061    21.648     7.497
    69   5 B        3.637     0.065    21.118     7.492
    70   5 B        3.826     0.043    21.937     7.550
    71   5 B        3.877     0.029    22.206     7.594
    72   5 B        3.870     0.017    22.425     7.632
    73   5 B        2.915     0.084    19.984     7.460
    74   5 B        3.773     0.073    21.378     7.459
    75   5 B        5.329     0.097    21.014     7.386
    76   5 B        4.732     0.042    21.968     7.552
    77   5 B        3.808     0.011    22.506     7.649
    78   5 B        3.784     0.074    21.368     7.455
    79   5 B        2.896     0.048    20.576     7.570
    80   1 H        0.938    -0.129     6.684     4.042
    81   1 H        1.528     0.025     2.644     2.539
    82   1 H        0.935    -0.153     7.829     4.375
    83   1 H        0.931    -0.145     7.422     4.260
    84   1 H        0.935    -0.129     6.703     4.048
    85   1 H        0.934    -0.129     6.697     4.046
    86   1 H        0.938    -0.114     6.078     3.854
    87   1 H        0.936    -0.143     7.338     4.235
    88   1 H        0.938    -0.098     5.502     3.667
    89   1 H        0.933    -0.157     8.044     4.435
    90   1 H        0.938    -0.107     5.792     3.763
    91   1 H        0.940    -0.144     7.391     4.250
    92   1 H        0.939    -0.119     6.253     3.910
    93   1 H        0.938    -0.121     6.353     3.941
    94   1 H        0.940    -0.148     7.602     4.311

 Mol. C6AA /au·bohr⁶  :     131424.135332
 Mol. C8AA /au·bohr⁸  :    4019652.596884
 Mol. α(0) /au        :        581.200622


Wiberg/Mayer (AO) data.
largest (>0.10) Wiberg bond orders for each atom

 ---------------------------------------------------------------------------
     #   Z sym  total        # sym  WBO       # sym  WBO       # sym  WBO
 ---------------------------------------------------------------------------
     1   6 C    3.980 --     2 N    1.006    23 H    0.981    21 H    0.978
                            22 H    0.978
     2   7 N    3.339 --     4 C    1.130     3 C    1.008     1 C    1.006
     3   6 C    3.980 --     2 N    1.008    26 H    0.981    25 H    0.978
                            24 H    0.977
     4   6 C    3.964 --     5 C    1.343    20 C    1.337     2 N    1.130
     5   6 C    3.982 --     6 C    1.441     4 C    1.343    27 H    0.967
     6   6 C    3.978 --     5 C    1.441     7 C    1.359    28 H    0.967
     7   6 C    3.965 --     6 C    1.359    19 C    1.325     8 N    1.094
     8   7 N    3.390 --     7 C    1.094     9 C    1.091    29 H    0.943
     9   6 C    3.965 --    10 C    1.359    17 C    1.327     8 N    1.091
    10   6 C    3.978 --    11 C    1.444     9 C    1.359    30 H    0.967
    11   6 C    3.982 --    10 C    1.444    12 C    1.342    31 H    0.967
    12   6 C    3.964 --    11 C    1.342    16 C    1.337    13 N    1.131
    13   7 N    3.340 --    12 C    1.131    15 C    1.008    14 C    1.006
    14   6 C    3.979 --    13 N    1.006    32 H    0.981    33 H    0.978
                            34 H    0.978
    15   6 C    3.980 --    13 N    1.008    36 H    0.981    35 H    0.978
                            37 H    0.977
    16   6 C    3.976 --    17 C    1.413    12 C    1.337    38 H    0.965
    17   6 C    3.955 --    16 C    1.413     9 C    1.327    18 S    1.016
    18  16 S    2.331 --    19 C    1.019    17 C    1.016
    19   6 C    3.956 --    20 C    1.413     7 C    1.325    18 S    1.019
    20   6 C    3.976 --    19 C    1.413     4 C    1.337    39 H    0.965
    21   1 H    0.997 --     1 C    0.978
    22   1 H    0.998 --     1 C    0.978
    23   1 H    0.997 --     1 C    0.981
    24   1 H    0.998 --     3 C    0.977
    25   1 H    0.997 --     3 C    0.978
    26   1 H    0.998 --     3 C    0.981
    27   1 H    0.998 --     5 C    0.967
    28   1 H    0.999 --     6 C    0.967
    29   1 H    0.974 --     8 N    0.943
    30   1 H    0.998 --    10 C    0.967
    31   1 H    0.998 --    11 C    0.967
    32   1 H    0.997 --    14 C    0.981
    33   1 H    0.997 --    14 C    0.978
    34   1 H    0.998 --    14 C    0.978
    35   1 H    0.997 --    15 C    0.978
    36   1 H    0.998 --    15 C    0.981
    37   1 H    0.998 --    15 C    0.977
    38   1 H    0.998 --    16 C    0.965
    39   1 H    0.998 --    20 C    0.965
    40   5 B    3.579 --    80 H    0.950    43 B    0.929    41 B    0.871
                            81 H    0.538
    41   5 B    3.542 --    40 B    0.871    42 B    0.757    43 B    0.611
                            45 B    0.546    81 H    0.426    44 B    0.132
    42   5 B    3.583 --    44 B    1.121    82 H    0.947    41 B    0.757
                            45 B    0.456
    43   5 B    3.571 --    40 B    0.929    50 B    0.843    51 B    0.809
                            41 B    0.611    53 B    0.106
    44   5 B    3.392 --    42 B    1.121    52 B    0.803    48 B    0.635
                            45 B    0.432    41 B    0.132
    45   5 B    3.603 --    46 B    1.085    48 B    0.761    41 B    0.546
                            42 B    0.456    44 B    0.432
    46   5 B    3.436 --    45 B    1.085    47 B    0.996    83 H    0.911
                            48 B    0.158
    47   5 B    3.251 --    49 B    1.019    46 B    0.996    84 H    0.939
                            57 B    0.107
    48   5 B    3.681 --    56 B    0.779    45 B    0.761    55 B    0.701
                            44 B    0.635    52 B    0.374    46 B    0.158
    49   5 B    3.412 --    47 B    1.019    57 B    0.988    85 H    0.924
                            56 B    0.191
    50   5 B    3.630 --    86 H    0.928    51 B    0.845    43 B    0.843
                            53 B    0.792
    51   5 B    3.619 --    53 B    0.854    50 B    0.845    52 B    0.820
                            43 B    0.809
    52   5 B    3.652 --    54 B    0.832    51 B    0.820    44 B    0.803
                            55 B    0.435    48 B    0.374
    53   5 B    3.598 --    51 B    0.854    50 B    0.792    60 B    0.785
                            61 B    0.724    43 B    0.106
    54   5 B    3.593 --    52 B    0.832    62 B    0.682    55 B    0.635
                            65 B    0.570    58 B    0.459
    55   5 B    3.602 --    58 B    0.949    48 B    0.701    54 B    0.635
                            56 B    0.596    52 B    0.435
    56   5 B    3.551 --    57 B    0.968    48 B    0.779    58 B    0.666
                            55 B    0.596    49 B    0.191
    57   5 B    3.449 --    49 B    0.988    56 B    0.968    59 B    0.964
                            67 B    0.180    47 B    0.107
    58   5 B    3.644 --    55 B    0.949    66 B    0.776    56 B    0.666
                            54 B    0.459    65 B    0.438
    59   5 B    3.420 --    67 B    1.142    57 B    0.964    87 H    0.951
                            69 B    0.114
    60   5 B    3.577 --    88 H    0.921    63 B    0.847    61 B    0.790
                            53 B    0.785
    61   5 B    3.605 --    62 B    1.013    60 B    0.790    53 B    0.724
                            63 B    0.705
    62   5 B    3.637 --    61 B    1.013    64 B    0.891    54 B    0.682
                            65 B    0.606
    63   5 B    3.595 --    60 B    0.847    71 B    0.839    70 B    0.752
                            61 B    0.705    73 B    0.141
    64   5 B    3.669 --    62 B    0.891    72 B    0.701    65 B    0.682
                            75 B    0.617    68 B    0.391
    65   5 B    3.670 --    64 B    0.682    62 B    0.606    68 B    0.586
                            54 B    0.570    66 B    0.521    58 B    0.438
    66   5 B    3.527 --    67 B    0.968    58 B    0.776    68 B    0.775
                            65 B    0.521    69 B    0.197
    67   5 B    3.407 --    59 B    1.142    66 B    0.968    69 B    0.780
                            57 B    0.180
    68   5 B    3.635 --    66 B    0.775    76 B    0.617    65 B    0.586
                            77 B    0.486    64 B    0.391    75 B    0.291
                            69 B    0.268
    69   5 B    3.507 --    77 B    0.972    89 H    0.938    67 B    0.780
                            68 B    0.268    66 B    0.197    59 B    0.114
    70   5 B    3.611 --    73 B    1.032    90 H    0.920    71 B    0.753
                            63 B    0.752
    71   5 B    3.605 --    73 B    0.930    72 B    0.896    63 B    0.839
                            70 B    0.753
    72   5 B    3.625 --    71 B    0.896    74 B    0.863    64 B    0.701
                            75 B    0.630    73 B    0.233
    73   5 B    3.474 --    70 B    1.032    91 H    0.970    71 B    0.930
                            72 B    0.233    63 B    0.141
    74   5 B    3.515 --    92 H    0.952    72 B    0.863    75 B    0.767
                            78 B    0.689
    75   5 B    3.655 --    74 B    0.767    78 B    0.766    72 B    0.630
                            64 B    0.617    76 B    0.440    68 B    0.291
    76   5 B    3.636 --    79 B    0.955    78 B    0.765    77 B    0.705
                            68 B    0.617    75 B    0.440
    77   5 B    3.573 --    79 B    1.171    69 B    0.972    76 B    0.705
                            68 B    0.486
    78   5 B    3.565 --    93 H    0.952    75 B    0.766    76 B    0.765
                            74 B    0.689    79 B    0.189
    79   5 B    3.518 --    77 B    1.171    94 H    0.967    76 B    0.955
                            78 B    0.189
    80   1 H    0.979 --    40 B    0.950
    81   1 H    0.995 --    40 B    0.538    41 B    0.426
    82   1 H    0.975 --    42 B    0.947
    83   1 H    0.976 --    46 B    0.911
    84   1 H    0.981 --    47 B    0.939
    85   1 H    0.979 --    49 B    0.924
    86   1 H    0.977 --    50 B    0.928
    87   1 H    0.976 --    59 B    0.951
    88   1 H    0.979 --    60 B    0.921
    89   1 H    0.974 --    69 B    0.938
    90   1 H    0.979 --    70 B    0.920
    91   1 H    0.979 --    73 B    0.970
    92   1 H    0.983 --    74 B    0.952
    93   1 H    0.981 --    78 B    0.952
    94   1 H    0.977 --    79 B    0.967
 ---------------------------------------------------------------------------

Topologies differ in total number of bonds
Writing topology from bond orders to xtbtopo.mol

molecular dipole:
                 x           y           z       tot (Debye)
 q only:        0.861      -1.044      -0.427
   full:        0.408      -1.514       0.129       3.998
molecular quadrupole (traceless):
                xx          xy          yy          xz          yz          zz
 q only:       -2.550       5.957     -13.368       6.765       4.677      15.918
  q+dip:       27.822      12.731     -15.694       7.136       2.827     -12.128
   full:       17.817       8.604     -19.198       5.951       5.848       1.381


           -------------------------------------------------
          | TOTAL ENERGY             -112.171372817423 Eh   |
          | GRADIENT NORM               0.053258271099 Eh/α |
          | HOMO-LUMO GAP               0.407534214066 eV   |
           -------------------------------------------------

------------------------------------------------------------------------
 * finished run on 2026/09/01 at 20:28:34.129     
------------------------------------------------------------------------
 total:
 * wall-time:     0 d,  0 h,  0 min,  0.427 sec
 *  cpu-time:     0 d,  0 h,  0 min,  4.766 sec
 * ratio c/w:    11.161 speedup
 SCF:
 * wall-time:     0 d,  0 h,  0 min,  0.383 sec
 *  cpu-time:     0 d,  0 h,  0 min,  4.531 sec
 * ratio c/w:    11.831 speedup

