      -----------------------------------------------------------      
     |                   =====================                   |     
     |                           x T B                           |     
     |                   =====================                   |     
     |                         S. Grimme                         |     
     |          Mulliken Center for Theoretical Chemistry        |     
     |                    University of Bonn                     |     
      -----------------------------------------------------------      

   * xtb version 6.7.1pre (5071a88) compiled by 'Marcel@Raven' on 2024-07-23

   xtb is free software: you can redistribute it and/or modify it under
   the terms of the GNU Lesser General Public License as published by
   the Free Software Foundation, either version 3 of the License, or
   (at your option) any later version.
   
   xtb is distributed in the hope that it will be useful,
   but WITHOUT ANY WARRANTY; without even the implied warranty of
   MERCHANTABILITY or FITNESS FOR A PARTICULAR PURPOSE.  See the
   GNU Lesser General Public License for more details.
   
   Cite this work as:
   * C. Bannwarth, E. Caldeweyher, S. Ehlert, A. Hansen, P. Pracht,
     J. Seibert, S. Spicher, S. Grimme, WIREs Comput. Mol. Sci., 2020, 11,
     e01493. DOI: 10.1002/wcms.1493
   
   for GFN2-xTB:
   * C. Bannwarth, S. Ehlert and S. Grimme., J. Chem. Theory Comput., 2019,
     15, 1652-1671. DOI: 10.1021/acs.jctc.8b01176
   for GFN1-xTB:
   * S. Grimme, C. Bannwarth, P. Shushkov, J. Chem. Theory Comput., 2017,
     13, 1989-2009. DOI: 10.1021/acs.jctc.7b00118
   for GFN0-xTB:
   * P. Pracht, E. Caldeweyher, S. Ehlert, S. Grimme, ChemRxiv, 2019, preprint.
     DOI: 10.26434/chemrxiv.8326202.v1
   for GFN-FF:
   * S. Spicher and S. Grimme, Angew. Chem. Int. Ed., 2020, 59, 15665-15673.
     DOI: 10.1002/anie.202004239
   
   for ALPB and GBSA implicit solvation:
   * S. Ehlert, M. Stahn, S. Spicher, S. Grimme, J. Chem. Theory Comput.,
     2021, 17, 4250-4261. DOI: 10.1021/acs.jctc.1c00471
   
   for ddCOSMO and CPCM-X implicit solvation:
   * M. Stahn, S. Ehlert, S. Grimme, J. Phys. Chem. A,
     2023, XX, XXXX-XXXX. DOI: 10.1021/acs.jpca.3c04382
   
   for DFT-D4:
   * E. Caldeweyher, C. Bannwarth and S. Grimme, J. Chem. Phys., 2017,
     147, 034112. DOI: 10.1063/1.4993215
   * E. Caldeweyher, S. Ehlert, A. Hansen, H. Neugebauer, S. Spicher,
     C. Bannwarth and S. Grimme, J. Chem. Phys., 2019, 150, 154122.
     DOI: 10.1063/1.5090222
   * E. Caldeweyher, J.-M. Mewes, S. Ehlert and S. Grimme, Phys. Chem. Chem. Phys.
     2020, 22, 8499-8512. DOI: 10.1039/D0CP00502A
   
   for sTDA-xTB:
   * S. Grimme and C. Bannwarth, J. Chem. Phys., 2016, 145, 054103.
     DOI: 10.1063/1.4959605
   
   in the mass-spec context:
   * V. Asgeirsson, C. Bauer and S. Grimme, Chem. Sci., 2017, 8, 4879.
     DOI: 10.1039/c7sc00601b
   * J. Koopman and S. Grimme, ACS Omega 2019, 4, 12, 15120-15133.
     DOI: 10.1021/acsomega.9b02011
   
   for metadynamics refer to:
   * S. Grimme, J. Chem. Theory Comput., 2019, 155, 2847-2862
     DOI: 10.1021/acs.jctc.9b00143
   
   for SPH calculations refer to:
   * S. Spicher and S. Grimme, J. Chem. Theory Comput., 2021, 17, 1701-1714
     DOI: 10.1021/acs.jctc.0c01306
   
   for ONIOM refer to:
   * C. Plett, A. Katbashev, S. Ehlert, S. Grimme, M. Bursch,
     Phys. Chem. Chem. Phys., 2023, 25, 17860-17868. DOI: 10.1039/D3CP02178E
   
   for DIPRO refer to:
   * J. Kohn, N. Gildemeister, S. Grimme, D. Fazzi, A. Hansen,
     J. Chem. Phys., 2023, just accepted.
   
   for PTB refer to:
   * S. Grimme, M. Mueller, A. Hansen, J. Chem. Phys., 2023, 158, 124111.
     DOI: 10.1063/5.0137838
   
   with help from (in alphabetical order)
   P. Atkinson, C. Bannwarth, F. Bohle, G. Brandenburg, E. Caldeweyher
   M. Checinski, S. Dohm, S. Ehlert, S. Ehrlich, I. Gerasimov, C. Hölzer
   A. Katbashev, J. Kohn, J. Koopman, C. Lavigne, S. Lehtola, F. März, M. Müller,
   F. Musil, H. Neugebauer, J. Pisarek, C. Plett, P. Pracht, F. Pultar,
   J. Seibert, P. Shushkov, S. Spicher, M. Stahn, M. Steiner, T. Strunk,
   J. Stückrath, T. Rose, and J. Unsleber
   
 * started run on 2026/09/01 at 16:35:04.481     
   ID    Z sym.   atoms
    1    6 C      1, 3-7, 9-12, 14-17, 19, 20
    2    7 N      2, 8, 13
    3   16 S      18
    4    1 H      21-39, 88-99
    5    5 B      40-87

           -------------------------------------------------
          |                Calculation Setup                |
           -------------------------------------------------

          program call               : "c:\Users\Andre\Proyectos doctorado\kras-pancreatic-gC3N4-ai\tools\xtb\xtb-6.7.1\bin\xtb.exe" "c:\Users\Andre\Proyectos doctorado\borophene-alzheimer-tau-ai\calculations\tau\Hydromethylthionine\Hydromethylthionine_opt_270deg.xyz" --opt vloose --gfn 2 --chrg 0 --uhf 0 --etemp 300 --iterations 500 --cycles 15 --norestart
          coordinate file            : c:\Users\Andre\Proyectos doctorado\borophene-alzheimer-tau-ai\calculations\tau\Hydromethylthionine\Hydromethylthionine_opt_270deg.xyz
          omp threads                :                    16


molecular fragmentation (1/2 indicates fragments):
111111111111111111111111111111111111111222222222222222222222222222222222
222222222222222222222222222
# atoms in fragment 1/2:    39    60
 fragment masses (1/2) :      285.41      531.02
CMA distance (Bohr)    :  12.656
constraining FC (au)   :  0.0500

           -------------------------------------------------
          |                 G F N 2 - x T B                 |
           -------------------------------------------------

        Reference                      10.1021/acs.jctc.8b01176
      * Hamiltonian:
        H0-scaling (s, p, d)           1.850000    2.230000    2.230000
        zeta-weighting                 0.500000
      * Dispersion:
        s8                             2.700000
        a1                             0.520000
        a2                             5.000000
        s9                             5.000000
      * Repulsion:
        kExp                           1.500000    1.000000
        rExp                           1.000000
      * Coulomb:
        alpha                          2.000000
        third order                    shell-resolved
        anisotropic                    true
        a3                             3.000000
        a5                             4.000000
        cn-shift                       1.200000
        cn-exp                         4.000000
        max-rad                        5.000000


          ...................................................
          :                      SETUP                      :
          :.................................................:
          :  # basis functions                 309          :
          :  # atomic orbitals                 308          :
          :  # shells                          168          :
          :  # electrons                       260          :
          :  max. iterations                   500          :
          :  Hamiltonian                  GFN2-xTB          :
          :  restarted?                      false          :
          :  GBSA solvation                  false          :
          :  PC potential                    false          :
          :  electronic temp.          300.0000000     K    :
          :  accuracy                    1.0000000          :
          :  -> integral cutoff          0.2500000E+02      :
          :  -> integral neglect         0.1000000E-07      :
          :  -> SCF convergence          0.1000000E-05 Eh   :
          :  -> wf. convergence          0.1000000E-03 e    :
          :  Broyden damping             0.4000000          :
          :  net charge                          0          :
          :  unpaired electrons                  0          :
          ...................................................

 iter      E             dE          RMSdq      gap      omega  full diag
   1   -121.3942184 -0.121394E+03  0.147E+01    0.41       0.0  T
   2   -118.6912159  0.270300E+01  0.954E+00    0.14       1.0  T
   3    -23.5297648  0.951615E+02  0.161E+01    0.05       1.0  T
   4    -57.4197382 -0.338900E+02  0.122E+01    0.10       1.0  T
   5   -113.3516704 -0.559319E+02  0.553E+00    0.11       1.0  T
   6    -99.8170237  0.135346E+02  0.671E+00    0.14       1.0  T
   7   -103.3680712 -0.355105E+01  0.595E+00    0.16       1.0  T
   8   -121.7446471 -0.183766E+02  0.228E+00    0.53       1.0  T
   9   -121.9325203 -0.187873E+00  0.180E+00    0.20       1.0  T
  10   -121.9834145 -0.508942E-01  0.159E+00    0.48       1.0  T
  11   -121.9785546  0.485988E-02  0.129E+00    0.35       1.0  T
  12   -122.0120602 -0.335055E-01  0.799E-01    0.34       1.0  T
  13   -122.0483917 -0.363315E-01  0.558E-01    0.33       1.0  T
  14   -122.0654907 -0.170990E-01  0.419E-01    0.29       1.0  T
  15   -122.0707668 -0.527606E-02  0.355E-01    0.32       1.0  T
  16   -122.0728638 -0.209702E-02  0.294E-01    0.32       1.0  T
  17   -122.0743484 -0.148456E-02  0.227E-01    0.33       1.0  T
  18   -122.0756653 -0.131698E-02  0.172E-01    0.33       1.0  T
  19   -122.0770220 -0.135669E-02  0.118E-01    0.33       1.0  T
  20   -122.0776067 -0.584620E-03  0.909E-02    0.33       1.0  T
  21   -122.0779088 -0.302185E-03  0.690E-02    0.33       1.0  T
  22   -122.0780273 -0.118425E-03  0.454E-02    0.33       1.0  T
  23   -122.0781181 -0.908461E-04  0.271E-02    0.33       1.0  T
  24   -122.0781527 -0.345493E-04  0.225E-02    0.33       1.0  T
  25   -122.0781632 -0.105509E-04  0.186E-02    0.33       1.0  T
  26   -122.0781692 -0.601061E-05  0.151E-02    0.33       1.0  T
  27   -122.0781725 -0.323950E-05  0.110E-02    0.33       1.0  T
  28   -122.0781794 -0.696987E-05  0.446E-03    0.33       2.3  T
  29   -122.0781803 -0.878856E-06  0.248E-03    0.33       4.1  T
  30   -122.0781803 -0.421407E-07  0.190E-03    0.33       5.3  T
  31   -122.0781806 -0.233783E-06  0.155E-03    0.33       6.5  T
  32   -122.0781808 -0.191503E-06  0.127E-03    0.33       7.9  T
  33   -122.0781809 -0.108048E-06  0.863E-04    0.33      11.6  T
  34   -122.0781810 -0.838082E-07  0.590E-04    0.33      17.0  T

   *** convergence criteria satisfied after 34 iterations ***

         #    Occupation            Energy/Eh            Energy/eV
      -------------------------------------------------------------
         1        2.0000           -0.7025695             -19.1179
       ...           ...                  ...                  ...
       124        2.0000           -0.2723823              -7.4119
       125        2.0000           -0.2688507              -7.3158
       126        2.0000           -0.2684192              -7.3041
       127        2.0000           -0.2642658              -7.1910
       128        2.0000           -0.2616203              -7.1191
       129        2.0000           -0.2582798              -7.0282
       130        1.9966           -0.2466729              -6.7123 (HOMO)
       131        0.0034           -0.2345405              -6.3822 (LUMO)
       132        0.0000           -0.2271816              -6.1819
       133                         -0.2200518              -5.9879
       134                         -0.2165042              -5.8914
       135                         -0.2163287              -5.8866
       ...                                ...                  ...
       308                          1.2252064              33.3396
      -------------------------------------------------------------
                  HL-Gap            0.0121323 Eh            0.3301 eV
             Fermi-level           -0.2406069 Eh           -6.5472 eV

 SCC (total)                   0 d,  0 h,  0 min,  1.136 sec
 SCC setup                      ...        0 min,  0.001 sec (  0.088%)
 Dispersion                     ...        0 min,  0.002 sec (  0.176%)
 classical contributions        ...        0 min,  0.000 sec (  0.000%)
 integral evaluation            ...        0 min,  0.007 sec (  0.616%)
 iterations                     ...        0 min,  1.098 sec ( 96.655%)
 molecular gradient             ...        0 min,  0.025 sec (  2.201%)
 printout                       ...        0 min,  0.003 sec (  0.264%)

         :::::::::::::::::::::::::::::::::::::::::::::::::::::
         ::                     SUMMARY                     ::
         :::::::::::::::::::::::::::::::::::::::::::::::::::::
         :: total energy            -120.248299776872 Eh    ::
         :: gradient norm              0.053113494649 Eh/a0 ::
         :: HOMO-LUMO gap              0.330137919959 eV    ::
         ::.................................................::
         :: SCC energy              -122.076226944933 Eh    ::
         :: -> isotropic ES            0.307696680667 Eh    ::
         :: -> anisotropic ES          0.015821610385 Eh    ::
         :: -> anisotropic XC         -0.007895745695 Eh    ::
         :: -> dispersion             -0.113375329382 Eh    ::
         :: repulsion energy           1.827927168061 Eh    ::
         :: add. restraining           0.000000000000 Eh    ::
         :: total charge              -0.000000000000 e     ::
         :::::::::::::::::::::::::::::::::::::::::::::::::::::

      ----------------------------------------------------------- 
     |                   =====================                   |
     |                        A N C O P T                        |
     |                   =====================                   |
     |               Approximate Normal Coordinate               |
     |                Rational Function Optimizer                |
      ----------------------------------------------------------- 
      ----------------------------------------------------------- 
     |                   =====================                   |
     |                        A N C O P T                        |
     |                   =====================                   |
     |               Approximate Normal Coordinate               |
     |                Rational Function Optimizer                |
      ----------------------------------------------------------- 

          ...................................................
          :                      SETUP                      :
          :.................................................:
          :   optimization level            normal          :
          :   max. optcycles                    15          :
          :   ANC micro-cycles                  15          :
          :   degrees of freedom               291          :
          :.................................................:
          :   RF solver                   davidson          :
          :   write xtbopt.log                true          :
          :   linear?                        false          :
          :   energy convergence         0.5000000E-05 Eh   :
          :   grad. convergence          0.1000000E-02 Eh/α :
          :   maxmium RF displ.          1.0000000          :
          :   Hlow (freq-cutoff)         0.1000000E-01      :
          :   Hmax (freq-cutoff)         5.0000000          :
          :   S6 in model hess.         20.0000000          :
          ...................................................

generating ANC from exact Hessian ...
Using Lindh-Hessian (1995)
 Shifting diagonal of input Hessian by   1.033988306727178E-002
 Lowest  eigenvalues of input Hessian
    0.010000    0.010059    0.010080    0.010105    0.010170    0.010232
    0.010240    0.010283    0.000000    0.000000    0.000000    0.000000
    0.000000    0.000000    0.010368    0.010372    0.010430    0.010445
 Highest eigenvalues
    1.858248    1.892945    1.943448    1.984405    2.032544    2.114154
 

........................................................................
.............................. CYCLE    1 ..............................
........................................................................

 iter      E             dE          RMSdq      gap      omega  full diag
   1   -122.0781810 -0.122078E+03  0.353E-04    0.33       0.0  T
   2   -122.0781809  0.135869E-06  0.909E-04    0.33      11.1  T
   3   -122.0781810 -0.117287E-06  0.545E-04    0.33      18.4  T
     SCC iter.                  ...        0 min,  0.125 sec
     gradient                   ...        0 min,  0.020 sec
 * total energy  :  -120.2482998 Eh     change       -0.3258876E-08 Eh
   gradient norm :     0.0531135 Eh/α   predicted     0.0000000E+00 (-100.00%)
   displ. norm   :     0.3517948 α      lambda       -0.8668352E-02
   maximum displ.:     0.1734896 α      in ANC's #42, #72, #87, ...

........................................................................
.............................. CYCLE    2 ..............................
........................................................................

 iter      E             dE          RMSdq      gap      omega  full diag
   1   -122.1194711 -0.122119E+03  0.115E-01    0.33       0.0  T
   2   -122.1195215 -0.504362E-04  0.690E-02    0.33       1.0  T
   3   -122.1190710  0.450471E-03  0.499E-02    0.34       1.0  T
   4   -122.1190638  0.720094E-05  0.460E-02    0.32       1.0  T
   5   -122.1194846 -0.420758E-03  0.163E-02    0.33       1.0  T
   6   -122.1195194 -0.348519E-04  0.100E-02    0.33       1.0  T
   7   -122.1195359 -0.164351E-04  0.520E-03    0.33       1.9  T
   8   -122.1195386 -0.278746E-05  0.370E-03    0.33       2.7  T
   9   -122.1195410 -0.230283E-05  0.193E-03    0.33       5.2  T
  10   -122.1195416 -0.644427E-06  0.781E-04    0.33      12.9  T
  11   -122.1195417 -0.550545E-07  0.530E-04    0.33      19.0  T
     SCC iter.                  ...        0 min,  0.258 sec
     gradient                   ...        0 min,  0.032 sec
 * total energy  :  -120.2543837 Eh     change       -0.6083911E-02 Eh
   gradient norm :     0.0222276 Eh/α   predicted    -0.4872787E-02 ( -19.91%)
   displ. norm   :     0.3426843 α      lambda       -0.2969163E-02
   maximum displ.:     0.2220425 α      in ANC's #42, #72, #37, ...

........................................................................
.............................. CYCLE    3 ..............................
........................................................................

 iter      E             dE          RMSdq      gap      omega  full diag
   1   -122.1438383 -0.122144E+03  0.104E-01    0.33       0.0  T
   2   -122.1438487 -0.104463E-04  0.627E-02    0.33       1.0  T
   3   -122.1419650  0.188369E-02  0.925E-02    0.34       1.0  T
   4   -122.1434628 -0.149778E-02  0.431E-02    0.32       1.0  T
   5   -122.1437087 -0.245867E-03  0.291E-02    0.33       1.0  T
   6   -122.1438786 -0.169958E-03  0.106E-02    0.33       1.0  T
   7   -122.1438940 -0.154204E-04  0.644E-03    0.33       1.6  T
   8   -122.1439008 -0.677578E-05  0.329E-03    0.33       3.1  T
   9   -122.1439025 -0.167962E-05  0.154E-03    0.33       6.5  T
  10   -122.1439028 -0.348686E-06  0.695E-04    0.33      14.5  T
  11   -122.1439029 -0.486886E-07  0.459E-04    0.33      21.9  T
     SCC iter.                  ...        0 min,  0.189 sec
     gradient                   ...        0 min,  0.020 sec
 * total energy  :  -120.2561597 Eh     change       -0.1775996E-02 Eh
   gradient norm :     0.0065531 Eh/α   predicted    -0.1659406E-02 (  -6.56%)
   displ. norm   :     0.2371039 α      lambda       -0.7046538E-03
   maximum displ.:     0.1300512 α      in ANC's #42, #25, #36, ...

........................................................................
.............................. CYCLE    4 ..............................
........................................................................

 iter      E             dE          RMSdq      gap      omega  full diag
   1   -122.1489873 -0.122149E+03  0.122E-01    0.33       0.0  T
   2   -122.1489861  0.123136E-05  0.743E-02    0.33       1.0  T
   3   -122.1482284  0.757674E-03  0.621E-02    0.33       1.0  T
   4   -122.1489014 -0.673014E-03  0.218E-02    0.33       1.0  T
   5   -122.1489575 -0.560953E-04  0.147E-02    0.34       1.0  T
   6   -122.1489913 -0.337357E-04  0.874E-03    0.33       1.1  T
   7   -122.1490061 -0.148837E-04  0.358E-03    0.33       2.8  T
   8   -122.1490072 -0.110190E-05  0.255E-03    0.33       3.9  T
   9   -122.1490081 -0.881700E-06  0.138E-03    0.33       7.3  T
  10   -122.1490084 -0.311251E-06  0.693E-04    0.33      14.5  T
  11   -122.1490085 -0.715543E-07  0.355E-04    0.33      28.3  T
     SCC iter.                  ...        0 min,  0.205 sec
     gradient                   ...        0 min,  0.035 sec
 * total energy  :  -120.2564272 Eh     change       -0.2675020E-03 Eh
   gradient norm :     0.0085093 Eh/α   predicted    -0.3721463E-03 (  39.12%)
   displ. norm   :     0.2575530 α      lambda       -0.7261538E-03
   maximum displ.:     0.1131652 α      in ANC's #42, #2, #25, ...

........................................................................
.............................. CYCLE    5 ..............................
........................................................................

 iter      E             dE          RMSdq      gap      omega  full diag
   1   -122.1505391 -0.122151E+03  0.133E-01    0.34       0.0  T
   2   -122.1504947  0.444324E-04  0.820E-02    0.34       1.0  T
   3   -122.1466335  0.386123E-02  0.130E-01    0.34       1.0  T
   4   -122.1502092 -0.357575E-02  0.384E-02    0.33       1.0  T
   5   -122.1505075 -0.298284E-03  0.158E-02    0.34       1.0  T
   6   -122.1505507 -0.432479E-04  0.717E-03    0.34       1.4  T
   7   -122.1505570 -0.629471E-05  0.439E-03    0.34       2.3  T
   8   -122.1505593 -0.229878E-05  0.290E-03    0.34       3.5  T
   9   -122.1505608 -0.146064E-05  0.130E-03    0.34       7.7  T
  10   -122.1505611 -0.252740E-06  0.651E-04    0.34      15.4  T
  11   -122.1505611 -0.491968E-07  0.363E-04    0.34      27.7  T
     SCC iter.                  ...        0 min,  0.240 sec
     gradient                   ...        0 min,  0.025 sec
 * total energy  :  -120.2567406 Eh     change       -0.3133870E-03 Eh
   gradient norm :     0.0083077 Eh/α   predicted    -0.3871631E-03 (  23.54%)
   displ. norm   :     0.1319414 α      lambda       -0.3020320E-03
   maximum displ.:     0.0403351 α      in ANC's #14, #25, #13, ...

........................................................................
.............................. CYCLE    6 ..............................
........................................................................

 iter      E             dE          RMSdq      gap      omega  full diag
   1   -122.1481671 -0.122148E+03  0.701E-02    0.34       0.0  T
   2   -122.1481614  0.570038E-05  0.435E-02    0.34       1.0  T
   3   -122.1475596  0.601760E-03  0.515E-02    0.34       1.0  T
   4   -122.1480937 -0.534115E-03  0.180E-02    0.34       1.0  T
   5   -122.1481623 -0.685168E-04  0.634E-03    0.34       1.6  T
   6   -122.1481691 -0.688293E-05  0.338E-03    0.34       3.0  T
   7   -122.1481713 -0.213592E-05  0.131E-03    0.34       7.7  T
   8   -122.1481714 -0.969479E-07  0.103E-03    0.34       9.8  T
   9   -122.1481715 -0.128807E-06  0.656E-04    0.34      15.3  T
  10   -122.1481716 -0.596637E-07  0.353E-04    0.34      28.5  T
     SCC iter.                  ...        0 min,  0.199 sec
     gradient                   ...        0 min,  0.025 sec
 * total energy  :  -120.2569232 Eh     change       -0.1826539E-03 Eh
   gradient norm :     0.0046916 Eh/α   predicted    -0.1536465E-03 ( -15.88%)
   displ. norm   :     0.2724694 α      lambda       -0.4182754E-03
   maximum displ.:     0.1030308 α      in ANC's #14, #10, #13, ...

........................................................................
.............................. CYCLE    7 ..............................
........................................................................

 iter      E             dE          RMSdq      gap      omega  full diag
   1   -122.1443741 -0.122144E+03  0.109E-01    0.34       0.0  T
   2   -122.1443465  0.275869E-04  0.671E-02    0.35       1.0  T
   3   -122.1424903  0.185622E-02  0.937E-02    0.33       1.0  T
   4   -122.1441292 -0.163890E-02  0.323E-02    0.34       1.0  T
   5   -122.1443545 -0.225344E-03  0.124E-02    0.35       1.0  T
   6   -122.1443849 -0.303821E-04  0.513E-03    0.35       2.0  T
   7   -122.1443896 -0.469432E-05  0.220E-03    0.35       4.6  T
   8   -122.1443901 -0.558274E-06  0.134E-03    0.35       7.5  T
   9   -122.1443902 -0.833216E-07  0.103E-03    0.35       9.7  T
  10   -122.1443904 -0.145025E-06  0.610E-04    0.35      16.5  T
  11   -122.1443904 -0.615329E-07  0.261E-04    0.35      38.6  T
     SCC iter.                  ...        0 min,  0.414 sec
     gradient                   ...        0 min,  0.038 sec
 * total energy  :  -120.2571744 Eh     change       -0.2511767E-03 Eh
   gradient norm :     0.0059330 Eh/α   predicted    -0.2246665E-03 ( -10.55%)
   displ. norm   :     0.3543390 α      lambda       -0.3420588E-03
   maximum displ.:     0.1394466 α      in ANC's #14, #10, #13, ...

........................................................................
.............................. CYCLE    8 ..............................
........................................................................

 iter      E             dE          RMSdq      gap      omega  full diag
   1   -122.1439512 -0.122144E+03  0.135E-01    0.35       0.0  T
   2   -122.1438839  0.673119E-04  0.838E-02    0.36       1.0  T
   3   -122.1391462  0.473767E-02  0.143E-01    0.35       1.0  T
   4   -122.1435351 -0.438893E-02  0.425E-02    0.35       1.0  T
   5   -122.1439524 -0.417341E-03  0.860E-03    0.36       1.2  T
   6   -122.1439657 -0.132321E-04  0.389E-03    0.36       2.6  T
   7   -122.1439674 -0.174399E-05  0.240E-03    0.36       4.2  T
   8   -122.1439682 -0.749236E-06  0.126E-03    0.36       8.0  T
   9   -122.1439683 -0.140706E-06  0.787E-04    0.36      12.8  T
  10   -122.1439684 -0.553961E-07  0.522E-04    0.36      19.2  T
     SCC iter.                  ...        0 min,  0.191 sec
     gradient                   ...        0 min,  0.023 sec
 * total energy  :  -120.2573686 Eh     change       -0.1942207E-03 Eh
   gradient norm :     0.0077600 Eh/α   predicted    -0.1925065E-03 (  -0.88%)
   displ. norm   :     0.4184591 α      lambda       -0.3892009E-03
   maximum displ.:     0.1599548 α      in ANC's #14, #10, #13, ...

........................................................................
.............................. CYCLE    9 ..............................
........................................................................

 iter      E             dE          RMSdq      gap      omega  full diag
   1   -122.1461510 -0.122146E+03  0.152E-01    0.36       0.0  T
   2   -122.1460900  0.610378E-04  0.941E-02    0.36       1.0  T
   3   -122.1425373  0.355269E-02  0.129E-01    0.36       1.0  T
   4   -122.1457414 -0.320412E-02  0.410E-02    0.35       1.0  T
   5   -122.1461421 -0.400667E-03  0.118E-02    0.36       1.0  T
   6   -122.1461674 -0.253155E-04  0.551E-03    0.36       1.8  T
   7   -122.1461714 -0.402184E-05  0.322E-03    0.36       3.1  T
   8   -122.1461722 -0.782078E-06  0.239E-03    0.36       4.2  T
   9   -122.1461732 -0.985727E-06  0.120E-03    0.36       8.4  T
  10   -122.1461734 -0.246124E-06  0.539E-04    0.36      18.6  T
  11   -122.1461735 -0.391013E-07  0.285E-04    0.36      35.3  T
     SCC iter.                  ...        0 min,  0.190 sec
     gradient                   ...        0 min,  0.021 sec
 * total energy  :  -120.2576135 Eh     change       -0.2448654E-03 Eh
   gradient norm :     0.0061614 Eh/α   predicted    -0.2286770E-03 (  -6.61%)
   displ. norm   :     0.3330754 α      lambda       -0.2853158E-03
   maximum displ.:     0.1399373 α      in ANC's #14, #10, #13, ...

........................................................................
.............................. CYCLE   10 ..............................
........................................................................

 iter      E             dE          RMSdq      gap      omega  full diag
   1   -122.1501370 -0.122150E+03  0.106E-01    0.37       0.0  T
   2   -122.1500638  0.732129E-04  0.671E-02    0.36       1.0  T
   3   -122.1453737  0.469016E-02  0.140E-01    0.38       1.0  T
   4   -122.1499035 -0.452980E-02  0.326E-02    0.36       1.0  T
   5   -122.1501385 -0.235069E-03  0.740E-03    0.37       1.4  T
   6   -122.1501470 -0.842843E-05  0.412E-03    0.37       2.4  T
   7   -122.1501494 -0.241028E-05  0.227E-03    0.36       4.4  T
   8   -122.1501499 -0.547967E-06  0.154E-03    0.37       6.5  T
   9   -122.1501502 -0.325683E-06  0.870E-04    0.36      11.5  T
  10   -122.1501504 -0.122834E-06  0.380E-04    0.37      26.4  T
     SCC iter.                  ...        0 min,  0.182 sec
     gradient                   ...        0 min,  0.022 sec
 * total energy  :  -120.2577946 Eh     change       -0.1811143E-03 Eh
   gradient norm :     0.0046077 Eh/α   predicted    -0.1584849E-03 ( -12.49%)
   displ. norm   :     0.3754043 α      lambda       -0.2544934E-03
   maximum displ.:     0.1611013 α      in ANC's #10, #14, #13, ...

........................................................................
.............................. CYCLE   11 ..............................
........................................................................

 iter      E             dE          RMSdq      gap      omega  full diag
   1   -122.1522684 -0.122152E+03  0.101E-01    0.37       0.0  T
   2   -122.1522263  0.420508E-04  0.633E-02    0.36       1.0  T
   3   -122.1493441  0.288222E-02  0.110E-01    0.39       1.0  T
   4   -122.1520690 -0.272484E-02  0.295E-02    0.36       1.0  T
   5   -122.1522672 -0.198278E-03  0.711E-03    0.37       1.4  T
   6   -122.1522756 -0.835483E-05  0.373E-03    0.37       2.7  T
   7   -122.1522773 -0.174316E-05  0.216E-03    0.37       4.7  T
   8   -122.1522778 -0.502171E-06  0.142E-03    0.37       7.1  T
   9   -122.1522781 -0.302004E-06  0.793E-04    0.37      12.7  T
  10   -122.1522782 -0.963006E-07  0.348E-04    0.37      28.9  T
     SCC iter.                  ...        0 min,  0.194 sec
     gradient                   ...        0 min,  0.020 sec
 * total energy  :  -120.2579754 Eh     change       -0.1808293E-03 Eh
   gradient norm :     0.0075160 Eh/α   predicted    -0.1451796E-03 ( -19.71%)
   displ. norm   :     0.4717149 α      lambda       -0.3257678E-03
   maximum displ.:     0.2084043 α      in ANC's #10, #13, #14, ...

........................................................................
.............................. CYCLE   12 ..............................
........................................................................

 iter      E             dE          RMSdq      gap      omega  full diag
   1   -122.1520487 -0.122152E+03  0.117E-01    0.37       0.0  T
   2   -122.1519732  0.755114E-04  0.737E-02    0.37       1.0  T
   3   -122.1467435  0.522977E-02  0.145E-01    0.40       1.0  T
   4   -122.1518285 -0.508505E-02  0.319E-02    0.36       1.0  T
   5   -122.1520437 -0.215189E-03  0.906E-03    0.37       1.1  T
   6   -122.1520590 -0.153546E-04  0.404E-03    0.37       2.5  T
   7   -122.1520615 -0.240294E-05  0.215E-03    0.37       4.7  T
   8   -122.1520619 -0.429888E-06  0.141E-03    0.37       7.1  T
   9   -122.1520622 -0.285077E-06  0.777E-04    0.37      12.9  T
  10   -122.1520623 -0.976873E-07  0.420E-04    0.37      24.0  T
     SCC iter.                  ...        0 min,  0.292 sec
     gradient                   ...        0 min,  0.026 sec
 * total energy  :  -120.2582523 Eh     change       -0.2769107E-03 Eh
   gradient norm :     0.0075236 Eh/α   predicted    -0.1991331E-03 ( -28.09%)
   displ. norm   :     0.5983224 α      lambda       -0.4662970E-03
   maximum displ.:     0.2769159 α      in ANC's #10, #13, #14, ...

........................................................................
.............................. CYCLE   13 ..............................
........................................................................

 iter      E             dE          RMSdq      gap      omega  full diag
   1   -122.1502841 -0.122150E+03  0.138E-01    0.37       0.0  T
   2   -122.1501686  0.115583E-03  0.872E-02    0.36       1.0  T
   3   -122.1427483  0.742021E-02  0.175E-01    0.42       1.0  T
   4   -122.1499638 -0.721543E-02  0.382E-02    0.37       1.0  T
   5   -122.1502687 -0.304911E-03  0.125E-02    0.37       1.0  T
   6   -122.1503011 -0.323642E-04  0.485E-03    0.37       2.1  T
   7   -122.1503043 -0.322619E-05  0.264E-03    0.37       3.8  T
   8   -122.1503051 -0.812779E-06  0.148E-03    0.37       6.8  T
   9   -122.1503054 -0.264561E-06  0.830E-04    0.37      12.1  T
  10   -122.1503054 -0.910888E-07  0.479E-04    0.37      21.0  T
     SCC iter.                  ...        0 min,  0.254 sec
     gradient                   ...        0 min,  0.021 sec
 * total energy  :  -120.2586610 Eh     change       -0.4086743E-03 Eh
   gradient norm :     0.0075139 Eh/α   predicted    -0.3166076E-03 ( -22.53%)
   displ. norm   :     0.7018886 α      lambda       -0.5921281E-03
   maximum displ.:     0.3391757 α      in ANC's #10, #13, #14, ...

........................................................................
.............................. CYCLE   14 ..............................
........................................................................

 iter      E             dE          RMSdq      gap      omega  full diag
   1   -122.1489595 -0.122149E+03  0.148E-01    0.37       0.0  T
   2   -122.1488221  0.137421E-03  0.937E-02    0.36       1.0  T
   3   -122.1416540  0.716810E-02  0.173E-01    0.43       1.0  T
   4   -122.1485983 -0.694431E-02  0.418E-02    0.37       1.0  T
   5   -122.1489253 -0.326971E-03  0.165E-02    0.37       1.0  T
   6   -122.1489846 -0.592756E-04  0.672E-03    0.37       1.5  T
   7   -122.1489903 -0.570934E-05  0.409E-03    0.37       2.5  T
   8   -122.1489924 -0.212478E-05  0.249E-03    0.37       4.0  T
   9   -122.1489934 -0.103051E-05  0.103E-03    0.37       9.7  T
  10   -122.1489935 -0.112474E-06  0.589E-04    0.37      17.1  T
  11   -122.1489936 -0.477791E-07  0.246E-04    0.37      40.8  T
     SCC iter.                  ...        0 min,  0.229 sec
     gradient                   ...        0 min,  0.020 sec
 * total energy  :  -120.2591713 Eh     change       -0.5102403E-03 Eh
   gradient norm :     0.0076572 Eh/α   predicted    -0.4419189E-03 ( -13.39%)
   displ. norm   :     0.7366112 α      lambda       -0.5956986E-03
   maximum displ.:     0.3672084 α      in ANC's #10, #13, #14, ...

........................................................................
.............................. CYCLE   15 ..............................
........................................................................

 iter      E             dE          RMSdq      gap      omega  full diag
   1   -122.1471969 -0.122147E+03  0.150E-01    0.38       0.0  T
   2   -122.1470317  0.165215E-03  0.961E-02    0.36       1.0  T
   3   -122.1395132  0.751855E-02  0.179E-01    0.44       1.0  T
   4   -122.1469463 -0.743312E-02  0.379E-02    0.37       1.0  T
   5   -122.1472013 -0.255025E-03  0.123E-02    0.37       1.0  T
   6   -122.1472228 -0.214696E-04  0.795E-03    0.37       1.3  T
   7   -122.1472340 -0.112014E-04  0.421E-03    0.37       2.4  T
   8   -122.1472363 -0.232484E-05  0.258E-03    0.37       3.9  T
   9   -122.1472373 -0.101619E-05  0.119E-03    0.37       8.4  T
  10   -122.1472375 -0.153653E-06  0.699E-04    0.37      14.4  T
  11   -122.1472376 -0.744422E-07  0.287E-04    0.37      35.0  T
     SCC iter.                  ...        0 min,  0.215 sec
     gradient                   ...        0 min,  0.026 sec
 * total energy  :  -120.2596940 Eh     change       -0.5227334E-03 Eh
   gradient norm :     0.0062015 Eh/α   predicted    -0.4594605E-03 ( -12.10%)
   displ. norm   :     0.7407540 α      lambda       -0.5868268E-03
   maximum displ.:     0.3811107 α      in ANC's #10, #13, #14, ...

   *** FAILED TO CONVERGE GEOMETRY OPTIMIZATION IN 15 ITERATIONS ***


 ANCopt (total)                0 d,  0 h,  0 min,  4.001 sec
 optimizer setup                ...        0 min,  0.001 sec (  0.025%)
 model hessian                  ...        0 min,  0.027 sec (  0.675%)
 ANC generation                 ...        0 min,  0.016 sec (  0.400%)
 coordinate transformation      ...        0 min,  0.002 sec (  0.050%)
 single point calculation       ...        0 min,  3.922 sec ( 98.025%)
 optimization log               ...        0 min,  0.025 sec (  0.625%)
 hessian update                 ...        0 min,  0.005 sec (  0.125%)
 rational function              ...        0 min,  0.003 sec (  0.075%)

================
 final structure:
================
99
 xtb: 6.7.1pre (5071a88)
C            0.23415312439371       -6.22192146061199        6.64162944013407
N           -0.32421976919431       -5.02418079058029        7.22462251707199
C           -1.57593244747487       -5.14119472170602        7.93345375124616
C            0.05685717031389       -3.79864127427712        6.71622779212544
C            1.15930828365547       -3.67104822272609        5.86364110097396
C            1.55242830115721       -2.43532717281987        5.38681800335211
C            0.86856713979058       -1.26904063045288        5.71556260380845
N            1.27002836120769       -0.06097059505296        5.16427676388967
C            0.85795513507473        1.18966265102184        5.60014296803807
C            1.53198248076934        2.32567912161653        5.16259015110774
C            1.12754763734775        3.59678488264173        5.52252506392672
C            0.02489470936481        3.79373215958331        6.36139328672089
N           -0.36700967096850        5.05890776840986        6.75404807659274
C            0.17695278666478        6.20087395096805        6.05697346857537
C           -1.62058909086204        5.22971299392262        7.44805924421902
C           -0.64559063654362        2.64833535846255        6.80972013089540
C           -0.24110883252089        1.37902987267584        6.43516087212115
S           -1.21099466882487        0.01617339627420        7.04231959924407
C           -0.22968240808444       -1.38964811410047        6.56437119924689
C           -0.62369765795837       -2.62177378601989        7.05545390397013
H            1.30412022338617       -6.28380298192982        6.85597336058794
H            0.09004511825055       -6.25749464914978        5.55486160761918
H           -0.24293840497742       -7.09735876822206        7.07882784923017
H           -2.43476108649619       -4.85155721895154        7.31521671765719
H           -1.56184379288924       -4.51586111768529        8.82831687589945
H           -1.71391320888917       -6.17233340818020        8.25225631777378
H            1.72895730066625       -4.53319260329766        5.56386014797959
H            2.40964931804624       -2.36511603670465        4.73363320337332
H            2.14314672539699       -0.07965455631194        4.65407968049539
H            2.38979687748305        2.20359362490052        4.51794998535335
H            1.69058652816262        4.43125671943550        5.14292507016527
H           -0.30041939161498        7.11032442632861        6.41822704002294
H            1.24867476320410        6.28743092392257        6.25155358448586
H            0.02068644463810        6.13577505127512        4.97286192944779
H           -1.60157082819349        4.69105472919977        8.39741505589602
H           -1.76888027242691        6.28481290991097        7.66896473384465
H           -2.47638128410519        4.87478653875311        6.85982606841262
H           -1.50492933386798        2.72093756849634        7.45465652294933
H           -1.48357140336052       -2.64165121795960        7.70334944056787
B           -6.92009625149421       -4.64218181539187        0.67612806933521
B           -5.12125945067270       -2.22923482945034        0.40936768491378
B           -3.59876857826146       -2.21277616633769        0.26937216710637
B            0.99056532334761       -2.88720942345069        0.36766684355020
B            2.46916893501961       -3.03501865595811        0.04806353431060
B            5.26878559051582       -3.76976169595377       -0.59345509722394
B            6.22398964710097       -4.68322108776789       -1.32704734273826
B           -6.43348596240156       -3.16025834706148        0.46617312956945
B           -6.76808012326828       -1.64598448767424        0.32774701787344
B           -2.07201201493943       -2.34497368905047        0.44255628036720
B           -0.50130141036158       -2.48263949561173        0.47365227481956
B            4.00204989881855       -2.89364500947109       -0.05206562147477
B            5.71034328867138       -2.24758999621768       -0.12590266708545
B            6.75405471715609       -3.10489128628586       -1.06183506736600
B           -7.64386948465710       -0.25593086384422        0.29484466646887
B           -6.03071238064594       -0.17407434566041        0.07440206196007
B           -4.43107898646879       -0.57064606614632        0.14907077356423
B           -2.73622639379194       -0.69607881109793        0.25989382909964
B           -1.07914128096527       -0.91629523847538        0.71315184933560
B            0.47629667237190       -1.17530392472977        0.94058383663695
B            3.10082596213028       -1.49157315539066        0.22994472179962
B            4.68499502724976       -1.12891621208177        0.61606830621258
B            6.24241274848834       -0.76778307362985        0.45296405928930
B            7.71455630215683       -0.35613194473744        1.11701596371476
B           -6.87778424737655        1.19489194779395        0.08993079891695
B           -3.40959315392341        0.73705777609835       -0.04493108987250
B           -1.65489369676262        0.50728853130468        0.10340429480305
B            1.83576101046253       -0.40060351911213        0.58816858069762
B            3.55906258631645       -0.16733275728922        1.09024445682181
B            6.94507430442503        0.63136282774285        0.05722541488893
B            8.34413865372775        1.04324596699169        0.65509965758820
B           -7.49774666527267        2.79506530660511        0.37268525958246
B           -6.14115159767699        2.49312785741596       -0.40895739576112
B           -3.57100600623218        2.27504784316298       -0.40044344556238
B           -0.88132301296788        1.79726108342174       -0.39267207181706
B            1.64431044847188        1.02419161383910       -0.15157820183319
B            2.98795124466206        1.29558912101031        0.85489192424753
B            6.28860752208093        1.90699217948825       -0.67172917634657
B           -6.46236405114978        4.02957652026078       -0.21009830155309
B           -4.85412089248001        3.43476950436219       -0.58156170492185
B           -3.39256492699077        3.82975455730105       -0.75438294780366
B           -1.98817775766446        3.19574854010515       -0.73428368672576
B           -0.44951895968034        3.27233533544540       -0.80314949874136
B            0.74807733390428        2.33409760535900       -0.54593174525939
B            2.33856754646831        2.49253891144251       -0.14487432207331
B            3.80657874381477        2.62243270121094        0.28459081567166
B            5.35435220354581        2.89042127059189        0.20592551400941
B            6.07869626000886        4.05740796585502        1.02100484067295
H            6.19731430792913        5.15952104626208        0.60978981121997
H            8.30998513644856       -1.13942116331448        1.75497156380219
H            6.44630939226881        2.06292510641393       -1.83581298205079
H           -7.03550827100328       -5.42509386618288       -0.21096364249680
H           -6.71387052964113        5.17310824757768       -0.27785867811548
H            9.22899466722878        1.80261325437066        0.72504636943482
H           -8.81803542879818       -0.32570032375676        0.28292613643912
H            6.65184832024504       -5.65249056699032       -1.82364025047473
H           -8.51253678412248        3.00216520222003        0.92376227158884
H            7.80471156311893       -2.72072794583861       -1.42938256621780
H            6.52297900811426        3.89439176766425        2.10451283529878
H           -7.26506330630503       -5.07947714842671        1.72484075887100
 
 Bond Distances (Angstroems)
 ---------------------------
C1-N2=1.4444         C1-H21=1.0930        C1-H22=1.0969        C1-H23=1.0886        N2-C1=1.4444         N2-C3=1.4432         
N2-C4=1.3804         C3-N2=1.4432         C3-H24=1.0971        C3-H25=1.0918        C3-H26=1.0881        C4-N2=1.3804         
C4-C5=1.3995         C4-C20=1.4012        C5-C4=1.3995         C5-C6=1.3816         C5-H27=1.0759        C6-C5=1.3816         
C6-C7=1.3914         C6-H28=1.0800        C7-C6=1.3914         C7-N8=1.3873         C7-C19=1.3933        N8-C7=1.3873         
N8-C9=1.3870         N8-H29=1.0114        C9-N8=1.3870         C9-C10=1.3915        C9-C17=1.3932        C10-C9=1.3915        
C10-C11=1.3816       C10-H30=1.0800       C11-C10=1.3816       C11-C12=1.3994       C11-H31=1.0758       C12-C11=1.3994       
C12-N13=1.3815       C12-C16=1.4009       N13-C12=1.3815       N13-C14=1.4443       N13-C15=1.4430       C14-N13=1.4443       
C14-H32=1.0888       C14-H33=1.0927       C14-H34=1.0972       C15-N13=1.4430       C15-H35=1.0917       C15-H36=1.0881       
C15-H37=1.0974       C16-C12=1.4009       C16-C17=1.3838       C16-H38=1.0769       C17-C9=1.3932        C17-C16=1.3838       
C17-S18=1.7795       S18-C17=1.7795       S18-C19=1.7798       C19-C7=1.3933        C19-S18=1.7798       C19-C20=1.3837       
C20-C4=1.4012        C20-C19=1.3837       C20-H39=1.0768       H21-C1=1.0930        H22-C1=1.0969        H23-C1=1.0886        
H24-C3=1.0971        H25-C3=1.0918        H26-C3=1.0881        H27-C5=1.0759        H28-C6=1.0800        H29-N8=1.0114        
H30-C10=1.0800       H31-C11=1.0758       H32-C14=1.0888       H33-C14=1.0927       H34-C14=1.0972       H35-C15=1.0917       
H36-C15=1.0881       H37-C15=1.0974       H38-C16=1.0769       H39-C20=1.0768       B40-B47=1.5738       B40-H91=1.1888       
B40-H99=1.1874       B41-B42=1.5290       B41-B47=1.6100       B41-B48=1.7490       B41-B56=1.8152       B42-B41=1.5290       
B42-B49=1.5422       B42-B56=1.8449       B42-B57=1.7448       B43-B44=1.5200       B43-B50=1.5494       B43-B59=1.8771       
B44-B43=1.5200       B44-B51=1.5426       B44-B60=1.6776       B45-B46=1.5116       B45-B51=1.6326       B45-B52=1.6524       
B45-B53=1.6934       B46-B45=1.5116       B46-B53=1.6860       B46-H95=1.1701       B47-B40=1.5738       B47-B41=1.6100       
B47-B48=1.5570       B48-B41=1.7490       B48-B47=1.5570       B48-B54=1.6433       B48-B55=1.6657       B49-B42=1.5422       
B49-B50=1.5770       B49-B57=1.7870       B49-B58=1.7607       B50-B43=1.5494       B50-B49=1.5770       B50-B58=1.6866       
B50-B59=1.6979       B51-B44=1.5426       B51-B45=1.6326       B51-B52=1.8279       B51-B60=1.6904       B51-B61=2.0068       
B52-B45=1.6524       B52-B51=1.8279       B52-B53=1.6432       B52-B61=1.6892       B52-B62=1.6757       B53-B45=1.6934       
B53-B46=1.6860       B53-B52=1.6432       B53-H97=1.1775       B54-B48=1.6433       B54-B55=1.6302       B54-B64=1.6534       
B54-H94=1.1763       B55-B48=1.6657       B55-B54=1.6302       B55-B56=1.6497       B55-B64=1.6099       B56-B41=1.8152       
B56-B42=1.8449       B56-B55=1.6497       B56-B57=1.7031       B56-B65=1.6707       B57-B42=1.7448       B57-B49=1.7870       
B57-B56=1.7031       B57-B58=1.7320       B57-B65=1.6125       B57-B66=1.6254       B58-B49=1.7607       B58-B50=1.6866       
B58-B57=1.7320       B58-B59=1.5932       B58-B66=1.6522       B59-B43=1.8771       B59-B50=1.6979       B59-B58=1.5932       
B59-B67=1.6039       B60-B44=1.6776       B60-B51=1.6904       B60-B61=1.6704       B60-B67=1.7085       B60-B68=1.6443       
B61-B51=2.0068       B61-B52=1.6892       B61-B60=1.6704       B61-B62=1.6070       B61-B68=1.5547       B62-B52=1.6757       
B62-B61=1.6070       B62-B63=1.6666       B62-B69=1.6149       B63-B62=1.6666       B63-B69=1.6402       B63-B70=1.6025       
B63-H89=1.1726       B64-B54=1.6534       B64-B55=1.6099       B64-B71=1.7392       B64-B72=1.5738       B65-B56=1.6707       
B65-B57=1.6125       B65-B66=1.7759       B65-B73=1.5868       B66-B57=1.6254       B66-B58=1.6522       B66-B65=1.7759       
B66-B74=1.5838       B67-B59=1.6039       B67-B60=1.7085       B67-B68=1.8100       B67-B75=1.6168       B67-B76=2.0678       
B68-B60=1.6443       B68-B61=1.5547       B68-B67=1.8100       B68-B76=1.5880       B69-B62=1.6149       B69-B63=1.6402       
B69-B70=1.5762       B69-B77=1.6092       B70-B63=1.6025       B70-B69=1.5762       B70-H93=1.1681       B71-B64=1.7392       
B71-B72=1.5945       B71-B78=1.7134       B71-H96=1.1732       B72-B64=1.5738       B72-B71=1.5945       B72-B78=1.5822       
B72-B79=1.6040       B73-B65=1.5868       B73-B79=1.7390       B73-B80=1.6044       B73-B81=1.8613       B74-B66=1.5838       
B74-B81=1.8159       B74-B82=1.5908       B74-B83=1.7224       B75-B67=1.6168       B75-B76=1.7006       B75-B83=1.6354       
B75-B84=1.6242       B76-B67=2.0678       B76-B68=1.5880       B76-B75=1.7006       B76-B84=1.6894       B76-B85=1.6601       
B77-B69=1.6092       B77-B86=1.6156       B77-H90=1.1850       B78-B71=1.7134       B78-B72=1.5822       B78-B79=1.7545       
B78-H92=1.1728       B79-B72=1.6040       B79-B73=1.7390       B79-B78=1.7545       B79-B80=1.5238       B80-B73=1.6044       
B80-B79=1.5238       B80-B81=1.5410       B81-B73=1.8613       B81-B74=1.8159       B81-B80=1.5410       B81-B82=1.5421       
B82-B74=1.5908       B82-B81=1.5421       B82-B83=1.5429       B83-B74=1.7224       B83-B75=1.6354       B83-B82=1.5429       
B83-B84=1.6479       B84-B75=1.6242       B84-B76=1.6894       B84-B83=1.6479       B84-B85=1.5350       B85-B76=1.6601       
B85-B84=1.5350       B85-B86=1.5728       B86-B77=1.6156       B86-B85=1.5728       B86-B87=1.5971       B87-B86=1.5971       
B87-H88=1.1823       B87-H98=1.1823       H88-B87=1.1823       H89-B63=1.1726       H90-B77=1.1850       H91-B40=1.1888       
H92-B78=1.1728       H93-B70=1.1681       H94-B54=1.1763       H95-B46=1.1701       H96-B71=1.1732       H97-B53=1.1775       
H98-B87=1.1823       H99-B40=1.1874       
 B  H  Rav=1.1780 sigma=0.0067  Rmin=1.1681  Rmax=1.1888    12
 B  B  Rav=1.6589 sigma=0.1016  Rmin=1.5116  Rmax=2.0678    89
 C  H  Rav=1.0876 sigma=0.0077  Rmin=1.0758  Rmax=1.0974    18
 C  C  Rav=1.3918 sigma=0.0072  Rmin=1.3816  Rmax=1.4012    12
 N  H  Rav=1.0114 sigma=0.0000  Rmin=1.0114  Rmax=1.0114     1
 N  C  Rav=1.4139 sigma=0.0299  Rmin=1.3804  Rmax=1.4444     8
 S  C  Rav=1.7797 sigma=0.0001  Rmin=1.7795  Rmax=1.7798     2
 
 selected bond angles (degree)
 --------------------
H21-C1-N2=110.26               H22-C1-N2=112.09               H22-C1-H21=108.73              H23-C1-N2=109.59               
H23-C1-H21=107.74              H23-C1-H22=108.32              C3-N2-C1=117.79                C4-N2-C1=118.74                
C4-N2-C3=119.49                H24-C3-N2=112.38               H25-C3-N2=110.18               H25-C3-H24=108.71              
H26-C3-N2=109.31               H26-C3-H24=108.42              H26-C3-H25=107.71              C5-C4-N2=121.52                
C20-C4-N2=121.50               C20-C4-C5=116.97               C6-C5-C4=121.06                H27-C5-C4=120.91               
H27-C5-C6=118.03               C7-C6-C5=121.89                H28-C6-C5=119.52               H28-C6-C7=118.59               
N8-C7-C6=119.59                C19-C7-C6=117.31               C19-C7-N8=123.07               C9-N8-C7=125.05                
H29-N8-C7=115.73               H29-N8-C9=115.57               C10-C9-N8=119.56               C17-C9-N8=123.04               
C17-C9-C10=117.36              C11-C10-C9=121.83              H30-C10-C9=118.70              H30-C10-C11=119.47             
 
 selected dihedral angles (degree)
 ---------------------------------
C3-N2-C1-H21=225.02           C3-N2-C1-H22=103.74           C3-N2-C1-H23=343.45           C4-N2-C1-H21= 67.54           
C4-N2-C1-H22=306.27           C4-N2-C1-H23=185.98           H24-C3-N2-C1=261.81           H24-C3-N2-C4= 59.11           
H25-C3-N2-C1=140.42           H25-C3-N2-C4=297.72           H26-C3-N2-C1= 22.24           H26-C3-N2-C4=179.53           
C5-C4-N2-C1=346.29            C5-C4-N2-C3=189.21            C20-C4-N2-C1=167.81           C20-C4-N2-C3= 10.72           
C6-C5-C4-N2=181.63            C6-C5-C4-C20=  0.17           H27-C5-C4-N2=  1.33           H27-C5-C4-C20=179.88          
C7-C6-C5-C4=359.26            C7-C6-C5-H27=179.55           H28-C6-C5-C4=179.73           H28-C6-C5-H27=  0.00          
N8-C7-C6-C5=182.75            N8-C7-C6-H28=  2.28           C19-C7-C6-C5=  0.73           C19-C7-C6-H28=180.26          
C9-N8-C7-C6=193.41            C9-N8-C7-C19= 15.55           H29-N8-C7-C6=350.85           H29-N8-C7-C19=172.99          
C10-C9-N8-C7=166.61           C10-C9-N8-H29=  9.14          C17-C9-N8-C7=344.50           C17-C9-N8-H29=187.03          
C11-C10-C9-N8=177.27          C11-C10-C9-C17=359.26         H30-C10-C9-N8=357.74          H30-C10-C9-C17=179.73         
 
 CMA Distance (Angstroems)
 ---------------------------
R(CMA):  6.3325
           -------------------------------------------------
          |                Final Singlepoint                |
           -------------------------------------------------

          ...................................................
          :                      SETUP                      :
          :.................................................:
          :  # basis functions                 309          :
          :  # atomic orbitals                 308          :
          :  # shells                          168          :
          :  # electrons                       260          :
          :  max. iterations                   500          :
          :  Hamiltonian                  GFN2-xTB          :
          :  restarted?                      false          :
          :  GBSA solvation                  false          :
          :  PC potential                    false          :
          :  electronic temp.          300.0000000     K    :
          :  accuracy                    1.0000000          :
          :  -> integral cutoff          0.2500000E+02      :
          :  -> integral neglect         0.1000000E-07      :
          :  -> SCF convergence          0.1000000E-05 Eh   :
          :  -> wf. convergence          0.1000000E-03 e    :
          :  Broyden damping             0.4000000          :
          :  net charge                          0          :
          :  unpaired electrons                  0          :
          ...................................................

 iter      E             dE          RMSdq      gap      omega  full diag
   1   -122.1467672 -0.122147E+03  0.141E-01    0.38       0.0  T
   2   -122.1465480  0.219183E-03  0.919E-02    0.36       1.0  T
   3   -122.1385508  0.799721E-02  0.184E-01    0.44       1.0  T
   4   -122.1465962 -0.804535E-02  0.338E-02    0.37       1.0  T
   5   -122.1467847 -0.188542E-03  0.114E-02    0.37       1.0  T
   6   -122.1468014 -0.166539E-04  0.716E-03    0.37       1.4  T
   7   -122.1468098 -0.845732E-05  0.418E-03    0.37       2.4  T
   8   -122.1468123 -0.250249E-05  0.250E-03    0.37       4.0  T
   9   -122.1468132 -0.908309E-06  0.121E-03    0.37       8.3  T
  10   -122.1468134 -0.142267E-06  0.753E-04    0.37      13.3  T
  11   -122.1468135 -0.901170E-07  0.274E-04    0.37      36.6  T

   *** convergence criteria satisfied after 11 iterations ***

         #    Occupation            Energy/Eh            Energy/eV
      -------------------------------------------------------------
         1        2.0000           -0.7006018             -19.0643
       ...           ...                  ...                  ...
       124        2.0000           -0.2722403              -7.4080
       125        2.0000           -0.2682757              -7.3002
       126        2.0000           -0.2672147              -7.2713
       127        2.0000           -0.2649626              -7.2100
       128        2.0000           -0.2615435              -7.1170
       129        2.0000           -0.2577609              -7.0140
       130        1.9985           -0.2466329              -6.7112 (HOMO)
       131        0.0015           -0.2329468              -6.3388 (LUMO)
       132                         -0.2202175              -5.9924
       133                         -0.2197927              -5.9809
       134                         -0.2161133              -5.8807
       135                         -0.2128668              -5.7924
       ...                                ...                  ...
       308                          1.2335170              33.5657
      -------------------------------------------------------------
                  HL-Gap            0.0136861 Eh            0.3724 eV
             Fermi-level           -0.2397898 Eh           -6.5250 eV

 SCC (total)                   0 d,  0 h,  0 min,  0.216 sec
 SCC setup                      ...        0 min,  0.000 sec (  0.000%)
 Dispersion                     ...        0 min,  0.001 sec (  0.463%)
 classical contributions        ...        0 min,  0.000 sec (  0.000%)
 integral evaluation            ...        0 min,  0.007 sec (  3.241%)
 iterations                     ...        0 min,  0.185 sec ( 85.648%)
 molecular gradient             ...        0 min,  0.021 sec (  9.722%)
 printout                       ...        0 min,  0.002 sec (  0.926%)

         :::::::::::::::::::::::::::::::::::::::::::::::::::::
         ::                     SUMMARY                     ::
         :::::::::::::::::::::::::::::::::::::::::::::::::::::
         :: total energy            -120.260226695577 Eh    ::
         :: gradient norm              0.005685133386 Eh/a0 ::
         :: HOMO-LUMO gap              0.372418745953 eV    ::
         ::.................................................::
         :: SCC energy              -122.144659956646 Eh    ::
         :: -> isotropic ES            0.306233701687 Eh    ::
         :: -> anisotropic ES          0.014015036782 Eh    ::
         :: -> anisotropic XC         -0.008827594711 Eh    ::
         :: -> dispersion             -0.116078094876 Eh    ::
         :: repulsion energy           1.884433261069 Eh    ::
         :: add. restraining           0.000000000000 Eh    ::
         :: total charge              -0.000000000000 e     ::
         :::::::::::::::::::::::::::::::::::::::::::::::::::::

           -------------------------------------------------
          |                Property Printout                |
           -------------------------------------------------

    * Orbital Energies and Occupations

         #    Occupation            Energy/Eh            Energy/eV
      -------------------------------------------------------------
         1        2.0000           -0.7006018             -19.0643
       ...           ...                  ...                  ...
       118        2.0000           -0.2905492              -7.9062
       119        2.0000           -0.2879296              -7.8350
       120        2.0000           -0.2845887              -7.7441
       121        2.0000           -0.2838273              -7.7233
       122        2.0000           -0.2795881              -7.6080
       123        2.0000           -0.2768417              -7.5332
       124        2.0000           -0.2722403              -7.4080
       125        2.0000           -0.2682757              -7.3002
       126        2.0000           -0.2672147              -7.2713
       127        2.0000           -0.2649626              -7.2100
       128        2.0000           -0.2615435              -7.1170
       129        2.0000           -0.2577609              -7.0140
       130        1.9985           -0.2466329              -6.7112 (HOMO)
       131        0.0015           -0.2329468              -6.3388 (LUMO)
       132                         -0.2202175              -5.9924
       133                         -0.2197927              -5.9809
       134                         -0.2161133              -5.8807
       135                         -0.2128668              -5.7924
       136                         -0.2093786              -5.6975
       137                         -0.2070964              -5.6354
       138                         -0.2066609              -5.6235
       139                         -0.1940019              -5.2791
       140                         -0.1898247              -5.1654
       141                         -0.1894919              -5.1563
       ...                                ...                  ...
       308                          1.2335170              33.5657
      -------------------------------------------------------------
                  HL-Gap            0.0136861 Eh            0.3724 eV
             Fermi-level           -0.2397898 Eh           -6.5250 eV

     #   Z          covCN         q      C6AA      α(0)
     1   6 C        3.697    -0.049    21.629     6.652
     2   7 N        2.733    -0.098    23.166     7.148
     3   6 C        3.696    -0.047    21.599     6.648
     4   6 C        2.914     0.052    26.837     8.495
     5   6 C        2.922    -0.074    29.841     8.958
     6   6 C        2.927    -0.074    29.853     8.960
     7   6 C        2.930     0.044    27.016     8.524
     8   7 N        2.697    -0.165    24.577     7.363
     9   6 C        2.930     0.044    27.018     8.524
    10   6 C        2.927    -0.075    29.882     8.965
    11   6 C        2.922    -0.074    29.852     8.960
    12   6 C        2.914     0.051    26.858     8.498
    13   7 N        2.733    -0.100    23.194     7.153
    14   6 C        3.697    -0.049    21.630     6.652
    15   6 C        3.696    -0.047    21.594     6.647
    16   6 C        2.983    -0.079    29.972     8.980
    17   6 C        2.969     0.024    27.462     8.596
    18  16 S        2.122    -0.153   147.512    20.442
    19   6 C        2.969     0.025    27.451     8.594
    20   6 C        2.983    -0.078    29.952     8.977
    21   1 H        0.924     0.048     2.346     2.396
    22   1 H        0.924     0.042     2.426     2.436
    23   1 H        0.925     0.049     2.336     2.390
    24   1 H        0.924     0.039     2.464     2.455
    25   1 H        0.924     0.050     2.322     2.383
    26   1 H        0.925     0.048     2.344     2.394
    27   1 H        0.926     0.034     2.524     2.485
    28   1 H        0.926     0.031     2.567     2.505
    29   1 H        0.860     0.165     1.306     1.790
    30   1 H        0.926     0.035     2.522     2.483
    31   1 H        0.926     0.035     2.510     2.477
    32   1 H        0.925     0.048     2.342     2.393
    33   1 H        0.924     0.050     2.323     2.383
    34   1 H        0.924     0.040     2.455     2.450
    35   1 H        0.924     0.050     2.314     2.379
    36   1 H        0.925     0.048     2.348     2.396
    37   1 H        0.924     0.037     2.495     2.470
    38   1 H        0.926     0.038     2.471     2.458
    39   1 H        0.926     0.039     2.462     2.454
    40   5 B        2.839     0.115    19.518     7.378
    41   5 B        3.872     0.030    22.180     7.590
    42   5 B        3.723    -0.019    22.978     7.747
    43   5 B        2.765     0.011    21.325     7.725
    44   5 B        2.910    -0.051    22.340     7.888
    45   5 B        3.857     0.013    22.494     7.644
    46   5 B        2.870     0.057    20.444     7.548
    47   5 B        2.920    -0.003    21.454     7.729
    48   5 B        3.826     0.051    21.795     7.525
    49   5 B        3.766     0.014    22.436     7.643
    50   5 B        3.851     0.003    22.674     7.674
    51   5 B        4.339     0.048    21.876     7.536
    52   5 B        4.695     0.088    21.170     7.413
    53   5 B        3.803     0.066    21.529     7.481
    54   5 B        3.829     0.060    21.637     7.498
    55   5 B        3.985     0.051    21.823     7.527
    56   5 B        4.586     0.058    21.688     7.504
    57   5 B        5.641     0.110    20.802     7.349
    58   5 B        4.737     0.034    22.116     7.577
    59   5 B        3.695     0.039    21.835     7.566
    60   5 B        4.778     0.083    21.261     7.429
    61   5 B        4.439     0.023    22.326     7.613
    62   5 B        3.854     0.043    21.941     7.549
    63   5 B        3.832     0.040    22.004     7.561
    64   5 B        3.836     0.009    22.570     7.657
    65   5 B        3.807    -0.023    23.149     7.757
    66   5 B        3.810     0.002    22.688     7.679
    67   5 B        4.225    -0.014    23.015     7.730
    68   5 B        3.795     0.009    22.536     7.655
    69   5 B        3.878     0.029    22.209     7.594
    70   5 B        2.887     0.099    19.748     7.417
    71   5 B        3.782     0.077    21.318     7.447
    72   5 B        3.894     0.052    21.802     7.524
    73   5 B        3.701     0.037    21.891     7.572
    74   5 B        3.758     0.030    22.123     7.591
    75   5 B        3.855     0.043    21.955     7.552
    76   5 B        4.293     0.042    21.983     7.554
    77   5 B        2.876     0.086    19.958     7.457
    78   5 B        3.774     0.078    21.305     7.446
    79   5 B        3.799     0.004    22.639     7.672
    80   5 B        2.926     0.006    21.292     7.700
    81   5 B        3.650     0.002    22.313     7.686
    82   5 B        2.926     0.018    21.088     7.663
    83   5 B        3.844    -0.004    22.800     7.696
    84   5 B        3.859     0.014    22.483     7.642
    85   5 B        2.912     0.003    21.355     7.711
    86   5 B        2.916     0.005    21.311     7.703
    87   5 B        2.841     0.137    19.185     7.314
    88   1 H        0.935    -0.144     7.388     4.250
    89   1 H        0.938    -0.111     5.966     3.819
    90   1 H        0.933    -0.139     7.157     4.183
    91   1 H        0.932    -0.157     8.058     4.438
    92   1 H        0.938    -0.138     7.103     4.167
    93   1 H        0.940    -0.150     7.661     4.327
    94   1 H        0.937    -0.122     6.377     3.948
    95   1 H        0.939    -0.157     8.069     4.441
    96   1 H        0.938    -0.136     7.024     4.144
    97   1 H        0.936    -0.146     7.457     4.269
    98   1 H        0.935    -0.145     7.445     4.266
    99   1 H        0.932    -0.158     8.110     4.453

 Mol. C6AA /au·bohr⁶  :     155585.901842
 Mol. C8AA /au·bohr⁸  :    4942557.046236
 Mol. α(0) /au        :        634.135684


Wiberg/Mayer (AO) data.
largest (>0.10) Wiberg bond orders for each atom

 ---------------------------------------------------------------------------
     #   Z sym  total        # sym  WBO       # sym  WBO       # sym  WBO
 ---------------------------------------------------------------------------
     1   6 C    3.979 --     2 N    1.010    23 H    0.980    21 H    0.977
                            22 H    0.975
     2   7 N    3.370 --     4 C    1.146     3 C    1.011     1 C    1.010
     3   6 C    3.980 --     2 N    1.011    26 H    0.980    25 H    0.977
                            24 H    0.974
     4   6 C    3.964 --     5 C    1.332    20 C    1.325     2 N    1.146
     5   6 C    3.982 --     6 C    1.452     4 C    1.332    27 H    0.967
     6   6 C    3.978 --     5 C    1.452     7 C    1.354    28 H    0.966
     7   6 C    3.966 --     6 C    1.354    19 C    1.318     8 N    1.099
     8   7 N    3.400 --     9 C    1.100     7 C    1.099    29 H    0.939
     9   6 C    3.966 --    10 C    1.353    17 C    1.318     8 N    1.100
    10   6 C    3.979 --    11 C    1.453     9 C    1.353    30 H    0.966
    11   6 C    3.983 --    10 C    1.453    12 C    1.333    31 H    0.967
    12   6 C    3.964 --    11 C    1.333    16 C    1.327    13 N    1.143
    13   7 N    3.367 --    12 C    1.143    15 C    1.012    14 C    1.010
    14   6 C    3.979 --    13 N    1.010    32 H    0.980    33 H    0.976
                            34 H    0.975
    15   6 C    3.980 --    13 N    1.012    36 H    0.980    35 H    0.976
                            37 H    0.975
    16   6 C    3.979 --    17 C    1.429    12 C    1.327    38 H    0.964
    17   6 C    3.958 --    16 C    1.429     9 C    1.318    18 S    1.015
    18  16 S    2.323 --    17 C    1.015    19 C    1.014
    19   6 C    3.958 --    20 C    1.430     7 C    1.318    18 S    1.014
    20   6 C    3.980 --    19 C    1.430     4 C    1.325    39 H    0.964
    21   1 H    0.997 --     1 C    0.977
    22   1 H    0.998 --     1 C    0.975
    23   1 H    0.997 --     1 C    0.980
    24   1 H    0.998 --     3 C    0.974
    25   1 H    0.997 --     3 C    0.977
    26   1 H    0.997 --     3 C    0.980
    27   1 H    0.998 --     5 C    0.967
    28   1 H    0.999 --     6 C    0.966
    29   1 H    0.972 --     8 N    0.939
    30   1 H    0.998 --    10 C    0.966
    31   1 H    0.998 --    11 C    0.967
    32   1 H    0.997 --    14 C    0.980
    33   1 H    0.997 --    14 C    0.976
    34   1 H    0.998 --    14 C    0.975
    35   1 H    0.997 --    15 C    0.976
    36   1 H    0.997 --    15 C    0.980
    37   1 H    0.998 --    15 C    0.975
    38   1 H    0.998 --    16 C    0.964
    39   1 H    0.998 --    20 C    0.964
    40   5 B    3.286 --    47 B    1.208    99 H    0.943    91 H    0.942
    41   5 B    3.556 --    42 B    1.162    47 B    0.854    48 B    0.540
                            56 B    0.508    55 B    0.155
    42   5 B    3.577 --    41 B    1.162    49 B    1.151    57 B    0.469
                            56 B    0.453
    43   5 B    3.400 --    44 B    1.390    50 B    1.075    59 B    0.440
                            60 B    0.109
    44   5 B    3.571 --    43 B    1.390    51 B    1.139    60 B    0.611
    45   5 B    3.570 --    46 B    1.311    51 B    0.738    52 B    0.693
                            53 B    0.691
    46   5 B    3.398 --    45 B    1.311    95 H    0.966    53 B    0.829
                            52 B    0.124
    47   5 B    3.406 --    40 B    1.208    48 B    1.079    41 B    0.854
    48   5 B    3.518 --    47 B    1.079    54 B    0.829    55 B    0.693
                            41 B    0.540
    49   5 B    3.466 --    42 B    1.151    50 B    0.997    58 B    0.532
                            57 B    0.447
    50   5 B    3.543 --    43 B    1.075    49 B    0.997    59 B    0.648
                            58 B    0.614
    51   5 B    3.535 --    44 B    1.139    45 B    0.738    60 B    0.642
                            52 B    0.467    61 B    0.308
    52   5 B    3.625 --    53 B    0.889    45 B    0.693    62 B    0.689
                            61 B    0.574    51 B    0.467    46 B    0.124
    53   5 B    3.574 --    97 H    0.937    52 B    0.889    46 B    0.829
                            45 B    0.691
    54   5 B    3.569 --    94 H    0.922    48 B    0.829    64 B    0.825
                            55 B    0.795
    55   5 B    3.640 --    64 B    0.853    56 B    0.813    54 B    0.795
                            48 B    0.693    41 B    0.155
    56   5 B    3.567 --    55 B    0.813    65 B    0.785    57 B    0.641
                            41 B    0.508    42 B    0.453
    57   5 B    3.671 --    65 B    0.725    66 B    0.700    56 B    0.641
                            58 B    0.519    42 B    0.469    49 B    0.447
    58   5 B    3.573 --    59 B    0.943    66 B    0.731    50 B    0.614
                            49 B    0.532    57 B    0.519
    59   5 B    3.501 --    67 B    1.036    58 B    0.943    50 B    0.648
                            43 B    0.440
    60   5 B    3.621 --    68 B    0.685    51 B    0.642    61 B    0.640
                            67 B    0.639    44 B    0.611    43 B    0.109
    61   5 B    3.606 --    68 B    1.034    62 B    0.779    60 B    0.640
                            52 B    0.574    51 B    0.308
    62   5 B    3.673 --    69 B    0.829    63 B    0.806    61 B    0.779
                            52 B    0.689    70 B    0.161
    63   5 B    3.634 --    70 B    1.022    89 H    0.909    62 B    0.806
                            69 B    0.737
    64   5 B    3.604 --    72 B    0.881    55 B    0.853    54 B    0.825
                            71 B    0.724
    65   5 B    3.634 --    73 B    1.114    56 B    0.785    57 B    0.725
                            66 B    0.605
    66   5 B    3.547 --    74 B    1.090    58 B    0.731    57 B    0.700
                            65 B    0.605
    67   5 B    3.599 --    59 B    1.036    75 B    0.904    60 B    0.639
                            68 B    0.460    76 B    0.271
    68   5 B    3.611 --    61 B    1.034    76 B    0.970    60 B    0.685
                            67 B    0.460
    69   5 B    3.609 --    70 B    0.964    77 B    0.904    62 B    0.829
                            63 B    0.737
    70   5 B    3.444 --    63 B    1.022    93 H    0.969    69 B    0.964
                            77 B    0.184    62 B    0.161
    71   5 B    3.552 --    96 H    0.952    78 B    0.865    72 B    0.827
                            64 B    0.724
    72   5 B    3.629 --    64 B    0.881    78 B    0.873    71 B    0.827
                            79 B    0.765
    73   5 B    3.601 --    65 B    1.114    80 B    0.826    79 B    0.692
                            81 B    0.541
    74   5 B    3.603 --    66 B    1.090    82 B    0.859    83 B    0.700
                            81 B    0.582
    75   5 B    3.563 --    67 B    0.904    83 B    0.782    84 B    0.715
                            76 B    0.662
    76   5 B    3.581 --    68 B    0.970    85 B    0.757    84 B    0.675
                            75 B    0.662    67 B    0.271
    77   5 B    3.439 --    86 B    0.981    90 H    0.933    69 B    0.904
                            70 B    0.184    87 B    0.154
    78   5 B    3.550 --    92 H    0.955    72 B    0.873    71 B    0.865
                            79 B    0.659
    79   5 B    3.586 --    80 B    1.259    72 B    0.765    73 B    0.692
                            78 B    0.659
    80   5 B    3.547 --    79 B    1.259    81 B    1.118    73 B    0.826
    81   5 B    3.558 --    82 B    1.127    80 B    1.118    74 B    0.582
                            73 B    0.541
    82   5 B    3.528 --    83 B    1.158    81 B    1.127    74 B    0.859
    83   5 B    3.592 --    82 B    1.158    75 B    0.782    84 B    0.751
                            74 B    0.700
    84   5 B    3.589 --    85 B    1.189    83 B    0.751    75 B    0.715
                            76 B    0.675
    85   5 B    3.526 --    84 B    1.189    86 B    1.063    76 B    0.757
                            87 B    0.117
    86   5 B    3.403 --    87 B    1.079    85 B    1.063    77 B    0.981
    87   5 B    3.287 --    86 B    1.079    88 H    0.952    98 H    0.950
                            77 B    0.154    85 B    0.117
    88   1 H    0.977 --    87 B    0.952
    89   1 H    0.981 --    63 B    0.909
    90   1 H    0.979 --    77 B    0.933
    91   1 H    0.967 --    40 B    0.942
    92   1 H    0.977 --    78 B    0.955
    93   1 H    0.977 --    70 B    0.969
    94   1 H    0.976 --    54 B    0.922
    95   1 H    0.974 --    46 B    0.966
    96   1 H    0.976 --    71 B    0.952
    97   1 H    0.971 --    53 B    0.937
    98   1 H    0.976 --    87 B    0.950
    99   1 H    0.968 --    40 B    0.943
 ---------------------------------------------------------------------------

Topologies differ in total number of bonds
Writing topology from bond orders to xtbtopo.mol

molecular dipole:
                 x           y           z       tot (Debye)
 q only:       -1.669       0.312      -0.029
   full:       -1.030       1.100       0.162       3.853
molecular quadrupole (traceless):
                xx          xy          yy          xz          yz          zz
 q only:     -113.824     -32.523      40.528      11.348     -12.267      73.297
  q+dip:      -57.780     -34.624      21.192       6.417     -11.787      36.588
   full:      -74.652     -35.871      11.079      10.524      -9.511      63.573

           -------------------------------------------------
          |                Geometry Summary                 |
           -------------------------------------------------

      molecular mass/u    :      816.4321811
   center of mass at/Å    :        0.0551157       0.0038866       2.3129049
  moments of inertia/u·Å² :        0.1476946E+05   0.2005011E+05   0.2110024E+05
rotational constants/cm⁻¹ :        0.1141384E-02   0.8407751E-03   0.7989309E-03

 * 124 selected distances

     #   Z          #   Z                                           value/Å
     1   6 C        2   7 N                                       1.4443837
     2   7 N        3   6 C                                       1.4432321
     2   7 N        4   6 C                                       1.3804464
     4   6 C        5   6 C                                       1.3994938
     5   6 C        6   6 C                                       1.3816333
     6   6 C        7   6 C                                       1.3913891
     7   6 C        8   7 N                                       1.3872710
     8   7 N        9   6 C                                       1.3870355
     9   6 C       10   6 C                                       1.3915097
    10   6 C       11   6 C                                       1.3816045
    11   6 C       12   6 C                                       1.3994041
    12   6 C       13   7 N                                       1.3814617
    13   7 N       14   6 C                                       1.4442629
    13   7 N       15   6 C                                       1.4430134
    12   6 C       16   6 C                                       1.4008861
     9   6 C       17   6 C                                       1.3932181
    16   6 C       17   6 C                                       1.3838486
     7   6 C       19   6 C                                       1.3932604
     4   6 C       20   6 C                                       1.4011590
    19   6 C       20   6 C                                       1.3836706
     1   6 C       21   1 H                                       1.0929787
     1   6 C       22   1 H                                       1.0968578
     1   6 C       23   1 H                                       1.0886457
     3   6 C       24   1 H                                       1.0971298
     3   6 C       25   1 H                                       1.0917971
     3   6 C       26   1 H                                       1.0880813
     5   6 C       27   1 H                                       1.0759469
     6   6 C       28   1 H                                       1.0800037
     8   7 N       29   1 H                                       1.0114277 (min)
    10   6 C       30   1 H                                       1.0799591
    11   6 C       31   1 H                                       1.0758496
    14   6 C       32   1 H                                       1.0888015
    14   6 C       33   1 H                                       1.0926764
    14   6 C       34   1 H                                       1.0972489
    15   6 C       35   1 H                                       1.0916919
    15   6 C       36   1 H                                       1.0881294
    15   6 C       37   1 H                                       1.0974386
    16   6 C       38   1 H                                       1.0768831
    20   6 C       39   1 H                                       1.0768226
    41   5 B       42   5 B                                       1.5290025
    43   5 B       44   5 B                                       1.5199549
    45   5 B       46   5 B                                       1.5116153
    40   5 B       47   5 B                                       1.5738387
    41   5 B       47   5 B                                       1.6099598
    47   5 B       48   5 B                                       1.5569653
    42   5 B       49   5 B                                       1.5422240
    43   5 B       50   5 B                                       1.5493794
    49   5 B       50   5 B                                       1.5770387
    44   5 B       51   5 B                                       1.5426396
    45   5 B       51   5 B                                       1.6325755
    45   5 B       52   5 B                                       1.6524484
    45   5 B       53   5 B                                       1.6933568
    46   5 B       53   5 B                                       1.6859514
    52   5 B       53   5 B                                       1.6432495
    48   5 B       54   5 B                                       1.6432709
    48   5 B       55   5 B                                       1.6656575
    54   5 B       55   5 B                                       1.6302061
    55   5 B       56   5 B                                       1.6497491
    42   5 B       57   5 B                                       1.7448325 (max)
    56   5 B       57   5 B                                       1.7030975
    50   5 B       58   5 B                                       1.6866220
    57   5 B       58   5 B                                       1.7320132
    50   5 B       59   5 B                                       1.6978957
    58   5 B       59   5 B                                       1.5931725
    44   5 B       60   5 B                                       1.6775863
    51   5 B       60   5 B                                       1.6904261
    52   5 B       61   5 B                                       1.6891689
    60   5 B       61   5 B                                       1.6703903
    52   5 B       62   5 B                                       1.6757129
    61   5 B       62   5 B                                       1.6070378
    62   5 B       63   5 B                                       1.6666220
    54   5 B       64   5 B                                       1.6534097
    55   5 B       64   5 B                                       1.6099196
    56   5 B       65   5 B                                       1.6706765
    57   5 B       65   5 B                                       1.6125204
    57   5 B       66   5 B                                       1.6253808
    58   5 B       66   5 B                                       1.6522331
    59   5 B       67   5 B                                       1.6039018
    60   5 B       67   5 B                                       1.7084873
    60   5 B       68   5 B                                       1.6442961
    61   5 B       68   5 B                                       1.5547379
    62   5 B       69   5 B                                       1.6149155
    63   5 B       69   5 B                                       1.6402454
    63   5 B       70   5 B                                       1.6024979
    69   5 B       70   5 B                                       1.5762242
    64   5 B       72   5 B                                       1.5738278
    71   5 B       72   5 B                                       1.5945163
    65   5 B       73   5 B                                       1.5867757
    66   5 B       74   5 B                                       1.5838349
    67   5 B       75   5 B                                       1.6167623
    68   5 B       76   5 B                                       1.5879861
    75   5 B       76   5 B                                       1.7005910
    69   5 B       77   5 B                                       1.6092092
    71   5 B       78   5 B                                       1.7133804
    72   5 B       78   5 B                                       1.5822128
    72   5 B       79   5 B                                       1.6040355
    73   5 B       80   5 B                                       1.6044400
    79   5 B       80   5 B                                       1.5238198
    80   5 B       81   5 B                                       1.5409969
    74   5 B       82   5 B                                       1.5908460
    81   5 B       82   5 B                                       1.5421023
    74   5 B       83   5 B                                       1.7223902
    75   5 B       83   5 B                                       1.6354213
    82   5 B       83   5 B                                       1.5429479
    75   5 B       84   5 B                                       1.6242174
    76   5 B       84   5 B                                       1.6893552
    83   5 B       84   5 B                                       1.6479109
    76   5 B       85   5 B                                       1.6600930
    84   5 B       85   5 B                                       1.5350472
    77   5 B       86   5 B                                       1.6156250
    85   5 B       86   5 B                                       1.5727712
    86   5 B       87   5 B                                       1.5971497
    87   5 B       88   1 H                                       1.1822950
    63   5 B       89   1 H                                       1.1726317
    77   5 B       90   1 H                                       1.1850217
    40   5 B       91   1 H                                       1.1887822
    78   5 B       92   1 H                                       1.1728223
    70   5 B       93   1 H                                       1.1681188
    54   5 B       94   1 H                                       1.1762975
    46   5 B       95   1 H                                       1.1701073
    71   5 B       96   1 H                                       1.1731903
    53   5 B       97   1 H                                       1.1775197
    87   5 B       98   1 H                                       1.1823499
    40   5 B       99   1 H                                       1.1874460

 * 6 distinct bonds (by element types)

   Z      Z             #   av. dist./Å        max./Å        min./Å
   1 H    5 B          12     1.1780485     1.1887822     1.1681188
   5 B    5 B          73     1.6220736     1.7448325     1.5116153
   1 H    6 C          18     1.0876079     1.0974386     1.0758496
   6 C    6 C          12     1.3917564     1.4011590     1.3816045
   1 H    7 N           1     1.0114277     1.0114277     1.0114277
   6 C    7 N           8     1.4138883     1.4443837     1.3804464


optimized geometry written to: xtbopt.xyz


           -------------------------------------------------
          | TOTAL ENERGY             -120.260226695577 Eh   |
          | GRADIENT NORM               0.005685133386 Eh/α |
          | HOMO-LUMO GAP               0.372418745953 eV   |
           -------------------------------------------------

------------------------------------------------------------------------
 * finished run on 2026/09/01 at 16:35:09.902     
------------------------------------------------------------------------
 total:
 * wall-time:     0 d,  0 h,  0 min,  5.420 sec
 *  cpu-time:     0 d,  0 h,  0 min, 44.453 sec
 * ratio c/w:     8.202 speedup
 SCF:
 * wall-time:     0 d,  0 h,  0 min,  1.138 sec
 *  cpu-time:     0 d,  0 h,  0 min,  8.781 sec
 * ratio c/w:     7.716 speedup
 ANC optimizer:
 * wall-time:     0 d,  0 h,  0 min,  4.227 sec
 *  cpu-time:     0 d,  0 h,  0 min, 35.375 sec
 * ratio c/w:     8.369 speedup

