39
Hydromethylthionine - ETKDG+MMFF conformer
C      6.298459      0.068064     -0.042130
N      5.112704     -0.388736      0.681455
C      5.221272     -1.709672      1.298898
C      3.855008      0.075833      0.277022
C      3.705357      1.240523     -0.491148
C      2.448087      1.722304     -0.883559
C      1.274118      1.069741     -0.501899
N      0.039246      1.560677     -0.956013
C     -1.230082      1.061008     -0.622418
C     -2.366487      1.705514     -1.115270
C     -3.652246      1.214863     -0.845249
C     -3.866864      0.048902     -0.094612
N     -5.154326     -0.424539      0.187323
C     -6.268215      0.024098     -0.647086
C     -5.312499     -1.746328      0.792095
C     -2.707847     -0.586253      0.386563
C     -1.407395     -0.108326      0.123289
S     -0.035392     -1.045778      0.783715
C      1.387134     -0.098581      0.257781
C      2.659587     -0.567533      0.644883
H      6.446643      1.146177      0.080598
H      6.227880     -0.175485     -1.108061
H      7.208277     -0.405439      0.343895
H      4.901379     -2.495717      0.606036
H      4.632064     -1.766775      2.220535
H      6.254943     -1.926187      1.591557
H      4.569503      1.816387     -0.807697
H      2.403439      2.621631     -1.491923
H      0.052602      2.510661     -1.302385
H     -2.269883      2.605335     -1.716833
H     -4.485989      1.784809     -1.243501
H     -7.207576     -0.455906     -0.350124
H     -6.435090      1.101107     -0.539610
H     -6.093782     -0.218657     -1.701200
H     -4.814106     -1.799533      1.766063
H     -6.367965     -1.970078      0.984271
H     -4.922125     -2.529984      0.133499
H     -2.791022     -1.488627      0.984956
H      2.691191     -1.469501      1.248809
