93
 energy: -112.088579858867 gnorm: 0.004145886903 xtb: 6.7.1pre (5071a88)
C            1.65589578857679        4.98793315553027       10.34205503851501
C            0.85621224575864        3.94098624259915       10.27115610213164
C           -0.42478995024399        3.90174105520926        9.49328486450875
C           -0.26145510484287        2.94382711978842        8.34180201661408
C            0.38404257573916        3.35017448784397        7.18275951764537
C            0.55437352772232        2.46719247667285        6.13709499371569
C            0.09108970916695        1.16069655704830        6.22587676743574
O            0.23373140830457        0.30509200783019        5.17509932854987
C           -0.51981062054805        0.70955618184399        7.40362160900820
C           -0.95182074965003       -0.68252572043657        7.65333757371728
C           -0.63824454616527       -1.22514638537210        8.89992871608453
C           -1.08461026686396       -2.46855453486436        9.30864745665675
C           -0.69265430415957       -3.01708782354919       10.65737439172188
C            0.53658036663128       -3.86417578773036       10.51899501762929
C            1.69577112018581       -3.59902893495763       11.08996878693527
C           -1.87644440733222       -3.20524076820072        8.43596818562484
C           -2.16944142883046       -2.71236678119953        7.18327424834639
C           -1.70511259879814       -1.46545672349335        6.76571256659248
O           -2.05942211477462       -1.06975606912948        5.52107398493520
C           -0.68976644485840        1.63116992267662        8.43617779184354
H            2.58008452453713        4.96632162700739       10.89602497852569
H            1.41454704452178        5.91934850929979        9.85711597525546
H            1.12240749072280        3.01384785467026       10.76202879910372
H           -1.23667751884400        3.56398775887144       10.14095690326974
H           -0.66153890108875        4.89937762410826        9.12012937001025
H            0.74996068007433        4.36175798875446        7.09492642506193
H            1.04232934393805        2.78715433513005        5.22912696555692
H            0.68672757255687        0.73573660644351        4.42369672071811
H           -0.01345113651464       -0.64926654784624        9.56817746073723
H           -0.50055018817817       -2.20040134213591       11.35541464208541
H           -1.50802595732152       -3.63056002127561       11.05151047080859
H            0.42535131484254       -4.72851596977369        9.87703741513623
H            2.55843782882146       -4.22818235655931       10.95209344435460
H            1.83220597450245       -2.73993603764948       11.72705454261383
H           -2.25855488075189       -4.17062426841187        8.73578142990500
H           -2.77561585167954       -3.27754006036886        6.49247538086458
H           -1.44301591225921       -0.38365656148570        5.21383875874822
H           -1.19320288546923        1.30497768468897        9.33472683554745
B           -4.32612095107141       -2.96688653992654        0.63235644619222
B           -4.25375569508164       -1.59757156031267       -0.19166355759255
B           -4.39089906424571       -0.25645743808784       -1.19625932161652
B           -3.18085443807049       -2.87078125903002       -0.47698352165782
B           -2.89419787821760        0.09605965684899       -0.94979783461218
B           -3.93287709904197        0.04165888214793        0.50647779208721
B           -4.54526340867602        0.69270706387064        1.84909404379729
B           -3.99242380854134        2.04905138312093        2.57369806532553
B           -2.30432780276223        0.17480769117364        0.58191062264824
B           -2.62678929975979        1.88263122785059        3.43925236294733
B           -2.01023620219072       -3.97336821363527       -0.87767401322331
B           -1.71951020944914       -2.37705995933448       -1.07670877887087
B           -1.42381490887310       -0.77115270026616       -0.84207261256139
B           -0.47318308426627       -3.42509917565901       -0.75049165598030
B            0.15884390818847       -0.29786182075957       -0.64764687615636
B           -0.85455765531282       -0.51508209085710        0.74141665491910
B           -1.19112871485752        0.89312144027692        1.52014540141712
B           -1.28850045921887        2.06442788868218        2.55399711633315
B            0.46035477787368        0.04810577237153        1.37563066612291
B           -0.15453224082824        3.17342116244505        2.88764659442860
B            0.71713907900717       -3.90527573107010        0.37185995575277
B            0.94838662146118       -2.70661251339673       -0.67487032585191
B            1.63959068071980       -1.27561613203243       -0.67877734033668
B            1.83602841290664       -2.72793131857810        0.69989465062357
B            2.96283626377572       -0.45479313717342       -0.34667404103881
B            1.42247129477191        0.49668378064877       -0.23285440082435
B            1.63670057843500        0.73737661095433        2.38283009606327
B            1.05589105629974        2.22075971032542        2.52904269598039
B            2.69702643974176        1.39305649082767       -0.03422435183380
B            1.59288519487314        3.05870310119390        1.16973523655262
B            1.23875422162172       -1.01265212419037        2.45748619260320
B            2.55226717326217       -1.69911692433648        1.61937439754274
B            3.75522874970804       -0.55582587439049        1.34901802682802
B            2.84889193977865       -0.32250491943647        2.73563299978306
B            5.33949083690485       -0.13811766218330        1.20334975245611
B            4.36094047733424        0.21616560175929       -0.17847933446156
B            4.23127134015917        1.97656415072307       -0.05497378443467
B            3.12608809606892        2.76473628938891        0.86181193095311
B            5.68642968413646        1.17358674533743        0.24326242314933
B            4.70894883004724        2.86742652409434        1.14894573313875
H           -4.55874180692735       -3.62233048072303        1.57366290613611
H           -5.33250096169198       -2.20567794452346        0.29895451030102
H           -5.33816292454815       -0.02466810526276       -1.85807777057408
H           -5.33241449198853        0.07033702461626        2.48310015950822
H           -4.58145855008645        3.06715710692692        2.49383719158236
H           -2.65894613588572        1.58153073987497        4.57700725315894
H           -2.27485875744790       -5.06035109419418       -1.24025885677875
H           -0.23971691765087        4.29461259202180        3.22797148755079
H            0.55057554748760       -4.84147422000115        1.05562976819678
H            0.85867458145537        3.58756066043809        0.40795645441655
H            0.57853089509313       -1.55367754793831        3.27678124733514
H            3.41955644956125       -0.44761387838163        3.77184347245238
H            6.19335726977780       -0.82701075948309        1.63394887073032
H            6.72859379636595        1.44823447569131       -0.24436135687224
H            5.45582352208328        3.48368285009871        1.79646007968050
