98
Honokiol 0 deg
C     -4.863875      2.849151      9.691637
C     -3.771039      2.122748      9.961212
C     -3.749872      0.623036     10.052555
C     -2.799379      0.003449      9.055326
C     -3.191619     -0.188489      7.726718
C     -2.311150     -0.757346      6.808983
C     -1.026470     -1.125815      7.215458
O     -0.191571     -1.720122      6.303614
C     -0.579995     -0.932980      8.534127
C      0.790950     -1.267910      8.996143
C      1.547081     -0.288827      9.676354
C      2.825680     -0.556302     10.199187
C      3.601277      0.527489     10.909493
C      4.259588      1.479430      9.951186
C      4.034364      2.799654      9.920761
C      3.371460     -1.832295     10.032297
C      2.654082     -2.815624      9.355520
C      1.391071     -2.529759      8.835699
O      0.787202     -3.556541      8.159218
C     -1.499031     -0.365364      9.441324
H     -4.810695      3.932575      9.642145
H     -5.829407      2.386019      9.514042
H     -2.827330      2.636262     10.134685
H     -3.457855      0.336142     11.070473
H     -4.751632      0.200898      9.901002
H     -4.189699      0.100440      7.404143
H     -2.645478     -0.916451      5.788280
H     -0.524675     -1.524717      5.410385
H      1.135425      0.712740      9.798393
H      2.927093      1.055729     11.595860
H      4.375578      0.075560     11.541974
H      4.965652      1.048895      9.243614
H      4.544151      3.431741      9.199990
H      3.339856      3.277397     10.604487
H      4.359252     -2.068126     10.420314
H      3.080897     -3.805296      9.218452
H      0.226714     -3.133081      7.480091
H     -1.196598     -0.214313     10.477373
B     -6.351142     -2.854456     -0.339557
B     -3.863246     -3.427578      0.871248
B     -1.055185     -4.165135      1.979350
B      1.685312     -4.231770      1.354949
B      2.970257     -3.692274      0.621871
B      5.907588     -3.848572     -0.380027
B     -4.761208     -2.330720     -0.407809
B     -2.619857     -2.211059      0.844160
B     -1.232659     -2.391074      1.779162
B      0.281426     -3.144602      1.258585
B      3.128005     -2.135340      0.033717
B      5.282428     -2.580677     -1.142740
B     -4.382652     -1.054498     -1.346132
B     -3.192369     -1.268483     -0.239841
B     -0.766749     -0.915069      2.147107
B      0.434070     -1.509850      0.882523
B      4.260331     -1.271884     -0.605716
B      6.845204     -2.475577     -0.806482
B     -5.007204     -0.643659     -2.849649
B     -3.195209      0.154301     -0.925672
B     -0.946947      0.623306      2.210385
B      0.001581     -0.020442      0.908402
B      4.875444      0.224219     -0.547589
B      5.878568     -1.066378     -1.130575
B     -5.767164      0.853536     -2.917565
B     -2.897102      1.628167     -0.708344
B     -1.239865      2.133184      2.088909
B      0.188320      1.549872      1.054031
B      4.258123      1.584106      0.064663
B      6.307532      0.439704     -1.625845
B     -5.734132      1.755409     -1.493813
B     -3.346886      2.973961     -0.174554
B     -1.664632      3.616005      1.797280
B     -0.058970      3.164039      1.323482
B      2.965632      2.258875      0.684366
B      5.791920      1.672515     -0.698507
B     -6.638907      2.799988     -0.842193
B     -4.474576      3.887338      0.587924
B     -1.777076      5.175247      1.215356
B      1.175393      4.406638      1.328978
B      2.593810      3.922874      0.879575
B      5.350926      2.985997     -0.054101
B     -5.318955     -3.634817      0.416463
B     -2.487709     -3.632854      1.605545
B      0.359579     -4.721327      1.906320
B      1.721498     -2.416215      0.734504
B      4.338705     -3.479950     -0.072929
B     -5.095331      2.847233     -0.373491
B     -3.034495      4.318735      0.932612
B     -0.286930      4.895064      1.442591
B      1.461620      2.548192      0.992407
B      4.078380      3.619763      0.510634
B     -4.595730      0.591276     -1.841534
H     -7.368369     -2.502749     -0.810293
H     -4.959065     -1.376034     -3.773890
H     -6.324579      1.260780     -3.871541
H     -7.613398      3.401728     -0.597572
H      6.361232     -4.935383     -0.360239
H      8.016260     -2.468237     -0.906140
H      6.939156      0.614609     -2.612760
