93
 energy: -112.081272569007 gnorm: 0.008468349996 xtb: 6.7.1pre (5071a88)
C           -4.84327906579004        2.49257617070125       11.31223428501772
C           -3.76559349256624        1.76032281822733       11.10504939979648
C           -3.74549273472217        0.47812636944046       10.32703736121792
C           -2.79512399726569        0.59400775776614        9.16315571425885
C           -3.18549720787277        1.23092103780511        7.99244743781648
C           -2.30589122785578        1.34729195993840        6.93325553486759
C           -1.01954889369614        0.83101404279088        7.01827339510174
O           -0.14782597982869        0.93505905106884        5.96826134039242
C           -0.59770964141862        0.19413069498010        8.19347790597256
C            0.75094630100070       -0.37379877961487        8.39754000370061
C            1.40583351810147       -0.08564134288418        9.59318190150879
C            2.61990734412780       -0.65843072026243        9.92973721471375
C            3.32582569335374       -0.25782374524893       11.20023130049512
C            4.16701382434680        0.95407001130604       10.92769331836783
C            3.99336293447990        2.13178307184982       11.49646971918575
C            3.19106507805061       -1.56771094805266        9.04801529029356
C            2.57342339023242       -1.85669849658805        7.84942095082160
C            1.36871546305446       -1.25399327175330        7.49744574175168
O            0.82658046325859       -1.60077434656670        6.30268195604728
C           -1.50581062186920        0.09603900771550        9.24551380063462
H           -4.81152596196504        3.41005235933643       11.87440940682667
H           -5.80955335456657        2.20051797431304       10.93356472724595
H           -2.80542181000380        2.07575631533465       11.49215194456428
H           -3.41582278046064       -0.33116234001449       10.98476780953597
H           -4.75172963734132        0.24937872351634        9.97114104819368
H           -4.18349338597970        1.63309152912039        7.90595905359306
H           -2.61695405061249        1.83188129727139        6.01848705947705
H           -0.56938399595060        1.36615393345865        5.20743435386498
H            0.95219904761912        0.62014127859751       10.27452171259769
H            2.60197462763156       -0.03686646732689       11.98625006209969
H            3.96979438294136       -1.07549620765543       11.53369934268434
H            4.94043900547988        0.81335742683520       10.18363389443878
H            4.61249627629515        2.98006970148311       11.25602292002885
H            3.22676818104764        2.29731971409311       12.23674084008030
H            4.12751109762600       -2.04573057179520        9.29736891666549
H            3.00772801815746       -2.55454837101190        7.15114880995951
H            0.28998407966260       -0.85944805755130        5.98252206141903
H           -1.19053570474320       -0.41304643200102       10.14536784387726
B           -4.53233438416761       -3.21973481303348        0.25554537803281
B           -4.48819743000297       -1.73986806232903       -0.36990098456143
B           -4.71714577359920       -0.27684959532458       -1.15247008477875
B           -3.43812023404466       -2.96202060383247       -0.87196974001343
B           -3.20232836914650        0.05785996382013       -1.02716825716595
B           -4.06770187218860       -0.22459184117515        0.51772408662760
B           -4.35512043377150        0.07110188547898        2.06433781052429
B           -3.73956190767532        1.17827985328776        3.09746674107227
B           -2.43773613550206       -0.00224736052790        0.42782234737223
B           -2.17174061072530        0.84492812407934        3.37421249519814
B           -2.27015305398094       -3.98085439448842       -1.47088824011275
B           -2.03929408984750       -2.36525566305324       -1.51906430766688
B           -1.72394544328469       -0.78095830617770       -1.17793670854557
B           -0.74243847170958       -3.40285966352686       -1.41055014499889
B           -0.13622731488759       -0.28762877839650       -1.14103876825773
B           -0.95430120600749       -0.62693548007208        0.34068718923688
B           -1.23574133938328        0.74031925409035        1.23657093946408
B           -1.11177184072104        1.68354473186879        2.49229055281812
B            0.39546089015124       -0.02229250111850        0.84299005144303
B            0.01548988681883        2.75230367866309        2.91015416532042
B            0.54716487490511       -3.89378124279314       -0.40582453462955
B            0.66305824951849       -2.65747023083645       -1.42839501406054
B            1.34142133042598       -1.22138579209252       -1.43836398919265
B            1.71155789420593       -2.73665576588725       -0.17023463890223
B            2.68754854263845       -0.41519265846451       -1.20021134790906
B            1.16465840482473        0.51162524919778       -0.86512705258584
B            1.71608780102212        0.59704884807314        1.71153843670531
B            1.21040738046168        2.06149586772589        2.11288129377979
B            2.40958955078863        1.45487118015776       -0.79636518863301
B            1.53455134581173        2.96026079939659        0.73308281779823
B            1.34982754255748       -1.14036300769888        1.74099236293347
B            2.55667581223660       -1.75628833571596        0.69041247535032
B            3.71561249529814       -0.59210619798024        0.35152430011456
B            2.98107541581167       -0.45331982293695        1.84439391799117
B            5.25031487133763       -0.10256660848069        0.03617708351690
B            4.09263067593986        0.26760139723148       -1.19864931865500
B            3.91957541336642        2.01516508365840       -1.02492071510877
B            2.99101558658564        2.73635721951969        0.12751610735803
B            5.43185205079962        1.25053742255297       -0.92768921988445
B            4.60829685656778        2.83466783370615        0.12798394181026
H           -4.73136012581993       -3.98403566990945        1.12331839620888
H           -5.53390862107203       -2.39595578164621        0.10412005940006
H           -5.73560164873968        0.04258320962362       -1.65447378587414
H           -4.88699469733488       -0.79063393670593        2.68750488665734
H           -4.39667865840355        1.97066856724687        3.67423863790036
H           -1.89324429432033       -0.06776901559045        4.07468207613254
H           -2.53804205212388       -5.04637912353009       -1.89076724907627
H           -0.04476144514258        3.74521849699514        3.54312167522548
H            0.42442744216207       -4.82681739081329        0.29425483023261
H            0.64847512087757        3.48527974397258        0.14867007108266
H            0.81513547141376       -1.73206271621733        2.61613832867556
H            3.66992956120710       -0.62763609134320        2.79482059811527
H            6.18532360444465       -0.74248022187465        0.34835461117817
H            6.39955532077325        1.54933556367609       -1.54195013374360
H            5.43970587855714        3.46650255090643        0.65561438010459
