93
 energy: -112.101735302302 gnorm: 0.004581085722 xtb: 6.7.1pre (5071a88)
C           -2.56148434310991       -4.31980047851142       10.25557229867227
C           -1.60053624203932       -3.41949748169423       10.33174392283356
C           -0.17777508285224       -3.65481047323620        9.91773098324021
C            0.15036194409139       -2.73818199313211        8.76872565429407
C            0.00502040540469       -3.16477145200947        7.45756178307546
C            0.25875165800912       -2.29599832043100        6.41514200175011
C            0.64142068626785       -0.98342661570698        6.65482889641455
O            0.87540649169977       -0.12722956827171        5.61305505975194
C            0.79146191760003       -0.52392530376706        7.97061697428540
C            1.16967678615033        0.85306297842306        8.35175791918747
C            0.47099919131095        1.44247684749347        9.40552786955802
C            0.82245975233150        2.66919068606235        9.93970558427860
C            0.01741700111304        3.27209069155318       11.06248192900025
C           -1.09373592870768        4.10518910130940       10.49678540142293
C           -2.37730225936420        3.87475890519295       10.69692734405035
C            1.91286035850217        3.33871545942283        9.39794189315490
C            2.60164246097809        2.79631535778770        8.33449051296005
C            2.23950921109507        1.56609939696864        7.78978810403939
O            2.99282035308078        1.10529658199441        6.76134223241365
C            0.54399585709720       -1.43041144017998        9.00004347353890
H           -3.57414759399598       -4.10003029507800       10.54815607839348
H           -2.37496743954466       -5.32080566811681        9.90203135019124
H           -1.81404331309094       -2.41827316546990       10.68254026140661
H            0.48361137530944       -3.43920841404068       10.76082562832579
H           -0.04469988158648       -4.69613395452359        9.62177565101195
H           -0.30239483065666       -4.17766099154338        7.24656184721440
H            0.15158569002825       -2.63727899699628        5.39615441689656
H            0.69063912773415       -0.55529232902296        4.75929557223234
H           -0.38296142891687        0.92086360364076        9.81392722702296
H           -0.39773148347325        2.48568055146481       11.69530754921096
H            0.66570614958580        3.90677657450689       11.67306568309205
H           -0.77448004960577        4.92718773232505        9.86950123872215
H           -3.14401542070716        4.49214844933554       10.26071062088325
H           -2.71826062316450        3.05817307595044       11.31290473159652
H            2.21996091218190        4.29080434869256        9.80635713562603
H            3.44594235504340        3.30822025676594        7.89943203733699
H            2.45324266898741        0.50422763908015        6.22272477225755
H            0.68381164328354       -1.09726253393282       10.01801687726326
B           -4.42354578723360       -2.98733843777165        0.24634586999461
B           -4.14780497172236       -1.46133403475546       -0.19712364379313
B           -4.03738742914131       -0.00923001135150       -1.03182786189475
B           -3.15740523175575       -2.72358026546002       -0.68824736112520
B           -2.60059188018527        0.27490306690389       -0.49985869696535
B           -3.82316264991536       -0.05215502628435        0.79373370271212
B           -4.80948348257219        0.87447070954028        1.67494254338194
B           -4.36803839565252        2.41890747587788        1.52450020334969
B           -2.22597328581198        0.00503609659615        1.10297444036913
B           -3.08745015066490        2.91359345055842        2.38078578080017
B           -1.99637525260108       -3.74961803978836       -1.23482085890966
B           -1.58460570240297       -2.18356245780663       -0.89685091626561
B           -1.24837828809397       -0.66493109506956       -0.36904390521215
B           -0.53420172438371       -3.39598240478329       -0.58485352074357
B            0.22457214848642       -0.07666877359228       -0.08785902034573
B           -0.74213719351984       -0.67524510268836        1.31896514111208
B           -1.14382385586480        0.91475677830099        2.04353795970572
B           -1.66037252535778        2.40183278136297        1.89417101824087
B            0.38033310813128        0.32521141612874        2.04980656904982
B           -0.27627415365698        3.05775444434145        1.30742413905589
B            0.08412071897486       -3.73331308043999        0.99133362437407
B            0.98101577147494       -3.09802733660513       -0.22811256443722
B            1.99028178232376       -1.89325620346090       -0.15273606171305
B            1.20416907688013       -2.64212575373212        1.42258175160607
B            3.21939598620757       -0.91418518471664       -0.27137272335838
B            1.70474802734360       -0.21680579563412       -0.53141180071922
B            1.32322485429438        1.03784911775969        0.75717976805373
B            0.68323980039227        2.48371791749129        0.18309368795334
B            2.78256557512974        0.95299758019973       -0.24290779780527
B            1.46274314283596        2.63026567670740       -1.22804641643273
B            0.31954750721430       -1.47051741337888        2.34363053655786
B            2.23429895995619       -1.55597108857248        1.87697142984827
B            3.40714519344666       -0.51215817676065        1.96902587572590
B            1.94730275589770        0.29158434407108        2.42999364366083
B            4.83972903923706        0.15094773001323        1.95868448240709
B            4.37808594043397       -0.02130828958590        0.30583534396831
B            4.28496803674040        1.78164070500967       -0.05176093262273
B            3.04261553547334        2.49429511688937       -0.89147069137885
B            5.58950556687342        0.97987300347816        0.54618560448250
B            4.35055749940778        3.28202838133562       -0.51983745148437
H           -4.78402570789211       -3.78832301588912        1.02051995259932
H           -5.33437313137035       -2.10162604036526       -0.00363224535745
H           -4.88115007953055        0.38148023305931       -1.75259689547951
H           -5.69055201509200        0.45709714858187        2.34531904898120
H           -4.89329932659158        3.12302202091942        0.73715777486887
H           -3.25503365953806        3.53499320537535        3.37167740944926
H           -2.18059827028164       -4.63986713523058       -1.98168261584455
H            0.15690659305906        3.78022925941511        2.14257312740568
H           -0.51332348124670       -4.51412916871931        1.62818401600235
H            1.03287736933756        2.57163934543761       -2.32681565221651
H           -0.02160728996807       -1.77982913623294        3.44424039458857
H            2.18152514105334        0.82834204261442        3.46217194392399
H            5.59708834674258        0.37822892607775        2.82241882738597
H            6.73917058351135        1.19987993608950        0.48163261856593
H            4.96681678517588        4.27168979610154       -0.56228811252437
