      -----------------------------------------------------------      
     |                   =====================                   |     
     |                           x T B                           |     
     |                   =====================                   |     
     |                         S. Grimme                         |     
     |          Mulliken Center for Theoretical Chemistry        |     
     |                    University of Bonn                     |     
      -----------------------------------------------------------      

   * xtb version 6.7.1pre (5071a88) compiled by 'Marcel@Raven' on 2024-07-23

   xtb is free software: you can redistribute it and/or modify it under
   the terms of the GNU Lesser General Public License as published by
   the Free Software Foundation, either version 3 of the License, or
   (at your option) any later version.
   
   xtb is distributed in the hope that it will be useful,
   but WITHOUT ANY WARRANTY; without even the implied warranty of
   MERCHANTABILITY or FITNESS FOR A PARTICULAR PURPOSE.  See the
   GNU Lesser General Public License for more details.
   
   Cite this work as:
   * C. Bannwarth, E. Caldeweyher, S. Ehlert, A. Hansen, P. Pracht,
     J. Seibert, S. Spicher, S. Grimme, WIREs Comput. Mol. Sci., 2020, 11,
     e01493. DOI: 10.1002/wcms.1493
   
   for GFN2-xTB:
   * C. Bannwarth, S. Ehlert and S. Grimme., J. Chem. Theory Comput., 2019,
     15, 1652-1671. DOI: 10.1021/acs.jctc.8b01176
   for GFN1-xTB:
   * S. Grimme, C. Bannwarth, P. Shushkov, J. Chem. Theory Comput., 2017,
     13, 1989-2009. DOI: 10.1021/acs.jctc.7b00118
   for GFN0-xTB:
   * P. Pracht, E. Caldeweyher, S. Ehlert, S. Grimme, ChemRxiv, 2019, preprint.
     DOI: 10.26434/chemrxiv.8326202.v1
   for GFN-FF:
   * S. Spicher and S. Grimme, Angew. Chem. Int. Ed., 2020, 59, 15665-15673.
     DOI: 10.1002/anie.202004239
   
   for ALPB and GBSA implicit solvation:
   * S. Ehlert, M. Stahn, S. Spicher, S. Grimme, J. Chem. Theory Comput.,
     2021, 17, 4250-4261. DOI: 10.1021/acs.jctc.1c00471
   
   for ddCOSMO and CPCM-X implicit solvation:
   * M. Stahn, S. Ehlert, S. Grimme, J. Phys. Chem. A,
     2023, XX, XXXX-XXXX. DOI: 10.1021/acs.jpca.3c04382
   
   for DFT-D4:
   * E. Caldeweyher, C. Bannwarth and S. Grimme, J. Chem. Phys., 2017,
     147, 034112. DOI: 10.1063/1.4993215
   * E. Caldeweyher, S. Ehlert, A. Hansen, H. Neugebauer, S. Spicher,
     C. Bannwarth and S. Grimme, J. Chem. Phys., 2019, 150, 154122.
     DOI: 10.1063/1.5090222
   * E. Caldeweyher, J.-M. Mewes, S. Ehlert and S. Grimme, Phys. Chem. Chem. Phys.
     2020, 22, 8499-8512. DOI: 10.1039/D0CP00502A
   
   for sTDA-xTB:
   * S. Grimme and C. Bannwarth, J. Chem. Phys., 2016, 145, 054103.
     DOI: 10.1063/1.4959605
   
   in the mass-spec context:
   * V. Asgeirsson, C. Bauer and S. Grimme, Chem. Sci., 2017, 8, 4879.
     DOI: 10.1039/c7sc00601b
   * J. Koopman and S. Grimme, ACS Omega 2019, 4, 12, 15120-15133.
     DOI: 10.1021/acsomega.9b02011
   
   for metadynamics refer to:
   * S. Grimme, J. Chem. Theory Comput., 2019, 155, 2847-2862
     DOI: 10.1021/acs.jctc.9b00143
   
   for SPH calculations refer to:
   * S. Spicher and S. Grimme, J. Chem. Theory Comput., 2021, 17, 1701-1714
     DOI: 10.1021/acs.jctc.0c01306
   
   for ONIOM refer to:
   * C. Plett, A. Katbashev, S. Ehlert, S. Grimme, M. Bursch,
     Phys. Chem. Chem. Phys., 2023, 25, 17860-17868. DOI: 10.1039/D3CP02178E
   
   for DIPRO refer to:
   * J. Kohn, N. Gildemeister, S. Grimme, D. Fazzi, A. Hansen,
     J. Chem. Phys., 2023, just accepted.
   
   for PTB refer to:
   * S. Grimme, M. Mueller, A. Hansen, J. Chem. Phys., 2023, 158, 124111.
     DOI: 10.1063/5.0137838
   
   with help from (in alphabetical order)
   P. Atkinson, C. Bannwarth, F. Bohle, G. Brandenburg, E. Caldeweyher
   M. Checinski, S. Dohm, S. Ehlert, S. Ehrlich, I. Gerasimov, C. Hölzer
   A. Katbashev, J. Kohn, J. Koopman, C. Lavigne, S. Lehtola, F. März, M. Müller,
   F. Musil, H. Neugebauer, J. Pisarek, C. Plett, P. Pracht, F. Pultar,
   J. Seibert, P. Shushkov, S. Spicher, M. Stahn, M. Steiner, T. Strunk,
   J. Stückrath, T. Rose, and J. Unsleber
   
 * started run on 2026/08/31 at 21:15:46.255     
   ID    Z sym.   atoms
    1    6 C      1-7, 9-18, 20
    2    8 O      8, 19
    3    1 H      21-38, 92-98
    4    5 B      39-91

           -------------------------------------------------
          |                Calculation Setup                |
           -------------------------------------------------

          program call               : "c:\Users\Andre\Proyectos doctorado\kras-pancreatic-gC3N4-ai\tools\xtb\xtb-6.7.1\bin\xtb.exe" "c:\Users\Andre\Proyectos doctorado\borophene-alzheimer-tau-ai\calculations\tau\Honokiol\Honokiol_B48H12_phys_complex.xyz" --gfn 2 --sp --chrg 0 --uhf 0 --etemp 300 --iterations 500 --norestart
          coordinate file            : c:\Users\Andre\Proyectos doctorado\borophene-alzheimer-tau-ai\calculations\tau\Honokiol\Honokiol_B48H12_phys_complex.xyz
          omp threads                :                    16


           -------------------------------------------------
          |                 G F N 2 - x T B                 |
           -------------------------------------------------

        Reference                      10.1021/acs.jctc.8b01176
      * Hamiltonian:
        H0-scaling (s, p, d)           1.850000    2.230000    2.230000
        zeta-weighting                 0.500000
      * Dispersion:
        s8                             2.700000
        a1                             0.520000
        a2                             5.000000
        s9                             5.000000
      * Repulsion:
        kExp                           1.500000    1.000000
        rExp                           1.000000
      * Coulomb:
        alpha                          2.000000
        third order                    shell-resolved
        anisotropic                    true
        a3                             3.000000
        a5                             4.000000
        cn-shift                       1.200000
        cn-exp                         4.000000
        max-rad                        5.000000


          ...................................................
          :                      SETUP                      :
          :.................................................:
          :  # basis functions                 317          :
          :  # atomic orbitals                 317          :
          :  # shells                          171          :
          :  # electrons                       268          :
          :  max. iterations                   500          :
          :  Hamiltonian                  GFN2-xTB          :
          :  restarted?                      false          :
          :  GBSA solvation                  false          :
          :  PC potential                    false          :
          :  electronic temp.          300.0000000     K    :
          :  accuracy                    1.0000000          :
          :  -> integral cutoff          0.2500000E+02      :
          :  -> integral neglect         0.1000000E-07      :
          :  -> SCF convergence          0.1000000E-05 Eh   :
          :  -> wf. convergence          0.1000000E-03 e    :
          :  Broyden damping             0.4000000          :
          :  net charge                          0          :
          :  unpaired electrons                  0          :
          ...................................................

 iter      E             dE          RMSdq      gap      omega  full diag
   1   -124.4533674 -0.124453E+03  0.152E+01    0.29       0.0  T
   2   -114.9985152  0.945485E+01  0.104E+01    0.10       1.0  T
   3     91.3758592  0.206374E+03  0.203E+01    0.06       1.0  T
   4     18.9341018 -0.724418E+02  0.162E+01    0.05       1.0  T
   5    -89.6389196 -0.108573E+03  0.908E+00    0.06       1.0  T
   6    -42.1900113  0.474489E+02  0.124E+01    0.10       1.0  T
   7   -115.5781214 -0.733881E+02  0.566E+00    0.09       1.0  T
   8   -118.0530526 -0.247493E+01  0.462E+00    0.07       1.0  T
   9   -124.5715647 -0.651851E+01  0.313E+00    0.34       1.0  T
  10   -125.0589894 -0.487425E+00  0.259E+00    0.35       1.0  T
  11   -125.2481464 -0.189157E+00  0.231E+00    0.41       1.0  T
  12   -125.2414486  0.669783E-02  0.218E+00    0.44       1.0  T
  13   -125.0882528  0.153196E+00  0.194E+00    0.30       1.0  T
  14   -124.8913678  0.196885E+00  0.143E+00    0.12       1.0  T
  15   -125.2349994 -0.343632E+00  0.106E+00    0.26       1.0  T
  16   -125.2700852 -0.350858E-01  0.844E-01    0.23       1.0  T
  17   -125.3507052 -0.806200E-01  0.678E-01    0.38       1.0  T
  18   -125.3599374 -0.923213E-02  0.626E-01    0.39       1.0  T
  19   -125.3763329 -0.163955E-01  0.546E-01    0.42       1.0  T
  20   -125.3888024 -0.124695E-01  0.390E-01    0.45       1.0  T
  21   -125.3979042 -0.910182E-02  0.204E-01    0.45       1.0  T
  22   -125.3981638 -0.259583E-03  0.168E-01    0.45       1.0  T
  23   -125.3992870 -0.112320E-02  0.146E-01    0.46       1.0  T
  24   -125.4008104 -0.152335E-02  0.118E-01    0.46       1.0  T
  25   -125.4010494 -0.239039E-03  0.101E-01    0.37       1.0  T
  26   -125.4021981 -0.114874E-02  0.779E-02    0.36       1.0  T
  27   -125.4024217 -0.223572E-03  0.610E-02    0.39       1.0  T
  28   -125.4029216 -0.499861E-03  0.349E-02    0.40       1.0  T
  29   -125.4030314 -0.109861E-03  0.270E-02    0.40       1.0  T
  30   -125.4030572 -0.257597E-04  0.248E-02    0.41       1.0  T
  31   -125.4030928 -0.355738E-04  0.204E-02    0.41       1.0  T
  32   -125.4031490 -0.562347E-04  0.909E-03    0.43       1.1  T
  33   -125.4031531 -0.409925E-05  0.710E-03    0.43       1.4  T
  34   -125.4031574 -0.432280E-05  0.547E-03    0.43       1.8  T
  35   -125.4031612 -0.381355E-05  0.340E-03    0.43       3.0  T
  36   -125.4031623 -0.109173E-05  0.237E-03    0.43       4.3  T
  37   -125.4031628 -0.448424E-06  0.186E-03    0.43       5.4  T
  38   -125.4031628 -0.700070E-07  0.154E-03    0.43       6.6  T
  39   -125.4031630 -0.177313E-06  0.120E-03    0.43       8.4  T
  40   -125.4031632 -0.165935E-06  0.834E-04    0.43      12.1  T
  41   -125.4031633 -0.730329E-07  0.605E-04    0.43      16.7  T

   *** convergence criteria satisfied after 41 iterations ***

         #    Occupation            Energy/Eh            Energy/eV
      -------------------------------------------------------------
         1        2.0000           -0.6755889             -18.3837
       ...           ...                  ...                  ...
       128        2.0000           -0.2634103              -7.1678
       129        2.0000           -0.2588478              -7.0436
       130        2.0000           -0.2580534              -7.0220
       131        2.0000           -0.2544427              -6.9237
       132        2.0000           -0.2494993              -6.7892
       133        2.0000           -0.2469704              -6.7204
       134        1.9994           -0.2417918              -6.5795 (HOMO)
       135        0.0005           -0.2260738              -6.1518 (LUMO)
       136        0.0001           -0.2248114              -6.1174
       137        0.0000           -0.2215591              -6.0289
       138                         -0.2176163              -5.9216
       139                         -0.2091077              -5.6901
       ...                                ...                  ...
       317                          1.1979832              32.5988
      -------------------------------------------------------------
                  HL-Gap            0.0157180 Eh            0.4277 eV
             Fermi-level           -0.2340456 Eh           -6.3687 eV

 SCC (total)                   0 d,  0 h,  0 min,  0.741 sec
 SCC setup                      ...        0 min,  0.001 sec (  0.135%)
 Dispersion                     ...        0 min,  0.002 sec (  0.270%)
 classical contributions        ...        0 min,  0.000 sec (  0.000%)
 integral evaluation            ...        0 min,  0.007 sec (  0.945%)
 iterations                     ...        0 min,  0.709 sec ( 95.682%)
 molecular gradient             ...        0 min,  0.020 sec (  2.699%)
 printout                       ...        0 min,  0.002 sec (  0.270%)

         :::::::::::::::::::::::::::::::::::::::::::::::::::::
         ::                     SUMMARY                     ::
         :::::::::::::::::::::::::::::::::::::::::::::::::::::
         :: total energy            -123.434777301774 Eh    ::
         :: gradient norm              0.136722618604 Eh/a0 ::
         :: HOMO-LUMO gap              0.427707425767 eV    ::
         ::.................................................::
         :: SCC energy              -125.399430153697 Eh    ::
         :: -> isotropic ES            0.281887688016 Eh    ::
         :: -> anisotropic ES          0.005734994666 Eh    ::
         :: -> anisotropic XC         -0.025113474031 Eh    ::
         :: -> dispersion             -0.126461757114 Eh    ::
         :: repulsion energy           1.964652851923 Eh    ::
         :: add. restraining           0.000000000000 Eh    ::
         :: total charge               0.000000000004 e     ::
         :::::::::::::::::::::::::::::::::::::::::::::::::::::

           -------------------------------------------------
          |                Property Printout                |
           -------------------------------------------------

    * Orbital Energies and Occupations

         #    Occupation            Energy/Eh            Energy/eV
      -------------------------------------------------------------
         1        2.0000           -0.6755889             -18.3837
       ...           ...                  ...                  ...
       122        2.0000           -0.2788894              -7.5890
       123        2.0000           -0.2768703              -7.5340
       124        2.0000           -0.2720635              -7.4032
       125        2.0000           -0.2700768              -7.3492
       126        2.0000           -0.2688186              -7.3149
       127        2.0000           -0.2651174              -7.2142
       128        2.0000           -0.2634103              -7.1678
       129        2.0000           -0.2588478              -7.0436
       130        2.0000           -0.2580534              -7.0220
       131        2.0000           -0.2544427              -6.9237
       132        2.0000           -0.2494993              -6.7892
       133        2.0000           -0.2469704              -6.7204
       134        1.9994           -0.2417918              -6.5795 (HOMO)
       135        0.0005           -0.2260738              -6.1518 (LUMO)
       136        0.0001           -0.2248114              -6.1174
       137        0.0000           -0.2215591              -6.0289
       138                         -0.2176163              -5.9216
       139                         -0.2091077              -5.6901
       140                         -0.2079296              -5.6581
       141                         -0.2063796              -5.6159
       142                         -0.2057026              -5.5975
       143                         -0.2043897              -5.5617
       144                         -0.1994404              -5.4271
       145                         -0.1963461              -5.3429
       ...                                ...                  ...
       317                          1.1979832              32.5988
      -------------------------------------------------------------
                  HL-Gap            0.0157180 Eh            0.4277 eV
             Fermi-level           -0.2340456 Eh           -6.3687 eV

     #   Z          covCN         q      C6AA      α(0)
     1   6 C        2.834    -0.103    30.577     9.061
     2   6 C        2.886    -0.027    28.682     8.780
     3   6 C        3.808    -0.065    21.737     6.637
     4   6 C        2.960    -0.003    28.091     8.693
     5   6 C        2.915    -0.055    29.378     8.888
     6   6 C        2.907    -0.109    30.756     9.094
     7   6 C        2.845     0.122    25.319     8.247
     8   8 O        1.686    -0.531    23.562     6.553
     9   6 C        2.959    -0.021    28.532     8.761
    10   6 C        2.959    -0.021    28.522     8.760
    11   6 C        2.921    -0.054    29.335     8.882
    12   6 C        2.960    -0.002    28.076     8.691
    13   6 C        3.808    -0.063    21.697     6.631
    14   6 C        2.886    -0.027    28.674     8.779
    15   6 C        2.834    -0.103    30.588     9.063
    16   6 C        2.914    -0.048    29.203     8.862
    17   6 C        2.909    -0.063    29.569     8.917
    18   6 C        2.845     0.137    25.008     8.196
    19   8 O        1.658    -0.427    21.385     6.243
    20   6 C        2.921    -0.055    29.365     8.886
    21   1 H        0.925     0.034     2.529     2.487
    22   1 H        0.925     0.038     2.478     2.462
    23   1 H        0.925     0.033     2.550     2.497
    24   1 H        0.924     0.042     2.418     2.432
    25   1 H        0.924     0.042     2.420     2.433
    26   1 H        0.925     0.034     2.524     2.484
    27   1 H        0.925     0.077     2.008     2.216
    28   1 H        1.708     0.376     0.519     1.125
    29   1 H        0.925     0.034     2.532     2.488
    30   1 H        0.924     0.042     2.426     2.436
    31   1 H        0.924     0.043     2.407     2.426
    32   1 H        0.925     0.033     2.546     2.495
    33   1 H        0.925     0.034     2.534     2.489
    34   1 H        0.925     0.037     2.489     2.467
    35   1 H        0.925     0.029     2.604     2.524
    36   1 H        0.925     0.049     2.331     2.387
    37   1 H        0.804     0.338     0.618     1.235
    38   1 H        0.925     0.029     2.604     2.523
    39   5 B        2.872     0.038    20.759     7.606
    40   5 B        3.645     0.023    21.912     7.622
    41   5 B        3.704     0.008    22.427     7.663
    42   5 B        3.599     0.005    21.945     7.684
    43   5 B        3.804     0.012    22.496     7.647
    44   5 B        3.812     0.036    22.066     7.573
    45   5 B        4.425     0.058    21.689     7.504
    46   5 B        3.843     0.019    22.385     7.626
    47   5 B        5.063     0.035    22.093     7.573
    48   5 B        5.523     0.099    20.984     7.381
    49   5 B        3.792     0.001    22.699     7.683
    50   5 B        4.799     0.085    21.230     7.424
    51   5 B        4.746     0.061    21.642     7.496
    52   5 B        3.691     0.006    22.414     7.668
    53   5 B        4.670    -0.008    22.897     7.710
    54   5 B        4.170    -0.023    23.188     7.759
    55   5 B        3.938     0.008    22.592     7.659
    56   5 B        3.779     0.073    21.395     7.461
    57   5 B        3.808     0.062    21.599     7.493
    58   5 B        3.812    -0.012    22.953     7.724
    59   5 B        3.702    -0.016    22.862     7.738
    60   5 B        3.825     0.014    22.473     7.642
    61   5 B        4.691     0.052    21.793     7.522
    62   5 B        4.735     0.043    21.967     7.552
    63   5 B        3.813     0.072    21.425     7.462
    64   5 B        2.071    -0.002    43.090    13.730
    65   5 B        3.706    -0.001    22.600     7.691
    66   5 B        4.547     0.016    22.438     7.632
    67   5 B        4.200     0.031    22.178     7.588
    68   5 B        3.748     0.071    21.393     7.467
    69   5 B        3.840    -0.008    22.881     7.710
    70   5 B        3.769     0.016    22.397     7.635
    71   5 B        4.530     0.062    21.622     7.492
    72   5 B        5.624     0.098    21.010     7.385
    73   5 B        3.805     0.017    22.406     7.632
    74   5 B        3.825     0.009    22.556     7.656
    75   5 B        2.886     0.065    20.298     7.520
    76   5 B        2.918     0.036    20.773     7.605
    77   5 B        2.913     0.013    21.169     7.678
    78   5 B        3.630     0.004    22.151     7.681
    79   5 B        3.792    -0.001    22.720     7.687
    80   5 B        2.860    -0.009    21.584     7.756
    81   5 B        2.920    -0.040    22.125     7.849
    82   5 B        3.825     0.011    22.522     7.650
    83   5 B        2.901    -0.027    21.898     7.810
    84   5 B        4.532     0.043    21.966     7.552
    85   5 B        3.896     0.034    22.123     7.579
    86   5 B        3.818     0.012    22.499     7.647
    87   5 B        3.778    -0.042    23.494     7.819
    88   5 B        3.628    -0.028    22.730     7.782
    89   5 B        4.556     0.019    22.392     7.624
    90   5 B        3.280     0.015    21.115     7.663
    91   5 B        4.869     0.086    21.214     7.421
    92   1 H        0.937    -0.180     9.429     4.801
    93   1 H        0.935    -0.149     7.635     4.320
    94   1 H        0.936    -0.145     7.431     4.262
    95   1 H        0.939    -0.160     8.216     4.481
    96   1 H        0.936    -0.144     7.399     4.253
    97   1 H        0.937    -0.148     7.593     4.308
    98   1 H        0.934    -0.147     7.554     4.297

 Mol. C6AA /au·bohr⁶  :     160787.358115
 Mol. C8AA /au·bohr⁸  :    5264289.403616
 Mol. α(0) /au        :        648.764100


Wiberg/Mayer (AO) data.
largest (>0.10) Wiberg bond orders for each atom

 ---------------------------------------------------------------------------
     #   Z sym  total        # sym  WBO       # sym  WBO       # sym  WBO
 ---------------------------------------------------------------------------
     1   6 C    3.988 --     2 C    1.971    21 H    0.978    22 H    0.977
     2   6 C    3.988 --     1 C    1.971     3 C    1.015    23 H    0.968
     3   6 C    3.995 --     2 C    1.015     4 C    0.993    25 H    0.969
                            24 H    0.957
     4   6 C    3.982 --    20 C    1.412     5 C    1.405     3 C    0.993
     5   6 C    3.982 --     6 C    1.440     4 C    1.405    26 H    0.970
     6   6 C    3.974 --     5 C    1.440     7 C    1.361    27 H    0.948
     7   6 C    3.946 --     6 C    1.361     9 C    1.330     8 O    1.083
     8   8 O    2.001 --     7 C    1.083    28 H    0.568
     9   6 C    3.980 --    20 C    1.391     7 C    1.330    10 C    1.038
    10   6 C    3.985 --    11 C    1.398    18 C    1.330     9 C    1.038
    11   6 C    3.987 --    12 C    1.414    10 C    1.398    29 H    0.969
                            17 C    0.106
    12   6 C    3.985 --    11 C    1.414    16 C    1.405    13 C    0.993
    13   6 C    3.996 --    14 C    1.015    12 C    0.993    30 H    0.968
                            31 H    0.957
    14   6 C    3.988 --    15 C    1.971    13 C    1.015    32 H    0.968
    15   6 C    3.988 --    14 C    1.971    33 H    0.978    34 H    0.977
    16   6 C    3.986 --    17 C    1.448    12 C    1.405    35 H    0.970
    17   6 C    3.986 --    16 C    1.448    18 C    1.377    36 H    0.968
                            11 C    0.106
    18   6 C    3.945 --    17 C    1.377    10 C    1.330    19 O    1.076
    19   8 O    2.078 --    18 C    1.076    37 H    0.832
    20   6 C    3.978 --     4 C    1.412     9 C    1.391    38 H    0.969
    21   1 H    0.998 --     1 C    0.978
    22   1 H    0.999 --     1 C    0.977
    23   1 H    0.999 --     2 C    0.968
    24   1 H    0.998 --     3 C    0.957
    25   1 H    0.998 --     3 C    0.969
    26   1 H    0.998 --     5 C    0.970
    27   1 H    0.993 --     6 C    0.948
    28   1 H    0.854 --     8 O    0.568    53 B    0.174
    29   1 H    0.999 --    11 C    0.969
    30   1 H    0.998 --    13 C    0.968
    31   1 H    0.998 --    13 C    0.957
    32   1 H    0.999 --    14 C    0.968
    33   1 H    0.998 --    15 C    0.978
    34   1 H    0.999 --    15 C    0.977
    35   1 H    0.999 --    16 C    0.970
    36   1 H    0.996 --    17 C    0.968
    37   1 H    0.885 --    19 O    0.832
    38   1 H    0.999 --    20 C    0.969
    39   5 B    3.501 --    81 B    1.439    92 H    0.957    45 B    0.841
    40   5 B    3.510 --    81 B    1.124    82 B    0.993    46 B    0.558
                            45 B    0.510
    41   5 B    3.505 --    83 B    1.275    82 B    1.008    48 B    0.485
                            47 B    0.459
    42   5 B    3.472 --    83 B    1.286    43 B    1.016    48 B    0.563
                            84 B    0.360
    43   5 B    3.533 --    85 B    1.093    42 B    1.016    49 B    0.683
                            84 B    0.486
    44   5 B    3.598 --    96 H    0.940    85 B    0.857    56 B    0.811
                            50 B    0.799
    45   5 B    3.625 --    39 B    0.841    51 B    0.833    81 B    0.793
                            40 B    0.510    52 B    0.387
    46   5 B    3.583 --    52 B    1.115    82 B    0.769    47 B    0.698
                            40 B    0.558
    47   5 B    3.627 --    53 B    0.857    46 B    0.698    48 B    0.529
                            82 B    0.519    41 B    0.459    54 B    0.226
    48   5 B    3.605 --    54 B    0.619    84 B    0.615    83 B    0.595
                            42 B    0.563    47 B    0.529    41 B    0.485
    49   5 B    3.596 --    55 B    1.107    84 B    0.918    43 B    0.683
                            85 B    0.506
    50   5 B    3.596 --    56 B    0.846    44 B    0.799    62 B    0.685
                            85 B    0.594    55 B    0.516
    51   5 B    3.620 --    45 B    0.833    57 B    0.753    52 B    0.693
                            58 B    0.557    91 B    0.496
    52   5 B    3.568 --    46 B    1.115    58 B    0.935    51 B    0.693
                            45 B    0.387
    53   5 B    3.512 --    59 B    1.062    47 B    0.857    60 B    0.589
                            54 B    0.434    28 H    0.174
    54   5 B    3.603 --    60 B    1.104    84 B    0.911    48 B    0.619
                            53 B    0.434    47 B    0.226
    55   5 B    3.552 --    49 B    1.107    61 B    0.831    62 B    0.609
                            50 B    0.516    85 B    0.180
    56   5 B    3.515 --    97 H    0.952    50 B    0.846    44 B    0.811
                            62 B    0.679
    57   5 B    3.538 --    93 H    0.939    63 B    0.836    51 B    0.753
                            91 B    0.733
    58   5 B    3.628 --    64 B    1.267    52 B    0.935    51 B    0.557
                            91 B    0.542
    59   5 B    3.499 --    65 B    1.176    53 B    1.062    60 B    0.550
                            66 B    0.392
    60   5 B    3.561 --    54 B    1.104    66 B    0.967    53 B    0.589
                            59 B    0.550
    61   5 B    3.585 --    67 B    0.868    55 B    0.831    74 B    0.558
                            62 B    0.541    68 B    0.497
    62   5 B    3.606 --    68 B    0.871    50 B    0.685    56 B    0.679
                            55 B    0.609    61 B    0.541
    63   5 B    3.575 --    94 H    0.941    57 B    0.836    91 B    0.777
                            69 B    0.720
    64   5 B    3.416 --    70 B    1.330    58 B    1.267    91 B    0.204
                            86 B    0.160
    65   5 B    3.441 --    59 B    1.176    71 B    1.014    72 B    0.510
                            66 B    0.448
    66   5 B    3.601 --    60 B    0.967    89 B    0.796    72 B    0.661
                            65 B    0.448    59 B    0.392
    67   5 B    3.560 --    73 B    1.005    61 B    0.868    74 B    0.629
                            80 B    0.538    90 B    0.317
    68   5 B    3.415 --    98 H    0.924    74 B    0.893    62 B    0.871
                            61 B    0.497
    69   5 B    3.611 --    75 B    1.237    63 B    0.720    86 B    0.717
                            91 B    0.689
    70   5 B    3.579 --    64 B    1.330    76 B    0.688    86 B    0.604
                            87 B    0.579
    71   5 B    3.518 --    65 B    1.014    77 B    0.648    87 B    0.578
                            72 B    0.538    88 B    0.453
    72   5 B    3.612 --    66 B    0.661    89 B    0.631    71 B    0.538
                            78 B    0.523    65 B    0.510    88 B    0.502
    73   5 B    3.547 --    89 B    1.036    67 B    1.005    79 B    0.624
                            90 B    0.521
    74   5 B    3.507 --    80 B    1.236    68 B    0.893    67 B    0.629
                            61 B    0.558
    75   5 B    3.475 --    69 B    1.237    95 H    0.955    86 B    0.858
                            76 B    0.144
    76   5 B    3.406 --    87 B    1.168    86 B    1.103    70 B    0.688
                            75 B    0.144
    77   5 B    3.350 --    88 B    1.210    87 B    1.132    71 B    0.648
    78   5 B    3.397 --    88 B    1.142    79 B    1.082    72 B    0.523
                            89 B    0.380
    79   5 B    3.492 --    78 B    1.082    90 B    1.072    73 B    0.624
                            89 B    0.487
    80   5 B    3.343 --    90 B    1.264    74 B    1.236    67 B    0.538
    81   5 B    3.544 --    39 B    1.439    40 B    1.124    45 B    0.793
    82   5 B    3.539 --    41 B    1.008    40 B    0.993    46 B    0.769
                            47 B    0.519
    83   5 B    3.448 --    42 B    1.286    41 B    1.275    48 B    0.595
    84   5 B    3.558 --    49 B    0.918    54 B    0.911    48 B    0.615
                            43 B    0.486    42 B    0.360
    85   5 B    3.482 --    43 B    1.093    44 B    0.857    50 B    0.594
                            49 B    0.506    55 B    0.180
    86   5 B    3.641 --    76 B    1.103    75 B    0.858    69 B    0.717
                            70 B    0.604    64 B    0.160
    87   5 B    3.632 --    76 B    1.168    77 B    1.132    70 B    0.579
                            71 B    0.578
    88   5 B    3.524 --    77 B    1.210    78 B    1.142    72 B    0.502
                            71 B    0.453
    89   5 B    3.618 --    73 B    1.036    66 B    0.796    72 B    0.631
                            79 B    0.487    78 B    0.380
    90   5 B    3.402 --    80 B    1.264    79 B    1.072    73 B    0.521
                            67 B    0.317
    91   5 B    3.631 --    63 B    0.777    57 B    0.733    69 B    0.689
                            58 B    0.542    51 B    0.496    64 B    0.204
    92   1 H    0.966 --    39 B    0.957
    93   1 H    0.971 --    57 B    0.939
    94   1 H    0.974 --    63 B    0.941
    95   1 H    0.971 --    75 B    0.955
    96   1 H    0.968 --    44 B    0.940
    97   1 H    0.974 --    56 B    0.952
    98   1 H    0.972 --    68 B    0.924
 ---------------------------------------------------------------------------

Topologies differ in total number of bonds
Writing topology from bond orders to xtbtopo.mol

molecular dipole:
                 x           y           z       tot (Debye)
 q only:        1.888       1.548      -0.221
   full:        2.051       1.378      -0.993       6.769
molecular quadrupole (traceless):
                xx          xy          yy          xz          yz          zz
 q only:      -57.121      22.066      51.084     -18.779      14.945       6.037
  q+dip:      -20.498      -2.911      13.841     -14.193      28.640       6.657
   full:      -34.915       4.158       4.410     -11.707      28.215      30.505


           -------------------------------------------------
          | TOTAL ENERGY             -123.434777301774 Eh   |
          | GRADIENT NORM               0.136722618604 Eh/α |
          | HOMO-LUMO GAP               0.427707425767 eV   |
           -------------------------------------------------

------------------------------------------------------------------------
 * finished run on 2026/08/31 at 21:15:47.041     
------------------------------------------------------------------------
 total:
 * wall-time:     0 d,  0 h,  0 min,  0.785 sec
 *  cpu-time:     0 d,  0 h,  0 min,  7.953 sec
 * ratio c/w:    10.131 speedup
 SCF:
 * wall-time:     0 d,  0 h,  0 min,  0.742 sec
 *  cpu-time:     0 d,  0 h,  0 min,  7.656 sec
 * ratio c/w:    10.318 speedup

normal termination of xtb
