38
Honokiol - ETKDG+MMFF conformer
C     -4.863875      2.782192      0.500255
C     -3.771039      2.055789      0.769830
C     -3.749872      0.556077      0.861173
C     -2.799379     -0.063509     -0.136056
C     -3.191619     -0.255447     -1.464664
C     -2.311150     -0.824304     -2.382399
C     -1.026470     -1.192773     -1.975924
O     -0.191571     -1.787081     -2.887768
C     -0.579995     -0.999939     -0.657255
C      0.790950     -1.334868     -0.195239
C      1.547081     -0.355785      0.484972
C      2.825680     -0.623260      1.007805
C      3.601277      0.460531      1.718111
C      4.259588      1.412472      0.759804
C      4.034364      2.732695      0.729379
C      3.371460     -1.899253      0.840915
C      2.654082     -2.882582      0.164138
C      1.391071     -2.596718     -0.355683
O      0.787202     -3.623500     -1.032164
C     -1.499031     -0.432322      0.249942
H     -4.810695      3.865616      0.450763
H     -5.829407      2.319060      0.322660
H     -2.827330      2.569304      0.943303
H     -3.457855      0.269184      1.879091
H     -4.751632      0.133940      0.709620
H     -4.189699      0.033482     -1.787239
H     -2.645478     -0.983409     -3.403102
H     -0.524675     -1.591675     -3.780997
H      1.135425      0.645782      0.607011
H      2.927093      0.988771      2.404478
H      4.375578      0.008602      2.350592
H      4.965652      0.981936      0.052232
H      4.544151      3.364782      0.008608
H      3.339856      3.210438      1.413105
H      4.359252     -2.135085      1.228932
H      3.080897     -3.872255      0.027070
H      0.226714     -3.200040     -1.711291
H     -1.196598     -0.281271      1.285991
