98
Methylene Blue on beta12_supported 0 deg
C      -6.18550211     -0.34630795      4.31232299
N      -5.01354897      0.49041327      4.19098875
C      -5.20409602      1.91765133      4.07914436
C      -3.78019712     -0.03968057      4.19391178
C      -3.58296972     -1.45377007      4.22071076
C      -2.33875093     -1.99362420      4.21863647
C      -1.16686297     -1.18782960      4.19829951
N      -0.00184264     -1.80912055      4.20004213
C       1.16319175     -1.18847962      4.19306440
C       2.33470508     -1.99525618      4.19726066
C       3.57924466     -1.45636969      4.19823214
C       3.77715358     -0.04213705      4.20081746
N       5.01048640      0.48719838      4.21408204
C       6.18640031     -0.34140845      4.07532221
C       5.20931505      1.90934216      4.36965880
C       2.62633170      0.77158454      4.19374755
C       1.36335693      0.22673421      4.18718371
S      -0.00126535      1.31620953      4.16304307
C      -1.36612989      0.22705405      4.17589098
C      -2.62880024      0.77280989      4.16897751
H      -6.12231703     -0.97782366      5.20025269
H      -6.31015627     -0.98232930      3.43269519
H      -7.06939099      0.27800281      4.40711164
H      -4.68834712      2.30884538      3.20000000
H      -6.26268088      2.13791347      3.97388489
H      -4.83284797      2.43625915      4.96717910
H      -4.43443758     -2.11222111      4.23053373
H      -2.19059631     -3.06142171      4.23170404
H       2.18575299     -3.06300495      4.20652314
H       4.43064606     -2.11478484      4.21895099
H       6.07605272     -1.03615159      3.24215645
H       6.38199424     -0.90935397      4.98882545
H       7.04886762      0.28805620      3.87300416
H       4.94448250      2.44915174      3.45636760
H       4.60960494      2.29488553      5.19517686
H       6.25409066      2.10683478      4.59374446
H       2.71203406      1.84538721      4.17367929
H      -2.71297117      1.84674143      4.15854716
B      -5.85857624      3.38040841      0.00000000
B      -5.85854689      1.69158049     -0.00000000
B      -4.39532834      4.22466855     -0.00000000
B      -4.39711400      2.53475765     -0.00000000
B      -4.39575475      0.84147203     -0.00000000
B      -5.85854686     -1.69158078      0.00000000
B      -5.85857617     -3.38040837     -0.00000000
B      -4.39575479     -0.84147232     -0.00000000
B      -4.39711414     -2.53475765      0.00000000
B      -4.39532857     -4.22466843      0.00000000
B      -2.92793521      3.38324044     -0.00000000
B      -2.92888517      1.68724694     -0.00000000
B      -1.46554580      4.22439782     -0.00000000
B      -1.46605622      2.53507234     -0.00000000
B      -1.46573170      0.84295491     -0.00000000
B      -2.92888518     -1.68724692      0.00000000
B      -2.92793508     -3.38324074      0.00000000
B      -1.46573174     -0.84295512     -0.00000000
B      -1.46605627     -2.53507234      0.00000000
B      -1.46554588     -4.22439779     -0.00000000
B       0.00067086      3.38275146      0.00000000
B       0.00067433      1.68721076      0.00000000
B       1.46420559      4.22439023     -0.00000000
B       1.46473580      2.53506444     -0.00000000
B       1.46438553      0.84295188     -0.00000000
B       0.00067433     -1.68721088      0.00000000
B       0.00067085     -3.38275170      0.00000000
B       1.46438555     -0.84295208     -0.00000000
B       1.46473583     -2.53506442     -0.00000000
B       1.46420568     -4.22439021     -0.00000000
B       2.92927005      3.38326104     -0.00000000
B       2.93022956      1.68726759      0.00000000
B       4.39401124      4.22463050     -0.00000000
B       4.39579743      2.53472819      0.00000000
B       4.39441416      0.84146678     -0.00000000
B       2.93022962     -1.68726763     -0.00000000
B       2.92927005     -3.38326139     -0.00000000
B       4.39441419     -0.84146703     -0.00000000
B       4.39579756     -2.53472819     -0.00000000
B       4.39401144     -4.22463033     -0.00000000
B       5.85997303      3.38040496      0.00000000
B       5.85993260      1.69164307     -0.00000000
B       5.85993251     -1.69164335      0.00000000
B       5.85997297     -3.38040486      0.00000000
H      -6.86866001      3.98474441      0.00000000
H      -6.88164909      1.12316321     -0.00000000
H      -4.39961690      5.40226943     -0.00000000
H      -6.88164986     -1.12316494      0.00000000
H      -6.86866148     -3.98474191     -0.00000000
H      -4.39961557     -5.40226922      0.00000000
H      -1.46579024      5.40011773     -0.00000000
H      -1.46578943     -5.40011766      0.00000000
H       1.46622796      5.40011192     -0.00000000
H       1.46622721     -5.40011186     -0.00000000
H       4.39986570      5.40225046     -0.00000000
H       4.39986407     -5.40225022     -0.00000000
H       6.86878772      3.98676429      0.00000000
H       6.88200886      1.12155941     -0.00000000
H       6.88200989     -1.12156160      0.00000000
H       6.86878944     -3.98676138      0.00000000
