98
 energy: -116.717761145009 gnorm: 0.000989591619 xtb: 6.7.1 (edcfbbe)
C            6.21803482489639        0.11452597103495        3.55409752586448
N            5.04483236418196       -0.72530802783832        3.58086104596710
C            5.20334849753369       -2.05859352080495        4.11743346071567
C            3.79222879309360       -0.13659765854035        3.62601318633093
C            3.61205872389554        1.25131582860945        3.54768321910027
C            2.35418489202289        1.80654508922791        3.49478442168379
C            1.17619550811528        1.03264548003122        3.52711839031194
N            0.00181639589717        1.67814569162697        3.43098280761632
C           -1.17008458859946        1.02845360673929        3.52882151391035
C           -2.35101304842746        1.79795005111461        3.49938514639787
C           -3.60675937599604        1.23785724934295        3.55288548436489
C           -3.78156942722408       -0.15080433959754        3.62825398637242
N           -5.03189561604022       -0.74548474643278        3.58077724352872
C           -6.20879541018647        0.08950348078484        3.55814032905153
C           -5.18504174704697       -2.07624439159787        4.12597013530191
C           -2.62125745809022       -0.93159142789307        3.69848806432566
C           -1.36281025756626       -0.36596426166406        3.65584838178246
S            0.00782391924180       -1.47846036803169        3.75044832588090
C            1.37433410704199       -0.36092820808245        3.65515838972002
C            2.63492950562220       -0.92176053098530        3.69802301600022
H            6.34975687950382        0.69310320524202        4.47705730985167
H            6.15862504355629        0.79976006817533        2.70655919530032
H            7.09673326429009       -0.51080973355434        3.41298676785610
H            4.73917772061888       -2.79744556304102        3.45965380831789
H            6.26141985910829       -2.29683382833642        4.18733377092717
H            4.76457775149807       -2.15488492517420        5.11668561858821
H            4.46232884871075        1.91235477986220        3.54886572572529
H            2.23334708055897        2.87743602122966        3.45721442778344
H           -2.23427797270998        2.86937779414369        3.46398658088279
H           -4.45946231965244        1.89574529670161        3.55710977730816
H           -6.14832885208158        0.78435164866537        2.71892731045481
H           -6.34801575499326        0.65674911843707        4.48707229974972
H           -7.08358524162726       -0.53864297003640        3.40500146381541
H           -4.71431002871521       -2.81674517759350        3.47495883469249
H           -4.74956394152726       -2.16359070713563        5.12749083150111
H           -6.24206167673049       -2.31976353370586        4.19315808344974
H           -2.68240869128807       -2.00308970432784        3.79957092428855
H            2.70032476858508       -1.99285830644474        3.80067904009220
B           -5.84915723901218        3.51194609018244        0.46946195935294
B           -5.85451152818530        1.82531792594893        0.16086574981360
B           -4.38938046986661        4.34520055393265        0.10518392361693
B           -4.39489499725078        2.66232895671154        0.25815264714940
B           -4.39751187533767        0.96824774144308        0.35175443746643
B           -5.86250878647328       -1.56595936156992        0.20009964459301
B           -5.86619048357165       -3.24233270887771        0.56331173819997
B           -4.40165288487294       -0.71056355838734        0.37532533005024
B           -4.40732246593455       -2.40650836155783        0.33695427883562
B           -4.41001635780051       -4.09337324050087        0.23129192198363
B           -2.92163908642088        3.51020163061871        0.22190638888539
B           -2.92744640152506        1.80951617315621        0.35664815794360
B           -1.45907895853948        4.34371661088382        0.39290193207690
B           -1.46286960575789        2.65631038814287        0.30564579690100
B           -1.46728924235916        0.96146816767308        0.22037519204077
B           -2.93589949257297       -1.55839652353147        0.40159107954455
B           -2.93815343332662       -3.26253956116041        0.32167564658337
B           -1.47141157277714       -0.72205900594267        0.24668552733381
B           -1.47536681851074       -2.41311898201224        0.39367268507181
B           -1.47996627931397       -4.09696038319655        0.53153129954816
B            0.00572694508681        3.50216432483144        0.38608540196825
B            0.00141066456385        1.80105806717228        0.20566278644368
B            1.47217142410717        4.33646279890678        0.39216011378921
B            1.46750276724612        2.64904041716975        0.30378004483440
B            1.46340565559928        0.95419860283667        0.21792715376545
B           -0.00688794665955       -1.56906344231861        0.24578812534370
B           -0.01095971704988       -3.26431273794487        0.47991737411057
B            1.45924007947811       -0.72930598775815        0.24465841469343
B            1.45504533966578       -2.42036790831165        0.39105579650979
B            1.45143595939362       -4.10425257823616        0.52910401186521
B            2.93289543700887        3.49579865772089        0.21883072577131
B            2.93045546664546        1.79504844193073        0.35171060976708
B            4.40201732143747        4.32335482024884        0.09771912423148
B            4.39943769453771        2.64049476613833        0.25047193728077
B            4.39377972177973        0.94650904975926        0.34638928599245
B            2.92231016067563       -1.57289662583059        0.39830281621554
B            2.91606403559195       -3.27705135542577        0.31956545584486
B            4.38963071884875       -0.73223843457682        0.37130659661770
B            4.38693196143431       -2.42817684161728        0.33334139444933
B            4.38114832944829       -4.11503495268338        0.22723336055948
B            5.86084808432553        3.48302568918303        0.45949682861692
B            5.85739602979341        1.79642453839781        0.15314170035299
B            5.84872957675658       -1.59502961926816        0.19506708678052
B            5.84451920039755       -3.27119963821827        0.55729577081423
H           -6.77426864696890        4.07126245800125        0.91041351582697
H           -6.81917030748757        1.33020428687426       -0.26738161345307
H           -4.44702226480050        5.43205574771694       -0.32106923759509
H           -6.81461024509310       -1.08449902624247       -0.26881757408802
H           -6.79437493767711       -3.78621650011734        1.01716894172775
H           -4.46931439917140       -5.19788926104338       -0.14715092523265
H           -1.46762018678923        5.50414603858586        0.53752559316955
H           -1.49517125344009       -5.24552130435667        0.75273923948181
H            1.48829327617786        5.49664140244156        0.53806180687183
H            1.46241623627548       -5.25344514949860        0.74722864593721
H            4.46582634217334        5.40981437622032       -0.32871696435651
H            4.43580808448605       -5.22077283403383       -0.14834287362721
H            6.78781910448397        4.04107678304061        0.89797241757102
H            6.81630029965372        1.29503732924960       -0.28067504824808
H            6.80065318864892       -1.11625845179835       -0.27683504259490
H            6.76761149932957       -3.82214692911090        1.01302014020755
