98
 energy: -116.709662198433 gnorm: 0.000704449276 xtb: 6.7.1 (edcfbbe)
C           -0.27514945802887        6.21492486292164        3.65248207370344
N            0.55382916986756        5.03586978641166        3.64130026318524
C            1.95078948305573        5.18992048620091        3.96999867407286
C           -0.02499776499010        3.78896773797939        3.70553701848634
C           -1.41877383295075        3.60969625242132        3.71004088540017
C           -1.97564739788204        2.35436326006423        3.70147558756506
C           -1.20164762855189        1.17515715693502        3.69365224196197
N           -1.85510969357462        0.00441847016368        3.65877713248183
C           -1.20318026670492       -1.16704469867441        3.69569976591295
C           -1.97959582113845       -2.34497510439243        3.70381386177109
C           -1.42485014774307       -3.60108487956664        3.71873788997879
C           -0.03125887495647       -3.78087662366072        3.71723964270026
N            0.54728988987868       -5.02619821417402        3.67262427594571
C           -0.26436881315450       -6.20919963161000        3.54133528807397
C            1.92745854196907       -5.19937108202781        4.05685041142233
C            0.75910651831283       -2.62363588688099        3.72524016532254
C            0.19741455616447       -1.36286258491599        3.72289500917053
S            1.31746685043404        0.00295430610142        3.73126707549257
C            0.19878737495009        1.36990988053644        3.72005220166157
C            0.76250900066242        2.63004979251341        3.72301274807237
H           -0.78549828146161        6.36172973742760        4.61182198991689
H           -1.02166426283213        6.14918935912488        2.86128031044281
H            0.34339694940041        7.08698462422989        3.45588336618597
H            2.58128330757344        4.76421303262073        3.18460925538241
H            2.18779445050659        6.24681572974150        4.05218317550756
H            2.19996910459394        4.71075596453476        4.92248542262700
H           -2.07677852594391        4.46135937840318        3.73822809213824
H           -3.04673019849682        2.23185425864179        3.72114428698248
H           -3.05045018189956       -2.22007173293910        3.72180951499604
H           -2.08182690176198       -4.45366904963773        3.75484362463717
H           -1.00245237524577       -6.06543465835137        2.75321972533461
H           -0.78240787304405       -6.46896482349706        4.47274517175437
H            0.37143956666161       -7.04447871310066        3.25599797087644
H            2.60301586680978       -4.94143185372060        3.23423637387673
H            2.17571086901521       -4.58335434746268        4.92457782605669
H            2.10083680118563       -6.23853213078558        4.32569948652631
H            1.83504583488898       -2.69355224651009        3.73599564365812
H            1.83819451482967        2.69462328946072        3.74732747167958
B           -5.85792389103827        3.39620117616125        0.51689678662006
B           -5.86561351879274        1.71385679854851        0.18582439716243
B           -4.39892329489741        4.23264647725968        0.15779487564248
B           -4.40494992121178        2.54821421927072        0.30486181918805
B           -4.40852110513898        0.85317397596985        0.38713474315343
B           -5.87683497163835       -1.67698527751887        0.18529514046239
B           -5.88028817799404       -3.35922840229972        0.51918299504460
B           -4.41407615160894       -0.82595382193217        0.38729585365188
B           -4.42174351701463       -2.52097326717792        0.30613991808241
B           -4.42697717453899       -4.20549352484321        0.16102979163028
B           -2.93147227732102        3.39495913703630        0.24942935958318
B           -2.93797847415565        1.69287820685132        0.38563539828095
B           -1.46734579938778        4.22645229464561        0.39186309647436
B           -1.47297494018369        2.53907619422289        0.31492663016732
B           -1.47910782430000        0.84555943303425        0.22788657847977
B           -2.94909690523309       -1.67537249438058        0.38900970076801
B           -2.95395502712906       -3.37742966601839        0.24908167170603
B           -1.48466643998082       -0.83777922119322        0.22774703748871
B           -1.48982343639138       -2.53132470460937        0.30837663368869
B           -1.49532091142750       -4.21907482732009        0.37099148888520
B           -0.00350097295137        3.38357108687603        0.38563311779104
B           -0.00962259952469        1.68373611307007        0.21456518023803
B            1.46356791215467        4.21672369148193        0.38412821274701
B            1.45761853946824        2.52928519517833        0.31959409335962
B            1.45186247039985        0.83591006726609        0.23094061761519
B           -0.02073845504914       -1.68569885461189        0.21668174791743
B           -0.02592021687058       -3.38542722223488        0.38946379106929
B            1.44630853474054       -0.84761162934547        0.23191106274377
B            1.44080206505523       -2.54085399936710        0.32687754074425
B            1.43565636078977       -4.22789302429064        0.40365923093896
B            2.92345679182337        3.37568017226587        0.22779495811383
B            2.91985553214317        1.67345490218361        0.37010185366581
B            4.39332027699220        4.20363589119075        0.12940773891485
B            4.38930384892641        2.51899592419830        0.26791833150366
B            4.38221348690608        0.82407399628689        0.35763398826177
B            2.90869935434836       -1.69472218256132        0.37046575318557
B            2.90103853284244       -3.39714417482837        0.23479193685170
B            4.37665668049413       -0.85504076180018        0.35873129300032
B            4.37250715936121       -2.55009115520537        0.27005033790927
B            4.36528468299018       -4.23482103038817        0.13219403513223
B            5.85220604379409        3.35747368441229        0.46855349052446
B            5.84600243976211        1.67497907883743        0.14021898931529
B            5.83479443275605       -1.71588539781434        0.14314253980529
B            5.82983795702105       -3.39807537803852        0.47141758740377
H           -6.78177570696605        3.95581855887201        0.95897140544576
H           -6.81500401972819        1.22967442207105       -0.28539063209075
H           -4.45765185809015        5.32880117898752       -0.24470617860335
H           -6.82338617317583       -1.18713337742175       -0.28585713312781
H           -6.80869346561369       -3.91080666362233        0.96174671817350
H           -4.49267943496542       -5.30085367859950       -0.24277994178090
H           -1.47038011773841        5.39288299973576        0.49170382718277
H           -1.50504164573295       -5.38832040232333        0.43077144575901
H            1.47641769007889        5.37960633947212        0.51188079979126
H            1.44226997371150       -5.38889579784691        0.54952689673965
H            4.45282121703541        5.30726516272332       -0.25228198593011
H            4.41802642556164       -5.33868984433740       -0.25002972653337
H            6.78097580846767        3.91090671125039        0.90924984652516
H            6.78765351667545        1.18048631621070       -0.33599140293345
H            6.77923246601475       -1.22825313489095       -0.33436266337110
H            6.75464790503640       -3.95916554326611        0.91082057887402
