98
 energy: -116.709680428826 gnorm: 0.000681706480 xtb: 6.7.1 (edcfbbe)
C            0.27733616292901       -6.21501263781188        3.65584139095111
N           -0.55135851718753       -5.03578558046228        3.64319435633588
C           -1.94882530841701       -5.18941522438223        3.96983816526263
C            0.02743583495844       -3.78886256219604        3.70630562749538
C            1.42121576294740       -3.60958325512064        3.71148766169401
C            1.97810620421915       -2.35425663726633        3.70214340474499
C            1.20411013314906       -1.17506326952794        3.69317601977835
N            1.85757181984682       -0.00431726580122        3.65813352266921
C            1.20563215774727        1.16715709017161        3.69475537373762
C            1.98201829110140        2.34509032439056        3.70352572558097
C            1.42724499774212        3.60119104041250        3.71870616971658
C            0.03366154622346        3.78101547017412        3.71656724424536
N           -0.54484181310945        5.02637533757932        3.67235149297325
C            0.26700171122162        6.20957160778133        3.54402031259665
C           -1.92567425844248        5.19904558572172        4.05441717629255
C           -0.75667669405341        2.62375845115159        3.72360659346531
C           -0.19496274782886        1.36297935781751        3.72123242427756
S           -1.31500332080452       -0.00282668314616        3.72882170353762
C           -0.19633497052008       -1.36978749604134        3.71886018243644
C           -0.76008186733327       -2.62992975126041        3.72218408108994
H            0.78635429110706       -6.36161521706561        4.61594448230850
H            1.02494594048431       -6.14972744045838        2.86561293095885
H           -0.34116983784364       -7.08703330806835        3.45866526694584
H           -2.57812195731742       -4.76642651150319        3.18201930058028
H           -2.18556214980143       -6.24610317268067        4.05504176546007
H           -2.19986092290299       -4.70739088680711        4.92036085211332
H            2.07917983147511       -4.46122655965240        3.74086647064786
H            3.04917953801030       -2.23174864157267        3.72230564493738
H            3.05286042054141        2.22021983122492        3.72200026512512
H            2.08423132633442        4.45371426685900        3.75547415042024
H            1.00612460946978        6.06704096655217        2.75667344183040
H            0.78382175136321        6.46781292243453        4.47650969528190
H           -0.36837893083074        7.04531430934087        3.25911482224685
H           -2.59978127025186        4.94091530759926        3.23071140349669
H           -2.17513520877800        4.58293641028462        4.92171850704179
H           -2.09986859620528        6.23810989396705        4.32300346900406
H           -1.83260596679081        2.69359966544907        3.73386771844086
H           -1.83577176795483       -2.69449327448353        3.74569940132322
B           -5.82929023118919        3.39878439600374        0.47041013673965
B           -5.83442968884378        1.71643081723107        0.14052238896321
B           -4.36725469062609        4.23536294371599        0.13096771703255
B           -4.37468365011680        2.55064217790565        0.26844949738499
B           -4.37911532939963        0.85558639995145        0.35721171634966
B           -5.84607719889142       -1.67420180798677        0.13831842252040
B           -5.85253421089784       -3.35674116461062        0.46879234631311
B           -4.38488769065083       -0.82357497575680        0.35642867635179
B           -4.39213651449215       -2.51854200127005        0.26735304114797
B           -4.39637938217171       -4.20322039166937        0.12972544458052
B           -2.90058225094694        3.39736634814972        0.23162944462845
B           -2.90848226236434        1.69501310650503        0.37041442141551
B           -1.43766471701253        4.22811256498612        0.39998646282066
B           -1.44300035978054        2.54100890769159        0.32564503140142
B           -1.44874071875043        0.84773369172590        0.23240543090816
B           -2.92007462605292       -1.67309827967355        0.37059590826834
B           -2.92387881929694       -3.37530383514561        0.22598679997199
B           -1.45451494624038       -0.83579535032866        0.23176618040731
B           -1.46047078255679       -2.52917115256978        0.31929174831974
B           -1.46666290090234       -4.21663217322146        0.38229058717811
B            0.02634083397640        3.38536867865257        0.38886092979782
B            0.02099188407377        1.68561976718890        0.21611756723445
B            1.49331327995405        4.21874985413602        0.37421308535169
B            1.48762388301248        2.53105212569306        0.30904796933348
B            1.48223523891233        0.83751867834521        0.22649520828371
B            0.00943860017387       -1.68381895559481        0.21463627049837
B            0.00304547724884       -3.38362267032359        0.38605017948067
B            1.47645954550226       -0.84581893333149        0.22690439829267
B            1.47012054395540       -2.53930045094387        0.31583466378097
B            1.46423518334355       -4.22661115617715        0.39533344612510
B            2.95438071554091        3.37705575022115        0.25028490366055
B            2.94932584630461        1.67497144259163        0.38753497038336
B            4.42498921923480        4.20478162747895        0.16005338986919
B            4.41955935686021        2.52030154565116        0.30611578488464
B            4.41161898589454        0.82531441956884        0.38776060449992
B            2.93776783730320       -1.69334071137329        0.38490732191541
B            2.93102676244540       -3.39549635782239        0.25196738244521
B            4.40584345998856       -0.85375895629450        0.38793012831554
B            4.40211057032868       -2.54879703399436        0.30594402727791
B            4.39585117689158       -4.23324602402526        0.15862034943528
B            5.88085000884427        3.35844835519847        0.51813913789202
B            5.87716819005690        1.67625572487867        0.18622776214658
B            5.86551015399501       -1.71482265410057        0.18753660234420
B            5.85759638258115       -3.39698449540656        0.51731298060792
H           -6.75658882476850        3.95710744840693        0.90823209709878
H           -6.78117204648434        1.23074140699246       -0.33451743610992
H           -4.41846320883820        5.33909977719354       -0.25185915321417
H           -6.78980921221684       -1.18161712641725       -0.33574704534707
H           -6.78389056514584       -3.90728534169546        0.90783051081448
H           -4.45473335098225       -5.30688975854517       -0.25199292545247
H           -1.44260649455786        5.38934442046674        0.54412336389522
H           -1.47814846199178       -5.37965659344063        0.50899089571026
H            1.50497191192800        5.38773604522318        0.43846793668545
H            1.46866334004137       -5.39279419544794        0.49773382681604
H            4.49209909703190        5.30032471717699       -0.24300592545446
H            4.45568604946214       -5.32978881840018       -0.24266144604500
H            6.80676183413153        3.91292007310125        0.96222120556049
H            6.82123524671532        1.18444629317517       -0.28769681250935
H            6.81263299169912       -1.22902294676292       -0.28639465988225
H            6.77880333429275       -3.95948766647944        0.96117100383960
