60
 energy: -61.503517260378 gnorm: 0.000999307940 xtb: 6.7.1 (edcfbbe)
B           -5.84756530277918        3.51135263436421        0.47727801859388
B           -5.85258212138560        1.82793534881983        0.13711782862186
B           -4.38988192641617        4.34096762589468        0.06450705427801
B           -4.39529592656953        2.66165506217565        0.24044857692053
B           -4.39798602460188        0.96598879952818        0.35324245726261
B           -5.86064877279538       -1.57003305497662        0.18211861502067
B           -5.86456854007272       -3.24177910293282        0.57658072336722
B           -4.40211276348860       -0.70882589921443        0.37703169917507
B           -4.40770363201872       -2.40704628496597        0.31909219012539
B           -4.41046781651420       -4.09116045074871        0.19555194974356
B           -2.92012466883728        3.51262756314306        0.19204403584885
B           -2.92732963804844        1.80680788381179        0.37225316339438
B           -1.45971264231389        4.34203371085347        0.42414392432124
B           -1.46284176423516        2.65620285990297        0.32552714318010
B           -1.46750202549492        0.96034999083144        0.24191711317226
B           -2.93575515189557       -1.55566565623212        0.42181662917302
B           -2.93663801169040       -3.26652681801471        0.29874497376459
B           -1.47161652314651       -0.72102755874195        0.26677112854191
B           -1.47533972998397       -2.41303011061598        0.41211079403850
B           -1.48061127358428       -4.09469307045324        0.56568826679367
B            0.00568521443187        3.50452007096608        0.41046668129620
B            0.00133311937518        1.79804375427208        0.18489212313768
B            1.47283860871613        4.33475637608438        0.42376449295027
B            1.46751366739864        2.64892139458858        0.32402080846405
B            1.46364373989083        0.95308206251432        0.23974056723993
B           -0.00695312282704       -1.56735469780577        0.23284236423032
B           -0.01101023328349       -3.26595315861880        0.51633651148811
B            1.45947063200688       -0.72826993063189        0.26481525605955
B            1.45504915634026       -2.42026838049068        0.40970186159042
B            1.45212853840643       -4.10196773020479        0.56372532427968
B            2.93123763480734        3.49826791784947        0.18935843002219
B            2.93021960109227        1.79235230371672        0.36761566217553
B            4.40243902768511        4.31910784956103        0.05748295368510
B            4.39983530257457        2.63981005501159        0.23393356477878
B            4.39423979432322        0.94422224447380        0.34769579854653
B            2.92207858364958       -1.57019037250350        0.41817914933551
B            2.91437397032389       -3.28106549976371        0.29671013061209
B            4.39009786921571       -0.73050914321048        0.37228453204999
B            4.38730121489737       -2.42871544843184        0.31474583268919
B            4.38154068489564       -4.11282301036782        0.19091506230116
B            5.85920764514519        3.48240996801379        0.46745592007724
B            5.85537736741103        1.79911559013003        0.13004170107174
B            5.84674751327629       -1.59914153171078        0.17698639675832
B            5.84286651743589       -3.27066928642828        0.56955730261428
H           -6.77739291015138        4.09126078988684        0.89697020985759
H           -6.81162321790397        1.33961837124965       -0.32217304270761
H           -4.45669097578330        5.44004531952390       -0.34619465381061
H           -6.81559033762348       -1.09199788292608       -0.29614594176135
H           -6.79872534362594       -3.80309379822746        1.01164021645622
H           -4.48148160125333       -5.20302564016905       -0.17840748801197
H           -1.47492418117738        5.50187785063965        0.61975541560302
H           -1.50278326953971       -5.24419064871601        0.81443546258346
H            1.49552777850547        5.49429418133513        0.62051296904234
H            1.47008352797746       -5.25194146051802        0.81067271009019
H            4.47541204072347        5.41781587227569       -0.35319787751143
H            4.44807219340960       -5.22523809067398       -0.18226023159407
H            6.79057951538184        4.06083605709432        0.88570079863385
H            6.80936311347445        1.30390798983556       -0.33229905929024
H            6.80163031765128       -1.12390943209431       -0.30408476402932
H            6.77272825861853       -3.83949275795808        1.00400887365876
