38
Honokiol GFN2 opt
C      -4.08203640     -2.84481124     -0.36998098
C      -4.19599369     -1.62758877     -0.86524827
C      -4.27033039     -0.37844399     -0.03774559
C      -3.08732360      0.50143927     -0.34609099
C      -3.19801419      1.58770386     -1.20473526
C      -2.09726631      2.36343581     -1.50967459
C      -0.85646045      2.07049288     -0.95614630
O       0.19973142      2.85929774     -1.30237827
C      -0.72789828      0.98368546     -0.08215567
C       0.58252951      0.64419159      0.52138672
C       1.18154630     -0.57842896      0.23882173
C       2.40764933     -0.92680808      0.78054288
C       3.07436089     -2.22957350      0.42402888
C       4.07410884     -1.98848939     -0.66862772
C       5.37726403     -2.14131071     -0.53506519
C       3.04420755     -0.02322932      1.62417420
C       2.46080977      1.18781403      1.93318654
C       1.22764640      1.53205192      1.38962172
O       0.68772968      2.73321776      1.74184663
C      -1.84616647      0.20896343      0.19789111
H      -4.02056026     -3.71536737     -1.00082865
H      -4.05421803     -3.02480984      0.69273013
H      -4.21813782     -1.46875585     -1.93566231
H      -5.19360886      0.15646019     -0.27387766
H      -4.27798484     -0.63976657      1.02214021
H      -4.15480314      1.83129894     -1.64285201
H      -2.17229009      3.20312286     -2.18208165
H       1.01149568      2.52460767     -0.89754240
H       0.66876796     -1.25899454     -0.42644610
H       2.32328150     -2.94330457      0.07707627
H       3.57758806     -2.64459020      1.29889344
H       3.65468275     -1.64055556     -1.60383131
H       6.06188657     -1.94084197     -1.34161292
H       5.81724230     -2.48150109      0.38839815
H       4.00501879     -0.27568105      2.04689873
H       2.93910678      1.88750549      2.59983670
H      -0.18575677      2.83520383      1.34022641
H      -1.73780453     -0.63431658      0.86488340
