35
RDKit ETKDG+MMFF
C      -5.70859654     -0.75955088      0.00358857
C      -4.35216122     -0.14933746     -0.22099486
C      -3.20657136     -0.93517829     -0.00842726
C      -1.91448543     -0.41784675     -0.15985112
N      -0.85414640     -1.30138323      0.08614227
C       0.37507715     -0.90965365      0.03566039
C       1.39618054     -1.94384886      0.33139463
C       2.70783350     -1.69466584      0.36278364
C       3.25026330     -0.33165132      0.09849036
N       4.52491242     -0.06087347      0.16142945
C       5.06555455      1.32990326      0.01563299
C       5.56377742     -1.11679963      0.39157206
C       2.22436162      0.69824744     -0.24691089
C       0.90704716      0.44302808     -0.27848503
S      -0.18305824      1.70677176     -0.71053670
C      -1.76702750      0.92238303     -0.52179048
C      -2.90910753      1.70923362     -0.74367005
C      -4.20163893      1.17760220     -0.64663546
N      -5.29874308      2.04112278     -0.76012005
H      -5.63249131     -1.78642529      0.37674516
H      -6.27017119     -0.78878063     -0.93565140
H      -6.26813368     -0.18239992      0.74683515
H      -3.31450070     -1.97451274      0.29749255
H       1.00691345     -2.93833324      0.53776405
H       3.37190318     -2.51681529      0.60781377
H       6.10033429      1.36134994      0.36725112
H       4.47480867      2.00951815      0.63567461
H       5.01979012      1.60340301     -1.04137740
H       6.55464022     -0.71508540      0.16312399
H       5.37295337     -1.95681282     -0.28167140
H       5.51484083     -1.41980745      1.44040655
H       2.56031075      1.69934509     -0.50100752
H      -2.79438909      2.76129057     -0.99735379
H      -5.13939050      2.85367517     -1.34762010
H      -6.17688983      1.58288807     -0.98285608
