35
drug @complex
C      -5.59904571      1.14121725      3.70358115
C      -4.27448319      0.43498667      3.66049310
C      -3.09735988      1.14797023      3.58630040
C      -1.82149634      0.54602417      3.57307456
N      -0.75676275      1.36102024      3.48674891
C       0.49883669      0.88681202      3.54597781
C       1.55378230      1.82151815      3.53561267
C       2.87729919      1.45122553      3.56908389
C       3.25907935      0.10201017      3.60856892
N       4.59384476     -0.28009961      3.55580691
C       4.93464313     -1.65092097      3.86099529
C       5.59631092      0.70059240      3.91155559
C       2.22685558     -0.84089866      3.64595959
C       0.89774280     -0.46587868      3.62043834
S      -0.28987039     -1.77368450      3.68399228
C      -1.80388460     -0.86469853      3.65462797
C      -2.97622416     -1.59259669      3.71150933
C      -4.22092812     -0.96819770      3.70912277
N      -5.38041125     -1.73913376      3.67590338
H      -5.45795691      2.21710101      3.65107518
H      -6.12310647      0.91833680      4.63430215
H      -6.23040618      0.83034427      2.87213290
H      -3.11877230      2.22626971      3.57132996
H       1.28147586      2.86484020      3.52218374
H       3.62139171      2.22965845      3.57901525
H       6.00203054     -1.79209332      3.70546638
H       4.41116745     -2.32673145      3.18666278
H       4.69490891     -1.92792324      4.89554782
H       6.57825465      0.23481956      3.87491615
H       5.44532669      1.10913689      4.91819117
H       5.59167036      1.51854618      3.19122702
H       2.43655699     -1.89476304      3.72632479
H      -2.92341772     -2.67087600      3.77956107
H      -5.26605407     -2.68112520      4.01734160
H      -6.20257986     -1.28956950      4.04573151
