95
Toluidine Blue O on beta12_supported 270 deg
C       1.18983577      5.60318448      4.11322269
C       0.48682848      4.28390966      4.16263543
C       1.17703060      3.10959456      4.15436858
C       0.54004067      1.84013868      4.19238216
N       1.32267815      0.77314787      4.18576352
C       0.87672925     -0.46632929      4.20128854
C       1.84454893     -1.51110233      4.19150447
C       1.49029325     -2.81918251      4.19079115
C       0.11810339     -3.21960624      4.19201074
N      -0.22659588     -4.51550149      4.17085826
C      -1.60583690     -4.91704331      4.02004659
C       0.76402275     -5.55985682      4.30126405
C      -0.85268261     -2.19837001      4.21042548
C      -0.49617377     -0.86952897      4.21998145
S      -1.76826142      0.32331349      4.26652389
C      -0.88772065      1.82431900      4.23870221
C      -1.59623413      3.00597047      4.25956816
C      -0.94396435      4.24373708      4.22148261
N      -1.65711784      5.37936638      4.23843479
H       2.26432117      5.45533254      4.06633258
H       0.96626490      6.19475384      5.00092678
H       0.88622181      6.17048908      3.23341201
H       2.25478151      3.09860785      4.11575577
H       2.87949819     -1.20947785      4.17762038
H       2.26408049     -3.56730618      4.16717261
H      -1.65156142     -5.97805798      3.79032189
H      -2.07806704     -4.37466477      3.20000000
H      -2.17358435     -4.73820606      4.93712971
H       0.26598114     -6.50813988      4.48396125
H       1.42825905     -5.36232254      5.14325093
H       1.36185742     -5.65587522      3.39127661
H      -1.90255341     -2.43875110      4.23791295
H      -2.67528645      2.97859941      4.30037176
H      -2.66180918      5.34965589      4.28325063
H      -1.20392750      6.27520227      4.19442544
B      -5.85857624      3.38040841      0.00000000
B      -5.85854689      1.69158049     -0.00000000
B      -4.39532834      4.22466855     -0.00000000
B      -4.39711400      2.53475765     -0.00000000
B      -4.39575475      0.84147203     -0.00000000
B      -5.85854686     -1.69158078      0.00000000
B      -5.85857617     -3.38040837     -0.00000000
B      -4.39575479     -0.84147232     -0.00000000
B      -4.39711414     -2.53475765      0.00000000
B      -4.39532857     -4.22466843      0.00000000
B      -2.92793521      3.38324044     -0.00000000
B      -2.92888517      1.68724694     -0.00000000
B      -1.46554580      4.22439782     -0.00000000
B      -1.46605622      2.53507234     -0.00000000
B      -1.46573170      0.84295491     -0.00000000
B      -2.92888518     -1.68724692      0.00000000
B      -2.92793508     -3.38324074      0.00000000
B      -1.46573174     -0.84295512     -0.00000000
B      -1.46605627     -2.53507234      0.00000000
B      -1.46554588     -4.22439779     -0.00000000
B       0.00067086      3.38275146      0.00000000
B       0.00067433      1.68721076      0.00000000
B       1.46420559      4.22439023     -0.00000000
B       1.46473580      2.53506444     -0.00000000
B       1.46438553      0.84295188     -0.00000000
B       0.00067433     -1.68721088      0.00000000
B       0.00067085     -3.38275170      0.00000000
B       1.46438555     -0.84295208     -0.00000000
B       1.46473583     -2.53506442     -0.00000000
B       1.46420568     -4.22439021     -0.00000000
B       2.92927005      3.38326104     -0.00000000
B       2.93022956      1.68726759      0.00000000
B       4.39401124      4.22463050     -0.00000000
B       4.39579743      2.53472819      0.00000000
B       4.39441416      0.84146678     -0.00000000
B       2.93022962     -1.68726763     -0.00000000
B       2.92927005     -3.38326139     -0.00000000
B       4.39441419     -0.84146703     -0.00000000
B       4.39579756     -2.53472819     -0.00000000
B       4.39401144     -4.22463033     -0.00000000
B       5.85997303      3.38040496      0.00000000
B       5.85993260      1.69164307     -0.00000000
B       5.85993251     -1.69164335      0.00000000
B       5.85997297     -3.38040486      0.00000000
H      -6.86866001      3.98474441      0.00000000
H      -6.88164909      1.12316321     -0.00000000
H      -4.39961690      5.40226943     -0.00000000
H      -6.88164986     -1.12316494      0.00000000
H      -6.86866148     -3.98474191     -0.00000000
H      -4.39961557     -5.40226922      0.00000000
H      -1.46579024      5.40011773     -0.00000000
H      -1.46578943     -5.40011766      0.00000000
H       1.46622796      5.40011192     -0.00000000
H       1.46622721     -5.40011186     -0.00000000
H       4.39986570      5.40225046     -0.00000000
H       4.39986407     -5.40225022     -0.00000000
H       6.86878772      3.98676429      0.00000000
H       6.88200886      1.12155941     -0.00000000
H       6.88200989     -1.12156160      0.00000000
H       6.86878944     -3.98676138      0.00000000
