95
 energy: -113.558034363724 gnorm: 0.000759138314 xtb: 6.7.1 (edcfbbe)
C           -5.59904571186468        1.14121725207648        3.70358115271153
C           -4.27448319313282        0.43498667219947        3.66049310258626
C           -3.09735987507697        1.14797023396143        3.58630040265298
C           -1.82149633866423        0.54602417003722        3.57307455903994
N           -0.75676274830778        1.36102023679136        3.48674891150219
C            0.49883668555498        0.88681201925736        3.54597780934926
C            1.55378229765374        1.82151815472105        3.53561266710387
C            2.87729919399170        1.45122553406055        3.56908389347907
C            3.25907934618815        0.10201016599945        3.60856892171289
N            4.59384475881030       -0.28009960685132        3.55580690754790
C            4.93464313455049       -1.65092096744784        3.86099528802982
C            5.59631091754566        0.70059239501309        3.91155558879523
C            2.22685557880878       -0.84089865798460        3.64595958791828
C            0.89774279790466       -0.46587867835841        3.62043833736120
S           -0.28987039267426       -1.77368450015234        3.68399227635892
C           -1.80388459538289       -0.86469852705838        3.65462796936506
C           -2.97622416046197       -1.59259669117413        3.71150933373058
C           -4.22092812130655       -0.96819769655658        3.70912277035761
N           -5.38041124973329       -1.73913376212034        3.67590338089680
H           -5.45795691219316        2.21710100842673        3.65107518483718
H           -6.12310646527373        0.91833679633635        4.63430215290512
H           -6.23040617841474        0.83034426623797        2.87213289657898
H           -3.11877229515803        2.22626970814157        3.57132995616709
H            1.28147585839829        2.86484020312700        3.52218373968611
H            3.62139170712617        2.22965844547257        3.57901525066140
H            6.00203054105327       -1.79209332367639        3.70546638211374
H            4.41116745175442       -2.32673145263461        3.18666277614916
H            4.69490891365459       -1.92792323572466        4.89554781975785
H            6.57825464983743        0.23481956468828        3.87491615383563
H            5.44532669169179        1.10913689043327        4.91819116720386
H            5.59167035550473        1.51854618102578        3.19122702390621
H            2.43655698778714       -1.89476304155060        3.72632479234331
H           -2.92341772093637       -2.67087600152424        3.77956106995303
H           -5.26605407476561       -2.68112520230686        4.01734159757262
H           -6.20257986270308       -1.28956949966895        4.04573151114910
B           -5.85832440517347        3.41058103793013        0.52974219366558
B           -5.86734486034925        1.72890601478005        0.20529699819897
B           -4.40142529196482        4.24947598672645        0.18084856258104
B           -4.40657438856857        2.56378310443030        0.30897228525201
B           -4.40854505387964        0.86843619745506        0.36402623445267
B           -5.87641212841830       -1.66294331461906        0.20251398750336
B           -5.87607804499437       -3.34416265688020        0.54160962743618
B           -4.41313269725285       -0.81028788412702        0.36667744175576
B           -4.41999052362842       -2.50560675722620        0.30968628220456
B           -4.42454104441557       -4.19090153062447        0.18041641865159
B           -2.93288979178214        3.41206763325911        0.30312429655874
B           -2.93877330395839        1.70960760293436        0.33155341905710
B           -1.46675855904004        4.24014799817944        0.48456970079304
B           -1.47391488524088        2.55600382982330        0.33524604539206
B           -1.48039653382769        0.86295662407745        0.17354774280904
B           -2.94764245896923       -1.65893422447572        0.35221411275173
B           -2.95136965843668       -3.36181867872571        0.28252451840886
B           -1.48491813753507       -0.82071992804723        0.17814266605968
B           -1.48751369235975       -2.51384264738740        0.31914121250506
B           -1.49056460322506       -4.19805237770560        0.47265105895227
B           -0.00561897577047        3.40316214695854        0.28967389313459
B           -0.01093254313638        1.70216820215464        0.24188892132346
B            1.45807232329491        4.23452930261497        0.09861979000163
B            1.45587009512677        2.54875622599819        0.22497672602288
B            1.45127591693140        0.85461946217556        0.25210543869425
B           -0.02075834031126       -1.66789629544609        0.17785695408966
B           -0.02265655543236       -3.36657572240226        0.37978394217557
B            1.44639571057458       -0.82823857929541        0.22254597663165
B            1.44262595985991       -2.52194236555638        0.27330921943139
B            1.43911201658423       -4.20909034856804        0.35141044889357
B            2.92187951960555        3.39630077077081        0.25296018469946
B            2.91857311763453        1.69422062748944        0.20250579365303
B            4.39194260710101        4.22395788939343        0.41487678291228
B            4.38844773991532        2.53955053855759        0.28161783133614
B            4.38148906605797        0.84453320374448        0.22453114641020
B            2.91050054504139       -1.67492775366561        0.28106047769758
B            2.90307650291693       -3.37739259866889        0.19989915912245
B            4.37611309746036       -0.83350755068789        0.16415912544997
B            4.37295912202400       -2.52877429934996        0.14911177651549
B            4.36526066265932       -4.21424438519884        0.04588940163071
B            5.84842506769025        3.38048796004509        0.06465285611981
B            5.84678219211584        1.69558822712753        0.37709408220659
B            5.83253376567565       -1.69317074310594        0.00251714088715
B            5.83369824980638       -3.37605335137637        0.35889602496822
H           -6.77900899739754        3.97421205670303        0.97268462663815
H           -6.82940603585636        1.23358555962516       -0.22647319597740
H           -4.45587726162088        5.34820063644127       -0.21369958993037
H           -6.83358496217132       -1.17535362259629       -0.24888261119923
H           -6.80234996366603       -3.89366874466157        0.99008171742511
H           -4.48671930435721       -5.28451272273186       -0.22786471874883
H           -1.46846186363443        5.38275785686915        0.73183707255300
H           -1.50119911255382       -5.34323586716660        0.71031622888113
H            1.46029359049233        5.38806222427990       -0.09632133085294
H            1.44110974421237       -5.37784744961978        0.40199382560520
H            4.44949506975355        5.31519558524206        0.83030919683903
H            4.40769101654346       -5.30898509467326       -0.36323035503778
H            6.77352660930742        3.94679613578752       -0.36528969507068
H            6.80063386028751        1.18376231380590        0.81131723512057
H            6.78103052603201       -1.20838950587120       -0.47425790656470
H            6.76645234246092       -3.92457496812806        0.79704533600094
