95
 energy: -113.558028811431 gnorm: 0.000907014479 xtb: 6.7.1 (edcfbbe)
C            5.60031507399064       -1.14255576543296        3.70236345477233
C            4.27577170710694       -0.43625606210188        3.65970728813222
C            3.09859928724110       -1.14920823810002        3.58612070446352
C            1.82272193152504       -0.54725069949198        3.57325715707926
N            0.75797872245411       -1.36224681054618        3.48734996246920
C           -0.49761147530362       -0.88796709119626        3.54664825574749
C           -1.55258571409685       -1.82263700943301        3.53620285598441
C           -2.87608516469504       -1.45230171771664        3.56966645899534
C           -3.25782374885977       -0.10307016464764        3.60932355728859
N           -4.59256538970258        0.27895299292072        3.55659733945192
C           -4.93349954904801        1.64995101405155        3.86072712171148
C           -5.59497971946587       -0.70166754469334        3.91272285315368
C           -2.22556710889705        0.83979752194488        3.64687471229616
C           -0.89648311525904        0.46471390838373        3.62125050154140
S            0.29118506069218        1.77251819115477        3.68483945224028
C            1.80520119087211        0.86348145070300        3.65462787461392
C            2.97757843335823        1.59134243475140        3.71091699037925
C            4.22227965750100        0.96693771727007        3.70808836094867
N            5.38178531697331        1.73788299316873        3.67425606107519
H            5.45914866376603       -2.21843506593457        3.64989796745411
H            6.12471358832205       -0.91971786280533        4.63290449390462
H            6.23143771620988       -0.83173297766494        2.87069854609226
H            3.11998525643262       -2.22751615526686        3.57133555595767
H           -1.28031828581667       -2.86596908976547        3.52257976426866
H           -3.62024157044996       -2.23067225205998        3.57934269820338
H           -6.00075757803663        1.79107652384460        3.70428620057059
H           -4.40945922179058        2.32530704384015        3.18639624690146
H           -4.69452782253053        1.92755390621233        4.89529267145656
H           -6.57677554114600       -0.23558682639623        3.87763034661612
H           -5.44293711775242       -1.11101233024661        4.91882307827515
H           -5.59148658037508       -1.51906827167073        3.19178254940698
H           -2.43523208359103        1.89365752189424        3.72744168610095
H            2.92482354546815        2.66963690294455        3.77887737148658
H            5.26747942238401        2.67989687548800        4.01566320255568
H            6.20398538935090        1.28828611463667        4.04398939226760
B           -5.83289584169245        3.37664997716503        0.36003569904535
B           -5.83175510792041        1.69362007834385        0.00239363087909
B           -4.36717263063885        4.21489656458214        0.04642944407851
B           -4.37480702606871        2.52942430376055        0.14938305421065
B           -4.37795693914968        0.83412990764094        0.16406668123331
B           -5.84592909443873       -1.69486937780420        0.37842612117344
B           -5.84752323753832       -3.37991583171308        0.06453268948457
B           -4.38332128760791       -0.84393832785381        0.22526539484780
B           -4.39021022976328       -2.53897547137925        0.28206297406252
B           -4.39369682684309       -4.22339270963781        0.41513167278435
B           -2.90240176362586        3.37796267263757        0.19852688922263
B           -2.90980789546326        1.67552620428213        0.28159244418862
B           -1.44093056211729        4.20983292485105        0.34795023335765
B           -1.44445212719707        2.52262428407506        0.27239849583632
B           -1.44824971008600        0.82889343508033        0.22322206835497
B           -2.91782897004387       -1.69356467846261        0.20252200877765
B           -2.92112835684856       -3.39562137488518        0.25466302519911
B           -1.45310575585614       -0.85396524958611        0.25283794110823
B           -1.45763706664543       -2.54811972568660        0.22548659917676
B           -1.45986597715624       -4.23390047348491        0.09917188781746
B            0.02333903301439        3.36727604784929        0.37904947109798
B            0.02146461752718        1.66855448493405        0.17822668526657
B            1.48865448104534        4.19867649497417        0.47417322481489
B            1.48567862406478        2.51452099472256        0.31937009565074
B            1.48307480372027        0.82140947188093        0.17749825989337
B            0.01167956091386       -1.70149330865382        0.24308598520694
B            0.00642464739852       -3.40250223280925        0.28852489494591
B            1.47856960422648       -0.86226239029911        0.17317034105454
B            1.47216331527880       -2.55527951785339        0.33545522753652
B            1.46499238337479       -4.23941438865784        0.48498812983810
B            2.95201641606767        3.36258680706982        0.28409699207273
B            2.94837084097914        1.65969422707914        0.35080512463532
B            4.42265629819910        4.19160035398267        0.17984388350933
B            4.41815357600618        2.50630029142883        0.30960796493919
B            4.41128930006235        0.81100789226837        0.36639379917396
B            2.93955141260688       -1.70893030870536        0.33020057322947
B            2.93363590581398       -3.41139290801388        0.30474111986289
B            4.40672704985135       -0.86766783144616        0.36371191984043
B            4.40481407835480       -2.56298894949525        0.30907856573567
B            4.39966756233989       -4.24870238639710        0.18083094301448
B            5.87691189572482        3.34492844220759        0.54033541476697
B            5.87720117955308        1.66381592714059        0.20285011615648
B            5.86817170932957       -1.72826981801929        0.20557992075350
B            5.85925067179566       -3.40980095820782        0.52876995475478
H           -6.76797000681540        3.92238987735059        0.79676383214739
H           -6.78269131504157        1.21050681586384       -0.47124532750632
H           -4.40828901757443        5.30943875332481       -0.36335663312556
H           -6.80204559471316       -1.18504861023613        0.81012064084839
H           -6.77520028001338       -3.94329452227627       -0.36380689813623
H           -4.44987362325347       -5.31424741935095        0.83177514661519
H           -1.44121163872264        5.37882670876721        0.39509376870968
H           -1.46072017904417       -5.38750214984943       -0.09535592304530
H            1.50065406070362        5.34356934788379        0.71318684409580
H            1.46797538573274       -5.38195261700613        0.73258363332869
H            4.48591497078177        5.28559468334295       -0.22723218550136
H            4.45523525145021       -5.34793621181588       -0.21213238310994
H            6.80076335465776        3.89731287578993        0.99013317054350
H            6.83206313667876        1.17439850980120       -0.25133421864696
H            6.82796149849008       -1.23110642822639       -0.22895662751039
H            6.77759828929583       -3.97603436032648        0.97316893383947
