93
Tideglusib/B40H15 GFN2 opt
O       0.22261368     -3.64749948      5.43470187
C       0.90407429     -2.65977391      5.37801852
S       1.91626078     -2.21883245      3.95553628
C       2.44371458     -0.71015721      4.74071512
O       3.16787947      0.11875794      4.23511320
N       1.90462504     -0.65256034      5.96985878
C       2.16500599      0.41545818      6.91353798
C       0.95542189      1.29383297      7.10950717
C       0.35970300      1.88398521      6.00281536
C      -0.77785730      2.65657639      6.14560554
C      -1.32638722      2.84530901      7.40243470
C      -0.72585429      2.27561641      8.51253765
C       0.41254268      1.50291849      8.36871137
N       1.06553134     -1.71150490      6.32144290
C       0.18503939     -1.58238061      7.43335624
C       0.63148188     -1.94140177      8.69059621
C      -0.20771901     -1.78825428      9.79026168
C      -1.47640344     -1.28145823      9.62862646
C      -1.96337843     -0.92586270      8.35372641
C      -3.26101538     -0.41339056      8.16780167
C      -3.71602409     -0.08277205      6.91397745
C      -2.89553419     -0.25056461      5.79906758
C      -1.61785105     -0.73620929      5.94857073
C      -1.12417734     -1.08479804      7.21716504
H       2.48477448     -0.01883679      7.86455615
H       2.99148347      0.98665963      6.48001646
H       0.78821829      1.73746281      5.02282453
H      -1.23378497      3.09928276      5.27468513
H      -2.22138296      3.43664852      7.51839477
H      -1.14872245      2.42341746      9.49449356
H       0.86991170      1.04964507      9.23568232
H       1.62683271     -2.34307923      8.81192076
H       0.14627452     -2.06883660     10.77103050
H      -2.12422704     -1.15573699     10.48336770
H      -3.89612966     -0.29013302      9.03294557
H      -4.71471482      0.30559340      6.78359541
H      -3.26769099      0.00521218      4.81979024
H      -0.99431209     -0.86232809      5.07544263
B      -3.69843883     -3.66997539      1.57253261
B      -3.82466012     -2.28012749      0.81816773
B      -4.03708849     -1.02890658     -0.26160759
B      -2.34861998     -3.29841532      0.77165129
B      -2.71012319     -0.37336065      0.22700937
B      -3.98851928     -0.65485947      1.49932469
B      -4.91130635      0.16840581      2.52112373
B      -4.85069593      1.80219531      2.65396689
B      -2.46816257     -0.18156240      1.86288648
B      -3.61471670      2.44997198      3.49525115
B      -0.89946501     -4.07490979      0.52389341
B      -0.99936652     -2.49577126      0.36810214
B      -1.20666222     -0.88838130      0.65613452
B       0.48643690     -3.12107837      0.27374641
B       0.15070747     -0.12864132      1.13585628
B      -0.92763608     -0.32291764      2.38128711
B      -1.70306796      1.14885093      2.47901671
B      -2.28585481      2.61632163      2.61633982
B      -0.01541621      0.93738876      2.58066221
B      -1.48971327      3.98445511      2.17026810
B       2.07993850     -3.63819383      0.17696040
B       1.78719243     -2.06714633      0.29823935
B       1.68405163     -0.50534359      0.61835441
B       3.30809122     -2.63477021      0.64887648
B       2.86693880      0.58088499      0.81922363
B       1.42479832      0.87697178      1.52689817
B       0.99886207      2.24439267      2.43880606
B      -0.01004019      3.45402914      2.12240098
B       2.25373070      2.30179329      1.32165193
B       0.56018150      3.21719523      0.56505511
B       4.62318829     -2.91586774      1.65491830
B       4.49737115     -1.53175852      0.80372900
B       4.45587045      0.06768953      0.59518639
B       5.58357311     -1.65698486      1.94117851
B       5.44424824      1.29525178      0.05542443
B       4.12698292      1.66609710      0.92681974
B       3.52808322      3.36578092      1.00102955
B       2.05646193      3.74672371      0.30197098
B       5.08644280      2.93487009      0.61835359
B       3.31433645      4.59495894      0.00494306
H      -3.94174450     -4.40930052      2.44630569
H      -4.75285141     -3.25660599      0.94133109
H      -4.89950602     -0.96939488     -1.06274238
H      -5.58393606     -0.41126861      3.30980071
H      -5.71910634      2.45798381      2.19748707
H      -3.73854947      2.63217699      4.65426284
H      -0.80967666     -5.24062832      0.48653871
H      -1.96420197      5.02148165      1.87552547
H       2.31109005     -4.72408253     -0.19427815
H      -0.09138398      2.69966781     -0.27759135
H       4.75359809     -3.95079464      2.18365004
H       6.46461644     -1.22179622      2.56476890
H       6.48124768      1.19134486     -0.47690172
H       6.03308176      3.61668201      0.73183579
H       3.85529616      5.49381030     -0.50662216
