21
Tideglusib - ETKDG+MMFF conformer
O     -4.409046      0.306690     -1.077905
C     -3.319207      0.268668     -0.528894
N     -2.947675      0.824919      0.664349
C     -1.633180      0.721055      1.026116
O     -1.169702      1.299458      1.997482
N     -0.920410     -0.110795      0.146292
C      0.497312     -0.153411      0.086207
C      1.266629      1.012411      0.152505
C      2.656813      0.945645      0.032330
C      3.282795     -0.283093     -0.169876
C      2.520384     -1.446167     -0.256482
C      1.130866     -1.380779     -0.135597
S     -1.851353     -0.514518     -1.187900
O     -2.072602     -1.944531     -1.209375
O     -1.428424      0.254337     -2.338575
H     -3.579446      1.398612      1.197127
H      0.802086      1.984012      0.296773
H      3.250831      1.854399      0.091711
H      4.364756     -0.333363     -0.265824
H      3.006448     -2.404518     -0.422249
H      0.552122     -2.299031     -0.209440
