      -----------------------------------------------------------      
     |                   =====================                   |     
     |                           x T B                           |     
     |                   =====================                   |     
     |                         S. Grimme                         |     
     |          Mulliken Center for Theoretical Chemistry        |     
     |                    University of Bonn                     |     
      -----------------------------------------------------------      

   * xtb version 6.7.1pre (5071a88) compiled by 'Marcel@Raven' on 2024-07-23

   xtb is free software: you can redistribute it and/or modify it under
   the terms of the GNU Lesser General Public License as published by
   the Free Software Foundation, either version 3 of the License, or
   (at your option) any later version.
   
   xtb is distributed in the hope that it will be useful,
   but WITHOUT ANY WARRANTY; without even the implied warranty of
   MERCHANTABILITY or FITNESS FOR A PARTICULAR PURPOSE.  See the
   GNU Lesser General Public License for more details.
   
   Cite this work as:
   * C. Bannwarth, E. Caldeweyher, S. Ehlert, A. Hansen, P. Pracht,
     J. Seibert, S. Spicher, S. Grimme, WIREs Comput. Mol. Sci., 2020, 11,
     e01493. DOI: 10.1002/wcms.1493
   
   for GFN2-xTB:
   * C. Bannwarth, S. Ehlert and S. Grimme., J. Chem. Theory Comput., 2019,
     15, 1652-1671. DOI: 10.1021/acs.jctc.8b01176
   for GFN1-xTB:
   * S. Grimme, C. Bannwarth, P. Shushkov, J. Chem. Theory Comput., 2017,
     13, 1989-2009. DOI: 10.1021/acs.jctc.7b00118
   for GFN0-xTB:
   * P. Pracht, E. Caldeweyher, S. Ehlert, S. Grimme, ChemRxiv, 2019, preprint.
     DOI: 10.26434/chemrxiv.8326202.v1
   for GFN-FF:
   * S. Spicher and S. Grimme, Angew. Chem. Int. Ed., 2020, 59, 15665-15673.
     DOI: 10.1002/anie.202004239
   
   for ALPB and GBSA implicit solvation:
   * S. Ehlert, M. Stahn, S. Spicher, S. Grimme, J. Chem. Theory Comput.,
     2021, 17, 4250-4261. DOI: 10.1021/acs.jctc.1c00471
   
   for ddCOSMO and CPCM-X implicit solvation:
   * M. Stahn, S. Ehlert, S. Grimme, J. Phys. Chem. A,
     2023, XX, XXXX-XXXX. DOI: 10.1021/acs.jpca.3c04382
   
   for DFT-D4:
   * E. Caldeweyher, C. Bannwarth and S. Grimme, J. Chem. Phys., 2017,
     147, 034112. DOI: 10.1063/1.4993215
   * E. Caldeweyher, S. Ehlert, A. Hansen, H. Neugebauer, S. Spicher,
     C. Bannwarth and S. Grimme, J. Chem. Phys., 2019, 150, 154122.
     DOI: 10.1063/1.5090222
   * E. Caldeweyher, J.-M. Mewes, S. Ehlert and S. Grimme, Phys. Chem. Chem. Phys.
     2020, 22, 8499-8512. DOI: 10.1039/D0CP00502A
   
   for sTDA-xTB:
   * S. Grimme and C. Bannwarth, J. Chem. Phys., 2016, 145, 054103.
     DOI: 10.1063/1.4959605
   
   in the mass-spec context:
   * V. Asgeirsson, C. Bauer and S. Grimme, Chem. Sci., 2017, 8, 4879.
     DOI: 10.1039/c7sc00601b
   * J. Koopman and S. Grimme, ACS Omega 2019, 4, 12, 15120-15133.
     DOI: 10.1021/acsomega.9b02011
   
   for metadynamics refer to:
   * S. Grimme, J. Chem. Theory Comput., 2019, 155, 2847-2862
     DOI: 10.1021/acs.jctc.9b00143
   
   for SPH calculations refer to:
   * S. Spicher and S. Grimme, J. Chem. Theory Comput., 2021, 17, 1701-1714
     DOI: 10.1021/acs.jctc.0c01306
   
   for ONIOM refer to:
   * C. Plett, A. Katbashev, S. Ehlert, S. Grimme, M. Bursch,
     Phys. Chem. Chem. Phys., 2023, 25, 17860-17868. DOI: 10.1039/D3CP02178E
   
   for DIPRO refer to:
   * J. Kohn, N. Gildemeister, S. Grimme, D. Fazzi, A. Hansen,
     J. Chem. Phys., 2023, just accepted.
   
   for PTB refer to:
   * S. Grimme, M. Mueller, A. Hansen, J. Chem. Phys., 2023, 158, 124111.
     DOI: 10.1063/5.0137838
   
   with help from (in alphabetical order)
   P. Atkinson, C. Bannwarth, F. Bohle, G. Brandenburg, E. Caldeweyher
   M. Checinski, S. Dohm, S. Ehlert, S. Ehrlich, I. Gerasimov, C. Hölzer
   A. Katbashev, J. Kohn, J. Koopman, C. Lavigne, S. Lehtola, F. März, M. Müller,
   F. Musil, H. Neugebauer, J. Pisarek, C. Plett, P. Pracht, F. Pultar,
   J. Seibert, P. Shushkov, S. Spicher, M. Stahn, M. Steiner, T. Strunk,
   J. Stückrath, T. Rose, and J. Unsleber
   
 * started run on 2026/08/31 at 20:23:54.663     
   ID    Z sym.   atoms
    1    8 O      1, 5, 14, 15
    2    6 C      2, 4, 7-12
    3    7 N      3, 6
    4   16 S      13
    5    1 H      16-21

           -------------------------------------------------
          |                Calculation Setup                |
           -------------------------------------------------

          program call               : "c:\Users\Andre\Proyectos doctorado\kras-pancreatic-gC3N4-ai\tools\xtb\xtb-6.7.1\bin\xtb.exe" "c:\Users\Andre\Proyectos doctorado\borophene-alzheimer-tau-ai\calculations\tau\Tideglusib\Tideglusib_drug.xyz" --gfn 2 --sp --chrg 0 --uhf 0 --iterations 500 --norestart
          coordinate file            : c:\Users\Andre\Proyectos doctorado\borophene-alzheimer-tau-ai\calculations\tau\Tideglusib\Tideglusib_drug.xyz
          omp threads                :                    16


           -------------------------------------------------
          |                 G F N 2 - x T B                 |
           -------------------------------------------------

        Reference                      10.1021/acs.jctc.8b01176
      * Hamiltonian:
        H0-scaling (s, p, d)           1.850000    2.230000    2.230000
        zeta-weighting                 0.500000
      * Dispersion:
        s8                             2.700000
        a1                             0.520000
        a2                             5.000000
        s9                             5.000000
      * Repulsion:
        kExp                           1.500000    1.000000
        rExp                           1.000000
      * Coulomb:
        alpha                          2.000000
        third order                    shell-resolved
        anisotropic                    true
        a3                             3.000000
        a5                             4.000000
        cn-shift                       1.200000
        cn-exp                         4.000000
        max-rad                        5.000000


          ...................................................
          :                      SETUP                      :
          :.................................................:
          :  # basis functions                  72          :
          :  # atomic orbitals                  71          :
          :  # shells                           37          :
          :  # electrons                        78          :
          :  max. iterations                   500          :
          :  Hamiltonian                  GFN2-xTB          :
          :  restarted?                      false          :
          :  GBSA solvation                  false          :
          :  PC potential                    false          :
          :  electronic temp.          300.0000000     K    :
          :  accuracy                    1.0000000          :
          :  -> integral cutoff          0.2500000E+02      :
          :  -> integral neglect         0.1000000E-07      :
          :  -> SCF convergence          0.1000000E-05 Eh   :
          :  -> wf. convergence          0.1000000E-03 e    :
          :  Broyden damping             0.4000000          :
          :  net charge                          0          :
          :  unpaired electrons                  0          :
          ...................................................

 iter      E             dE          RMSdq      gap      omega  full diag
   1    -45.9204699 -0.459205E+02  0.649E+00    3.43       0.0  T
   2    -46.0246619 -0.104192E+00  0.401E+00    3.00       1.0  T
   3    -46.0256324 -0.970520E-03  0.193E+00    2.93       1.0  T
   4    -46.0432358 -0.176034E-01  0.558E-01    2.43       1.0  T
   5    -46.0445179 -0.128209E-02  0.320E-01    2.55       1.0  T
   6    -46.0448186 -0.300704E-03  0.134E-01    2.57       1.0  T
   7    -46.0449076 -0.889773E-04  0.796E-02    2.57       1.0  T
   8    -46.0449398 -0.322244E-04  0.367E-02    2.58       1.0  T
   9    -46.0449445 -0.474666E-05  0.997E-03    2.58       2.2  T
  10    -46.0449454 -0.864811E-06  0.391E-03    2.58       5.6  T
  11    -46.0449454 -0.691944E-08  0.114E-03    2.58      19.2  T
  12    -46.0449454 -0.745354E-08  0.497E-04    2.58      43.9  T
  13    -46.0449454 -0.237274E-08  0.230E-04    2.58      94.7  T

   *** convergence criteria satisfied after 13 iterations ***

         #    Occupation            Energy/Eh            Energy/eV
      -------------------------------------------------------------
         1        2.0000           -0.8308278             -22.6080
       ...           ...                  ...                  ...
        33        2.0000           -0.4768370             -12.9754
        34        2.0000           -0.4720256             -12.8445
        35        2.0000           -0.4605589             -12.5324
        36        2.0000           -0.4500627             -12.2468
        37        2.0000           -0.4439540             -12.0806
        38        2.0000           -0.4302922             -11.7088
        39        2.0000           -0.4232111             -11.5162 (HOMO)
        40                         -0.3284059              -8.9364 (LUMO)
        41                         -0.2627825              -7.1507
        42                         -0.2536423              -6.9020
        43                         -0.2425185              -6.5993
        44                         -0.2100911              -5.7169
       ...                                ...                  ...
        71                          1.0804983              29.4019
      -------------------------------------------------------------
                  HL-Gap            0.0948052 Eh            2.5798 eV
             Fermi-level           -0.3758085 Eh          -10.2263 eV

 SCC (total)                   0 d,  0 h,  0 min,  0.015 sec
 SCC setup                      ...        0 min,  0.000 sec (  0.000%)
 Dispersion                     ...        0 min,  0.000 sec (  0.000%)
 classical contributions        ...        0 min,  0.000 sec (  0.000%)
 integral evaluation            ...        0 min,  0.001 sec (  6.668%)
 iterations                     ...        0 min,  0.012 sec ( 79.998%)
 molecular gradient             ...        0 min,  0.002 sec ( 13.334%)
 printout                       ...        0 min,  0.000 sec (  0.000%)

         :::::::::::::::::::::::::::::::::::::::::::::::::::::
         ::                     SUMMARY                     ::
         :::::::::::::::::::::::::::::::::::::::::::::::::::::
         :: total energy             -45.549795190831 Eh    ::
         :: gradient norm              0.121282604136 Eh/a0 ::
         :: HOMO-LUMO gap              2.579781835348 eV    ::
         ::.................................................::
         :: SCC energy               -46.044857806364 Eh    ::
         :: -> isotropic ES            0.109806212208 Eh    ::
         :: -> anisotropic ES         -0.003683829716 Eh    ::
         :: -> anisotropic XC          0.011119926076 Eh    ::
         :: -> dispersion             -0.025178022922 Eh    ::
         :: repulsion energy           0.495062615533 Eh    ::
         :: add. restraining           0.000000000000 Eh    ::
         :: total charge              -0.000000000000 e     ::
         :::::::::::::::::::::::::::::::::::::::::::::::::::::

           -------------------------------------------------
          |                Property Printout                |
           -------------------------------------------------

    * Orbital Energies and Occupations

         #    Occupation            Energy/Eh            Energy/eV
      -------------------------------------------------------------
         1        2.0000           -0.8308278             -22.6080
       ...           ...                  ...                  ...
        27        2.0000           -0.5118433             -13.9280
        28        2.0000           -0.5050159             -13.7422
        29        2.0000           -0.5024855             -13.6733
        30        2.0000           -0.4998773             -13.6024
        31        2.0000           -0.4986770             -13.5697
        32        2.0000           -0.4915128             -13.3747
        33        2.0000           -0.4768370             -12.9754
        34        2.0000           -0.4720256             -12.8445
        35        2.0000           -0.4605589             -12.5324
        36        2.0000           -0.4500627             -12.2468
        37        2.0000           -0.4439540             -12.0806
        38        2.0000           -0.4302922             -11.7088
        39        2.0000           -0.4232111             -11.5162 (HOMO)
        40                         -0.3284059              -8.9364 (LUMO)
        41                         -0.2627825              -7.1507
        42                         -0.2536423              -6.9020
        43                         -0.2425185              -6.5993
        44                         -0.2100911              -5.7169
        45                         -0.1617757              -4.4021
        46                         -0.1344553              -3.6587
        47                         -0.1045174              -2.8441
        48                         -0.0363971              -0.9904
        49                         -0.0237204              -0.6455
        50                          0.0255304               0.6947
       ...                                ...                  ...
        71                          1.0804983              29.4019
      -------------------------------------------------------------
                  HL-Gap            0.0948052 Eh            2.5798 eV
             Fermi-level           -0.3758085 Eh          -10.2263 eV

     #   Z          covCN         q      C6AA      α(0)
     1   8 O        0.864    -0.298    19.746     5.958
     2   6 C        2.773     0.186    24.011     8.025
     3   7 N        2.829    -0.167    24.614     7.369
     4   6 C        2.913     0.332    21.381     7.582
     5   8 O        0.858    -0.372    21.134     6.164
     6   7 N        2.751    -0.259    26.713     7.676
     7   6 C        2.961     0.078    26.249     8.404
     8   6 C        2.914    -0.031    28.770     8.796
     9   6 C        2.911    -0.022    28.565     8.764
    10   6 C        2.912    -0.026    28.646     8.776
    11   6 C        2.911    -0.022    28.559     8.763
    12   6 C        2.916    -0.041    29.015     8.833
    13  16 S        4.008     1.162   102.115    17.008
    14   8 O        0.860    -0.521    24.252     6.603
    15   8 O        0.860    -0.528    24.421     6.626
    16   1 H        0.860     0.252     0.875     1.465
    17   1 H        0.925     0.055     2.253     2.347
    18   1 H        0.925     0.056     2.243     2.342
    19   1 H        0.925     0.053     2.284     2.363
    20   1 H        0.925     0.056     2.244     2.343
    21   1 H        0.925     0.057     2.237     2.339

 Mol. C6AA /au·bohr⁶  :       7872.220375
 Mol. C8AA /au·bohr⁸  :     206100.131490
 Mol. α(0) /au        :        138.545473


Wiberg/Mayer (AO) data.
largest (>0.10) Wiberg bond orders for each atom

 ---------------------------------------------------------------------------
     #   Z sym  total        # sym  WBO       # sym  WBO       # sym  WBO
 ---------------------------------------------------------------------------
     1   8 O    2.132 --     2 C    1.800     3 N    0.175
     2   6 C    3.955 --     1 O    1.800     3 N    1.202    13 S    0.704
     3   7 N    3.518 --     2 C    1.202     4 C    1.080    16 H    0.898
                             1 O    0.175     5 O    0.101
     4   6 C    3.959 --     5 O    1.692     6 N    1.115     3 N    1.080
     5   8 O    2.053 --     4 C    1.692     6 N    0.149     3 N    0.101
     6   7 N    3.398 --     4 C    1.115     7 C    0.974    13 S    0.849
                             5 O    0.149
     7   6 C    3.930 --     8 C    1.395    12 C    1.393     6 N    0.974
                            10 C    0.103
     8   6 C    3.986 --     9 C    1.440     7 C    1.395    17 H    0.968
                            11 C    0.111
     9   6 C    3.988 --     8 C    1.440    10 C    1.439    18 H    0.969
                            12 C    0.111
    10   6 C    3.988 --     9 C    1.439    11 C    1.437    19 H    0.969
                             7 C    0.103
    11   6 C    3.989 --    12 C    1.443    10 C    1.437    20 H    0.969
                             8 C    0.111
    12   6 C    3.986 --    11 C    1.443     7 C    1.393    21 H    0.967
                             9 C    0.111
    13  16 S    4.944 --    14 O    1.637    15 O    1.630     6 N    0.849
                             2 C    0.704
    14   8 O    1.970 --    13 S    1.637    15 O    0.134
    15   8 O    1.966 --    13 S    1.630    14 O    0.134
    16   1 H    0.936 --     3 N    0.898
    17   1 H    0.997 --     8 C    0.968
    18   1 H    0.996 --     9 C    0.969
    19   1 H    0.997 --    10 C    0.969
    20   1 H    0.996 --    11 C    0.969
    21   1 H    0.997 --    12 C    0.967
 ---------------------------------------------------------------------------

Topologies differ in total number of bonds
Writing topology from bond orders to xtbtopo.mol

molecular dipole:
                 x           y           z       tot (Debye)
 q only:        0.973       0.378       0.843
   full:        0.786       0.481       0.906       3.286
molecular quadrupole (traceless):
                xx          xy          yy          xz          yz          zz
 q only:        8.538      -7.124       1.668     -11.178      -2.179     -10.206
  q+dip:        9.065      -8.640       5.464     -14.633      -2.549     -14.529
   full:        7.906      -8.481       4.142     -14.372      -3.585     -12.048


           -------------------------------------------------
          | TOTAL ENERGY              -45.549795190831 Eh   |
          | GRADIENT NORM               0.121282604136 Eh/α |
          | HOMO-LUMO GAP               2.579781835348 eV   |
           -------------------------------------------------

------------------------------------------------------------------------
 * finished run on 2026/08/31 at 20:23:54.703     
------------------------------------------------------------------------
 total:
 * wall-time:     0 d,  0 h,  0 min,  0.038 sec
 *  cpu-time:     0 d,  0 h,  0 min,  0.422 sec
 * ratio c/w:    11.102 speedup
 SCF:
 * wall-time:     0 d,  0 h,  0 min,  0.017 sec
 *  cpu-time:     0 d,  0 h,  0 min,  0.250 sec
 * ratio c/w:    14.706 speedup

normal termination of xtb
