81
Drug@B48H12 complex
O     -4.409046      0.306690      2.422095
C     -3.319207      0.268668      2.971106
N     -2.947675      0.824919      4.164349
C     -1.633180      0.721055      4.526116
O     -1.169702      1.299458      5.497482
N     -0.920410     -0.110795      3.646292
C      0.497312     -0.153411      3.586207
C      1.266629      1.012411      3.652505
C      2.656813      0.945645      3.532330
C      3.282795     -0.283093      3.330124
C      2.520384     -1.446167      3.243518
C      1.130866     -1.380779      3.364403
S     -1.851353     -0.514518      2.312100
O     -2.072602     -1.944531      2.290625
O     -1.428424      0.254337      1.161425
H     -3.579446      1.398612      4.697127
H      0.802086      1.984012      3.796773
H      3.250831      1.854399      3.591711
H      4.364756     -0.333363      3.234176
H      3.006448     -2.404518      3.077751
H      0.552122     -2.299031      3.290560
B     -7.500000     -4.500000      0.000000
B     -4.500000     -4.500000      0.000000
B     -1.500000     -4.500000      0.000000
B      1.500000     -4.500000      0.000000
B      4.500000     -4.500000      0.000000
B      7.500000     -4.500000      0.000000
B     -7.500000     -3.000000      0.000000
B     -4.500000     -3.000000      0.000000
B     -1.500000     -3.000000      0.000000
B      1.500000     -3.000000      0.000000
B      4.500000     -3.000000      0.000000
B      7.500000     -3.000000      0.000000
B     -7.500000     -1.500000      0.000000
B     -4.500000     -1.500000      0.000000
B     -1.500000     -1.500000      0.000000
B      1.500000     -1.500000      0.000000
B      4.500000     -1.500000      0.000000
B      7.500000     -1.500000      0.000000
B     -7.500000      0.000000      0.000000
B     -4.500000      0.000000      0.000000
B     -1.500000      0.000000      0.000000
B      1.500000      0.000000      0.000000
B      4.500000      0.000000      0.000000
B      7.500000      0.000000      0.000000
B     -7.500000      1.500000      0.000000
B     -4.500000      1.500000      0.000000
B     -1.500000      1.500000      0.000000
B      1.500000      1.500000      0.000000
B      4.500000      1.500000      0.000000
B      7.500000      1.500000      0.000000
B     -7.500000      3.000000      0.000000
B     -4.500000      3.000000      0.000000
B     -1.500000      3.000000      0.000000
B      1.500000      3.000000      0.000000
B      4.500000      3.000000      0.000000
B      7.500000      3.000000      0.000000
B     -7.500000      4.500000      0.000000
B     -4.500000      4.500000      0.000000
B     -1.500000      4.500000      0.000000
B      1.500000      4.500000      0.000000
B      4.500000      4.500000      0.000000
B      7.500000      4.500000      0.000000
B     -6.000000     -3.750000      0.000000
B     -3.000000     -3.750000      0.000000
B      0.000000     -3.750000      0.000000
B      3.000000     -3.750000      0.000000
B      6.000000     -3.750000      0.000000
B     -6.000000      3.750000      0.000000
B     -3.000000      3.750000      0.000000
B      0.000000      3.750000      0.000000
B      3.000000      3.750000      0.000000
B      6.000000      3.750000      0.000000
B     -6.000000      0.000000      0.000000
H     -8.600000     -4.500000      0.000000
H     -8.600000     -1.500000      0.000000
H     -8.600000      1.500000      0.000000
H     -8.600000      4.500000      0.000000
H      8.600000     -4.500000      0.000000
H      8.600000     -1.500000      0.000000
H      8.600000      1.500000      0.000000
