      -----------------------------------------------------------      
     |                   =====================                   |     
     |                           x T B                           |     
     |                   =====================                   |     
     |                         S. Grimme                         |     
     |          Mulliken Center for Theoretical Chemistry        |     
     |                    University of Bonn                     |     
      -----------------------------------------------------------      

   * xtb version 6.7.1pre (5071a88) compiled by 'Marcel@Raven' on 2024-07-23

   xtb is free software: you can redistribute it and/or modify it under
   the terms of the GNU Lesser General Public License as published by
   the Free Software Foundation, either version 3 of the License, or
   (at your option) any later version.
   
   xtb is distributed in the hope that it will be useful,
   but WITHOUT ANY WARRANTY; without even the implied warranty of
   MERCHANTABILITY or FITNESS FOR A PARTICULAR PURPOSE.  See the
   GNU Lesser General Public License for more details.
   
   Cite this work as:
   * C. Bannwarth, E. Caldeweyher, S. Ehlert, A. Hansen, P. Pracht,
     J. Seibert, S. Spicher, S. Grimme, WIREs Comput. Mol. Sci., 2020, 11,
     e01493. DOI: 10.1002/wcms.1493
   
   for GFN2-xTB:
   * C. Bannwarth, S. Ehlert and S. Grimme., J. Chem. Theory Comput., 2019,
     15, 1652-1671. DOI: 10.1021/acs.jctc.8b01176
   for GFN1-xTB:
   * S. Grimme, C. Bannwarth, P. Shushkov, J. Chem. Theory Comput., 2017,
     13, 1989-2009. DOI: 10.1021/acs.jctc.7b00118
   for GFN0-xTB:
   * P. Pracht, E. Caldeweyher, S. Ehlert, S. Grimme, ChemRxiv, 2019, preprint.
     DOI: 10.26434/chemrxiv.8326202.v1
   for GFN-FF:
   * S. Spicher and S. Grimme, Angew. Chem. Int. Ed., 2020, 59, 15665-15673.
     DOI: 10.1002/anie.202004239
   
   for ALPB and GBSA implicit solvation:
   * S. Ehlert, M. Stahn, S. Spicher, S. Grimme, J. Chem. Theory Comput.,
     2021, 17, 4250-4261. DOI: 10.1021/acs.jctc.1c00471
   
   for ddCOSMO and CPCM-X implicit solvation:
   * M. Stahn, S. Ehlert, S. Grimme, J. Phys. Chem. A,
     2023, XX, XXXX-XXXX. DOI: 10.1021/acs.jpca.3c04382
   
   for DFT-D4:
   * E. Caldeweyher, C. Bannwarth and S. Grimme, J. Chem. Phys., 2017,
     147, 034112. DOI: 10.1063/1.4993215
   * E. Caldeweyher, S. Ehlert, A. Hansen, H. Neugebauer, S. Spicher,
     C. Bannwarth and S. Grimme, J. Chem. Phys., 2019, 150, 154122.
     DOI: 10.1063/1.5090222
   * E. Caldeweyher, J.-M. Mewes, S. Ehlert and S. Grimme, Phys. Chem. Chem. Phys.
     2020, 22, 8499-8512. DOI: 10.1039/D0CP00502A
   
   for sTDA-xTB:
   * S. Grimme and C. Bannwarth, J. Chem. Phys., 2016, 145, 054103.
     DOI: 10.1063/1.4959605
   
   in the mass-spec context:
   * V. Asgeirsson, C. Bauer and S. Grimme, Chem. Sci., 2017, 8, 4879.
     DOI: 10.1039/c7sc00601b
   * J. Koopman and S. Grimme, ACS Omega 2019, 4, 12, 15120-15133.
     DOI: 10.1021/acsomega.9b02011
   
   for metadynamics refer to:
   * S. Grimme, J. Chem. Theory Comput., 2019, 155, 2847-2862
     DOI: 10.1021/acs.jctc.9b00143
   
   for SPH calculations refer to:
   * S. Spicher and S. Grimme, J. Chem. Theory Comput., 2021, 17, 1701-1714
     DOI: 10.1021/acs.jctc.0c01306
   
   for ONIOM refer to:
   * C. Plett, A. Katbashev, S. Ehlert, S. Grimme, M. Bursch,
     Phys. Chem. Chem. Phys., 2023, 25, 17860-17868. DOI: 10.1039/D3CP02178E
   
   for DIPRO refer to:
   * J. Kohn, N. Gildemeister, S. Grimme, D. Fazzi, A. Hansen,
     J. Chem. Phys., 2023, just accepted.
   
   for PTB refer to:
   * S. Grimme, M. Mueller, A. Hansen, J. Chem. Phys., 2023, 158, 124111.
     DOI: 10.1063/5.0137838
   
   with help from (in alphabetical order)
   P. Atkinson, C. Bannwarth, F. Bohle, G. Brandenburg, E. Caldeweyher
   M. Checinski, S. Dohm, S. Ehlert, S. Ehrlich, I. Gerasimov, C. Hölzer
   A. Katbashev, J. Kohn, J. Koopman, C. Lavigne, S. Lehtola, F. März, M. Müller,
   F. Musil, H. Neugebauer, J. Pisarek, C. Plett, P. Pracht, F. Pultar,
   J. Seibert, P. Shushkov, S. Spicher, M. Stahn, M. Steiner, T. Strunk,
   J. Stückrath, T. Rose, and J. Unsleber
   
 * started run on 2026/08/31 at 20:23:58.509     
   ID    Z sym.   atoms
    1    8 O      1, 5, 14, 15
    2    6 C      2, 4, 7-12
    3    7 N      3, 6
    4   16 S      13
    5    1 H      16-21, 75-81
    6    5 B      22-74

           -------------------------------------------------
          |                Calculation Setup                |
           -------------------------------------------------

          program call               : "c:\Users\Andre\Proyectos doctorado\kras-pancreatic-gC3N4-ai\tools\xtb\xtb-6.7.1\bin\xtb.exe" "c:\Users\Andre\Proyectos doctorado\borophene-alzheimer-tau-ai\calculations\tau\Tideglusib\Tideglusib_B48H12_complex.xyz" --gfn 2 --sp --chrg 0 --uhf 0 --iterations 500 --norestart
          coordinate file            : c:\Users\Andre\Proyectos doctorado\borophene-alzheimer-tau-ai\calculations\tau\Tideglusib\Tideglusib_B48H12_complex.xyz
          omp threads                :                    16


molecular fragmentation (1/2 indicates fragments):
111111111111111111111111111111111111111111111111111111111111111111111111
111221111
# atoms in fragment 1/2:    79     2
 fragment masses (1/2) :      804.23        2.02
CMA distance (Bohr)    :  15.804
constraining FC (au)   :  0.0500

           -------------------------------------------------
          |                 G F N 2 - x T B                 |
           -------------------------------------------------

        Reference                      10.1021/acs.jctc.8b01176
      * Hamiltonian:
        H0-scaling (s, p, d)           1.850000    2.230000    2.230000
        zeta-weighting                 0.500000
      * Dispersion:
        s8                             2.700000
        a1                             0.520000
        a2                             5.000000
        s9                             5.000000
      * Repulsion:
        kExp                           1.500000    1.000000
        rExp                           1.000000
      * Coulomb:
        alpha                          2.000000
        third order                    shell-resolved
        anisotropic                    true
        a3                             3.000000
        a5                             4.000000
        cn-shift                       1.200000
        cn-exp                         4.000000
        max-rad                        5.000000


          ...................................................
          :                      SETUP                      :
          :.................................................:
          :  # basis functions                 291          :
          :  # atomic orbitals                 290          :
          :  # shells                          150          :
          :  # electrons                       244          :
          :  max. iterations                   500          :
          :  Hamiltonian                  GFN2-xTB          :
          :  restarted?                      false          :
          :  GBSA solvation                  false          :
          :  PC potential                    false          :
          :  electronic temp.          300.0000000     K    :
          :  accuracy                    1.0000000          :
          :  -> integral cutoff          0.2500000E+02      :
          :  -> integral neglect         0.1000000E-07      :
          :  -> SCF convergence          0.1000000E-05 Eh   :
          :  -> wf. convergence          0.1000000E-03 e    :
          :  Broyden damping             0.4000000          :
          :  net charge                          0          :
          :  unpaired electrons                  0          :
          ...................................................

 iter      E             dE          RMSdq      gap      omega  full diag
   1   -112.0521352 -0.112052E+03  0.187E+01    0.28       0.0  T
   2    -22.1519651  0.899002E+02  0.155E+01    0.30       1.0  T
   3    552.1133695  0.574265E+03  0.356E+01    0.07       1.0  T
   4    -27.9625194 -0.580076E+03  0.170E+01    0.19       1.0  T
   5    189.4293969  0.217392E+03  0.199E+01    0.27       1.0  T
   6    -83.5498165 -0.272979E+03  0.114E+01    0.04       1.0  T
   7    -50.5876562  0.329622E+02  0.143E+01    0.04       1.0  T
   8    -96.1330796 -0.455454E+02  0.921E+00    0.04       1.0  T
   9   -108.3802276 -0.122471E+02  0.788E+00    0.09       1.0  T
  10   -109.1295014 -0.749274E+00  0.771E+00    0.22       1.0  T
  11   -110.6273161 -0.149781E+01  0.691E+00    0.30       1.0  T
  12   -110.3369384  0.290378E+00  0.678E+00    0.29       1.0  T
  13   -110.7584573 -0.421519E+00  0.656E+00    0.15       1.0  T
  14   -110.5119669  0.246490E+00  0.644E+00    0.28       1.0  T
  15   -111.1564072 -0.644440E+00  0.593E+00    0.07       1.0  T
  16   -111.3527413 -0.196334E+00  0.456E+00    0.03       1.0  T
  17   -111.9725412 -0.619800E+00  0.432E+00    0.07       1.0  T
  18   -111.7200433  0.252498E+00  0.446E+00    0.12       1.0  T
  19   -111.6968607  0.231826E-01  0.448E+00    0.13       1.0  T
  20   -112.7719469 -0.107509E+01  0.401E+00    0.08       1.0  T
  21   -112.5995865  0.172360E+00  0.376E+00    0.02       1.0  T
  22   -112.7000587 -0.100472E+00  0.363E+00    0.03       1.0  T
  23   -112.2742975  0.425761E+00  0.345E+00    0.06       1.0  T
  24   -112.4849861 -0.210689E+00  0.319E+00    0.04       1.0  T
  25   -113.4344886 -0.949503E+00  0.209E+00    0.09       1.0  T
  26   -113.1947895  0.239699E+00  0.243E+00    0.02       1.0  T
  27   -113.1545836  0.402059E-01  0.246E+00    0.02       1.0  T
  28   -113.1158763  0.387073E-01  0.249E+00    0.02       1.0  T
  29   -112.7332066  0.382670E+00  0.278E+00    0.02       1.0  T
  30   -112.4378096  0.295397E+00  0.316E+00    0.06       1.0  T
  31   -112.5141866 -0.763770E-01  0.316E+00    0.06       1.0  T
  32   -112.5628279 -0.486414E-01  0.311E+00    0.05       1.0  T
  33   -113.1866425 -0.623815E+00  0.254E+00    0.01       1.0  T
  34   -113.3710220 -0.184380E+00  0.227E+00    0.01       1.0  T
  35   -113.3743503 -0.332826E-02  0.229E+00    0.01       1.0  T
  36   -113.5732180 -0.198868E+00  0.212E+00    0.01       1.0  T
  37   -113.5684090  0.480897E-02  0.209E+00    0.01       1.0  T
  38   -113.7793170 -0.210908E+00  0.145E+00    0.03       1.0  T
  39   -113.9337099 -0.154393E+00  0.922E-01    0.05       1.0  T
  40   -113.9932459 -0.595360E-01  0.829E-01    0.05       1.0  T
  41   -113.9910720  0.217392E-02  0.816E-01    0.05       1.0  T
  42   -114.0095433 -0.184713E-01  0.814E-01    0.04       1.0  T
  43   -114.0122223 -0.267902E-02  0.803E-01    0.04       1.0  T
  44   -114.0317025 -0.194802E-01  0.695E-01    0.02       1.0  T
  45   -114.0304165  0.128595E-02  0.631E-01    0.02       1.0  T
  46   -114.0532853 -0.228688E-01  0.529E-01    0.01       1.0  T
  47   -114.0610101 -0.772481E-02  0.520E-01    0.02       1.0  T
  48   -114.0572992  0.371095E-02  0.553E-01    0.01       1.0  T
  49   -114.0841321 -0.268329E-01  0.410E-01    0.03       1.0  T
  50   -114.0884044 -0.427232E-02  0.395E-01    0.03       1.0  T
  51   -114.0910482 -0.264386E-02  0.375E-01    0.03       1.0  T
  52   -114.0929692 -0.192096E-02  0.365E-01    0.04       1.0  T
  53   -114.0939118 -0.942578E-03  0.342E-01    0.03       1.0  T
  54   -114.0980949 -0.418315E-02  0.283E-01    0.04       1.0  T
  55   -114.0981005 -0.560078E-05  0.278E-01    0.03       1.0  T
  56   -114.0999325 -0.183193E-02  0.258E-01    0.04       1.0  T
  57   -114.1002196 -0.287121E-03  0.250E-01    0.04       1.0  T
  58   -114.1010821 -0.862494E-03  0.228E-01    0.04       1.0  T
  59   -114.1017979 -0.715872E-03  0.214E-01    0.04       1.0  T
  60   -114.1024301 -0.632189E-03  0.200E-01    0.04       1.0  T
  61   -114.1024033  0.268520E-04  0.201E-01    0.04       1.0  T
  62   -114.1027725 -0.369230E-03  0.193E-01    0.04       1.0  T
  63   -114.1038280 -0.105545E-02  0.162E-01    0.04       1.0  T
  64   -114.1055031 -0.167517E-02  0.997E-02    0.04       1.0  T
  65   -114.1056488 -0.145683E-03  0.103E-01    0.04       1.0  T
  66   -114.1057960 -0.147220E-03  0.902E-02    0.04       1.0  T
  67   -114.1060612 -0.265141E-03  0.723E-02    0.04       1.0  T
  68   -114.1061259 -0.647406E-04  0.537E-02    0.04       1.0  T
  69   -114.1061613 -0.354181E-04  0.478E-02    0.04       1.0  T
  70   -114.1062612 -0.998842E-04  0.457E-02    0.04       1.0  T
  71   -114.1063031 -0.419250E-04  0.393E-02    0.04       1.0  T
  72   -114.1063612 -0.580885E-04  0.280E-02    0.04       1.0  T
  73   -114.1063802 -0.189528E-04  0.230E-02    0.04       1.0  T
  74   -114.1064119 -0.317121E-04  0.138E-02    0.04       1.0  T
  75   -114.1064106  0.131480E-05  0.138E-02    0.04       1.0  T
  76   -114.1064157 -0.509846E-05  0.114E-02    0.04       1.0  T
  77   -114.1064214 -0.575338E-05  0.850E-03    0.04       1.3  T
  78   -114.1064236 -0.216472E-05  0.682E-03    0.04       1.6  T
  79   -114.1064279 -0.429133E-05  0.431E-03    0.04       2.6  T
  80   -114.1064295 -0.160999E-05  0.223E-03    0.04       5.0  T
  81   -114.1064297 -0.153254E-06  0.181E-03    0.04       6.1  T
  82   -114.1064298 -0.161830E-06  0.175E-03    0.04       6.4  T
  83   -114.1064299 -0.125888E-06  0.135E-03    0.04       8.2  T
  84   -114.1064300 -0.147723E-07  0.127E-03    0.04       8.8  T
  85   -114.1064301 -0.108538E-06  0.734E-04    0.04      15.1  T
  86   -114.1064301 -0.197217E-07  0.597E-04    0.04      18.6  T

   *** convergence criteria satisfied after 86 iterations ***

         #    Occupation            Energy/Eh            Energy/eV
      -------------------------------------------------------------
         1        2.0000           -0.7742985             -21.0697
       ...           ...                  ...                  ...
       116        2.0000           -0.2355763              -6.4104
       117        2.0000           -0.2287958              -6.2259
       118        2.0000           -0.2275520              -6.1920
       119        2.0000           -0.2221415              -6.0448
       120        1.9998           -0.2192755              -5.9668
       121        1.9990           -0.2175921              -5.9210
       122        1.0440           -0.2104919              -5.7278 (HOMO)
       123        0.4214           -0.2091535              -5.6914 (LUMO)
       124        0.3129           -0.2088076              -5.6819
       125        0.2097           -0.2083708              -5.6701
       126        0.0126           -0.2055988              -5.5946
       127        0.0005           -0.2025473              -5.5116
       ...           ...                  ...                  ...
       290                          1.6469270              44.8152
      -------------------------------------------------------------
                  HL-Gap            0.0013384 Eh            0.0364 eV
             Fermi-level           -0.2104082 Eh           -5.7255 eV

 SCC (total)                   0 d,  0 h,  0 min,  1.082 sec
 SCC setup                      ...        0 min,  0.000 sec (  0.000%)
 Dispersion                     ...        0 min,  0.002 sec (  0.185%)
 classical contributions        ...        0 min,  0.000 sec (  0.000%)
 integral evaluation            ...        0 min,  0.006 sec (  0.555%)
 iterations                     ...        0 min,  1.056 sec ( 97.597%)
 molecular gradient             ...        0 min,  0.016 sec (  1.479%)
 printout                       ...        0 min,  0.002 sec (  0.185%)

         :::::::::::::::::::::::::::::::::::::::::::::::::::::
         ::                     SUMMARY                     ::
         :::::::::::::::::::::::::::::::::::::::::::::::::::::
         :: total energy            -112.141050661235 Eh    ::
         :: gradient norm              0.600405764980 Eh/a0 ::
         :: HOMO-LUMO gap              0.036419073486 eV    ::
         ::.................................................::
         :: SCC energy              -114.102630981232 Eh    ::
         :: -> isotropic ES            0.451448172864 Eh    ::
         :: -> anisotropic ES         -0.027303092618 Eh    ::
         :: -> anisotropic XC         -0.072552548310 Eh    ::
         :: -> dispersion             -0.130318800222 Eh    ::
         :: repulsion energy           1.961580319998 Eh    ::
         :: add. restraining           0.000000000000 Eh    ::
         :: total charge               0.000000000001 e     ::
         :::::::::::::::::::::::::::::::::::::::::::::::::::::

           -------------------------------------------------
          |                Property Printout                |
           -------------------------------------------------

    * Orbital Energies and Occupations

         #    Occupation            Energy/Eh            Energy/eV
      -------------------------------------------------------------
         1        2.0000           -0.7742985             -21.0697
       ...           ...                  ...                  ...
       110        2.0000           -0.2510929              -6.8326
       111        2.0000           -0.2495486              -6.7906
       112        2.0000           -0.2475181              -6.7353
       113        2.0000           -0.2465558              -6.7091
       114        2.0000           -0.2411062              -6.5608
       115        2.0000           -0.2365756              -6.4375
       116        2.0000           -0.2355763              -6.4104
       117        2.0000           -0.2287958              -6.2259
       118        2.0000           -0.2275520              -6.1920
       119        2.0000           -0.2221415              -6.0448
       120        1.9998           -0.2192755              -5.9668
       121        1.9990           -0.2175921              -5.9210
       122        1.0440           -0.2104919              -5.7278 (HOMO)
       123        0.4214           -0.2091535              -5.6914 (LUMO)
       124        0.3129           -0.2088076              -5.6819
       125        0.2097           -0.2083708              -5.6701
       126        0.0126           -0.2055988              -5.5946
       127        0.0005           -0.2025473              -5.5116
       128        0.0000           -0.1991761              -5.4199
       129        0.0000           -0.1979441              -5.3863
       130        0.0000           -0.1965096              -5.3473
       131        0.0000           -0.1954217              -5.3177
       132                         -0.1920881              -5.2270
       133                         -0.1884444              -5.1278
       ...                                ...                  ...
       290                          1.6469270              44.8152
      -------------------------------------------------------------
                  HL-Gap            0.0013384 Eh            0.0364 eV
             Fermi-level           -0.2104082 Eh           -5.7255 eV

     #   Z          covCN         q      C6AA      α(0)
     1   8 O        0.864    -0.472    23.176     6.455
     2   6 C        2.773     0.012    27.733     8.625
     3   7 N        2.829    -0.231    26.045     7.580
     4   6 C        2.913     0.273    22.399     7.761
     5   8 O        0.858    -0.496    23.701     6.527
     6   7 N        2.751    -0.365    29.404     8.054
     7   6 C        2.961     0.061    26.622     8.463
     8   6 C        2.914    -0.051    29.260     8.870
     9   6 C        2.911    -0.041    29.008     8.832
    10   6 C        2.912    -0.052    29.291     8.875
    11   6 C        2.911    -0.041    29.022     8.834
    12   6 C        2.916    -0.067    29.662     8.931
    13  16 S        4.674     1.352    97.129    16.587
    14   8 O        0.860    -0.642    27.160     6.987
    15   8 O        2.366    -0.305    19.049     5.895
    16   1 H        0.860     0.214     1.040     1.597
    17   1 H        0.925     0.046     2.365     2.405
    18   1 H        0.925     0.043     2.403     2.424
    19   1 H        0.925     0.051     2.305     2.374
    20   1 H        0.925     0.048     2.342     2.393
    21   1 H        0.925     0.040     2.448     2.447
    22   5 B        2.887    -0.009    21.567     7.751
    23   5 B        2.890     0.026    20.952     7.640
    24   5 B        2.890     0.031    20.873     7.625
    25   5 B        2.890     0.020    21.070     7.661
    26   5 B        2.890     0.023    21.005     7.649
    27   5 B        2.887     0.007    21.296     7.702
    28   5 B        2.916     0.009    21.241     7.691
    29   5 B        3.868    -0.007    22.874     7.708
    30   5 B        3.868     0.008    22.587     7.659
    31   5 B        3.868     0.001    22.710     7.680
    32   5 B        3.868     0.002    22.700     7.678
    33   5 B        2.916     0.051    20.529     7.561
    34   5 B        3.266    -0.009    21.546     7.741
    35   5 B        2.314     0.059    31.055    10.858
    36   5 B        2.255     0.047    34.961    11.872
    37   5 B        1.958     0.013    43.661    13.896
    38   5 B        1.958     0.028    43.119    13.809
    39   5 B        2.911    -0.061    22.529     7.921
    40   5 B        2.939     0.003    21.340     7.708
    41   5 B        2.937    -0.083    22.938     7.991
    42   5 B        3.186     0.045    20.613     7.572
    43   5 B        1.958    -0.078    47.066    14.428
    44   5 B        1.958    -0.050    45.977    14.260
    45   5 B        1.960     0.025    43.211    13.823
    46   5 B        3.266    -0.008    21.518     7.736
    47   5 B        2.314     0.067    30.852    10.822
    48   5 B        2.607     0.089    20.600     7.694
    49   5 B        1.958     0.012    43.677    13.898
    50   5 B        1.958     0.031    43.021    13.793
    51   5 B        2.911    -0.045    22.214     7.865
    52   5 B        2.916     0.010    21.232     7.689
    53   5 B        3.868    -0.010    22.923     7.716
    54   5 B        3.868    -0.014    23.007     7.730
    55   5 B        3.868    -0.000    22.737     7.684
    56   5 B        3.868     0.001    22.721     7.682
    57   5 B        2.914    -0.010    21.582     7.752
    58   5 B        2.887    -0.010    21.593     7.756
    59   5 B        2.890     0.021    21.039     7.656
    60   5 B        2.890     0.025    20.985     7.646
    61   5 B        2.890     0.021    21.039     7.656
    62   5 B        2.890     0.018    21.091     7.665
    63   5 B        1.934    -0.006    44.457    14.029
    64   5 B        3.822     0.048    21.847     7.535
    65   5 B        3.822     0.049    21.835     7.533
    66   5 B        3.822     0.042    21.950     7.552
    67   5 B        3.822     0.041    21.975     7.557
    68   5 B        3.822     0.046    21.882     7.541
    69   5 B        3.822     0.048    21.843     7.534
    70   5 B        3.822     0.034    22.097     7.578
    71   5 B        3.822     0.039    22.010     7.563
    72   5 B        3.822     0.039    22.012     7.563
    73   5 B        3.822     0.033    22.112     7.580
    74   5 B        3.381     0.135    19.181     7.301
    75   1 H        0.954    -0.075     4.762     3.411
    76   1 H        0.956     0.019     2.750     2.592
    77   1 H        0.956     0.018     2.766     2.599
    78   1 H        0.954    -0.077     4.800     3.425
    79   1 H        0.954    -0.080     4.896     3.459
    80   1 H        0.956    -0.011     3.244     2.815
    81   1 H        0.956    -0.021     3.437     2.898

 Mol. C6AA /au·bohr⁶  :     135819.483643
 Mol. C8AA /au·bohr⁸  :    4751050.426683
 Mol. α(0) /au        :        629.301670


Wiberg/Mayer (AO) data.
largest (>0.10) Wiberg bond orders for each atom

 ---------------------------------------------------------------------------
     #   Z sym  total        # sym  WBO       # sym  WBO       # sym  WBO
 ---------------------------------------------------------------------------
     1   8 O    1.810 --     2 C    1.451     3 N    0.107
     2   6 C    3.632 --     1 O    1.451     3 N    1.084    13 S    0.708
     3   7 N    3.444 --     4 C    1.137     2 C    1.084    16 H    0.917
                             5 O    0.130     1 O    0.107
     4   6 C    3.797 --     5 O    1.522     3 N    1.137     6 N    1.015
     5   8 O    1.815 --     4 C    1.522     3 N    0.130     6 N    0.102
     6   7 N    3.300 --     4 C    1.015     7 C    1.003    13 S    0.872
                             5 O    0.102
     7   6 C    3.908 --     8 C    1.366    12 C    1.362     6 N    1.003
     8   6 C    3.974 --     9 C    1.454     7 C    1.366    17 H    0.969
                            11 C    0.105
     9   6 C    3.979 --     8 C    1.454    10 C    1.416    18 H    0.970
                            12 C    0.103
    10   6 C    3.941 --    11 C    1.419     9 C    1.416    19 H    0.969
    11   6 C    3.982 --    12 C    1.454    10 C    1.419    20 H    0.969
                             8 C    0.105
    12   6 C    3.971 --    11 C    1.454     7 C    1.362    21 H    0.969
                             9 C    0.103
    13  16 S    4.583 --    14 O    1.522    15 O    1.154     6 N    0.872
                             2 C    0.708
    14   8 O    1.861 --    13 S    1.522
    15   8 O    2.445 --    13 S    1.154    42 B    0.786    48 B    0.258
    16   1 H    0.951 --     3 N    0.917
    17   1 H    0.998 --     8 C    0.969
    18   1 H    0.998 --     9 C    0.970
    19   1 H    0.997 --    10 C    0.969
    20   1 H    0.997 --    11 C    0.969
    21   1 H    0.998 --    12 C    0.969
    22   5 B    3.254 --    28 B    1.090    64 B    0.944    75 H    0.867
                            34 B    0.106
    23   5 B    3.365 --    64 B    0.986    65 B    0.979    29 B    0.930
                            24 B    0.127
    24   5 B    3.504 --    66 B    1.004    65 B    0.974    30 B    0.972
                            23 B    0.127    25 B    0.117
    25   5 B    3.363 --    67 B    1.006    66 B    0.961    31 B    0.918
                            24 B    0.117    26 B    0.111
    26   5 B    3.336 --    67 B    0.974    68 B    0.961    32 B    0.907
                            27 B    0.134    25 B    0.111
    27   5 B    3.309 --    68 B    1.068    33 B    1.002    79 H    0.860
                            26 B    0.134    39 B    0.105
    28   5 B    3.422 --    34 B    1.178    22 B    1.090    64 B    0.734
                            76 H    0.107
    29   5 B    3.662 --    35 B    1.168    23 B    0.930    65 B    0.682
                            64 B    0.670
    30   5 B    3.661 --    36 B    1.174    24 B    0.972    66 B    0.673
                            65 B    0.648
    31   5 B    3.632 --    37 B    1.144    25 B    0.918    66 B    0.673
                            67 B    0.672
    32   5 B    3.632 --    38 B    1.158    26 B    0.907    67 B    0.677
                            68 B    0.658
    33   5 B    3.444 --    39 B    1.239    27 B    1.002    68 B    0.695
                            80 H    0.150    45 B    0.107
    34   5 B    3.579 --    28 B    1.178    40 B    0.969    76 H    0.692
                            74 B    0.382    22 B    0.106
    35   5 B    3.339 --    41 B    1.257    29 B    1.168    74 B    0.368
                            47 B    0.168
    36   5 B    3.101 --    42 B    1.218    30 B    1.174    48 B    0.112
    37   5 B    3.321 --    43 B    1.459    31 B    1.144    49 B    0.237
    38   5 B    3.297 --    44 B    1.426    32 B    1.158    50 B    0.211
    39   5 B    3.528 --    45 B    1.251    33 B    1.239    80 H    0.667
                            27 B    0.105    51 B    0.101
    40   5 B    3.588 --    74 B    1.016    34 B    0.969    46 B    0.963
                            76 H    0.146    77 H    0.146
    41   5 B    3.641 --    47 B    1.259    35 B    1.257    74 B    0.881
    42   5 B    3.319 --    36 B    1.218    48 B    1.061    15 O    0.786
    43   5 B    3.465 --    49 B    1.463    37 B    1.459    44 B    0.134
    44   5 B    3.339 --    38 B    1.426    50 B    1.420    43 B    0.134
    45   5 B    3.264 --    51 B    1.320    39 B    1.251    81 H    0.159
                            80 H    0.134    33 B    0.107
    46   5 B    3.571 --    52 B    1.178    40 B    0.963    77 H    0.692
                            74 B    0.380    58 B    0.105
    47   5 B    3.357 --    41 B    1.259    53 B    1.157    74 B    0.354
                            35 B    0.168
    48   5 B    3.114 --    54 B    1.183    42 B    1.061    15 O    0.258
                            36 B    0.112
    49   5 B    3.320 --    43 B    1.463    55 B    1.154    37 B    0.237
    50   5 B    3.310 --    44 B    1.420    56 B    1.168    38 B    0.211
    51   5 B    3.455 --    45 B    1.320    57 B    1.051    81 H    0.693
                            39 B    0.101
    52   5 B    3.425 --    46 B    1.178    58 B    1.094    69 B    0.731
                            77 H    0.107
    53   5 B    3.666 --    47 B    1.157    59 B    0.942    70 B    0.689
                            69 B    0.671
    54   5 B    3.687 --    48 B    1.183    60 B    0.979    71 B    0.678
                            70 B    0.655
    55   5 B    3.635 --    49 B    1.154    61 B    0.925    71 B    0.671
                            72 B    0.662
    56   5 B    3.646 --    50 B    1.168    62 B    0.920    72 B    0.684
                            73 B    0.635
    57   5 B    3.628 --    63 B    1.584    51 B    1.051    73 B    0.688
    58   5 B    3.251 --    52 B    1.094    69 B    0.944    78 H    0.866
                            46 B    0.105
    59   5 B    3.373 --    69 B    0.988    70 B    0.977    53 B    0.942
                            60 B    0.123
    60   5 B    3.485 --    71 B    1.002    54 B    0.979    70 B    0.976
                            61 B    0.123    59 B    0.123
    61   5 B    3.415 --    72 B    1.035    71 B    0.954    55 B    0.925
                            62 B    0.126    60 B    0.123
    62   5 B    3.476 --    73 B    0.998    72 B    0.943    56 B    0.920
                            63 B    0.201    61 B    0.126
    63   5 B    3.173 --    57 B    1.584    73 B    1.125    62 B    0.201
    64   5 B    3.593 --    23 B    0.986    22 B    0.944    28 B    0.734
                            29 B    0.670
    65   5 B    3.580 --    23 B    0.979    24 B    0.974    29 B    0.682
                            30 B    0.648
    66   5 B    3.593 --    24 B    1.004    25 B    0.961    30 B    0.673
                            31 B    0.673
    67   5 B    3.609 --    25 B    1.006    26 B    0.974    32 B    0.677
                            31 B    0.672
    68   5 B    3.596 --    27 B    1.068    26 B    0.961    33 B    0.695
                            32 B    0.658
    69   5 B    3.591 --    59 B    0.988    58 B    0.944    52 B    0.731
                            53 B    0.671
    70   5 B    3.600 --    59 B    0.977    60 B    0.976    53 B    0.689
                            54 B    0.655
    71   5 B    3.592 --    60 B    1.002    61 B    0.954    54 B    0.678
                            55 B    0.671
    72   5 B    3.606 --    61 B    1.035    62 B    0.943    56 B    0.684
                            55 B    0.662
    73   5 B    3.625 --    63 B    1.125    62 B    0.998    57 B    0.688
                            56 B    0.635
    74   5 B    3.590 --    40 B    1.016    41 B    0.881    34 B    0.382
                            46 B    0.380    35 B    0.368    47 B    0.354
    75   1 H    0.980 --    22 B    0.867
    76   1 H    0.991 --    34 B    0.692    40 B    0.146    28 B    0.107
    77   1 H    0.991 --    46 B    0.692    40 B    0.146    52 B    0.107
    78   1 H    0.980 --    58 B    0.866
    79   1 H    0.987 --    27 B    0.860
    80   1 H    0.982 --    39 B    0.667    33 B    0.150    45 B    0.134
    81   1 H    0.972 --    51 B    0.693    45 B    0.159
 ---------------------------------------------------------------------------

Topologies differ in total number of bonds
Writing topology from bond orders to xtbtopo.mol

molecular dipole:
                 x           y           z       tot (Debye)
 q only:        0.462      -0.047      -4.629
   full:       -0.029       0.180      -2.522       6.427
molecular quadrupole (traceless):
                xx          xy          yy          xz          yz          zz
 q only:      -22.582       3.417      53.406      24.420      -5.144     -30.824
  q+dip:       32.677       0.174      66.882      10.703      -6.187     -99.560
   full:       24.789       0.118      30.491      10.898      -6.424     -55.279


           -------------------------------------------------
          | TOTAL ENERGY             -112.141050661235 Eh   |
          | GRADIENT NORM               0.600405764980 Eh/α |
          | HOMO-LUMO GAP               0.036419073486 eV   |
           -------------------------------------------------

------------------------------------------------------------------------
 * finished run on 2026/08/31 at 20:23:59.637     
------------------------------------------------------------------------
 total:
 * wall-time:     0 d,  0 h,  0 min,  1.127 sec
 *  cpu-time:     0 d,  0 h,  0 min, 13.188 sec
 * ratio c/w:    11.701 speedup
 SCF:
 * wall-time:     0 d,  0 h,  0 min,  1.082 sec
 *  cpu-time:     0 d,  0 h,  0 min, 12.766 sec
 * ratio c/w:    11.798 speedup

normal termination of xtb
