60
 energy: -61.505791801968 gnorm: 0.000736345375 xtb: 6.7.1 (edcfbbe)
B           -7.10748403437382        0.34538780241742        0.42600390206965
B           -6.40765090898547       -1.21495724467813        0.47486115578080
B           -6.11556150698467        1.59409837632380       -0.22609144643286
B           -5.42949111375404        0.14225053109534        0.30143091206705
B           -4.73080046362153       -1.33849151025955        0.75878718266020
B           -5.00756571019372       -4.22506200058919        1.19783901087032
B           -4.32618220464781       -5.62856077297525        1.91265182285552
B           -4.04150222923103       -2.82036969996807        1.12130641455056
B           -3.34158465695429       -4.34327879641567        1.40466911442467
B           -2.64356588533114       -5.86659044297774        1.61920934400261
B           -4.43907528664177        1.49365581148299       -0.00970881106862
B           -3.74128430848632        0.00553073769341        0.46862300944673
B           -3.45685454587953        2.87276994319688       -0.07005577719620
B           -2.76038811645534        1.35094229363601        0.16317384263657
B           -2.05976249499945       -0.17121307450172        0.43652218174627
B           -2.35729331215098       -2.96180647686935        1.23971740270954
B           -1.64642406589691       -4.51174336447384        1.44065883040524
B           -1.36766892893040       -1.65708443754238        0.80893137382118
B           -0.67244998753376       -3.13542198594501        1.26710507417566
B            0.01956793266947       -4.60986122850384        1.71131474901578
B           -1.77470383064950        2.69309561556547       -0.17053186254633
B           -1.07155158113506        1.17940031034221        0.18952044362939
B           -0.77643178801379        3.97225707739772       -0.66067054676800
B           -0.08693988142516        2.51811324072899       -0.14749658402930
B            0.60768739645078        1.04017357939780        0.31491892119009
B            0.31570510517303       -1.81082613090347        0.86719326982477
B            1.01229698930953       -3.27356460003819        1.43264973060764
B            1.30014434911871       -0.44948715887375        0.66825544948855
B            1.99657303700891       -1.93664617063252        1.08993316628113
B            2.68749684837784       -3.40046840137065        1.57044963577597
B            0.88960319663131        3.88930425734860       -0.35316596943758
B            1.59675130325213        2.37238400557772       -0.00778581843606
B            1.88062672925935        5.25799064195217       -0.46588980840851
B            2.57915182711318        3.74724254096110       -0.19329137894563
B            3.27801990199117        2.23299855295389        0.12893818782592
B            2.97981514261528       -0.58636033803575        0.80098794512306
B            3.68380524893641       -2.12508120646396        1.06156498915640
B            3.96918961658447        0.73567758801640        0.42074828843453
B            4.67092555436658       -0.77999935882795        0.72898146474909
B            5.36502849898393       -2.29441672815195        0.99039204137731
B            3.56779618594594        5.03042440584474       -0.71651181722473
B            4.24661110883237        3.62860675921255        0.01299219630790
B            5.65665778266365        0.52692265636392        0.33416489614821
B            6.33961171164143       -0.87261214648247        1.06880751718631
H           -8.20799203399547        0.57983065813145        0.75926458883174
H           -7.05663613202560       -2.15153732068158        0.21158475708808
H           -6.62038462356228        2.47481356036307       -0.81815237117907
H           -6.06801062981575       -4.28514825927723        0.70654550416403
H           -4.95449273417309       -6.41447647881986        2.51696407782947
H           -2.23491234393045       -6.96061975430464        1.48671923584954
H           -3.94456407027974        3.94300035778758       -0.06614914537057
H            0.48204288929371       -5.60469046632118        2.13668931338821
H           -1.23544570398372        4.92165993755230       -1.18171072804461
H            3.17311294285096       -4.37871332866287        2.00825238279262
H            1.45970593412643        6.34973425914882       -0.35110744538544
H            5.88622494152477       -3.33684725573296        0.83332134368865
H            4.19752882984984        5.82914769743177       -1.30048753687335
H            5.29211106342147        3.69176358055857        0.53843012870693
H            6.33517948013167        1.23286081249133       -0.31071156692718
H            7.41534235591708       -0.89785112169333        1.53651898559041
