85
Apigenin/B40H15 GFN2 opt
O      -1.47659026      2.47517871      3.57911494
C      -0.75280256      1.71984159      4.47511596
C      -0.74423088      0.34195086      4.44521509
C       0.05294455     -0.41157488      5.28811215
C       0.21745856     -1.82431664      5.21643763
C      -0.34078711     -2.60030769      4.17886232
C      -0.12968665     -3.95592442      4.10389665
C       0.65399473     -4.60087216      5.05729995
O       0.85265076     -5.95080990      4.93518211
C       1.21017473     -3.85818921      6.09442441
C       0.99800911     -2.50156019      6.17404261
O       0.81446531      0.23292929      6.26963539
C       0.82430675      1.58836735      6.32603370
C       1.62223958      2.15776625      7.29759486
C       1.72021232      3.54684790      7.39294341
O       2.52839319      4.06417460      8.36034826
C       1.01791224      4.35500419      6.52033458
C       0.19203177      3.78902436      5.55216482
O      -0.48413391      4.62782305      4.72489518
C       0.08041172      2.39544439      5.43909891
H      -1.39184405     -0.16497285      3.75493761
H      -0.94450282     -2.13620664      3.41593542
H      -0.55488699     -4.54033800      3.30426938
H       1.41669065     -6.25318038      5.65527149
H       1.81447870     -4.35525098      6.84305651
H       1.43268368     -1.93443318      6.98021113
H       2.17387677      1.53430169      7.97858274
H       2.50633146      5.02676311      8.30914694
H       1.08118537      5.43117199      6.57246296
H      -1.02795763      4.07655111      4.12670664
B      -2.18614896     -4.44920198     -0.29556778
B      -2.49361566     -3.76205451     -1.76328905
B      -2.32136393     -2.34908667     -2.73524046
B      -0.67782606     -4.16794484      0.10464979
B      -1.57555345     -1.70142009     -1.55770722
B      -3.24193407     -2.32221475     -1.21952343
B      -4.62836427     -2.03829765     -0.46214866
B      -5.53012090     -0.67797988     -0.37792389
B      -2.44732531     -1.27172595     -0.18929094
B      -4.94687180      0.36155506      0.72387407
B       0.85445077     -4.34014606      0.63001025
B       0.24520836     -2.88094163      0.28666017
B      -0.60056185     -1.54982316     -0.21982162
B       1.71262524     -2.92675420      0.94065132
B      -0.05558778     -0.19571511      0.60181709
B      -1.55149962     -0.79517440      1.05987130
B      -2.63775501      0.25757752      0.38479781
B      -3.78599499      1.36433775      0.25485302
B      -1.32627981      0.75649923      1.42809544
B      -3.70496776      2.96574931      0.22692370
B       3.19333931     -2.66576458      1.62950044
B       2.26208972     -1.39135053      1.30952151
B       1.53089424      0.00395321      1.04113907
B       3.14906611     -1.40518478      2.71435456
B       1.95187505      1.45357983      1.61544977
B       0.34380989      1.22825118      1.27273737
B      -1.75078861      2.11886994      2.28596792
B      -2.35802864      3.02296816      1.07854100
B       0.94414107      2.75685265      1.30130121
B      -1.10413160      3.56594675      0.12861612
B       3.65108295     -1.40799258      4.27172048
B       3.25089930      0.00577387      3.55891481
B       3.01515976      1.50917207      3.00214384
B       3.66485473      0.00019779      5.07702311
B       3.67295551      3.00410471      3.36416993
B       2.52186302      2.90200598      2.23562102
B       1.42557414      4.27822599      1.99799149
B       0.17153750      4.14347847      0.91368029
B       2.95300395      4.40303367      2.71686786
B       0.54130448      5.51370893      1.65559804
H      -2.98132442     -5.06049437      0.32409488
H      -2.40790846     -4.59785129     -2.59163562
H      -2.57707817     -2.33013563     -3.87998602
H      -5.05269762     -2.89888873      0.23456079
H      -6.56107250     -0.57106256     -0.93763014
H      -5.27310123      0.24465221      1.85157783
H       1.21489106     -5.37655588      1.02979723
H      -4.35188942      3.78230916     -0.31189356
H       4.10155642     -3.40595351      1.55483185
H      -1.05654834      3.35479136     -1.03284429
H       3.84724545     -2.35155493      4.92783255
H       3.88832449      0.53275424      6.08222297
H       4.65456204      3.15786948      3.98006150
H       3.49680511      5.43840805      2.78666179
H       0.28320961      6.64132879      1.76824139
