30
Apigenin GFN2 opt
O       2.21248952     -2.91300808      0.05529347
C       1.60690319     -1.83381377      0.01372094
C       0.17355374     -1.73714875     -0.12831259
C      -0.45961608     -0.53869649     -0.16463151
C      -1.91063501     -0.37567512     -0.28139526
C      -2.71682332     -1.36178686     -0.85403472
C      -4.08017079     -1.19210167     -0.94396175
C      -4.67690871     -0.02893351     -0.45898684
O      -6.02096042      0.09277851     -0.56128647
C      -3.87996362      0.96275907      0.10494124
C      -2.51394219      0.79169587      0.18691952
O       0.19876949      0.63390201     -0.06960017
C       1.54748215      0.63991377      0.06470674
C       2.17120813      1.87504402      0.15257400
C       3.55313449      1.92767875      0.29253234
O       4.13264299      3.14626476      0.37368128
C       4.30605456      0.75909720      0.34746194
C       3.69095895     -0.48197072      0.25962175
O       4.42575724     -1.58990944      0.31418722
C       2.28493963     -0.55056246      0.11241956
H      -0.38201701     -2.65777677     -0.17997480
H      -2.27056743     -2.25944929     -1.25093725
H      -4.70842265     -1.94616363     -1.38998516
H      -6.30985818      0.93740659     -0.19368323
H      -4.33555082      1.86900175      0.48146114
H      -1.90292633      1.56299511      0.62910569
H       1.59649893      2.78388427      0.11100600
H       5.08912398      3.05103067      0.46564333
H       5.37971612      0.79629266      0.45829822
H       3.79912943     -2.36274847      0.23321386
