60
 energy: -61.506098402968 gnorm: 0.000916410821 xtb: 6.7.1 (edcfbbe)
B           -5.85640071272859        3.06198754968630        0.50485199856895
B           -5.82233190371023        1.40135615521139        0.07092652231293
B           -4.41361372641533        3.94452212736040        0.17376157542106
B           -4.38451371880748        2.25757941274429        0.24525495577075
B           -4.35107366695169        0.55888254134925        0.24591134403025
B           -5.75886828932325       -1.99438706321380       -0.04792691488652
B           -5.72837531786903       -3.68507648293648        0.21829354989470
B           -4.31920864192823       -1.11362833403250        0.18455582404986
B           -4.28898431968575       -2.80683181280811        0.04424343662120
B           -4.25370704026156       -4.48176448770730       -0.17674745963874
B           -2.92763689358489        3.14043787242219        0.28277079968082
B           -2.89906636456339        1.42849096560683        0.32242889467621
B           -1.48652204861742        3.98182139725926        0.59479446024235
B           -1.45303607096557        2.30715484059778        0.37850374889714
B           -1.42047982562712        0.62239888021489        0.14933953626568
B           -2.83517174539198       -1.93016189518388        0.15736147551487
B           -2.79936322381283       -3.63395318120912        0.00738735771170
B           -1.38867213048277       -1.05703673222118        0.07586650548304
B           -1.35721902294509       -2.75522672006768        0.13228843402589
B           -1.32552376616549       -4.44306992704162        0.21937638552573
B           -0.00331857746208        3.18367648319478        0.47747400903180
B            0.02962079179591        1.49119439791872        0.18188342532330
B            1.44527718816318        4.04628649980358        0.49746823532892
B            1.47738807842780        2.36537612232052        0.34490630834348
B            1.50947697550990        0.67332954351134        0.24347902894876
B            0.09332557594615       -1.87297431348067        0.10474122856624
B            0.12575596713522       -3.57992470004680        0.07406010241360
B            1.54118457754034       -1.00590155511560        0.19113141653974
B            1.57424530711193       -2.69649548712648        0.05192431193719
B            1.60618478267739       -4.37281669018749       -0.15239648143425
B            2.92334257232542        3.25063477087355        0.27900222466128
B            2.95822292704863        1.53936687930878        0.33868645838382
B            4.37603303239093        4.10957646398520        0.18797785224616
B            4.40911786383958        2.42427090646052        0.21869306161313
B            4.43965432863409        0.72646806653028        0.20595476545936
B            3.02228493103930       -1.81827605470177        0.12768430740549
B            3.05131502685246       -3.52720152438802        0.11611843622245
B            4.47111176134925       -0.94811041394463        0.22000990108488
B            4.50434257526503       -2.64683409529073        0.23078856833968
B            4.53267528777610       -4.33252628735276        0.28335732030963
B            5.84985520183735        3.28306435569816        0.53885901881865
B            5.88219874262264        1.62018610671583        0.08315414670976
B            5.94392301765959       -1.78783575457792        0.39316788299202
B            5.98037552987170       -3.45330996585636       -0.02648890963701
H           -6.80767097091596        3.59480870465658        0.93878853772739
H           -6.76939765533005        0.91782710863569       -0.41745440546564
H           -4.49209065850228        5.06582164950659       -0.16975027745568
H           -6.72329670586343       -1.49323438611192       -0.47981946683967
H           -6.65174308718900       -4.30234345665713        0.59700984745203
H           -4.28850899845632       -5.58613487391692       -0.57706544742780
H           -1.52877379205806        5.10554180166256        0.94014406719482
H           -1.31470830894071       -5.59813289588880        0.44052231020004
H            1.43232245148037        5.21336257107041        0.64718234431779
H            1.63354899131217       -5.50933204203332       -0.45370758110785
H            4.42017208759364        5.23017224570115       -0.16630066858610
H            4.60411014303330       -5.45303153053504        0.63153831928729
H            6.77422418916324        3.84408275230516        0.99420746325079
H            6.84897832517274        1.17451304922355       -0.40824374877602
H            6.87007303114687       -1.29385372212095        0.91393291925459
H            6.93231007283347       -4.00008829578062       -0.43935491280200
