47
drug @complex
C       6.28994290      3.41245778      5.54277972
O       7.04957502      2.27800087      5.21005580
C       6.38119293      1.10551756      4.91478350
C       5.01738854      0.93451352      4.94128048
C       4.43738172     -0.31521191      4.64105309
C       3.02962716     -0.54276897      4.69821941
C       2.05899534      0.41388480      4.82406472
C       0.66786738      0.21508592      5.07643727
O      -0.15266500      1.13981593      4.97108192
C       0.21660557     -1.15291598      5.58744849
C      -0.81674673     -1.76990460      4.65909713
O      -0.51873831     -2.69050367      3.89404051
C      -2.12159698     -1.18395943      4.77725617
C      -3.26485318     -1.80395116      4.37928190
C      -4.59637594     -1.29821011      4.53650023
C      -5.69889737     -2.10687188      4.23011742
C      -6.98769875     -1.63287258      4.34777290
C      -7.22196694     -0.33745511      4.78419733
O      -8.49434516      0.13653273      4.88691768
C      -6.12990885      0.48207341      5.12206324
O      -6.47755501      1.74495886      5.56172774
C      -5.44669920      2.63109674      5.92056978
C      -4.84464809      0.00972103      4.99421285
C       5.30029034     -1.37479592      4.32044955
C       6.66587390     -1.20146078      4.27544157
C       7.22401997      0.03378979      4.56725831
O       8.57540763      0.20833788      4.52368990
H       5.65525651      3.72405619      4.70601852
H       5.67571739      3.23522258      6.43134273
H       7.01432384      4.19663004      5.75869580
H       4.37589972      1.75232536      5.22099695
H       2.73392152     -1.57814779      4.61340214
H       2.33788176      1.45677510      4.76898499
H       1.06096156     -1.82711690      5.69745180
H      -0.24436073     -0.99254379      6.56459702
H      -2.14534744     -0.22612946      5.27053881
H      -3.17101396     -2.79696486      3.96235500
H      -5.53532523     -3.11877984      3.89390476
H      -7.83530313     -2.25140634      4.10255997
H      -8.43446299      1.06141151      5.15996549
H      -5.94559203      3.53358583      6.27051824
H      -4.81486472      2.87769375      5.06125968
H      -4.83188678      2.22214658      6.72809461
H      -4.00922246      0.64253179      5.23768862
H       4.88190598     -2.34573317      4.10269183
H       7.32574491     -2.01343096      4.01744214
H       8.74961657      1.13551788      4.73228989
