107
Curcumin on beta12_supported 0 deg
C      -5.64708200     -2.83709173      7.94436507
O      -6.21693002     -1.55579926      8.05054080
C      -5.54662613     -0.49731881      7.48166844
C      -4.36563616     -0.57809797      6.77777427
C      -3.76723997      0.57585692      6.25042458
C      -2.52876773      0.54711639      5.50789306
C      -1.81860077     -0.54222580      5.16450611
C      -0.54392471     -0.53432965      4.45962583
O       0.11572750     -1.54722021      4.32001211
C      -0.02895514      0.80107908      3.93835181
C       0.57479548      1.55453489      5.11772972
O       0.02806166      2.52457137      5.60257185
C       1.81800723      0.97618628      5.61207506
C       2.44826884      1.49849798      6.67974454
C       3.66236689      1.03060354      7.30104657
C       4.11281746      1.65131736      8.46770888
C       5.26572290      1.22949847      9.09847394
C       6.00420379      0.18020202      8.57336577
O       7.13563257     -0.23101886      9.18808503
C       5.56656159     -0.45249712      7.39160247
O       6.38263428     -1.47232986      6.96169749
C       6.03531342     -2.14540635      5.77580112
C       4.41082373     -0.03168748      6.77213276
C      -4.39365686      1.80680480      6.45717139
C      -5.58156245      1.89442653      7.15393198
C      -6.17165626      0.75201995      7.67213931
O      -7.33336199      0.83621953      8.35790216
H      -5.57196432     -3.15537225      6.90015084
H      -4.65781502     -2.87301867      8.41057573
H      -6.32218121     -3.50467733      8.47737695
H      -3.88675080     -1.53180081      6.63337505
H      -2.15940504      1.52658555      5.23735357
H      -2.14801542     -1.53634697      5.43552625
H       0.74799263      0.60076421      3.20000000
H      -0.83121135      1.38598668      3.49257124
H       2.17605028      0.09827144      5.09758335
H       1.99108169      2.36961924      7.13511150
H       3.54646537      2.47001134      8.88463786
H       5.61636455      1.70137921     10.00206242
H       7.50710282     -0.96444157      8.67727572
H       6.81403820     -2.89063303      5.62182246
H       6.01365492     -1.46133278      4.92214529
H       5.06691906     -2.64552845      5.86919107
H       4.07210361     -0.51429505      5.87111644
H      -3.93943725      2.70390971      6.06526167
H      -6.07052364      2.84179253      7.31323432
H      -7.58140623     -0.05478503      8.64292325
B      -5.85857624      3.38040841      0.00000000
B      -5.85854689      1.69158049     -0.00000000
B      -4.39532834      4.22466855     -0.00000000
B      -4.39711400      2.53475765     -0.00000000
B      -4.39575475      0.84147203     -0.00000000
B      -5.85854686     -1.69158078      0.00000000
B      -5.85857617     -3.38040837     -0.00000000
B      -4.39575479     -0.84147232     -0.00000000
B      -4.39711414     -2.53475765      0.00000000
B      -4.39532857     -4.22466843      0.00000000
B      -2.92793521      3.38324044     -0.00000000
B      -2.92888517      1.68724694     -0.00000000
B      -1.46554580      4.22439782     -0.00000000
B      -1.46605622      2.53507234     -0.00000000
B      -1.46573170      0.84295491     -0.00000000
B      -2.92888518     -1.68724692      0.00000000
B      -2.92793508     -3.38324074      0.00000000
B      -1.46573174     -0.84295512     -0.00000000
B      -1.46605627     -2.53507234      0.00000000
B      -1.46554588     -4.22439779     -0.00000000
B       0.00067086      3.38275146      0.00000000
B       0.00067433      1.68721076      0.00000000
B       1.46420559      4.22439023     -0.00000000
B       1.46473580      2.53506444     -0.00000000
B       1.46438553      0.84295188     -0.00000000
B       0.00067433     -1.68721088      0.00000000
B       0.00067085     -3.38275170      0.00000000
B       1.46438555     -0.84295208     -0.00000000
B       1.46473583     -2.53506442     -0.00000000
B       1.46420568     -4.22439021     -0.00000000
B       2.92927005      3.38326104     -0.00000000
B       2.93022956      1.68726759      0.00000000
B       4.39401124      4.22463050     -0.00000000
B       4.39579743      2.53472819      0.00000000
B       4.39441416      0.84146678     -0.00000000
B       2.93022962     -1.68726763     -0.00000000
B       2.92927005     -3.38326139     -0.00000000
B       4.39441419     -0.84146703     -0.00000000
B       4.39579756     -2.53472819     -0.00000000
B       4.39401144     -4.22463033     -0.00000000
B       5.85997303      3.38040496      0.00000000
B       5.85993260      1.69164307     -0.00000000
B       5.85993251     -1.69164335      0.00000000
B       5.85997297     -3.38040486      0.00000000
H      -6.86866001      3.98474441      0.00000000
H      -6.88164909      1.12316321     -0.00000000
H      -4.39961690      5.40226943     -0.00000000
H      -6.88164986     -1.12316494      0.00000000
H      -6.86866148     -3.98474191     -0.00000000
H      -4.39961557     -5.40226922      0.00000000
H      -1.46579024      5.40011773     -0.00000000
H      -1.46578943     -5.40011766      0.00000000
H       1.46622796      5.40011192     -0.00000000
H       1.46622721     -5.40011186     -0.00000000
H       4.39986570      5.40225046     -0.00000000
H       4.39986407     -5.40225022     -0.00000000
H       6.86878772      3.98676429      0.00000000
H       6.88200886      1.12155941     -0.00000000
H       6.88200989     -1.12156160      0.00000000
H       6.86878944     -3.98676138      0.00000000
