107
 energy: -141.081560179485 gnorm: 0.000740300200 xtb: 6.7.1 (edcfbbe)
C           -6.15636363609287       -3.61792055665080        5.51031014379345
O           -6.94996822110921       -2.50179149490890        5.19591618702476
C           -6.31721939172334       -1.30306476616006        4.92901076474312
C           -4.95855498997979       -1.09498781269358        4.95136104856584
C           -4.41519854193195        0.17783082169212        4.68151737037970
C           -3.01363226543259        0.44153214885970        4.73574877167988
C           -2.01778088191837       -0.49288799122573        4.82519271407184
C           -0.62867742172997       -0.26701941011002        5.06685236370439
O            0.21084572075148       -1.16981520175472        4.92729014624750
C           -0.20274971073866        1.09756040042513        5.60865405186936
C            0.82381288348866        1.75366906541430        4.70000381657695
O            0.51339492809978        2.68906324487485        3.95762335112462
C            2.13741658466659        1.18598743234106        4.80552450998238
C            3.26940123075122        1.82726078035620        4.40798094184713
C            4.60860202187147        1.33682460758586        4.54639804689746
C            5.69827386646915        2.16662336565176        4.25049107500779
C            6.99403641689275        1.70781277135491        4.35121173408591
C            7.24815384566150        0.40684128748657        4.75903537802562
O            8.52754204888278       -0.05183476869812        4.84560027300855
C            6.16936204280089       -0.43488558538602        5.08464611755936
O            6.53685639921309       -1.70210767081036        5.49477500432835
C            5.52034039882093       -2.61015608693016        5.83907190185830
C            4.87713072190544        0.02283096557949        4.97442578592758
C           -5.30905831230249        1.22114034127596        4.39418444621055
C           -6.66960474899326        1.01117651599484        4.35329907041257
C           -7.19174102695269       -0.24622774161657        4.61609985386945
O           -8.53798400406543       -0.45649173359793        4.57682270723496
H           -5.51315859181218       -3.89720944144261        4.66874577290469
H           -5.54701867075189       -3.43613157168372        6.40114274711769
H           -6.85645859388031       -4.42694848931426        5.71409043619881
H           -4.29286935534726       -1.90200070560230        5.20446793593432
H           -2.74631933792255        1.48651248386692        4.67959707369512
H           -2.27071994265399       -1.54056682640597        4.74205984416417
H           -1.05908377766183        1.75469534262096        5.73016184775948
H            0.25661472641825        0.92298890097431        6.58438512296826
H            2.17834133701946        0.22123678373886        5.28386930331400
H            3.15850096548225        2.82541473339657        4.00783392345622
H            5.51915338597711        3.18307750613052        3.93661763833562
H            7.83182789299142        2.34294111829634        4.11473596966653
H            8.48171646464085       -0.98236976081970        5.10162305891676
H            6.03339560651678       -3.51531632293382        6.16056283144855
H            4.88364773659565       -2.84183918969252        4.97930544103050
H            4.90791905393018       -2.23038161492702        6.66254502006847
H            4.05149667906001       -0.62621141301400        5.20857253268534
H           -4.91913547017451        2.20866453312445        4.19965878876046
H           -7.35347515973247        1.81103836001081        4.12121416715214
H           -8.68567240489802       -1.39369678958908        4.75927987152406
B           -6.23196990580847        2.66383948080682        0.79545401261548
B           -5.99756901304961        0.95998265332843        0.80249913595073
B           -4.88683923364380        3.61139540264961        0.31270131663145
B           -4.66948368149333        1.99785671731860        0.75979542068477
B           -4.44452817179796        0.35683095930206        1.12094716868262
B           -5.56366112317983       -2.25697228751631        1.82610278948533
B           -5.33176204735826       -3.94426935637367        1.92740756198648
B           -4.22522834919843       -1.25874473564991        1.52058900754840
B           -4.00624840864945       -2.88643779244247        1.94620562437111
B           -3.78645314826469       -4.48682845136095        2.44407749418332
B           -3.32570589984875        3.02933075407635        0.61632244015047
B           -3.10657621223679        1.40124244647670        1.07467221029337
B           -1.99128830477266        4.05915919811568        0.54625539777222
B           -1.76842507848796        2.41767770238420        0.87283039015833
B           -1.54415664652238        0.77071541072634        1.19858476241912
B           -2.65960102503966       -1.88235721165436        1.68923541008118
B           -2.43539937992822       -3.51841116151153        2.10632386560444
B           -1.32311833875074       -0.85505690047650        1.57322883009209
B           -1.09938270047807       -2.50252719369459        1.89976912036721
B           -0.87235810372463       -4.16471983142062        2.11883142411991
B           -0.42858892344970        3.45129638153313        0.75615960127963
B           -0.19965362223296        1.76981696611156        0.94824816649537
B            0.91023195394371        4.47295771236783        0.65029513233605
B            1.13531489701628        2.81583733248595        0.89038748647461
B            1.36245302127598        1.14491436907225        1.10036945309775
B            0.24229353275114       -1.48116362673629        1.72021146410401
B            0.46537487993253       -3.12264126187039        2.10788254238018
B            1.58410297839192       -0.48528014667819        1.45874517093417
B            1.80275005444362       -2.09176502681491        1.97000575580760
B            2.02009099337947       -3.69656588402820        2.45203745489835
B            2.47525075744154        3.82156332392488        0.63087971765847
B            2.69915753686972        2.18918482354065        1.06841167191614
B            3.82255811853231        4.80082047898555        0.33675361488792
B            4.04280710230457        3.19474139562604        0.81499160399285
B            4.26319268265655        1.56147338913288        1.21546493409985
B            3.14327222441749       -1.07728844364806        1.76105779803531
B            3.36649450078023       -2.73367364622901        2.08844345484883
B            4.48410447487172       -0.06346384329876        1.57254086470428
B            4.71057882667084       -1.71560825769190        1.88246397649705
B            4.93312648788990       -3.37306394259376        2.12816238809438
B            5.37260055871402        4.24986783464652        0.83449909883995
B            5.60319102003450        2.55212282134573        0.86519254618538
B            6.04986469151372       -0.73410768249913        1.57589965847345
B            6.26411503204222       -2.30012621725857        2.22693418842012
H           -7.26320631034617        3.15201445410300        1.05604250907970
H           -6.86372989513749        0.26909817330537        0.42865822932467
H           -5.06466719804914        4.59145934548513       -0.30784793245719
H           -6.61185886880226       -1.79584748551334        2.05197596317076
H           -6.17237091766014       -4.72062127350286        1.67415061329882
H           -3.69771755604768       -5.48032437198606        3.06422315034980
H           -2.14812040923216        5.19782033024187        0.30874105364995
H           -0.71396565710702       -5.32610013788469        2.17893063915777
H            0.76361387552496        5.63596044726658        0.62225815460505
H            2.17321018559391       -4.75787729864950        2.92760463436057
H            3.73811439140550        5.79855305356121       -0.27394899818755
H            5.12992706385394       -4.52684910459538        2.04309953148013
H            6.21884114294538        5.00973149159399        1.11285254659568
H            6.62345213114452        2.10835698569070        0.51170028703443
H            6.93399756460475       -0.21912176579368        1.01461054225196
H            7.27421297811235       -2.65866806083685        2.69719814545920
