107
 energy: -141.081645074883 gnorm: 0.000605035628 xtb: 6.7.1 (edcfbbe)
C            6.28994289943343        3.41245778453592        5.54277971936410
O            7.04957501955540        2.27800086769794        5.21005580455905
C            6.38119292578385        1.10551756040802        4.91478349933662
C            5.01738853714725        0.93451352009215        4.94128047960093
C            4.43738171923759       -0.31521191363813        4.64105309087626
C            3.02962716189940       -0.54276897366591        4.69821940540393
C            2.05899534392208        0.41388479830560        4.82406471615358
C            0.66786738284270        0.21508591737105        5.07643726832194
O           -0.15266500363931        1.13981592726998        4.97108191597539
C            0.21660556761041       -1.15291598485334        5.58744848530245
C           -0.81674673286176       -1.76990460177838        4.65909712513138
O           -0.51873830903334       -2.69050367226448        3.89404050653934
C           -2.12159697583187       -1.18395943334393        4.77725617382477
C           -3.26485317790209       -1.80395116046559        4.37928189763960
C           -4.59637593685932       -1.29821011077802        4.53650023034060
C           -5.69889736629602       -2.10687188020237        4.23011742150965
C           -6.98769874560032       -1.63287258073897        4.34777290455190
C           -7.22196693620175       -0.33745510740971        4.78419733333079
O           -8.49434515650317        0.13653272501718        4.88691768239337
C           -6.12990885164234        0.48207341046733        5.12206323688139
O           -6.47755501359436        1.74495886128917        5.56172774388076
C           -5.44669920135405        2.63109674403713        5.92056978085546
C           -4.84464809490134        0.00972102764009        4.99421284696923
C            5.30029034048428       -1.37479592098146        4.32044954869705
C            6.66587390427979       -1.20146078253686        4.27544157000810
C            7.22401996865158        0.03378978717756        4.56725831410174
O            8.57540762948580        0.20833787773775        4.52368989956944
H            5.65525651233669        3.72405619033683        4.70601852335566
H            5.67571739401773        3.23522258264537        6.43134273359897
H            7.01432384245833        4.19663003966410        5.75869579853275
H            4.37589972328570        1.75232535536199        5.22099694909149
H            2.73392151994093       -1.57814778798941        4.61340214120227
H            2.33788176488250        1.45677510174946        4.76898498559974
H            1.06096155546659       -1.82711689768112        5.69745180106592
H           -0.24436073057076       -0.99254379476990        6.56459702476050
H           -2.14534743525849       -0.22612945923241        5.27053880880587
H           -3.17101396189476       -2.79696486426262        3.96235500410496
H           -5.53532523242810       -3.11877984353786        3.89390476439168
H           -7.83530313390032       -2.25140633958451        4.10255996566082
H           -8.43446298755257        1.06141150982512        5.15996548587541
H           -5.94559203073554        3.53358582823820        6.27051824388356
H           -4.81486471885496        2.87769375086312        5.06125968158160
H           -4.83188678124755        2.22214657860309        6.72809460796273
H           -4.00922245946398        0.64253179263047        5.23768861704511
H            4.88190598475380       -2.34573317492138        4.10269182869408
H            7.32574491245191       -2.01343096199263        4.01744214214905
H            8.74961657405147        1.13551788304476        4.73228989361240
B           -6.27166971742055        2.37366038588445        2.30746402978185
B           -6.07097825633738        0.82397748109605        1.61365917637399
B           -4.93504803789672        3.43789329183033        2.23566964353413
B           -4.72604736180114        1.78613404777069        1.94421611372243
B           -4.51319999488566        0.14104022543218        1.59010815103951
B           -5.65153898444592       -2.44567434378006        0.81628934124496
B           -5.43422272657225       -4.14426298612933        0.74174749324146
B           -4.30573434740683       -1.47562089835951        1.18979840249087
B           -4.09889487225972       -3.09958472696244        0.74652759483794
B           -3.89223459034886       -4.69410047986277        0.22550801659423
B           -3.37110167937553        2.78827239177977        2.17350818590545
B           -3.16151358300262        1.13912016920170        1.80320899423599
B           -2.01894051159723        3.72945027234278        2.56287590786239
B           -1.81507032246618        2.13619987721966        2.03890061886004
B           -1.61018338361652        0.54288358697676        1.48223229562557
B           -2.74438932172720       -2.11125563213792        1.02384284018705
B           -2.53424698854725       -3.73261207541256        0.54053890887905
B           -1.40205061193032       -1.07886080710709        1.07995982257366
B           -1.18842042733176       -2.74503573608508        0.82381380333970
B           -0.97683822307088       -4.39691023199792        0.53929793782159
B           -0.46687532504969        3.15293759012599        2.20117261041357
B           -0.25756798280003        1.52159590207848        1.76584489143535
B            0.87640821414765        4.18390260428538        2.23593166600608
B            1.08997449163772        2.52663858823040        1.97099436293485
B            1.30004270707691        0.88715161964454        1.59858839731482
B            0.15731704187481       -1.71100909252116        0.90655678106484
B            0.37273226053466       -3.38888364851821        0.67098365152628
B            1.50755469517566       -0.72962195483564        1.17988996846367
B            1.71834567397443       -2.36946146374978        0.81187947225574
B            1.92772170798761       -4.00374698936785        0.44312515136498
B            2.43680469742614        3.52676171320700        2.20089226326132
B            2.64730500799894        1.90079165722604        1.73960553330489
B            3.79370138243840        4.47406192418626        2.56397314604334
B            3.99987752021204        2.88643336037323        2.02131127185530
B            4.20507031983872        1.26977054442388        1.54916648280356
B            3.06729856317238       -1.36853320298010        1.03599885539579
B            3.27276677086038       -2.98596033728782        0.53585348984139
B            4.41089258993056       -0.33633467836655        1.10664366847519
B            4.62223877306580       -1.96863393917646        0.70064030207561
B            4.82598863839858       -3.57141846060444        0.21067265628411
B            5.33612379361142        3.93454153494522        2.02778125893317
B            5.55454403301083        2.24974582371473        1.87707142109542
B            5.96107582188986       -0.94252952298064        0.76837344035449
B            6.18219910467381       -2.64697134147281        0.71417111372074
H           -7.28046524880725        2.72561095375843        2.78554393771754
H           -6.96266230813421        0.33158052952216        1.04403537296480
H           -5.12104651763011        4.59547386141034        2.18414144498105
H           -6.67107927354833       -1.98734704335461        0.47947560462387
H           -6.28812575581925       -4.90193797802831        1.00229468642570
H           -3.81552851039775       -5.67563641095856       -0.41180910190423
H           -2.16149398390302        4.77716983480229        3.07080410694754
H           -0.83798111026809       -5.55966404274386        0.47903009086854
H            0.72864319317139        5.34458588551136        2.32750048773141
H            2.07687824306935       -5.13696957882921        0.17768049970065
H            3.71722741828144        5.44837567499572        3.21517958254793
H            4.99592548059790       -4.53580332709194       -0.43606677922584
H            6.17913328881396        4.71398105822055        1.79251784466946
H            6.59866014591360        1.77195073641290        2.08670744441257
H            6.82870353508130       -0.24695434512815        0.40697998685293
H            7.20867166480232       -3.15290598611404        0.95873515434640
