107
 energy: -141.062892895165 gnorm: 0.000992496816 xtb: 6.7.1 (edcfbbe)
C           -3.21473015510699        5.75916973963417        8.47836391781595
O           -1.89839758564200        6.10671899253496        8.81949396961682
C           -0.86743203602731        5.52209647255088        8.10503045055219
C           -1.01887347080349        4.61621672051363        7.08057104521315
C            0.10142034347987        4.08847239091925        6.41225030152368
C           -0.00527267903917        3.16065590862106        5.32535462199183
C           -1.14228602517329        2.58231473550305        4.85139421355121
C           -1.21197005023954        1.69270734715925        3.72873434203630
O           -2.25657785773744        1.10416137183891        3.41578053690363
C            0.03744122587119        1.49446640761303        2.88932588006130
C            1.08423182974783        0.62202352655279        3.56619126418671
O            2.27932034314701        0.92577182805885        3.52325190948678
C            0.56407077196403       -0.55920728097020        4.19610944839428
C            1.37079559166932       -1.45499113220333        4.83145189602874
C            0.98037245794514       -2.65718545651652        5.50232164967886
C            1.96331801095650       -3.50008096113816        6.03762766441339
C            1.62887433697108       -4.67476969062346        6.67538927897904
C            0.29915118945213       -5.04489529919342        6.80642089948585
O           -0.03426190265630       -6.20821678032216        7.43176402974353
C           -0.70474442843154       -4.20531863310189        6.29013767606737
O           -1.98902327025286       -4.66807335394118        6.49662292996342
C           -3.05721789368961       -3.92328006482415        5.96556735540479
C           -0.36755137114159       -3.03630590250973        5.64781749481982
C            1.37187045485504        4.51333012579259        6.82459109009031
C            1.52721741895522        5.41682627460293        7.85358223199367
C            0.41697836337762        5.93315365379086        8.50457793640031
O            0.56868232924111        6.83206664798597        9.51753295205031
H           -3.44449107666043        6.03039809620347        7.44293356320029
H           -3.39659120048238        4.68949819203072        8.62292443675573
H           -3.85495485063921        6.32837732261116        9.15113620255624
H           -2.00281896294642        4.30624964081232        6.77209202293925
H            0.93703066991738        2.89896936391343        4.86574943629990
H           -2.09431379168989        2.76904310138464        5.32926975603762
H           -0.27213571969915        0.97401240080390        1.97762932552517
H            0.48783874451429        2.45352220584963        2.63243927305265
H           -0.50417880862832       -0.69077897689293        4.15381967436022
H            2.42995921826576       -1.23202652454857        4.82970425601953
H            3.00224595081133       -3.22490036850198        5.94095516706928
H            2.38463925309857       -5.32744877568576        7.08131866647297
H           -0.99757355134299       -6.28172745249184        7.40447665978682
H           -3.96048657347996       -4.45371994442696        6.26339430150303
H           -3.00455968116371       -3.88421468413941        4.87220376655910
H           -3.08138160329146       -2.90928119125777        6.37627024784345
H           -1.13537610371438       -2.38878670676932        5.26115483997686
H            2.24390881486056        4.11780850179407        6.32624826856800
H            2.50483171756445        5.74185100576702        8.17197941508090
H           -0.31533450084558        7.06322940907155        9.83258179094530
B           -5.86305272934110        1.83462129169737       -0.90142638461999
B           -5.69149680830209        0.21474288769069       -0.36963849314258
B           -4.48378800838141        2.54670660094943       -1.63576775201351
B           -4.32619884401573        1.14599020642894       -0.70290244137193
B           -4.16277817811717       -0.29286156782344        0.18108111288175
B           -5.36423427367116       -2.72849106578040        1.28246963531238
B           -5.21022420513022       -4.03299690042675        2.38238575777899
B           -4.00067153421824       -1.74788270152587        1.00286430896656
B           -3.83641091819599       -3.25764592977335        1.75961816215644
B           -3.66876164484805       -4.78406209802493        2.46548856451350
B           -2.94375889608169        2.01445836194358       -1.17870931034458
B           -2.78456440413821        0.59485507016270       -0.24447155146264
B           -1.57651649143246        2.97019517758636       -1.46017039812030
B           -1.41061364228243        1.45768795628764       -0.72643102403536
B           -1.24419812969735       -0.06326841028167        0.00611116535141
B           -2.45947743790274       -2.32398306687675        1.40479575072029
B           -2.28884514877613       -3.87852124814063        2.09464703267153
B           -1.08199211062749       -1.51809731117044        0.83808759772523
B           -0.92120732090959       -2.94059834889955        1.74758097462226
B           -0.75893106536571       -4.39311521642248        2.59274569994681
B           -0.03580773440127        2.37896667573409       -1.09952645145953
B            0.13447146415206        0.79831871609695       -0.46325725429644
B            1.33937261864046        3.26422008431578       -1.51336067149147
B            1.50469096812198        1.75278922580449       -0.77769785788465
B            1.67193374733070        0.21976796935088       -0.06794296613731
B            0.45911979260833       -2.11281823885573        1.20317467389494
B            0.61879397462419       -3.51098021433359        2.17020219200853
B            1.83422475775177       -1.23624088405911        0.76199925041434
B            1.99512565033020       -2.65981590433223        1.66993536870824
B            2.15584991020548       -4.08362033262644        2.56433681354611
B            2.88068001272543        2.59003258744678       -1.30825716087629
B            3.04392834302892        1.16686753943368       -0.38079593487033
B            4.26268265793258        3.40744528278576       -1.83619237927040
B            4.42361823606398        2.00715287667681       -0.90333177433593
B            4.58380388411162        0.56937735555936       -0.01670710763959
B            3.36905894933799       -1.75456643146821        1.26391391114296
B            3.53546396229051       -3.29439895109686        1.98152050559180
B            4.74588108048106       -0.88685305023890        0.80257432853260
B            4.91330458867917       -2.39271258218303        1.56614135923960
B            5.07859262820943       -3.92404363628848        2.26313070143881
B            5.78904669853689        2.97966226694831       -1.17163360659578
B            5.96050680885240        1.36240074809675       -0.63502935744326
B            6.28819097504002       -1.57921232461127        1.02047840097811
B            6.44128084026876       -2.88499242829980        2.11787020186899
H           -6.87053745702454        2.42479616380483       -0.80901640996581
H           -6.58191742639442       -0.52773730269581       -0.51493623360408
H           -4.63481463735262        3.31107342834741       -2.51261564783915
H           -6.34999645485963       -2.61479776107380        0.66552171903043
H           -6.10244819172785       -4.41469905485429        3.03910351484224
H           -3.60336886662263       -5.93331470645314        2.69119296957115
H           -1.70333776215517        4.05482194939162       -1.88922633321951
H           -0.65160808488377       -5.35577898474532        3.25391888944570
H            1.23489887377980        4.36179877620132       -1.91445967595508
H            2.26918209251100       -5.02819715407146        3.24809801430054
H            4.22038880229423        4.18930717745809       -2.70947376307718
H            5.25260790957213       -5.06784444546735        2.45217472754948
H            6.66103359214704        3.75972840074910       -1.12194672352451
H            6.96757259113203        0.80162553629948       -0.82542135863556
H            7.20215115924040       -1.28108893511410        0.35686141791055
H            7.42243696111688       -3.09207530947253        2.72242034374925
