107
 energy: -141.071996148258 gnorm: 0.000969430676 xtb: 6.7.1 (edcfbbe)
C            3.31278329889454       -6.39980014747717        8.15514779448840
O            2.00181979734227       -6.61490572709961        8.60772314007846
C            0.96421710891841       -6.08126162421798        7.86372009872468
C            1.10634727220523       -5.33683158799330        6.71537246877092
C           -0.01982572122006       -4.85038189182998        6.02661949137521
C            0.07960118595806       -4.09943334081547        4.80976061591436
C            1.21701992305425       -3.63719137387702        4.22454700346097
C            1.27521970971314       -2.92882027297248        2.97670340330201
O            2.30982253415579       -2.36503107193936        2.59019054694040
C            0.02562295217134       -2.88333829174380        2.12322019802703
C           -0.98287873098227       -1.82099739640297        2.57011902853075
O           -2.18219682301614       -1.96798726095022        2.31022954815103
C           -0.42576520882031       -0.70836666584423        3.27458892789689
C           -1.18342393455601        0.25710085350779        3.87688235919194
C           -0.69160027596589        1.32408037403488        4.68862491674582
C           -1.57802442026505        2.25910612449502        5.24766246892536
C           -1.12339967477647        3.31236355387003        6.01291053501309
C            0.23345358674324        3.47277807658525        6.25304014280898
O            0.68800365706308        4.53464550279240        6.97839649565784
C            1.13584365855803        2.52548741659256        5.73602757185265
O            2.46197978710983        2.76483603031618        6.05163035412823
C            3.40699850113179        1.77239681734301        5.72613128671781
C            0.68262212299871        1.47966484451976        4.96755384086936
C           -1.28651895932525       -5.14455345265538        6.54890060798945
C           -1.43235509757119       -5.88446708455763        7.70248572358812
C           -0.31640656946199       -6.36298556748718        8.37238177086800
O           -0.45933569460253       -7.10251110370877        9.50799356714911
H            3.46736063647150       -6.82654875099695        7.15895802311377
H            3.55971750653380       -5.33349939990760        8.13598010742610
H            3.95981283560014       -6.90722311430818        8.86956310110011
H            2.08662463856565       -5.12935497959111        6.32124703924918
H           -0.86846837395945       -3.87733243080378        4.33994176730475
H            2.17564038277694       -3.76654157527029        4.70828980523208
H            0.33373645683218       -2.64857273154178        1.09759961233956
H           -0.47682231330168       -3.85112818414532        2.10980883414749
H            0.64568867632801       -0.69230912461208        3.36323059493005
H           -2.25543709674984        0.18374296532533        3.76100222077493
H           -2.63734567195100        2.14709147239818        5.07695249337402
H           -1.80477216899197        4.03446950116875        6.43071664006231
H            1.65173425057981        4.47727578249181        7.00509900766636
H            4.35122870527189        2.12238953769985        6.14025323726839
H            3.50699053384587        1.65828907946641        4.64145845440061
H            3.14247510380118        0.81250248362116        6.17877001599385
H            1.37705057918326        0.76049253068665        4.57322876400993
H           -2.16337193369720       -4.77966502407230        6.03562761582148
H           -2.40711555660905       -6.11026588646744        8.10454095413062
H            0.42729318094702       -7.34030608121835        9.81059620244497
B           -7.05626106942858        2.93158507200618        1.25969575052725
B           -6.50910713062563        1.74844618085704        0.15086971540714
B           -5.90229120342391        4.09556884926337        1.77054211768719
B           -5.39846026183408        2.66179772989880        1.03041284046144
B           -4.88272593156366        1.25244423938155        0.23797774455560
B           -5.46463567390769       -0.97911906669020       -1.57183028005596
B           -4.97762645759878       -2.51413693058605       -2.15621968687885
B           -4.36584639490045       -0.09824833730476       -0.61449417371413
B           -3.83876555003021       -1.42406707206991       -1.53289404646490
B           -3.30569719649765       -2.70464041284257       -2.49939647338374
B           -4.26516663195858        3.66669228655672        1.80320919409801
B           -3.75427619275014        2.22892406616170        1.03882186761771
B           -3.15826206054219        4.52771822065748        2.75365183602154
B           -2.63008292630082        3.22347410658063        1.81978198007560
B           -2.09777339989162        1.92639345905769        0.86309893183923
B           -2.71777988016468       -0.48505506969086       -0.66581389850957
B           -2.18036521189443       -1.78672464063692       -1.63042453750989
B           -1.57813038605396        0.57784329954923       -0.00075806074956
B           -1.06567264907351       -0.83555788615805       -0.78457723554024
B           -0.55485071670591       -2.24288501752477       -1.56763599875946
B           -1.50517969526006        4.20032799655895        2.62874128551227
B           -0.96829328373952        2.90977680844682        1.64940725955503
B           -0.36569023970861        5.24709930998310        3.31134400878309
B            0.15248879856605        3.87534251947055        2.47467653769208
B            0.67488025068993        2.51798519384326        1.60656389695625
B            0.06898058662883        0.19667078332787       -0.05786512850266
B            0.57622995213083       -1.26394840370676       -0.78288945343087
B            1.19149067949474        1.15343566289034        0.76716981420228
B            1.70597960760248       -0.24894195150486       -0.03294196781141
B            2.21962385035883       -1.64089972689047       -0.83913117074041
B            1.28337129429989        4.90316456995443        3.20519114108630
B            1.78932458655285        3.42669554272100        2.50422320993095
B            2.42056771045354        5.90248404068915        3.95384977939022
B            2.92735208911178        4.47464744953301        3.20670512733507
B            3.43816997514249        3.05689416869228        2.42554508926979
B            2.82389815032079        0.69973922510768        0.81772430602540
B            3.36253587688205       -0.57906565749869       -0.18177435348270
B            3.95347176127380        1.69603472357797        1.58807358727395
B            4.48473616595472        0.37539457175745        0.66325441614017
B            5.01658635315117       -0.89876430083626       -0.31327355383246
B            4.02775940009921        5.33455472952896        4.17463797298601
B            4.57794240205179        4.15420704999977        3.06127011608160
B            5.61977421149113        1.41334280004813        1.35844046176386
B            6.10591922627512       -0.11666403121251        0.76647385922140
H           -8.16208815643753        2.97909454236638        1.64272764138436
H           -7.21581808016588        1.40856909043132       -0.71506082609031
H           -6.25882453091513        5.18715719549248        2.00801529297985
H           -6.47567308071711       -0.52430301640242       -1.94022441220189
H           -5.73688482297993       -3.38445911159491       -2.34765871422332
H           -2.97967592237064       -3.38310863153324       -3.39860252608546
H           -3.54496896439603        5.33278516707584        3.51324920398140
H           -0.21385009139749       -3.25072321226325       -2.06188466439433
H           -0.72022017016125        6.22046906873790        3.85894511594612
H            2.57571493310902       -2.65037798224374       -1.31728144185897
H            2.16829895735627        7.01181911079629        4.23734372469484
H            5.45448215089176       -1.54937742938752       -1.18499211743996
H            4.70319920078922        5.75244872033644        5.03606540890843
H            5.68633455063659        4.18546107108726        2.69191607048996
H            6.41453077318431        2.26262633509663        1.46953477719217
H            7.13565616225609       -0.60514885210826        1.03468234085883
