84
Drug@beta12-B40H15 clean complex
C     -5.287473      1.221738      7.611051
C     -3.970462      0.516269      7.489223
C     -2.787607      1.241631      7.330862
C     -1.559048      0.583844      7.184900
C     -1.477226     -0.811633      7.183611
N     -0.280018     -1.536705      7.039068
C      0.988936     -1.091019      6.878029
N      1.402710      0.152956      6.804295
C      2.774106      0.212185      6.637616
C      3.543245      1.388040      6.522580
C      4.929322      1.299568      6.356921
C      5.554105      0.057567      6.304905
C      4.812724     -1.122944      6.416638
C      3.421310     -1.020373      6.582690
S      2.251403     -2.267067      6.747298
C     -2.677125     -1.528974      7.327194
C     -3.907530     -0.877869      7.473234
H     -5.992212      0.633237      8.207922
H     -5.167861      2.188776      8.110826
H     -5.716879      1.387139      6.618182
H     -2.805469      2.329154      7.319491
H     -0.670512      1.197183      7.070466
H     -0.398505     -2.540290      7.076743
H      3.050412      2.354294      6.563829
H      5.518790      2.209174      6.268600
H      6.633120      0.002293      6.175674
H      5.301223     -2.091667      6.375887
H     -2.669730     -2.616153      7.324184
H     -4.813745     -1.470356      7.574596
B     -4.780602     -2.604513      0.317266
B     -4.569465     -1.356683     -0.648004
B     -4.463861     -0.247381     -1.882945
B     -3.396531     -2.661979     -0.502827
B     -3.038009      0.177607     -1.404773
B     -4.390872      0.342644     -0.192397
B     -5.031012      1.403078      0.819222
B     -4.620094      2.986388      0.997562
B     -2.808851      0.512803      0.199513
B     -3.218551      3.227540      1.793236
B     -2.161133     -3.775821     -0.584343
B     -1.876928     -2.248084     -0.933414
B     -1.697164     -0.613334     -0.835751
B     -0.584443     -3.218984     -0.835049
B     -0.219751     -0.148448     -0.311803
B     -1.394985      0.035818      0.852087
B     -1.775686      1.662110      0.759224
B     -1.897502      3.236989      0.882584
B     -0.215292      1.037200      1.069695
B     -0.752118      4.348002      0.558417
B      0.826501     -4.112870     -0.740049
B      0.925144     -2.505404     -0.749723
B      1.214364     -0.948979     -0.586972
B      2.200665     -3.402586     -0.168167
B      2.622046     -0.195651     -0.292977
B      1.234081      0.551562      0.142600
B      1.124844      2.000923      1.042986
B      0.536600      3.437229      0.618007
B      2.458015      1.672646      0.087495
B      1.213646      3.017073     -0.852963
B      3.220244     -3.850820      1.104428
B      3.624046     -2.653486      0.063737
B      4.025027     -1.121930     -0.236552
B      4.417376     -2.835474      1.420329
B      5.363640     -0.241898     -0.689778
B      4.104119      0.531009     -0.013477
B      4.018093      2.321775     -0.033810
B      2.821838      3.096833     -0.912930
B      5.422007      1.458254     -0.185288
B      4.296118      3.550090     -1.013979
H     -5.168734     -3.094856      1.310677
H     -5.716063     -2.076392     -0.393509
H     -5.264034     -0.120717     -2.741690
H     -5.771097      1.007443      1.664604
H     -5.364514      3.843125      0.672044
H     -3.234300      3.224974      2.975674
H     -2.359297     -4.926237     -0.473225
H     -0.896482      5.475480      0.244253
H      0.822346     -5.249794     -1.023329
H      0.553695      2.694294     -1.783686
H      2.970323     -4.817556      1.717250
H      5.263074     -2.512454      2.156542
H      6.384778     -0.646686     -1.095590
H      6.503197      1.838169      0.065012
H      5.138890      4.252414     -1.415442
