      -----------------------------------------------------------      
     |                   =====================                   |     
     |                           x T B                           |     
     |                   =====================                   |     
     |                         S. Grimme                         |     
     |          Mulliken Center for Theoretical Chemistry        |     
     |                    University of Bonn                     |     
      -----------------------------------------------------------      

   * xtb version 6.7.1pre (5071a88) compiled by 'Marcel@Raven' on 2024-07-23

   xtb is free software: you can redistribute it and/or modify it under
   the terms of the GNU Lesser General Public License as published by
   the Free Software Foundation, either version 3 of the License, or
   (at your option) any later version.
   
   xtb is distributed in the hope that it will be useful,
   but WITHOUT ANY WARRANTY; without even the implied warranty of
   MERCHANTABILITY or FITNESS FOR A PARTICULAR PURPOSE.  See the
   GNU Lesser General Public License for more details.
   
   Cite this work as:
   * C. Bannwarth, E. Caldeweyher, S. Ehlert, A. Hansen, P. Pracht,
     J. Seibert, S. Spicher, S. Grimme, WIREs Comput. Mol. Sci., 2020, 11,
     e01493. DOI: 10.1002/wcms.1493
   
   for GFN2-xTB:
   * C. Bannwarth, S. Ehlert and S. Grimme., J. Chem. Theory Comput., 2019,
     15, 1652-1671. DOI: 10.1021/acs.jctc.8b01176
   for GFN1-xTB:
   * S. Grimme, C. Bannwarth, P. Shushkov, J. Chem. Theory Comput., 2017,
     13, 1989-2009. DOI: 10.1021/acs.jctc.7b00118
   for GFN0-xTB:
   * P. Pracht, E. Caldeweyher, S. Ehlert, S. Grimme, ChemRxiv, 2019, preprint.
     DOI: 10.26434/chemrxiv.8326202.v1
   for GFN-FF:
   * S. Spicher and S. Grimme, Angew. Chem. Int. Ed., 2020, 59, 15665-15673.
     DOI: 10.1002/anie.202004239
   
   for ALPB and GBSA implicit solvation:
   * S. Ehlert, M. Stahn, S. Spicher, S. Grimme, J. Chem. Theory Comput.,
     2021, 17, 4250-4261. DOI: 10.1021/acs.jctc.1c00471
   
   for ddCOSMO and CPCM-X implicit solvation:
   * M. Stahn, S. Ehlert, S. Grimme, J. Phys. Chem. A,
     2023, XX, XXXX-XXXX. DOI: 10.1021/acs.jpca.3c04382
   
   for DFT-D4:
   * E. Caldeweyher, C. Bannwarth and S. Grimme, J. Chem. Phys., 2017,
     147, 034112. DOI: 10.1063/1.4993215
   * E. Caldeweyher, S. Ehlert, A. Hansen, H. Neugebauer, S. Spicher,
     C. Bannwarth and S. Grimme, J. Chem. Phys., 2019, 150, 154122.
     DOI: 10.1063/1.5090222
   * E. Caldeweyher, J.-M. Mewes, S. Ehlert and S. Grimme, Phys. Chem. Chem. Phys.
     2020, 22, 8499-8512. DOI: 10.1039/D0CP00502A
   
   for sTDA-xTB:
   * S. Grimme and C. Bannwarth, J. Chem. Phys., 2016, 145, 054103.
     DOI: 10.1063/1.4959605
   
   in the mass-spec context:
   * V. Asgeirsson, C. Bauer and S. Grimme, Chem. Sci., 2017, 8, 4879.
     DOI: 10.1039/c7sc00601b
   * J. Koopman and S. Grimme, ACS Omega 2019, 4, 12, 15120-15133.
     DOI: 10.1021/acsomega.9b02011
   
   for metadynamics refer to:
   * S. Grimme, J. Chem. Theory Comput., 2019, 155, 2847-2862
     DOI: 10.1021/acs.jctc.9b00143
   
   for SPH calculations refer to:
   * S. Spicher and S. Grimme, J. Chem. Theory Comput., 2021, 17, 1701-1714
     DOI: 10.1021/acs.jctc.0c01306
   
   for ONIOM refer to:
   * C. Plett, A. Katbashev, S. Ehlert, S. Grimme, M. Bursch,
     Phys. Chem. Chem. Phys., 2023, 25, 17860-17868. DOI: 10.1039/D3CP02178E
   
   for DIPRO refer to:
   * J. Kohn, N. Gildemeister, S. Grimme, D. Fazzi, A. Hansen,
     J. Chem. Phys., 2023, just accepted.
   
   for PTB refer to:
   * S. Grimme, M. Mueller, A. Hansen, J. Chem. Phys., 2023, 158, 124111.
     DOI: 10.1063/5.0137838
   
   with help from (in alphabetical order)
   P. Atkinson, C. Bannwarth, F. Bohle, G. Brandenburg, E. Caldeweyher
   M. Checinski, S. Dohm, S. Ehlert, S. Ehrlich, I. Gerasimov, C. Hölzer
   A. Katbashev, J. Kohn, J. Koopman, C. Lavigne, S. Lehtola, F. März, M. Müller,
   F. Musil, H. Neugebauer, J. Pisarek, C. Plett, P. Pracht, F. Pultar,
   J. Seibert, P. Shushkov, S. Spicher, M. Stahn, M. Steiner, T. Strunk,
   J. Stückrath, T. Rose, and J. Unsleber
   
 * started run on 2026/08/31 at 20:19:20.473     
   ID    Z sym.   atoms
    1    6 C      1-4, 6-9, 11-14, 16-18
    2    7 N      5, 10, 19
    3   16 S      15
    4    1 H      20-35, 89-95
    5    5 B      36-88

           -------------------------------------------------
          |                Calculation Setup                |
           -------------------------------------------------

          program call               : "c:\Users\Andre\Proyectos doctorado\kras-pancreatic-gC3N4-ai\tools\xtb\xtb-6.7.1\bin\xtb.exe" "c:\Users\Andre\Proyectos doctorado\borophene-alzheimer-tau-ai\calculations\tau\Toluidine_Blue_O\Toluidine_Blue_O_B48H12_complex.xyz" --gfn 2 --sp --chrg 0 --uhf 0 --iterations 500 --norestart
          coordinate file            : c:\Users\Andre\Proyectos doctorado\borophene-alzheimer-tau-ai\calculations\tau\Toluidine_Blue_O\Toluidine_Blue_O_B48H12_complex.xyz
          omp threads                :                    16


molecular fragmentation (1/2 indicates fragments):
111111111111111111111111111111111111111111111111111111111111111111111111
11111111111111111221111
# atoms in fragment 1/2:    93     2
 fragment masses (1/2) :      848.40        2.02
CMA distance (Bohr)    :  16.368
constraining FC (au)   :  0.0500

           -------------------------------------------------
          |                 G F N 2 - x T B                 |
           -------------------------------------------------

        Reference                      10.1021/acs.jctc.8b01176
      * Hamiltonian:
        H0-scaling (s, p, d)           1.850000    2.230000    2.230000
        zeta-weighting                 0.500000
      * Dispersion:
        s8                             2.700000
        a1                             0.520000
        a2                             5.000000
        s9                             5.000000
      * Repulsion:
        kExp                           1.500000    1.000000
        rExp                           1.000000
      * Coulomb:
        alpha                          2.000000
        third order                    shell-resolved
        anisotropic                    true
        a3                             3.000000
        a5                             4.000000
        cn-shift                       1.200000
        cn-exp                         4.000000
        max-rad                        5.000000


          ...................................................
          :                      SETUP                      :
          :.................................................:
          :  # basis functions                 317          :
          :  # atomic orbitals                 316          :
          :  # shells                          168          :
          :  # electrons                       263          :
          :  max. iterations                   500          :
          :  Hamiltonian                  GFN2-xTB          :
          :  restarted?                      false          :
          :  GBSA solvation                  false          :
          :  PC potential                    false          :
          :  electronic temp.          300.0000000     K    :
          :  accuracy                    1.0000000          :
          :  -> integral cutoff          0.2500000E+02      :
          :  -> integral neglect         0.1000000E-07      :
          :  -> SCF convergence          0.1000000E-05 Eh   :
          :  -> wf. convergence          0.1000000E-03 e    :
          :  Broyden damping             0.4000000          :
          :  net charge                          0          :
          :  unpaired electrons                  0          :
          ...................................................

 iter      E             dE          RMSdq      gap      omega  full diag
   1   -119.4239701 -0.119424E+03  0.170E+01    0.18       0.0  T
   2    -85.5175496  0.339064E+02  0.126E+01    0.03       1.0  T
   3    173.1128629  0.258630E+03  0.249E+01    0.12       1.0  T
   4    -23.9448093 -0.197058E+03  0.146E+01    0.14       1.0  T
   5     59.7555883  0.837004E+02  0.179E+01    0.09       1.0  T
   6    -24.6236883 -0.843793E+02  0.112E+01    0.09       1.0  T
   7    138.4815438  0.163105E+03  0.196E+01    0.16       1.0  T
   8    -48.7334134 -0.187215E+03  0.131E+01    0.02       1.0  T
   9    -23.9643972  0.247690E+02  0.111E+01    0.02       1.0  T
  10   -104.7990339 -0.808346E+02  0.749E+00    0.14       1.0  T
  11   -116.8223411 -0.120233E+02  0.628E+00    0.20       1.0  T
  12   -117.5579842 -0.735643E+00  0.586E+00    0.15       1.0  T
  13   -118.0659352 -0.507951E+00  0.538E+00    0.05       1.0  T
  14   -119.1210717 -0.105514E+01  0.503E+00    0.15       1.0  T
  15   -118.6238894  0.497182E+00  0.509E+00    0.04       1.0  T
  16   -118.2996916  0.324198E+00  0.529E+00    0.05       1.0  T
  17   -118.2863022  0.133894E-01  0.529E+00    0.06       1.0  T
  18   -118.7973281 -0.511026E+00  0.498E+00    0.02       1.0  T
  19   -119.6388816 -0.841553E+00  0.437E+00    0.05       1.0  T
  20   -120.3030132 -0.664132E+00  0.369E+00    0.04       1.0  T
  21   -120.1406457  0.162367E+00  0.361E+00    0.11       1.0  T
  22   -120.1233502  0.172956E-01  0.351E+00    0.02       1.0  T
  23   -120.1827521 -0.594019E-01  0.344E+00    0.03       1.0  T
  24   -120.1872392 -0.448707E-02  0.344E+00    0.03       1.0  T
  25   -120.2099964 -0.227572E-01  0.316E+00    0.05       1.0  T
  26   -120.4173411 -0.207345E+00  0.269E+00    0.09       1.0  T
  27   -120.4009999  0.163412E-01  0.227E+00    0.09       1.0  T
  28   -120.5171185 -0.116119E+00  0.213E+00    0.13       1.0  T
  29   -120.4505498  0.665688E-01  0.210E+00    0.09       1.0  T
  30   -120.5387360 -0.881863E-01  0.194E+00    0.11       1.0  T
  31   -120.6819073 -0.143171E+00  0.159E+00    0.08       1.0  T
  32   -120.7644076 -0.825003E-01  0.128E+00    0.05       1.0  T
  33   -120.7825026 -0.180951E-01  0.116E+00    0.05       1.0  T
  34   -120.8363505 -0.538478E-01  0.100E+00    0.04       1.0  T
  35   -120.8133184  0.230320E-01  0.103E+00    0.05       1.0  T
  36   -120.8643691 -0.510506E-01  0.835E-01    0.04       1.0  T
  37   -120.8902895 -0.259205E-01  0.685E-01    0.04       1.0  T
  38   -120.8937937 -0.350422E-02  0.759E-01    0.06       1.0  T
  39   -120.8939292 -0.135416E-03  0.758E-01    0.06       1.0  T
  40   -120.8973383 -0.340910E-02  0.694E-01    0.06       1.0  T
  41   -120.8753281  0.220101E-01  0.758E-01    0.06       1.0  T
  42   -120.9010663 -0.257381E-01  0.575E-01    0.04       1.0  T
  43   -120.9113714 -0.103052E-01  0.467E-01    0.02       1.0  T
  44   -120.9213394 -0.996791E-02  0.381E-01    0.02       1.0  T
  45   -120.9232186 -0.187928E-02  0.357E-01    0.01       1.0  T
  46   -120.9245901 -0.137142E-02  0.325E-01    0.01       1.0  T
  47   -120.9257629 -0.117287E-02  0.260E-01    0.01       1.0  T
  48   -120.9274244 -0.166152E-02  0.223E-01    0.01       1.0  T
  49   -120.9280475 -0.623049E-03  0.194E-01    0.01       1.0  T
  50   -120.9272177  0.829772E-03  0.194E-01    0.01       1.0  T
  51   -120.9294715 -0.225373E-02  0.153E-01    0.01       1.0  T
  52   -120.9324290 -0.295750E-02  0.118E-01    0.01       1.0  T
  53   -120.9322374  0.191574E-03  0.119E-01    0.01       1.0  T
  54   -120.9324091 -0.171668E-03  0.113E-01    0.01       1.0  T
  55   -120.9331413 -0.732251E-03  0.940E-02    0.01       1.0  T
  56   -120.9338387 -0.697345E-03  0.810E-02    0.01       1.0  T
  57   -120.9344877 -0.649046E-03  0.681E-02    0.01       1.0  T
  58   -120.9343959  0.917530E-04  0.734E-02    0.01       1.0  T
  59   -120.9346720 -0.276081E-03  0.617E-02    0.01       1.0  T
  60   -120.9348880 -0.215937E-03  0.483E-02    0.01       1.0  T
  61   -120.9349637 -0.757402E-04  0.378E-02    0.01       1.0  T
  62   -120.9349452  0.185017E-04  0.379E-02    0.01       1.0  T
  63   -120.9349394  0.576103E-05  0.365E-02    0.01       1.0  T
  64   -120.9350095 -0.700568E-04  0.281E-02    0.01       1.0  T
  65   -120.9350498 -0.403074E-04  0.191E-02    0.01       1.0  T
  66   -120.9350540 -0.423737E-05  0.169E-02    0.01       1.0  T
  67   -120.9350547 -0.639371E-06  0.155E-02    0.01       1.0  T
  68   -120.9350654 -0.106954E-04  0.105E-02    0.01       1.0  T
  69   -120.9350691 -0.372353E-05  0.814E-03    0.01       1.3  T
  70   -120.9350718 -0.270225E-05  0.616E-03    0.01       1.7  T
  71   -120.9350738 -0.199365E-05  0.519E-03    0.01       2.0  T
  72   -120.9350749 -0.112240E-05  0.424E-03    0.01       2.4  T
  73   -120.9350749 -0.161833E-07  0.372E-03    0.01       2.8  T
  74   -120.9350749  0.101050E-07  0.342E-03    0.01       3.0  T
  75   -120.9350754 -0.446357E-06  0.288E-03    0.01       3.6  T
  76   -120.9350757 -0.310705E-06  0.224E-03    0.01       4.6  T
  77   -120.9350760 -0.315445E-06  0.194E-03    0.01       5.3  T
  78   -120.9350759  0.875304E-07  0.204E-03    0.01       5.0  T
  79   -120.9350760 -0.125266E-06  0.185E-03    0.01       5.5  T
  80   -120.9350762 -0.195496E-06  0.137E-03    0.01       7.5  T
  81   -120.9350764 -0.132529E-06  0.935E-04    0.01      11.0  T
  82   -120.9350764 -0.450734E-07  0.701E-04    0.01      14.6  T

   *** convergence criteria satisfied after 82 iterations ***

         #    Occupation            Energy/Eh            Energy/eV
      -------------------------------------------------------------
         1        2.0000           -0.6366826             -17.3250
       ...           ...                  ...                  ...
       126        2.0000           -0.2326486              -6.3307
       127        2.0000           -0.2287753              -6.2253
       128        2.0000           -0.2234578              -6.0806
       129        1.9995           -0.2192264              -5.9655
       130        1.9982           -0.2179901              -5.9318
       131        1.8567           -0.2137227              -5.8157
       132        0.5483           -0.2094851              -5.7004 (HOMO)
       133        0.3982           -0.2090014              -5.6872 (LUMO)
       134        0.1689           -0.2079530              -5.6587
       135        0.0276           -0.2061080              -5.6085
       136        0.0023           -0.2037091              -5.5432
       137        0.0004           -0.2020643              -5.4984
       ...           ...                  ...                  ...
       316                          2.2915043              62.3550
      -------------------------------------------------------------
                  HL-Gap            0.0004837 Eh            0.0132 eV
             Fermi-level           -0.2107480 Eh           -5.7347 eV

 SCC (total)                   0 d,  0 h,  0 min,  1.687 sec
 SCC setup                      ...        0 min,  0.000 sec (  0.000%)
 Dispersion                     ...        0 min,  0.001 sec (  0.059%)
 classical contributions        ...        0 min,  0.001 sec (  0.059%)
 integral evaluation            ...        0 min,  0.011 sec (  0.652%)
 iterations                     ...        0 min,  1.648 sec ( 97.688%)
 molecular gradient             ...        0 min,  0.021 sec (  1.245%)
 printout                       ...        0 min,  0.005 sec (  0.296%)

         :::::::::::::::::::::::::::::::::::::::::::::::::::::
         ::                     SUMMARY                     ::
         :::::::::::::::::::::::::::::::::::::::::::::::::::::
         :: total energy            -118.637116531702 Eh    ::
         :: gradient norm              0.623596695519 Eh/a0 ::
         :: HOMO-LUMO gap              0.013161684037 eV    ::
         ::.................................................::
         :: SCC energy              -120.930709905849 Eh    ::
         :: -> isotropic ES            0.383545359158 Eh    ::
         :: -> anisotropic ES         -0.007168288675 Eh    ::
         :: -> anisotropic XC         -0.054693701448 Eh    ::
         :: -> dispersion             -0.151816863394 Eh    ::
         :: repulsion energy           2.293593374146 Eh    ::
         :: add. restraining           0.000000000000 Eh    ::
         :: total charge              -0.000000000042 e     ::
         :::::::::::::::::::::::::::::::::::::::::::::::::::::

           -------------------------------------------------
          |                Property Printout                |
           -------------------------------------------------

    * Orbital Energies and Occupations

         #    Occupation            Energy/Eh            Energy/eV
      -------------------------------------------------------------
         1        2.0000           -0.6366826             -17.3250
       ...           ...                  ...                  ...
       120        2.0000           -0.2525859              -6.8732
       121        2.0000           -0.2506194              -6.8197
       122        2.0000           -0.2485819              -6.7643
       123        2.0000           -0.2428638              -6.6087
       124        2.0000           -0.2408831              -6.5548
       125        2.0000           -0.2363048              -6.4302
       126        2.0000           -0.2326486              -6.3307
       127        2.0000           -0.2287753              -6.2253
       128        2.0000           -0.2234578              -6.0806
       129        1.9995           -0.2192264              -5.9655
       130        1.9982           -0.2179901              -5.9318
       131        1.8567           -0.2137227              -5.8157
       132        0.5483           -0.2094851              -5.7004 (HOMO)
       133        0.3982           -0.2090014              -5.6872 (LUMO)
       134        0.1689           -0.2079530              -5.6587
       135        0.0276           -0.2061080              -5.6085
       136        0.0023           -0.2037091              -5.5432
       137        0.0004           -0.2020643              -5.4984
       138        0.0000           -0.1942351              -5.2854
       139                         -0.1935569              -5.2670
       140                         -0.1882881              -5.1236
       141                         -0.1866870              -5.0800
       142                         -0.1844851              -5.0201
       143                         -0.1814806              -4.9383
       ...                                ...                  ...
       316                          2.2915043              62.3550
      -------------------------------------------------------------
                  HL-Gap            0.0004837 Eh            0.0132 eV
             Fermi-level           -0.2107480 Eh           -5.7347 eV

     #   Z          covCN         q      C6AA      α(0)
     1   6 C        3.754    -0.113    22.715     6.796
     2   6 C        2.963    -0.047    29.171     8.859
     3   6 C        2.940    -0.091    30.283     9.025
     4   6 C        2.936     0.070    26.432     8.432
     5   7 N        1.860    -0.389    31.042     8.258
     6   6 C        2.938     0.074    26.354     8.419
     7   6 C        2.937    -0.073    29.826     8.957
     8   6 C        2.922    -0.082    30.063     8.992
     9   6 C        2.897     0.034    27.233     8.556
    10   7 N        2.728    -0.132    23.855     7.254
    11   6 C        3.690    -0.129    23.174     6.889
    12   6 C        3.691    -0.041    21.500     6.636
    13   6 C        2.960    -0.119    31.021     9.135
    14   6 C        2.966    -0.071    29.769     8.949
    15  16 S        3.511     0.071   138.181    19.785
    16   6 C        2.977    -0.070    29.734     8.944
    17   6 C        3.254    -0.146    30.520     8.936
    18   6 C        3.213    -0.005    27.485     8.532
    19   7 N        4.125    -0.190    25.103     7.441
    20   1 H        0.924     0.014     2.825     2.629
    21   1 H        0.924     0.038     2.478     2.462
    22   1 H        0.924     0.029     2.602     2.522
    23   1 H        0.925     0.015     2.805     2.619
    24   1 H        0.925     0.012     2.852     2.641
    25   1 H        0.925    -0.005     3.140     2.771
    26   1 H        0.925     0.132     1.521     1.928
    27   1 H        0.924     0.023     2.694     2.567
    28   1 H        0.924     0.021     2.723     2.581
    29   1 H        0.924     0.028     2.616     2.530
    30   1 H        0.924     0.020     2.727     2.583
    31   1 H        0.924     0.033     2.539     2.492
    32   1 H        0.925     0.065     2.136     2.286
    33   1 H        1.289     0.216     1.014     1.572
    34   1 H        2.729     0.409     0.456     1.055
    35   1 H        0.860     0.167     1.293     1.781
    36   5 B        2.887    -0.008    21.551     7.748
    37   5 B        2.890     0.023    21.004     7.649
    38   5 B        2.890     0.029    20.911     7.632
    39   5 B        2.890     0.023    21.011     7.651
    40   5 B        2.890     0.016    21.131     7.672
    41   5 B        2.887     0.004    21.345     7.711
    42   5 B        2.916     0.006    21.300     7.701
    43   5 B        3.868    -0.015    23.023     7.733
    44   5 B        3.868    -0.000    22.741     7.685
    45   5 B        3.868    -0.007    22.859     7.705
    46   5 B        3.868    -0.011    22.952     7.721
    47   5 B        2.916     0.042    20.671     7.587
    48   5 B        3.266    -0.013    21.610     7.753
    49   5 B        2.314     0.069    30.797    10.812
    50   5 B        2.109     0.034    41.130    13.364
    51   5 B        2.577     0.032    21.884     7.978
    52   5 B        3.518    -0.086    23.211     7.990
    53   5 B        2.911    -0.101    23.305     8.056
    54   5 B        2.939    -0.003    21.449     7.727
    55   5 B        2.937    -0.099    23.245     8.044
    56   5 B        2.255    -0.044    37.726    12.335
    57   5 B        2.937    -0.009    21.567     7.749
    58   5 B        4.081    -0.036    23.436     7.800
    59   5 B        1.961    -0.018    44.768    14.070
    60   5 B        3.266    -0.011    21.568     7.745
    61   5 B        2.314     0.062    30.976    10.844
    62   5 B        1.959     0.034    42.889    13.772
    63   5 B        1.960     0.029    43.077    13.802
    64   5 B        2.012     0.061    41.602    13.540
    65   5 B        2.911    -0.056    22.434     7.904
    66   5 B        2.916     0.007    21.280     7.698
    67   5 B        3.868    -0.010    22.930     7.717
    68   5 B        3.868     0.002    22.703     7.679
    69   5 B        3.868    -0.001    22.756     7.688
    70   5 B        3.868    -0.014    22.996     7.728
    71   5 B        2.914    -0.014    21.650     7.764
    72   5 B        2.887    -0.006    21.514     7.742
    73   5 B        2.890     0.023    21.007     7.650
    74   5 B        2.890     0.028    20.920     7.634
    75   5 B        2.890     0.029    20.906     7.631
    76   5 B        2.890     0.022    21.029     7.654
    77   5 B        1.934    -0.010    44.615    14.054
    78   5 B        3.822     0.044    21.928     7.549
    79   5 B        3.822     0.039    22.005     7.562
    80   5 B        3.822     0.043    21.932     7.549
    81   5 B        3.822     0.032    22.143     7.586
    82   5 B        3.822     0.029    22.186     7.593
    83   5 B        3.822     0.044    21.914     7.546
    84   5 B        3.822     0.041    21.980     7.558
    85   5 B        3.822     0.048    21.858     7.537
    86   5 B        3.822     0.042    21.956     7.553
    87   5 B        3.822     0.032    22.135     7.584
    88   5 B        3.381     0.116    19.469     7.355
    89   1 H        0.954    -0.081     4.923     3.468
    90   1 H        0.956     0.012     2.845     2.637
    91   1 H        0.956     0.014     2.828     2.628
    92   1 H        0.954    -0.080     4.913     3.464
    93   1 H        0.954    -0.085     5.070     3.519
    94   1 H        0.956    -0.026     3.549     2.944
    95   1 H        0.956    -0.036     3.757     3.030

 Mol. C6AA /au·bohr⁶  :     163992.019435
 Mol. C8AA /au·bohr⁸  :    5568764.090810
 Mol. α(0) /au        :        682.595248


Wiberg/Mayer (AO) data.
largest (>0.10) Wiberg bond orders for each atom

 ---------------------------------------------------------------------------
     #   Z sym  total        # sym  WBO       # sym  WBO       # sym  WBO
 ---------------------------------------------------------------------------
     1   6 C    3.990 --     2 C    1.016    22 H    0.985    20 H    0.976
                            21 H    0.976
     2   6 C    3.958 --     3 C    1.431    18 C    1.323     1 C    1.016
     3   6 C    3.940 --     2 C    1.431     4 C    1.276    23 H    0.966
     4   6 C    3.972 --     5 N    1.320     3 C    1.276    16 C    1.221
     5   7 N    2.915 --     4 C    1.320     6 C    1.244
     6   6 C    3.976 --     7 C    1.317    14 C    1.254     5 N    1.244
     7   6 C    3.945 --     8 C    1.448     6 C    1.317    24 H    0.969
     8   6 C    3.964 --     7 C    1.448     9 C    1.341    25 H    0.968
     9   6 C    3.938 --     8 C    1.341    13 C    1.339    10 N    1.102
    10   7 N    3.297 --     9 C    1.102    12 C    1.012    11 C    0.999
    11   6 C    3.930 --    10 N    0.999    27 H    0.980    28 H    0.975
                            26 H    0.862
    12   6 C    3.987 --    10 N    1.012    29 H    0.982    31 H    0.979
                            30 H    0.977
    13   6 C    3.959 --    14 C    1.421     9 C    1.339    32 H    0.936
    14   6 C    3.928 --    13 C    1.421     6 C    1.254    15 S    0.911
    15  16 S    2.883 --    16 C    0.945    14 C    0.911    57 B    0.232
                            56 B    0.180    51 B    0.171
    16   6 C    3.925 --    17 C    1.402     4 C    1.221    15 S    0.945
    17   6 C    3.910 --    16 C    1.402    18 C    1.293    33 H    0.689
                            57 B    0.115
    18   6 C    3.890 --     2 C    1.323    17 C    1.293    19 N    1.010
    19   7 N    3.491 --    18 C    1.010    35 H    0.876    58 B    0.578
                            34 H    0.495    52 B    0.272
    20   1 H    0.998 --     1 C    0.976
    21   1 H    0.997 --     1 C    0.976
    22   1 H    0.998 --     1 C    0.985
    23   1 H    0.997 --     3 C    0.966
    24   1 H    0.997 --     7 C    0.969
    25   1 H    0.998 --     8 C    0.968
    26   1 H    0.982 --    11 C    0.862
    27   1 H    0.999 --    11 C    0.980
    28   1 H    0.999 --    11 C    0.975
    29   1 H    0.999 --    12 C    0.982
    30   1 H    0.998 --    12 C    0.977
    31   1 H    0.998 --    12 C    0.979
    32   1 H    0.995 --    13 C    0.936
    33   1 H    0.953 --    17 C    0.689    51 B    0.104
    34   1 H    0.827 --    19 N    0.495    52 B    0.173    58 B    0.111
    35   1 H    0.970 --    19 N    0.876
    36   5 B    3.250 --    42 B    1.089    78 B    0.943    89 H    0.867
                            48 B    0.107
    37   5 B    3.366 --    79 B    0.978    78 B    0.977    43 B    0.934
                            38 B    0.122
    38   5 B    3.417 --    80 B    0.992    79 B    0.985    44 B    0.941
                            39 B    0.127    37 B    0.122
    39   5 B    3.405 --    81 B    0.991    80 B    0.972    45 B    0.944
                            38 B    0.127    40 B    0.103
    40   5 B    3.373 --    82 B    0.962    81 B    0.957    46 B    0.950
                            41 B    0.121    39 B    0.103
    41   5 B    3.300 --    82 B    1.081    47 B    1.013    93 H    0.858
                            40 B    0.121
    42   5 B    3.424 --    48 B    1.182    36 B    1.089    78 B    0.735
                            90 H    0.107
    43   5 B    3.666 --    49 B    1.171    37 B    0.934    79 B    0.688
                            78 B    0.674
    44   5 B    3.644 --    50 B    1.160    38 B    0.941    80 B    0.671
                            79 B    0.659
    45   5 B    3.671 --    51 B    1.167    39 B    0.944    80 B    0.679
                            81 B    0.673
    46   5 B    3.693 --    52 B    1.160    40 B    0.950    81 B    0.698
                            82 B    0.657
    47   5 B    3.447 --    53 B    1.221    41 B    1.013    82 B    0.713
                            94 H    0.150
    48   5 B    3.583 --    42 B    1.182    54 B    0.961    90 H    0.694
                            88 B    0.381    36 B    0.107
    49   5 B    3.355 --    55 B    1.243    43 B    1.171    88 B    0.340
                            61 B    0.160
    50   5 B    3.272 --    56 B    1.383    44 B    1.160    62 B    0.183
    51   5 B    3.303 --    57 B    1.225    45 B    1.167    15 S    0.171
                            63 B    0.104    33 H    0.104
    52   5 B    3.303 --    58 B    1.168    46 B    1.160    19 N    0.272
                            34 H    0.173    64 B    0.135
    53   5 B    3.561 --    59 B    1.305    47 B    1.221    94 H    0.671
                            65 B    0.115
    54   5 B    3.589 --    88 B    1.028    48 B    0.961    60 B    0.959
                            90 H    0.144    91 H    0.144
    55   5 B    3.663 --    61 B    1.270    49 B    1.243    88 B    0.878
    56   5 B    3.375 --    62 B    1.412    50 B    1.383    15 S    0.180
    57   5 B    3.339 --    63 B    1.333    51 B    1.225    15 S    0.232
                            17 C    0.115
    58   5 B    3.406 --    64 B    1.320    52 B    1.168    19 N    0.578
                            34 H    0.111
    59   5 B    3.319 --    65 B    1.351    53 B    1.305    95 H    0.157
                            94 H    0.131
    60   5 B    3.584 --    66 B    1.184    54 B    0.959    91 H    0.694
                            88 B    0.385    72 B    0.110
    61   5 B    3.366 --    55 B    1.270    67 B    1.171    88 B    0.355
                            49 B    0.160
    62   5 B    3.253 --    56 B    1.412    68 B    1.174    50 B    0.183
    63   5 B    3.267 --    57 B    1.333    69 B    1.203    51 B    0.104
    64   5 B    3.266 --    58 B    1.320    70 B    1.216    52 B    0.135
    65   5 B    3.459 --    59 B    1.351    71 B    1.026    95 H    0.699
                            53 B    0.115
    66   5 B    3.417 --    60 B    1.184    72 B    1.086    83 B    0.731
                            91 H    0.107
    67   5 B    3.657 --    61 B    1.171    73 B    0.923    84 B    0.686
                            83 B    0.676
    68   5 B    3.638 --    62 B    1.174    74 B    0.925    85 B    0.670
                            84 B    0.653
    69   5 B    3.651 --    63 B    1.203    75 B    0.925    85 B    0.660
                            86 B    0.651
    70   5 B    3.681 --    64 B    1.216    76 B    0.947    86 B    0.692
                            87 B    0.623
    71   5 B    3.634 --    77 B    1.607    65 B    1.026    87 B    0.709
    72   5 B    3.260 --    66 B    1.086    83 B    0.944    92 H    0.867
                            60 B    0.110    73 B    0.104
    73   5 B    3.371 --    84 B    0.994    83 B    0.976    67 B    0.923
                            74 B    0.120    72 B    0.104
    74   5 B    3.402 --    85 B    1.003    84 B    0.971    68 B    0.925
                            75 B    0.126    73 B    0.120
    75   5 B    3.439 --    86 B    1.012    85 B    0.972    69 B    0.925
                            74 B    0.126    76 B    0.123
    76   5 B    3.506 --    87 B    0.992    70 B    0.947    86 B    0.926
                            77 B    0.180    75 B    0.123
    77   5 B    3.155 --    71 B    1.607    87 B    1.124    76 B    0.180
    78   5 B    3.594 --    37 B    0.977    36 B    0.943    42 B    0.735
                            43 B    0.674
    79   5 B    3.597 --    38 B    0.985    37 B    0.978    43 B    0.688
                            44 B    0.659
    80   5 B    3.605 --    38 B    0.992    39 B    0.972    45 B    0.679
                            44 B    0.671
    81   5 B    3.624 --    39 B    0.991    40 B    0.957    46 B    0.698
                            45 B    0.673
    82   5 B    3.621 --    41 B    1.081    40 B    0.962    47 B    0.713
                            46 B    0.657
    83   5 B    3.590 --    73 B    0.976    72 B    0.944    66 B    0.731
                            67 B    0.676
    84   5 B    3.592 --    73 B    0.994    74 B    0.971    67 B    0.686
                            68 B    0.653
    85   5 B    3.597 --    74 B    1.003    75 B    0.972    68 B    0.670
                            69 B    0.660
    86   5 B    3.604 --    75 B    1.012    76 B    0.926    70 B    0.692
                            69 B    0.651
    87   5 B    3.631 --    77 B    1.124    76 B    0.992    71 B    0.709
                            70 B    0.623
    88   5 B    3.603 --    54 B    1.028    55 B    0.878    60 B    0.385
                            48 B    0.381    61 B    0.355    49 B    0.340
    89   1 H    0.980 --    36 B    0.867
    90   1 H    0.991 --    48 B    0.694    54 B    0.144    42 B    0.107
    91   1 H    0.991 --    60 B    0.694    54 B    0.144    66 B    0.107
    92   1 H    0.980 --    72 B    0.867
    93   1 H    0.986 --    41 B    0.858
    94   1 H    0.985 --    53 B    0.671    47 B    0.150    59 B    0.131
    95   1 H    0.977 --    65 B    0.699    59 B    0.157
 ---------------------------------------------------------------------------

Topologies differ in total number of bonds
Writing topology from bond orders to xtbtopo.mol

molecular dipole:
                 x           y           z       tot (Debye)
 q only:       -1.049      -0.587      -5.773
   full:       -0.345      -0.254      -3.074       7.888
molecular quadrupole (traceless):
                xx          xy          yy          xz          yz          zz
 q only:      -22.591       1.927      60.501       1.249      -9.501     -37.910
  q+dip:       53.230      -1.238      56.972      14.358     -10.291    -110.202
   full:       46.760      -1.752      24.033      15.558     -12.358     -70.793


           -------------------------------------------------
          | TOTAL ENERGY             -118.637116531702 Eh   |
          | GRADIENT NORM               0.623596695519 Eh/α |
          | HOMO-LUMO GAP               0.013161684037 eV   |
           -------------------------------------------------

------------------------------------------------------------------------
 * finished run on 2026/08/31 at 20:19:22.219     
------------------------------------------------------------------------
 total:
 * wall-time:     0 d,  0 h,  0 min,  1.744 sec
 *  cpu-time:     0 d,  0 h,  0 min, 15.469 sec
 * ratio c/w:     8.870 speedup
 SCF:
 * wall-time:     0 d,  0 h,  0 min,  1.689 sec
 *  cpu-time:     0 d,  0 h,  0 min, 15.109 sec
 * ratio c/w:     8.946 speedup

normal termination of xtb
