90
Drug@beta12-B40H15 clean complex
C      5.683813      0.855388      9.558715
C      4.332381      0.448125      9.038783
C      3.195705      0.674473      9.843014
C      1.907911      0.368044      9.436239
N      0.917446      0.634769     10.309332
C     -0.382148      0.400913     10.040192
C     -1.290983      0.723426     11.026346
C     -2.674727      0.525905     10.870933
C     -3.226027     -0.022170      9.705373
N     -4.602609     -0.203121      9.544307
C     -5.090521     -1.024857      8.437186
C     -5.470496     -0.148862     10.720157
C     -2.303146     -0.334131      8.696314
C     -0.915523     -0.135287      8.855349
S      0.151617     -0.589778      7.487673
C      1.765965     -0.179441      8.147554
C      2.883521     -0.418233      7.331192
C      4.177988     -0.158567      7.786004
N      5.253690     -0.306105      6.900901
H      6.317822     -0.026635      9.694542
H      6.166813      1.549534      8.863367
H      5.608445      1.362546     10.526471
H      3.321797      1.122405     10.828097
H     -0.925500      1.150401     11.958256
H     -3.303978      0.825175     11.703835
H     -4.809555     -0.594042      7.470182
H     -6.185009     -1.079460      8.434064
H     -4.708732     -2.049207      8.509756
H     -6.519298     -0.314853     10.449294
H     -5.192397     -0.917209     11.449995
H     -5.436006      0.838460     11.192993
H     -2.644260     -0.741707      7.749476
H      2.738496     -0.815187      6.329252
H      5.102281     -1.000627      6.175674
H      6.155223     -0.420084      7.352157
B     -4.780602     -2.604513      0.317266
B     -4.569465     -1.356683     -0.648004
B     -4.463861     -0.247381     -1.882945
B     -3.396531     -2.661979     -0.502827
B     -3.038009      0.177607     -1.404773
B     -4.390872      0.342644     -0.192397
B     -5.031012      1.403078      0.819222
B     -4.620094      2.986388      0.997562
B     -2.808851      0.512803      0.199513
B     -3.218551      3.227540      1.793236
B     -2.161133     -3.775821     -0.584343
B     -1.876928     -2.248084     -0.933414
B     -1.697164     -0.613334     -0.835751
B     -0.584443     -3.218984     -0.835049
B     -0.219751     -0.148448     -0.311803
B     -1.394985      0.035818      0.852087
B     -1.775686      1.662110      0.759224
B     -1.897502      3.236989      0.882584
B     -0.215292      1.037200      1.069695
B     -0.752118      4.348002      0.558417
B      0.826501     -4.112870     -0.740049
B      0.925144     -2.505404     -0.749723
B      1.214364     -0.948979     -0.586972
B      2.200665     -3.402586     -0.168167
B      2.622046     -0.195651     -0.292977
B      1.234081      0.551562      0.142600
B      1.124844      2.000923      1.042986
B      0.536600      3.437229      0.618007
B      2.458015      1.672646      0.087495
B      1.213646      3.017073     -0.852963
B      3.220244     -3.850820      1.104428
B      3.624046     -2.653486      0.063737
B      4.025027     -1.121930     -0.236552
B      4.417376     -2.835474      1.420329
B      5.363640     -0.241898     -0.689778
B      4.104119      0.531009     -0.013477
B      4.018093      2.321775     -0.033810
B      2.821838      3.096833     -0.912930
B      5.422007      1.458254     -0.185288
B      4.296118      3.550090     -1.013979
H     -5.168734     -3.094856      1.310677
H     -5.716063     -2.076392     -0.393509
H     -5.264034     -0.120717     -2.741690
H     -5.771097      1.007443      1.664604
H     -5.364514      3.843125      0.672044
H     -3.234300      3.224974      2.975674
H     -2.359297     -4.926237     -0.473225
H     -0.896482      5.475480      0.244253
H      0.822346     -5.249794     -1.023329
H      0.553695      2.694294     -1.783686
H      2.970323     -4.817556      1.717250
H      5.263074     -2.512454      2.156542
H      6.384778     -0.646686     -1.095590
H      6.503197      1.838169      0.065012
H      5.138890      4.252414     -1.415442
