95
Drug@B48H12 complex
C      5.683813      0.895580      3.846630
C      4.332381      0.488317      3.326698
C      3.195705      0.714665      4.130929
C      1.907911      0.408236      3.724154
N      0.917446      0.674961      4.597247
C     -0.382148      0.441105      4.328107
C     -1.290983      0.763618      5.314261
C     -2.674727      0.566097      5.158848
C     -3.226027      0.018022      3.993288
N     -4.602609     -0.162929      3.832222
C     -5.090521     -0.984665      2.725101
C     -5.470496     -0.108670      5.008072
C     -2.303146     -0.293939      2.984229
C     -0.915523     -0.095095      3.143264
S      0.151617     -0.549586      1.775588
C      1.765965     -0.139249      2.435469
C      2.883521     -0.378041      1.619107
C      4.177988     -0.118375      2.073919
N      5.253690     -0.265913      1.188816
H      6.317822      0.013557      3.982457
H      6.166813      1.589726      3.151282
H      5.608445      1.402738      4.814386
H      3.321797      1.162597      5.116012
H     -0.925500      1.190593      6.246171
H     -3.303978      0.865367      5.991750
H     -4.809555     -0.553850      1.758097
H     -6.185009     -1.039268      2.721979
H     -4.708732     -2.009015      2.797671
H     -6.519298     -0.274661      4.737209
H     -5.192397     -0.877017      5.737910
H     -5.436006      0.878652      5.480908
H     -2.644260     -0.701515      2.037391
H      2.738496     -0.774995      0.617167
H      5.102281     -0.960435      0.463589
H      6.155223     -0.379892      1.640072
B     -7.500000     -4.500000      0.000000
B     -4.500000     -4.500000      0.000000
B     -1.500000     -4.500000      0.000000
B      1.500000     -4.500000      0.000000
B      4.500000     -4.500000      0.000000
B      7.500000     -4.500000      0.000000
B     -7.500000     -3.000000      0.000000
B     -4.500000     -3.000000      0.000000
B     -1.500000     -3.000000      0.000000
B      1.500000     -3.000000      0.000000
B      4.500000     -3.000000      0.000000
B      7.500000     -3.000000      0.000000
B     -7.500000     -1.500000      0.000000
B     -4.500000     -1.500000      0.000000
B     -1.500000     -1.500000      0.000000
B      1.500000     -1.500000      0.000000
B      4.500000     -1.500000      0.000000
B      7.500000     -1.500000      0.000000
B     -7.500000      0.000000      0.000000
B     -4.500000      0.000000      0.000000
B     -1.500000      0.000000      0.000000
B      1.500000      0.000000      0.000000
B      4.500000      0.000000      0.000000
B      7.500000      0.000000      0.000000
B     -7.500000      1.500000      0.000000
B     -4.500000      1.500000      0.000000
B     -1.500000      1.500000      0.000000
B      1.500000      1.500000      0.000000
B      4.500000      1.500000      0.000000
B      7.500000      1.500000      0.000000
B     -7.500000      3.000000      0.000000
B     -4.500000      3.000000      0.000000
B     -1.500000      3.000000      0.000000
B      1.500000      3.000000      0.000000
B      4.500000      3.000000      0.000000
B      7.500000      3.000000      0.000000
B     -7.500000      4.500000      0.000000
B     -4.500000      4.500000      0.000000
B     -1.500000      4.500000      0.000000
B      1.500000      4.500000      0.000000
B      4.500000      4.500000      0.000000
B      7.500000      4.500000      0.000000
B     -6.000000     -3.750000      0.000000
B     -3.000000     -3.750000      0.000000
B      0.000000     -3.750000      0.000000
B      3.000000     -3.750000      0.000000
B      6.000000     -3.750000      0.000000
B     -6.000000      3.750000      0.000000
B     -3.000000      3.750000      0.000000
B      0.000000      3.750000      0.000000
B      3.000000      3.750000      0.000000
B      6.000000      3.750000      0.000000
B     -6.000000      0.000000      0.000000
H     -8.600000     -4.500000      0.000000
H     -8.600000     -1.500000      0.000000
H     -8.600000      1.500000      0.000000
H     -8.600000      4.500000      0.000000
H      8.600000     -4.500000      0.000000
H      8.600000     -1.500000      0.000000
H      8.600000      1.500000      0.000000
