95
Drug@B48H12 canonical clean complex
C      5.683813      0.855388      8.331499
C      4.332381      0.448125      7.811567
C      3.195705      0.674473      8.615798
C      1.907911      0.368044      8.209023
N      0.917446      0.634769      9.082116
C     -0.382148      0.400913      8.812976
C     -1.290983      0.723426      9.799130
C     -2.674727      0.525905      9.643717
C     -3.226027     -0.022170      8.478157
N     -4.602609     -0.203121      8.317091
C     -5.090521     -1.024857      7.209970
C     -5.470496     -0.148862      9.492941
C     -2.303146     -0.334131      7.469098
C     -0.915523     -0.135287      7.628133
S      0.151617     -0.589778      6.260457
C      1.765965     -0.179441      6.920338
C      2.883521     -0.418233      6.103976
C      4.177988     -0.158567      6.558788
N      5.253690     -0.306105      5.673685
H      6.317822     -0.026635      8.467326
H      6.166813      1.549534      7.636151
H      5.608445      1.362546      9.299255
H      3.321797      1.122405      9.600881
H     -0.925500      1.150401     10.731040
H     -3.303978      0.825175     10.476619
H     -4.809555     -0.594042      6.242966
H     -6.185009     -1.079460      7.206848
H     -4.708732     -2.049207      7.282540
H     -6.519298     -0.314853      9.222078
H     -5.192397     -0.917209     10.222779
H     -5.436006      0.838460      9.965777
H     -2.644260     -0.741707      6.522260
H      2.738496     -0.815187      5.102036
H      5.102281     -1.000627      4.948458
H      6.155223     -0.420084      6.124941
B     -6.925574     -4.651113      0.258651
B     -5.109772     -2.249293      0.322202
B     -3.591500     -2.181365      0.212799
B      0.999259     -2.875448      0.063787
B      2.475853     -3.012223     -0.270859
B      5.299353     -3.831373     -0.667177
B      6.318286     -4.835948     -1.155795
B     -6.434811     -3.158276      0.286374
B     -6.751986     -1.633834      0.316446
B     -2.052572     -2.317325      0.334938
B     -0.484105     -2.461901      0.257444
B      4.018432     -2.901059     -0.287234
B      5.753195     -2.281523     -0.302825
B      6.830072     -3.228788     -1.092903
B     -7.656446     -0.254969      0.343088
B     -6.037404     -0.139472      0.191282
B     -4.431555     -0.535693      0.223935
B     -2.737864     -0.660395      0.328987
B     -1.051797     -0.915695      0.641867
B      0.517067     -1.172154      0.725732
B      3.123140     -1.483076     -0.063477
B      4.700072     -1.133969      0.340157
B      6.266701     -0.787165      0.251702
B      7.671979     -0.351666      1.032714
B     -6.918082      1.212094      0.191543
B     -3.418449      0.780084      0.080928
B     -1.654248      0.532626      0.123936
B      1.862187     -0.403738      0.324587
B      3.584717     -0.150377      0.785151
B      6.990973      0.611062     -0.106825
B      8.307368      1.062865      0.631577
B     -7.619446      2.804022      0.298592
B     -6.123847      2.518506     -0.176534
B     -3.588598      2.327656     -0.236793
B     -0.906130      1.819502     -0.419754
B      1.623430      1.019912     -0.410817
B      3.010841      1.309010      0.529678
B      6.372866      1.858188     -0.915986
B     -6.527660      4.045620     -0.160807
B     -4.873588      3.494810     -0.388449
B     -3.415521      3.880123     -0.606384
B     -2.023468      3.220559     -0.676715
B     -0.497363      3.279553     -0.896985
B      0.710715      2.332441     -0.745678
B      2.335338      2.478091     -0.475438
B      3.816082      2.619470     -0.094099
B      5.369811      2.864588     -0.148865
B      6.055136      4.080007      0.631212
H      6.204101      5.147675      0.146336
H      8.218389     -1.121032      1.726840
H      6.622436      1.981791     -2.067388
H     -7.089961     -5.250634     -0.753775
H     -6.791161      5.181470     -0.285186
H      9.156919      1.846573      0.789984
H     -8.827690     -0.375757      0.328558
H      6.783879     -5.868988     -1.446538
H     -8.724710      3.001220      0.638842
H      7.891803     -2.883539     -1.473727
H      6.428164      3.999644      1.748458
H     -7.224878     -5.282314      1.218688
