      -----------------------------------------------------------      
     |                   =====================                   |     
     |                           x T B                           |     
     |                   =====================                   |     
     |                         S. Grimme                         |     
     |          Mulliken Center for Theoretical Chemistry        |     
     |                    University of Bonn                     |     
      -----------------------------------------------------------      

   * xtb version 6.7.1pre (5071a88) compiled by 'Marcel@Raven' on 2024-07-23

   xtb is free software: you can redistribute it and/or modify it under
   the terms of the GNU Lesser General Public License as published by
   the Free Software Foundation, either version 3 of the License, or
   (at your option) any later version.
   
   xtb is distributed in the hope that it will be useful,
   but WITHOUT ANY WARRANTY; without even the implied warranty of
   MERCHANTABILITY or FITNESS FOR A PARTICULAR PURPOSE.  See the
   GNU Lesser General Public License for more details.
   
   Cite this work as:
   * C. Bannwarth, E. Caldeweyher, S. Ehlert, A. Hansen, P. Pracht,
     J. Seibert, S. Spicher, S. Grimme, WIREs Comput. Mol. Sci., 2020, 11,
     e01493. DOI: 10.1002/wcms.1493
   
   for GFN2-xTB:
   * C. Bannwarth, S. Ehlert and S. Grimme., J. Chem. Theory Comput., 2019,
     15, 1652-1671. DOI: 10.1021/acs.jctc.8b01176
   for GFN1-xTB:
   * S. Grimme, C. Bannwarth, P. Shushkov, J. Chem. Theory Comput., 2017,
     13, 1989-2009. DOI: 10.1021/acs.jctc.7b00118
   for GFN0-xTB:
   * P. Pracht, E. Caldeweyher, S. Ehlert, S. Grimme, ChemRxiv, 2019, preprint.
     DOI: 10.26434/chemrxiv.8326202.v1
   for GFN-FF:
   * S. Spicher and S. Grimme, Angew. Chem. Int. Ed., 2020, 59, 15665-15673.
     DOI: 10.1002/anie.202004239
   
   for ALPB and GBSA implicit solvation:
   * S. Ehlert, M. Stahn, S. Spicher, S. Grimme, J. Chem. Theory Comput.,
     2021, 17, 4250-4261. DOI: 10.1021/acs.jctc.1c00471
   
   for ddCOSMO and CPCM-X implicit solvation:
   * M. Stahn, S. Ehlert, S. Grimme, J. Phys. Chem. A,
     2023, XX, XXXX-XXXX. DOI: 10.1021/acs.jpca.3c04382
   
   for DFT-D4:
   * E. Caldeweyher, C. Bannwarth and S. Grimme, J. Chem. Phys., 2017,
     147, 034112. DOI: 10.1063/1.4993215
   * E. Caldeweyher, S. Ehlert, A. Hansen, H. Neugebauer, S. Spicher,
     C. Bannwarth and S. Grimme, J. Chem. Phys., 2019, 150, 154122.
     DOI: 10.1063/1.5090222
   * E. Caldeweyher, J.-M. Mewes, S. Ehlert and S. Grimme, Phys. Chem. Chem. Phys.
     2020, 22, 8499-8512. DOI: 10.1039/D0CP00502A
   
   for sTDA-xTB:
   * S. Grimme and C. Bannwarth, J. Chem. Phys., 2016, 145, 054103.
     DOI: 10.1063/1.4959605
   
   in the mass-spec context:
   * V. Asgeirsson, C. Bauer and S. Grimme, Chem. Sci., 2017, 8, 4879.
     DOI: 10.1039/c7sc00601b
   * J. Koopman and S. Grimme, ACS Omega 2019, 4, 12, 15120-15133.
     DOI: 10.1021/acsomega.9b02011
   
   for metadynamics refer to:
   * S. Grimme, J. Chem. Theory Comput., 2019, 155, 2847-2862
     DOI: 10.1021/acs.jctc.9b00143
   
   for SPH calculations refer to:
   * S. Spicher and S. Grimme, J. Chem. Theory Comput., 2021, 17, 1701-1714
     DOI: 10.1021/acs.jctc.0c01306
   
   for ONIOM refer to:
   * C. Plett, A. Katbashev, S. Ehlert, S. Grimme, M. Bursch,
     Phys. Chem. Chem. Phys., 2023, 25, 17860-17868. DOI: 10.1039/D3CP02178E
   
   for DIPRO refer to:
   * J. Kohn, N. Gildemeister, S. Grimme, D. Fazzi, A. Hansen,
     J. Chem. Phys., 2023, just accepted.
   
   for PTB refer to:
   * S. Grimme, M. Mueller, A. Hansen, J. Chem. Phys., 2023, 158, 124111.
     DOI: 10.1063/5.0137838
   
   with help from (in alphabetical order)
   P. Atkinson, C. Bannwarth, F. Bohle, G. Brandenburg, E. Caldeweyher
   M. Checinski, S. Dohm, S. Ehlert, S. Ehrlich, I. Gerasimov, C. Hölzer
   A. Katbashev, J. Kohn, J. Koopman, C. Lavigne, S. Lehtola, F. März, M. Müller,
   F. Musil, H. Neugebauer, J. Pisarek, C. Plett, P. Pracht, F. Pultar,
   J. Seibert, P. Shushkov, S. Spicher, M. Stahn, M. Steiner, T. Strunk,
   J. Stückrath, T. Rose, and J. Unsleber
   
 * started run on 2026/08/31 at 22:04:20.347     
   ID    Z sym.   atoms
    1    6 C      1-4, 6-9, 11-14, 16-18
    2    7 N      5, 10, 19
    3   16 S      15
    4    1 H      20-35, 89-95
    5    5 B      36-88

           -------------------------------------------------
          |                Calculation Setup                |
           -------------------------------------------------

          program call               : "c:\Users\Andre\Proyectos doctorado\kras-pancreatic-gC3N4-ai\tools\xtb\xtb-6.7.1\bin\xtb.exe" "c:\Users\Andre\Proyectos doctorado\borophene-alzheimer-tau-ai\calculations\tau\Toluidine_Blue_O\Toluidine_Blue_O_B48H12_clean_complex.xyz" --gfn 2 --sp --chrg 1 --uhf 0 --etemp 300 --iterations 500 --norestart
          coordinate file            : c:\Users\Andre\Proyectos doctorado\borophene-alzheimer-tau-ai\calculations\tau\Toluidine_Blue_O\Toluidine_Blue_O_B48H12_clean_complex.xyz
          omp threads                :                    16


molecular fragmentation (1/2 indicates fragments):
111111111111111111111111111111111112222222222222222222222222222222222222
22222222222222222222222
# atoms in fragment 1/2:    35    60
 fragment masses (1/2) :      270.37      580.04
CMA distance (Bohr)    :  15.213
constraining FC (au)   :  0.0500

           -------------------------------------------------
          |                 G F N 2 - x T B                 |
           -------------------------------------------------

        Reference                      10.1021/acs.jctc.8b01176
      * Hamiltonian:
        H0-scaling (s, p, d)           1.850000    2.230000    2.230000
        zeta-weighting                 0.500000
      * Dispersion:
        s8                             2.700000
        a1                             0.520000
        a2                             5.000000
        s9                             5.000000
      * Repulsion:
        kExp                           1.500000    1.000000
        rExp                           1.000000
      * Coulomb:
        alpha                          2.000000
        third order                    shell-resolved
        anisotropic                    true
        a3                             3.000000
        a5                             4.000000
        cn-shift                       1.200000
        cn-exp                         4.000000
        max-rad                        5.000000


          ...................................................
          :                      SETUP                      :
          :.................................................:
          :  # basis functions                 317          :
          :  # atomic orbitals                 316          :
          :  # shells                          168          :
          :  # electrons                       262          :
          :  max. iterations                   500          :
          :  Hamiltonian                  GFN2-xTB          :
          :  restarted?                      false          :
          :  GBSA solvation                  false          :
          :  PC potential                    false          :
          :  electronic temp.          300.0000000     K    :
          :  accuracy                    1.0000000          :
          :  -> integral cutoff          0.2500000E+02      :
          :  -> integral neglect         0.1000000E-07      :
          :  -> SCF convergence          0.1000000E-05 Eh   :
          :  -> wf. convergence          0.1000000E-03 e    :
          :  Broyden damping             0.4000000          :
          :  net charge                          1          :
          :  unpaired electrons                  0          :
          ...................................................

 iter      E             dE          RMSdq      gap      omega  full diag
   1   -120.3838329 -0.120384E+03  0.153E+01    0.15       0.0  T
   2   -106.8111063  0.135727E+02  0.115E+01    0.07       1.0  T
   3    122.0910537  0.228902E+03  0.195E+01    0.13       1.0  T
   4    131.8211525  0.973010E+01  0.191E+01    0.01       1.0  T
   5    -75.0465606 -0.206868E+03  0.110E+01    0.03       1.0  T
   6    -39.1234410  0.359231E+02  0.108E+01    0.06       1.0  T
   7   -104.5445260 -0.654211E+02  0.678E+00    0.13       1.0  T
   8   -105.2115314 -0.667005E+00  0.637E+00    0.10       1.0  T
   9   -117.8334405 -0.126219E+02  0.421E+00    0.23       1.0  T
  10   -116.3332529  0.150019E+01  0.427E+00    0.04       1.0  T
  11   -120.8674138 -0.453416E+01  0.324E+00    0.26       1.0  T
  12   -120.9562294 -0.888156E-01  0.293E+00    0.29       1.0  T
  13   -120.9978625 -0.416331E-01  0.280E+00    0.34       1.0  T
  14   -121.1615494 -0.163687E+00  0.240E+00    0.10       1.0  T
  15   -120.8304530  0.331096E+00  0.210E+00    0.21       1.0  T
  16   -121.0513812 -0.220928E+00  0.193E+00    0.17       1.0  T
  17   -121.0032476  0.481337E-01  0.194E+00    0.20       1.0  T
  18   -121.0542122 -0.509646E-01  0.184E+00    0.18       1.0  T
  19   -121.2598614 -0.205649E+00  0.148E+00    0.19       1.0  T
  20   -121.2834626 -0.236013E-01  0.124E+00    0.04       1.0  T
  21   -121.2905614 -0.709880E-02  0.124E+00    0.38       1.0  T
  22   -121.3573517 -0.667902E-01  0.111E+00    0.43       1.0  T
  23   -121.3801659 -0.228142E-01  0.100E+00    0.25       1.0  T
  24   -121.4589235 -0.787576E-01  0.826E-01    0.09       1.0  T
  25   -121.5070964 -0.481729E-01  0.617E-01    0.01       1.0  T
  26   -121.4209900  0.861064E-01  0.941E-01    0.18       1.0  T
  27   -121.4198394  0.115065E-02  0.940E-01    0.19       1.0  T
  28   -121.4296162 -0.977684E-02  0.867E-01    0.18       1.0  T
  29   -121.4594981 -0.298818E-01  0.705E-01    0.15       1.0  T
  30   -121.4751077 -0.156097E-01  0.623E-01    0.12       1.0  T
  31   -121.4674230  0.768475E-02  0.637E-01    0.14       1.0  T
  32   -121.4583807  0.904230E-02  0.645E-01    0.17       1.0  T
  33   -121.4803999 -0.220192E-01  0.524E-01    0.12       1.0  T
  34   -121.4875420 -0.714210E-02  0.490E-01    0.11       1.0  T
  35   -121.5052933 -0.177513E-01  0.399E-01    0.08       1.0  T
  36   -121.5230498 -0.177565E-01  0.266E-01    0.05       1.0  T
  37   -121.5276268 -0.457694E-02  0.210E-01    0.05       1.0  T
  38   -121.5351488 -0.752205E-02  0.823E-02    0.01       1.0  T
  39   -121.5343284  0.820461E-03  0.995E-02    0.03       1.0  T
  40   -121.5290968  0.523154E-02  0.178E-01    0.01       1.0  T
  41   -121.5327529 -0.365607E-02  0.122E-01    0.00       1.0  T
  42   -121.5310984  0.165445E-02  0.152E-01    0.00       1.0  T
  43   -121.5344013 -0.330287E-02  0.869E-02    0.01       1.0  T
  44   -121.5355072 -0.110586E-02  0.310E-02    0.02       1.0  T
  45   -121.5347155  0.791713E-03  0.651E-02    0.03       1.0  T
  46   -121.5342791  0.436316E-03  0.800E-02    0.03       1.0  T
  47   -121.5351007 -0.821586E-03  0.546E-02    0.03       1.0  T
  48   -121.5357433 -0.642580E-03  0.122E-02    0.02       1.0  T
  49   -121.5357430  0.267686E-06  0.118E-02    0.02       1.0  T
  50   -121.5357629 -0.198156E-04  0.498E-03    0.02       2.1  T
  51   -121.5357653 -0.244771E-05  0.283E-03    0.02       3.6  T
  52   -121.5357627  0.259989E-05  0.438E-03    0.02       2.3  T
  53   -121.5357583  0.445029E-05  0.622E-03    0.02       1.7  T
  54   -121.5357648 -0.657622E-05  0.272E-03    0.02       3.8  T
  55   -121.5357648  0.349131E-07  0.265E-03    0.02       3.9  T
  56   -121.5357656 -0.811019E-06  0.143E-03    0.02       7.2  T
  57   -121.5357659 -0.242633E-06  0.853E-04    0.02      12.0  T
  58   -121.5357660 -0.143752E-06  0.292E-04    0.02      35.2  T

   *** convergence criteria satisfied after 58 iterations ***

         #    Occupation            Energy/Eh            Energy/eV
      -------------------------------------------------------------
         1        2.0000           -0.7513532             -20.4454
       ...           ...                  ...                  ...
       125        2.0000           -0.3623433              -9.8599
       126        2.0000           -0.3576617              -9.7325
       127        2.0000           -0.3570984              -9.7171
       128        2.0000           -0.3526542              -9.5962
       129        1.9987           -0.3486320              -9.4868
       130        1.9941           -0.3471884              -9.4475
       131        1.1660           -0.3419709              -9.3055 (HOMO)
       132        0.8412           -0.3413483              -9.2886 (LUMO)
       133                         -0.3239290              -8.8146
       134                         -0.3195138              -8.6944
       135                         -0.3165299              -8.6132
       136                         -0.3073495              -8.3634
       ...                                ...                  ...
       316                          1.0972252              29.8570
      -------------------------------------------------------------
                  HL-Gap            0.0006226 Eh            0.0169 eV
             Fermi-level           -0.3416526 Eh           -9.2968 eV

 SCC (total)                   0 d,  0 h,  0 min,  1.108 sec
 SCC setup                      ...        0 min,  0.001 sec (  0.090%)
 Dispersion                     ...        0 min,  0.002 sec (  0.180%)
 classical contributions        ...        0 min,  0.000 sec (  0.000%)
 integral evaluation            ...        0 min,  0.008 sec (  0.722%)
 iterations                     ...        0 min,  1.075 sec ( 97.022%)
 molecular gradient             ...        0 min,  0.021 sec (  1.895%)
 printout                       ...        0 min,  0.001 sec (  0.090%)

         :::::::::::::::::::::::::::::::::::::::::::::::::::::
         ::                     SUMMARY                     ::
         :::::::::::::::::::::::::::::::::::::::::::::::::::::
         :: total energy            -119.661691185899 Eh    ::
         :: gradient norm              0.102278528966 Eh/a0 ::
         :: HOMO-LUMO gap              0.016943108759 eV    ::
         ::.................................................::
         :: SCC energy              -121.534123084457 Eh    ::
         :: -> isotropic ES            0.252682019073 Eh    ::
         :: -> anisotropic ES         -0.000020835863 Eh    ::
         :: -> anisotropic XC         -0.021753064597 Eh    ::
         :: -> dispersion             -0.117274494312 Eh    ::
         :: repulsion energy           1.872431898559 Eh    ::
         :: add. restraining           0.000000000000 Eh    ::
         :: total charge               0.999999999999 e     ::
         :::::::::::::::::::::::::::::::::::::::::::::::::::::

           -------------------------------------------------
          |                Property Printout                |
           -------------------------------------------------

    * Orbital Energies and Occupations

         #    Occupation            Energy/Eh            Energy/eV
      -------------------------------------------------------------
         1        2.0000           -0.7513532             -20.4454
       ...           ...                  ...                  ...
       119        2.0000           -0.3762460             -10.2382
       120        2.0000           -0.3752105             -10.2100
       121        2.0000           -0.3720446             -10.1238
       122        2.0000           -0.3690909             -10.0435
       123        2.0000           -0.3677414             -10.0068
       124        2.0000           -0.3642989              -9.9131
       125        2.0000           -0.3623433              -9.8599
       126        2.0000           -0.3576617              -9.7325
       127        2.0000           -0.3570984              -9.7171
       128        2.0000           -0.3526542              -9.5962
       129        1.9987           -0.3486320              -9.4868
       130        1.9941           -0.3471884              -9.4475
       131        1.1660           -0.3419709              -9.3055 (HOMO)
       132        0.8412           -0.3413483              -9.2886 (LUMO)
       133                         -0.3239290              -8.8146
       134                         -0.3195138              -8.6944
       135                         -0.3165299              -8.6132
       136                         -0.3073495              -8.3634
       137                         -0.3061612              -8.3311
       138                         -0.3025101              -8.2317
       139                         -0.2947617              -8.0209
       140                         -0.2905798              -7.9071
       141                         -0.2860766              -7.7845
       142                         -0.2787250              -7.5845
       ...                                ...                  ...
       316                          1.0972252              29.8570
      -------------------------------------------------------------
                  HL-Gap            0.0006226 Eh            0.0169 eV
             Fermi-level           -0.3416526 Eh           -9.2968 eV

     #   Z          covCN         q      C6AA      α(0)
     1   6 C        3.754    -0.109    22.642     6.785
     2   6 C        2.963    -0.016    28.399     8.741
     3   6 C        2.940    -0.063    29.557     8.916
     4   6 C        2.936     0.086    26.093     8.378
     5   7 N        1.860    -0.306    28.780     7.952
     6   6 C        2.938     0.087    26.056     8.372
     7   6 C        2.937    -0.051    29.265     8.872
     8   6 C        2.922    -0.064    29.597     8.922
     9   6 C        2.897     0.057    26.712     8.474
    10   7 N        2.728    -0.097    23.141     7.145
    11   6 C        3.690    -0.051    21.681     6.664
    12   6 C        3.691    -0.047    21.616     6.653
    13   6 C        2.960    -0.081    30.030     8.988
    14   6 C        2.966     0.011    27.764     8.643
    15  16 S        2.076    -0.115   145.887    20.329
    16   6 C        2.966     0.006    27.876     8.660
    17   6 C        2.957    -0.087    30.172     9.010
    18   6 C        2.893     0.059    26.682     8.469
    19   7 N        2.637    -0.296    27.618     7.805
    20   1 H        0.924     0.038     2.477     2.461
    21   1 H        0.924     0.044     2.400     2.423
    22   1 H        0.924     0.047     2.357     2.401
    23   1 H        0.925     0.053     2.283     2.363
    24   1 H        0.925     0.051     2.312     2.378
    25   1 H        0.925     0.031     2.569     2.507
    26   1 H        0.924     0.050     2.318     2.381
    27   1 H        0.924     0.049     2.327     2.386
    28   1 H        0.924     0.042     2.426     2.436
    29   1 H        0.924     0.049     2.334     2.389
    30   1 H        0.924     0.042     2.419     2.432
    31   1 H        0.924     0.054     2.274     2.358
    32   1 H        0.925     0.029     2.602     2.523
    33   1 H        0.925     0.021     2.724     2.581
    34   1 H        0.860     0.149     1.405     1.857
    35   1 H        0.860     0.162     1.322     1.801
    36   5 B        2.872     0.057    20.449     7.549
    37   5 B        3.645     0.036    21.672     7.580
    38   5 B        3.704     0.023    22.148     7.615
    39   5 B        3.599     0.017    21.716     7.644
    40   5 B        3.804     0.025    22.263     7.608
    41   5 B        3.812     0.045    21.893     7.543
    42   5 B        4.425     0.065    21.572     7.484
    43   5 B        3.843     0.030    22.185     7.592
    44   5 B        5.059     0.055    21.745     7.514
    45   5 B        5.523     0.106    20.864     7.360
    46   5 B        3.792     0.007    22.571     7.661
    47   5 B        4.799     0.093    21.086     7.399
    48   5 B        4.746     0.066    21.556     7.481
    49   5 B        3.691     0.021    22.152     7.623
    50   5 B        3.741     0.027    22.152     7.600
    51   5 B        4.170    -0.009    22.911     7.712
    52   5 B        3.938     0.016    22.440     7.633
    53   5 B        3.779     0.085    21.187     7.424
    54   5 B        3.808     0.076    21.353     7.450
    55   5 B        3.812    -0.006    22.826     7.702
    56   5 B        3.702     0.004    22.496     7.676
    57   5 B        3.825     0.016    22.430     7.634
    58   5 B        4.691     0.062    21.619     7.492
    59   5 B        4.735     0.055    21.750     7.514
    60   5 B        3.813     0.085    21.203     7.424
    61   5 B        2.071     0.006    42.807    13.685
    62   5 B        3.706     0.012    22.363     7.651
    63   5 B        4.547     0.031    22.177     7.588
    64   5 B        4.200     0.038    22.051     7.566
    65   5 B        3.748     0.080    21.233     7.439
    66   5 B        3.840     0.004    22.648     7.671
    67   5 B        3.769     0.023    22.261     7.612
    68   5 B        4.530     0.072    21.447     7.462
    69   5 B        5.624     0.098    21.000     7.384
    70   5 B        3.805     0.028    22.196     7.596
    71   5 B        3.825     0.028    22.213     7.597
    72   5 B        2.886     0.088    19.928     7.451
    73   5 B        2.918     0.060    20.370     7.531
    74   5 B        2.913     0.038    20.746     7.601
    75   5 B        3.630     0.027    21.732     7.608
    76   5 B        3.792     0.018    22.372     7.628
    77   5 B        2.860     0.020    21.083     7.666
    78   5 B        2.920    -0.010    21.588     7.753
    79   5 B        3.825     0.031    22.160     7.588
    80   5 B        2.901    -0.007    21.526     7.743
    81   5 B        4.532     0.048    21.876     7.536
    82   5 B        3.896     0.048    21.864     7.535
    83   5 B        3.818     0.025    22.259     7.606
    84   5 B        3.778    -0.022    23.121     7.756
    85   5 B        3.628     0.001    22.203     7.692
    86   5 B        4.556     0.037    22.072     7.570
    87   5 B        3.280     0.042    20.651     7.578
    88   5 B        4.869     0.091    21.123     7.405
    89   1 H        0.937    -0.151     7.753     4.353
    90   1 H        0.935    -0.118     6.250     3.909
    91   1 H        0.936    -0.112     6.004     3.831
    92   1 H        0.939    -0.125     6.517     3.991
    93   1 H        0.936    -0.112     5.995     3.828
    94   1 H        0.937    -0.117     6.204     3.894
    95   1 H        0.934    -0.113     6.028     3.839

 Mol. C6AA /au·bohr⁶  :     156656.523890
 Mol. C8AA /au·bohr⁸  :    5248860.246556
 Mol. α(0) /au        :        640.507068


Wiberg/Mayer (AO) data.
largest (>0.10) Wiberg bond orders for each atom

 ---------------------------------------------------------------------------
     #   Z sym  total        # sym  WBO       # sym  WBO       # sym  WBO
 ---------------------------------------------------------------------------
     1   6 C    3.995 --     2 C    1.025    22 H    0.984    21 H    0.974
                            20 H    0.971
     2   6 C    3.969 --     3 C    1.454    18 C    1.309     1 C    1.025
     3   6 C    3.910 --     2 C    1.454     4 C    1.291    23 H    0.964
     4   6 C    3.973 --     3 C    1.291     5 N    1.286    16 C    1.239
     5   7 N    2.758 --     6 C    1.286     4 C    1.286
     6   6 C    3.967 --     7 C    1.287     5 N    1.286    14 C    1.239
     7   6 C    3.914 --     8 C    1.490     6 C    1.287    24 H    0.966
     8   6 C    3.962 --     7 C    1.490     9 C    1.313    25 H    0.967
     9   6 C    3.907 --    13 C    1.329     8 C    1.313    10 N    1.141
    10   7 N    3.321 --     9 C    1.141    11 C    1.007    12 C    1.005
    11   6 C    3.978 --    10 N    1.007    27 H    0.981    26 H    0.977
                            28 H    0.976
    12   6 C    3.976 --    10 N    1.005    29 H    0.981    31 H    0.977
                            30 H    0.976
    13   6 C    3.974 --    14 C    1.432     9 C    1.329    32 H    0.965
    14   6 C    3.882 --    13 C    1.432     6 C    1.239    15 S    1.035
    15  16 S    2.318 --    16 C    1.039    14 C    1.035
    16   6 C    3.881 --    17 C    1.422     4 C    1.239    15 S    1.039
    17   6 C    3.974 --    16 C    1.422    18 C    1.354    33 H    0.967
    18   6 C    3.897 --    17 C    1.354     2 C    1.309    19 N    1.118
    19   7 N    3.168 --    18 C    1.118    34 H    0.958    35 H    0.952
    20   1 H    0.997 --     1 C    0.971
    21   1 H    0.997 --     1 C    0.974
    22   1 H    0.997 --     1 C    0.984
    23   1 H    0.997 --     3 C    0.964
    24   1 H    0.997 --     7 C    0.966
    25   1 H    0.998 --     8 C    0.967
    26   1 H    0.996 --    11 C    0.977
    27   1 H    0.997 --    11 C    0.981
    28   1 H    0.995 --    11 C    0.976
    29   1 H    0.997 --    12 C    0.981
    30   1 H    0.994 --    12 C    0.976
    31   1 H    0.995 --    12 C    0.977
    32   1 H    0.999 --    13 C    0.965
    33   1 H    0.999 --    17 C    0.967
    34   1 H    0.976 --    19 N    0.958
    35   1 H    0.972 --    19 N    0.952
    36   5 B    3.431 --    78 B    1.399    89 H    0.966    42 B    0.819
    37   5 B    3.497 --    78 B    1.122    79 B    0.985    43 B    0.556
                            42 B    0.507
    38   5 B    3.496 --    80 B    1.271    79 B    1.009    45 B    0.488
                            44 B    0.448
    39   5 B    3.459 --    80 B    1.273    40 B    1.019    45 B    0.558
                            81 B    0.363
    40   5 B    3.521 --    82 B    1.082    39 B    1.019    46 B    0.684
                            81 B    0.486
    41   5 B    3.580 --    93 H    0.944    82 B    0.851    47 B    0.801
                            53 B    0.797
    42   5 B    3.594 --    48 B    0.834    36 B    0.819    78 B    0.777
                            37 B    0.507    49 B    0.398
    43   5 B    3.548 --    49 B    1.093    79 B    0.760    44 B    0.702
                            37 B    0.556
    44   5 B    3.590 --    50 B    0.952    43 B    0.702    45 B    0.518
                            79 B    0.505    38 B    0.448    51 B    0.236
    45   5 B    3.592 --    51 B    0.625    81 B    0.618    80 B    0.591
                            39 B    0.558    44 B    0.518    38 B    0.488
    46   5 B    3.590 --    52 B    1.106    81 B    0.922    40 B    0.684
                            82 B    0.502
    47   5 B    3.595 --    53 B    0.842    41 B    0.801    59 B    0.686
                            82 B    0.599    52 B    0.513
    48   5 B    3.619 --    42 B    0.834    54 B    0.755    49 B    0.692
                            55 B    0.552    88 B    0.496
    49   5 B    3.527 --    43 B    1.093    55 B    0.925    48 B    0.692
                            42 B    0.398
    50   5 B    3.422 --    56 B    1.106    44 B    0.952    57 B    0.588
                            51 B    0.414
    51   5 B    3.591 --    57 B    1.118    81 B    0.898    45 B    0.625
                            50 B    0.414    44 B    0.236
    52   5 B    3.545 --    46 B    1.106    58 B    0.831    59 B    0.607
                            47 B    0.513    82 B    0.184
    53   5 B    3.493 --    94 H    0.958    47 B    0.842    41 B    0.797
                            59 B    0.666
    54   5 B    3.494 --    90 H    0.944    60 B    0.801    48 B    0.755
                            88 B    0.717
    55   5 B    3.619 --    61 B    1.268    49 B    0.925    48 B    0.552
                            88 B    0.547
    56   5 B    3.478 --    62 B    1.153    50 B    1.106    57 B    0.546
                            63 B    0.401
    57   5 B    3.565 --    51 B    1.118    63 B    0.977    50 B    0.588
                            56 B    0.546
    58   5 B    3.573 --    64 B    0.856    52 B    0.831    71 B    0.561
                            59 B    0.549    65 B    0.498
    59   5 B    3.597 --    65 B    0.866    47 B    0.686    53 B    0.666
                            52 B    0.607    58 B    0.549
    60   5 B    3.554 --    91 H    0.946    54 B    0.801    88 B    0.759
                            66 B    0.739
    61   5 B    3.409 --    67 B    1.328    55 B    1.268    88 B    0.205
                            83 B    0.156
    62   5 B    3.422 --    56 B    1.153    68 B    1.010    69 B    0.511
                            63 B    0.466
    63   5 B    3.549 --    57 B    0.977    86 B    0.760    69 B    0.651
                            62 B    0.466    56 B    0.401
    64   5 B    3.562 --    70 B    1.004    58 B    0.856    71 B    0.632
                            77 B    0.552    87 B    0.333
    65   5 B    3.401 --    95 H    0.927    71 B    0.879    59 B    0.866
                            58 B    0.498
    66   5 B    3.595 --    72 B    1.202    60 B    0.739    88 B    0.702
                            83 B    0.698
    67   5 B    3.563 --    61 B    1.328    73 B    0.683    83 B    0.613
                            84 B    0.564
    68   5 B    3.504 --    62 B    1.010    74 B    0.643    84 B    0.580
                            69 B    0.541    85 B    0.447
    69   5 B    3.612 --    63 B    0.651    86 B    0.623    68 B    0.541
                            75 B    0.525    85 B    0.515    62 B    0.511
    70   5 B    3.540 --    86 B    1.006    64 B    1.004    76 B    0.640
                            87 B    0.547
    71   5 B    3.492 --    77 B    1.227    65 B    0.879    64 B    0.632
                            58 B    0.561
    72   5 B    3.421 --    66 B    1.202    92 H    0.964    83 B    0.824
                            73 B    0.145
    73   5 B    3.398 --    84 B    1.145    83 B    1.117    67 B    0.683
                            72 B    0.145
    74   5 B    3.336 --    85 B    1.201    84 B    1.136    68 B    0.643
    75   5 B    3.361 --    85 B    1.104    76 B    1.072    69 B    0.525
                            86 B    0.413
    76   5 B    3.476 --    75 B    1.072    87 B    1.036    70 B    0.640
                            86 B    0.516
    77   5 B    3.327 --    87 B    1.249    71 B    1.227    64 B    0.552
    78   5 B    3.477 --    36 B    1.399    37 B    1.122    42 B    0.777
    79   5 B    3.507 --    38 B    1.009    37 B    0.985    43 B    0.760
                            44 B    0.505
    80   5 B    3.420 --    39 B    1.273    38 B    1.271    45 B    0.591
    81   5 B    3.556 --    46 B    0.922    51 B    0.898    45 B    0.618
                            40 B    0.486    39 B    0.363
    82   5 B    3.474 --    40 B    1.082    41 B    0.851    47 B    0.599
                            46 B    0.502    52 B    0.184
    83   5 B    3.604 --    73 B    1.117    72 B    0.824    66 B    0.698
                            67 B    0.613    61 B    0.156
    84   5 B    3.596 --    73 B    1.145    74 B    1.136    68 B    0.580
                            67 B    0.564
    85   5 B    3.457 --    74 B    1.201    75 B    1.104    69 B    0.515
                            68 B    0.447
    86   5 B    3.561 --    70 B    1.006    63 B    0.760    69 B    0.623
                            76 B    0.516    75 B    0.413
    87   5 B    3.358 --    77 B    1.249    76 B    1.036    70 B    0.547
                            64 B    0.333
    88   5 B    3.617 --    60 B    0.759    54 B    0.717    66 B    0.702
                            55 B    0.547    48 B    0.496    61 B    0.205
    89   1 H    0.975 --    36 B    0.966
    90   1 H    0.979 --    54 B    0.944
    91   1 H    0.982 --    60 B    0.946
    92   1 H    0.980 --    72 B    0.964
    93   1 H    0.975 --    41 B    0.944
    94   1 H    0.982 --    53 B    0.958
    95   1 H    0.979 --    65 B    0.927
 ---------------------------------------------------------------------------

Topologies differ in total number of bonds
Writing topology from bond orders to xtbtopo.mol

molecular dipole:
                 x           y           z       tot (Debye)
 q only:        0.751       0.642      -0.219
   full:        0.942       0.132      -1.066       3.631
molecular quadrupole (traceless):
                xx          xy          yy          xz          yz          zz
 q only:       25.473       8.094      37.438     -35.186      -6.342     -62.911
  q+dip:       61.071     -13.529       5.808     -30.791      -2.156     -66.878
   full:       47.655      -9.127      -1.347     -27.091      -3.499     -46.308


           -------------------------------------------------
          | TOTAL ENERGY             -119.661691185899 Eh   |
          | GRADIENT NORM               0.102278528966 Eh/α |
          | HOMO-LUMO GAP               0.016943108759 eV   |
           -------------------------------------------------

------------------------------------------------------------------------
 * finished run on 2026/08/31 at 22:04:21.509     
------------------------------------------------------------------------
 total:
 * wall-time:     0 d,  0 h,  0 min,  1.161 sec
 *  cpu-time:     0 d,  0 h,  0 min, 11.547 sec
 * ratio c/w:     9.946 speedup
 SCF:
 * wall-time:     0 d,  0 h,  0 min,  1.109 sec
 *  cpu-time:     0 d,  0 h,  0 min, 11.156 sec
 * ratio c/w:    10.060 speedup

normal termination of xtb
