35
Toluidine_Blue_O - ETKDG+MMFF conformer
C      5.683813      0.895580      0.346630
C      4.332381      0.488317     -0.173302
C      3.195705      0.714665      0.630929
C      1.907911      0.408236      0.224154
N      0.917446      0.674961      1.097247
C     -0.382148      0.441105      0.828107
C     -1.290983      0.763618      1.814261
C     -2.674727      0.566097      1.658848
C     -3.226027      0.018022      0.493288
N     -4.602609     -0.162929      0.332222
C     -5.090521     -0.984665     -0.774899
C     -5.470496     -0.108670      1.508072
C     -2.303146     -0.293939     -0.515771
C     -0.915523     -0.095095     -0.356736
S      0.151617     -0.549586     -1.724412
C      1.765965     -0.139249     -1.064531
C      2.883521     -0.378041     -1.880893
C      4.177988     -0.118375     -1.426081
N      5.253690     -0.265913     -2.311184
H      6.317822      0.013557      0.482457
H      6.166813      1.589726     -0.348718
H      5.608445      1.402738      1.314386
H      3.321797      1.162597      1.616012
H     -0.925500      1.190593      2.746171
H     -3.303978      0.865367      2.491750
H     -4.809555     -0.553850     -1.741903
H     -6.185009     -1.039268     -0.778021
H     -4.708732     -2.009015     -0.702329
H     -6.519298     -0.274661      1.237209
H     -5.192397     -0.877017      2.237910
H     -5.436006      0.878652      1.980908
H     -2.644260     -0.701515     -1.462609
H      2.738496     -0.774995     -2.882833
H      5.102281     -0.960435     -3.036411
H      6.155223     -0.379892     -1.859928
