98
Tideglusib/beta12_supported GFN2 opt
O       2.37808064     -2.44548740      3.24412082
C       1.40518628     -1.71804294      3.40451915
S      -0.13097080     -2.12265139      2.63766122
N      -0.78707567      0.07507452      4.18701244
C      -1.85853127      0.91402249      4.25781272
C      -1.79872364      2.27852924      4.52176881
C      -2.95511028      3.04389822      4.65158975
C      -4.19925636      2.48230689      4.52123111
C      -4.32124466      1.10457493      4.25353822
C      -5.58179969      0.48224801      4.12626566
C      -5.68644079     -0.85577166      3.86748987
C      -4.53094558     -1.63419099      3.71594431
C      -3.29456480     -1.05942526      3.83747325
C      -3.15350386      0.31216465      4.10846657
C       0.45163182      0.47594026      4.14876452
O       0.97445115      1.58543835      4.04364813
N       1.39697938     -0.64921885      4.22084927
C       2.48524159     -0.49390398      5.17684563
C       3.73462734      0.18559194      4.67806607
C       4.73354415     -0.55481172      4.05853079
C       5.93057140      0.04150042      3.70249645
C       6.13966942      1.38563381      3.96045579
C       5.13291670      2.13802449      4.54354513
C       3.93605672      1.54221713      4.89889210
H      -0.83428023      2.74503587      4.64107462
H      -2.86072844      4.10054166      4.86202479
H      -5.09321706      3.07865126      4.63277890
H      -6.46857827      1.08904463      4.24754594
H      -6.65766210     -1.32058114      3.78238694
H      -4.62640394     -2.69127642      3.51572666
H      -2.39315270     -1.63845165      3.73441636
H       2.74854637     -1.50199863      5.51503351
H       2.07820744      0.07322979      6.01829896
H       4.56404965     -1.60301135      3.86662743
H       6.70447540     -0.54555161      3.23199413
H       7.08135559      1.84675725      3.70535043
H       5.28662147      3.19022149      4.73314821
H       3.14836037      2.12526052      5.34993377
B      -6.21173245      2.51701612      0.81352698
B      -6.04762780      0.81756772      0.79906249
B      -4.84689111      3.42287814      1.32260646
B      -4.67980667      1.79895417      0.87945028
B      -4.50816124      0.15428827      0.49332516
B      -5.71020474     -2.50531323      0.21753400
B      -5.53947826     -4.10646003     -0.35104628
B      -4.34127223     -1.49078948      0.20378758
B      -4.17574250     -3.17104933      0.01639929
B      -4.00750895     -4.84650360     -0.13104697
B      -3.30053044      2.76968205      1.09875612
B      -3.13249379      1.12028677      0.70136501
B      -1.92754958      3.76334411      1.08280387
B      -1.76229121      2.08737839      0.92759526
B      -1.59349897      0.42751076      0.63130205
B      -2.79618897     -2.17661348      0.08928512
B      -2.62612777     -3.87239282     -0.03897331
B      -1.42662230     -1.21746656      0.31944934
B      -1.25689736     -2.86178753     -0.05279003
B      -1.08837504     -4.49658852     -0.42821448
B      -0.38798507      3.05401621      1.15791449
B      -0.21807535      1.39522922      0.81827317
B       0.98337708      3.98169720      1.50868483
B       1.15313500      2.35468267      1.08484948
B       1.32289855      0.72302730      0.63502451
B       0.11311461     -1.95222245      0.50728673
B       0.28449046     -3.57850278     -0.02716187
B       1.49034960     -0.93058960      0.37141327
B       1.65843640     -2.59472780      0.10163545
B       1.82319221     -4.27149144     -0.05732315
B       2.52474061      3.33981287      1.21902844
B       2.69536629      1.66516812      0.96188527
B       3.90277070      4.32379574      1.25514070
B       4.07137883      2.64830557      1.09701366
B       4.23741875      0.98019642      0.84177573
B       3.02983048     -1.63235170      0.35796394
B       3.19868726     -3.28840733     -0.00077243
B       4.40416769     -0.66493591      0.55468528
B       4.57540245     -2.32054442      0.22838818
B       4.74289206     -3.95447656     -0.16483758
B       5.43862827      3.58603513      1.44744410
B       5.60792666      1.99347728      0.84215879
B       5.94626846     -1.34366246      0.33298389
B       6.10675056     -3.04622523      0.34792284
H      -7.19216470      3.06477388      0.48266680
H      -6.96368203      0.14416935      1.05273306
H      -5.00604759      4.46635981      1.82856444
H      -6.72447771     -2.17333043      0.68847718
H      -6.42839963     -4.71541662     -0.80973316
H      -3.95833295     -6.00875833      0.01174066
H      -2.03921684      4.92737127      1.00095908
H      -0.98486853     -5.48002748     -1.05828853
H       0.87349921      5.06577484      1.93807249
H       1.95218551     -5.43117889     -0.16345054
H       3.83953327      5.47707322      1.05643552
H       4.92131759     -4.98178940     -0.70105145
H       6.32587098      4.17760500      1.92858092
H       6.59943960      1.67998134      0.31197579
H       6.86843367     -0.68869945      0.04033730
H       7.11236623     -3.58668888      0.60868296
