38
drug @complex
O       2.37808064     -2.44548740      3.24412082
C       1.40518628     -1.71804294      3.40451915
S      -0.13097080     -2.12265139      2.63766122
N      -0.78707567      0.07507452      4.18701244
C      -1.85853127      0.91402249      4.25781272
C      -1.79872364      2.27852924      4.52176881
C      -2.95511028      3.04389822      4.65158975
C      -4.19925636      2.48230689      4.52123111
C      -4.32124466      1.10457493      4.25353822
C      -5.58179969      0.48224801      4.12626566
C      -5.68644079     -0.85577166      3.86748987
C      -4.53094558     -1.63419099      3.71594431
C      -3.29456480     -1.05942526      3.83747325
C      -3.15350386      0.31216465      4.10846657
C       0.45163182      0.47594026      4.14876452
O       0.97445115      1.58543835      4.04364813
N       1.39697938     -0.64921885      4.22084927
C       2.48524159     -0.49390398      5.17684563
C       3.73462734      0.18559194      4.67806607
C       4.73354415     -0.55481172      4.05853079
C       5.93057140      0.04150042      3.70249645
C       6.13966942      1.38563381      3.96045579
C       5.13291670      2.13802449      4.54354513
C       3.93605672      1.54221713      4.89889210
H      -0.83428023      2.74503587      4.64107462
H      -2.86072844      4.10054166      4.86202479
H      -5.09321706      3.07865126      4.63277890
H      -6.46857827      1.08904463      4.24754594
H      -6.65766210     -1.32058114      3.78238694
H      -4.62640394     -2.69127642      3.51572666
H      -2.39315270     -1.63845165      3.73441636
H       2.74854637     -1.50199863      5.51503351
H       2.07820744      0.07322979      6.01829896
H       4.56404965     -1.60301135      3.86662743
H       6.70447540     -0.54555161      3.23199413
H       7.08135559      1.84675725      3.70535043
H       5.28662147      3.19022149      4.73314821
H       3.14836037      2.12526052      5.34993377
