98
Tideglusib on beta12_supported 270 deg
O       3.03521348      1.92283700      4.03218675
C       2.18584027      1.19866990      4.46455106
S       1.76456092     -0.39914538      3.78059717
N       0.57796986     -0.63655548      4.99818479
C      -0.35567197     -1.70044645      4.95896415
C      -1.69423577     -1.40072052      4.92380832
C      -2.64777752     -2.42581947      4.89890302
C      -2.25217512     -3.73314429      4.87923922
C      -0.88388004     -4.07372746      4.90635050
C      -0.46069896     -5.41935807      4.89151508
C       0.86664124     -5.73863587      4.94210610
C       1.83091276     -4.72347292      5.02173320
C       1.45650970     -3.40845667      5.03313491
C       0.09576699     -3.04526018      4.96220301
C       0.45379308      0.41355031      5.86178995
O      -0.31233503      0.48033865      6.78974200
N       1.38695131      1.39491926      5.54350413
C       1.39801162      2.65905921      6.27419605
C       0.45412976      3.63227997      5.61751231
C       0.90826656      4.48167823      4.61705308
C       0.02622406      5.33424932      3.97631880
C      -1.31334145      5.33954661      4.32702343
C      -1.77119769      4.48871698      5.31925352
C      -0.89166509      3.63555725      5.96221739
H      -2.01275319     -0.36992508      4.92855785
H      -3.69524175     -2.16657293      4.88318012
H      -2.98235978     -4.52845221      4.84672364
H      -1.21188526     -6.19426549      4.84144014
H       1.18185239     -6.77134260      4.92819242
H       2.87633660     -4.98787883      5.07674930
H       2.20936921     -2.63947593      5.10582539
H       2.42301994      3.03488797      6.26487604
H       1.07935332      2.43121875      7.29381551
H       1.95128502      4.46672966      4.33725971
H       0.38542171      5.99335458      3.20000000
H      -2.00084185      6.00466998      3.82551330
H      -2.81612918      4.48835969      5.59236326
H      -1.24524013      2.96203250      6.72900195
B      -5.85857624      3.38040841      0.00000000
B      -5.85854689      1.69158049     -0.00000000
B      -4.39532834      4.22466855     -0.00000000
B      -4.39711400      2.53475765     -0.00000000
B      -4.39575475      0.84147203     -0.00000000
B      -5.85854686     -1.69158078      0.00000000
B      -5.85857617     -3.38040837     -0.00000000
B      -4.39575479     -0.84147232     -0.00000000
B      -4.39711414     -2.53475765      0.00000000
B      -4.39532857     -4.22466843      0.00000000
B      -2.92793521      3.38324044     -0.00000000
B      -2.92888517      1.68724694     -0.00000000
B      -1.46554580      4.22439782     -0.00000000
B      -1.46605622      2.53507234     -0.00000000
B      -1.46573170      0.84295491     -0.00000000
B      -2.92888518     -1.68724692      0.00000000
B      -2.92793508     -3.38324074      0.00000000
B      -1.46573174     -0.84295512     -0.00000000
B      -1.46605627     -2.53507234      0.00000000
B      -1.46554588     -4.22439779     -0.00000000
B       0.00067086      3.38275146      0.00000000
B       0.00067433      1.68721076      0.00000000
B       1.46420559      4.22439023     -0.00000000
B       1.46473580      2.53506444     -0.00000000
B       1.46438553      0.84295188     -0.00000000
B       0.00067433     -1.68721088      0.00000000
B       0.00067085     -3.38275170      0.00000000
B       1.46438555     -0.84295208     -0.00000000
B       1.46473583     -2.53506442     -0.00000000
B       1.46420568     -4.22439021     -0.00000000
B       2.92927005      3.38326104     -0.00000000
B       2.93022956      1.68726759      0.00000000
B       4.39401124      4.22463050     -0.00000000
B       4.39579743      2.53472819      0.00000000
B       4.39441416      0.84146678     -0.00000000
B       2.93022962     -1.68726763     -0.00000000
B       2.92927005     -3.38326139     -0.00000000
B       4.39441419     -0.84146703     -0.00000000
B       4.39579756     -2.53472819     -0.00000000
B       4.39401144     -4.22463033     -0.00000000
B       5.85997303      3.38040496      0.00000000
B       5.85993260      1.69164307     -0.00000000
B       5.85993251     -1.69164335      0.00000000
B       5.85997297     -3.38040486      0.00000000
H      -6.86866001      3.98474441      0.00000000
H      -6.88164909      1.12316321     -0.00000000
H      -4.39961690      5.40226943     -0.00000000
H      -6.88164986     -1.12316494      0.00000000
H      -6.86866148     -3.98474191     -0.00000000
H      -4.39961557     -5.40226922      0.00000000
H      -1.46579024      5.40011773     -0.00000000
H      -1.46578943     -5.40011766      0.00000000
H       1.46622796      5.40011192     -0.00000000
H       1.46622721     -5.40011186     -0.00000000
H       4.39986570      5.40225046     -0.00000000
H       4.39986407     -5.40225022     -0.00000000
H       6.86878772      3.98676429      0.00000000
H       6.88200886      1.12155941     -0.00000000
H       6.88200989     -1.12156160      0.00000000
H       6.86878944     -3.98676138      0.00000000
