98
 energy: -126.667153114305 gnorm: 0.000664315679 xtb: 6.7.1 (edcfbbe)
O           -2.36427618597772        2.52002044883178        3.06880642118230
C           -1.39348442260398        1.80278949093634        3.27967673943491
S            0.14612101047842        2.15770342718196        2.49688486864973
N            0.79175591264222        0.06620217309176        4.18265562969826
C            1.86475304109317       -0.76235926010809        4.32003245248426
C            1.80814210411293       -2.10622157597886        4.67492951399033
C            2.96645930160573       -2.85660149722752        4.86318232788256
C            4.20954396006766       -2.30084987752711        4.70178896164005
C            4.32855699680623       -0.94347077484147        4.34363147471584
C            5.58767887949513       -0.32635736438679        4.18258801874947
C            5.68956820847089        0.99273531843471        3.83892236582374
C            4.53251746266905        1.75572464146881        3.63242026554412
C            3.29731250762279        1.18517663827042        3.78327714776003
C            3.15899837086170       -0.16673040842508        4.14014722245963
C           -0.44676525060819       -0.33850455344384        4.17723466864395
O           -0.96681946551904       -1.45427259589444        4.16337273074418
N           -1.39443553502982        0.78570379114654        4.16033388675780
C           -2.49119371169795        0.69704636030072        5.11542211402615
C           -3.74963666436596        0.01262014550480        4.64651827846848
C           -4.74572739834976        0.73931842461607        4.00667342572112
C           -5.95151386139241        0.14216600500692        3.68261852250660
C           -6.17305268746644       -1.18821165428809        3.99535597459990
C           -5.16927130702200       -1.92855347645097        4.59890341953492
C           -3.96282666419053       -1.33274387862674        4.91988960016350
H            0.84484043672961       -2.56781338360955        4.81981402779707
H            2.87424417557199       -3.89690825341858        5.14417330097971
H            5.10490258860319       -2.88514534263373        4.85757216824572
H            6.47585989490024       -0.92064481574070        4.34749608776268
H            6.65990646598010        1.45423665011877        3.72912437527992
H            4.62499654789853        2.79866399024294        3.36681010120987
H            2.39486591868926        1.75354990909319        3.63881469813038
H           -2.74015265509584        1.72524456029244        5.39987310077886
H           -2.09838721564684        0.16726678452937        5.98728952509765
H           -4.56763231486981        1.77747916554137        3.77282400363175
H           -6.72312489824305        0.71882200110703        3.19556549860861
H           -7.12194233488691       -1.64836233279625        3.76650130980178
H           -5.33255296032856       -2.97069721753097        4.83103011691599
H           -3.17596947459543       -1.90592449024129        5.38499303459543
B           -6.06375252247395        3.00226916993608        0.09887665554964
B           -5.92584356480562        1.30043566462641        0.19865597872989
B           -4.68657383845874        3.85668289471800       -0.46124258078158
B           -4.54390621498033        2.25065931262448        0.04158540475778
B           -4.39734096341357        0.61847962159561        0.47921778262996
B           -5.63585239253015       -2.00013523017273        0.92727795664024
B           -5.49269927551408       -3.55109610945257        1.63862833912379
B           -4.25478026579320       -1.00619236404362        0.87540025698583
B           -4.11288379315410       -2.65634021560806        1.23938150570882
B           -3.96774250637087       -4.31917774049062        1.51182790275517
B           -3.15021195253280        3.18306695171734       -0.24147151405637
B           -3.00621668273415        1.55332070614659        0.23099030647346
B           -1.76390065783599        4.14267035172009       -0.35053250096241
B           -1.62267296395920        2.47853824243674       -0.07759893743613
B           -1.47890127314102        0.83412769310154        0.30409275528013
B           -2.72041267083668       -1.70053218729387        1.05590342559416
B           -2.57410533277989       -3.35702426599015        1.42268535327974
B           -1.33552186612835       -0.80011163453406        0.67923138625495
B           -1.19101151923791       -2.40000061297011        1.23862288559037
B           -1.04635956022592       -3.99730505500790        1.77062796884118
B           -0.23226904553287        3.43380570373584       -0.26106263839525
B           -0.08674734471397        1.84475264547924        0.38160244678074
B            1.15322383964472        4.30486002066190       -0.71159039681671
B            1.29708343750206        2.69679974530035       -0.22654121177049
B            1.44196091078259        1.07943979488060        0.25764871858956
B            0.19743874333978       -1.47821064683938        0.91918389867020
B            0.34259944532123       -3.11193244279142        1.37288112540170
B            1.58448031728747       -0.54294226629074        0.68023328172994
B            1.72888627784592       -2.18100023113873        1.08926644558901
B            1.87061311076072       -3.84477191923668        1.35775875044477
B            2.68196849973161        3.68873290575738       -0.26895765743254
B            2.82847086320562        2.00373670508286       -0.02416916010877
B            4.07435818096270        4.63675110156228       -0.41295598360910
B            4.21915927357857        2.97306651334239       -0.15152204039211
B            4.36081183350901        1.30724794309115        0.14960934478032
B            3.11610611786801       -1.24847927954645        0.81139169890302
B            3.25901405290855       -2.86983602170249        1.31853449342265
B            4.50352217453566       -0.31666937627656        0.55004959482144
B            4.65027020645964       -1.93351432562624        1.04785795981896
B            4.79217921089790       -3.52560789969711        1.60176044562192
B            5.60074349583598        3.86478456837899       -0.56786249654472
B            5.74556676976783        2.30321642823533        0.10708450196130
B            6.03420786653593       -0.97734218932260        0.91314098465509
B            6.17565049336149       -2.67323816814290        1.04535414840243
H           -7.06551864354795        3.56920128252382        0.31453642719497
H           -6.85637860543301        0.64094179597628       -0.05469145192959
H           -4.84531814781165        4.84946345984379       -1.06446022541743
H           -6.62010109050851       -1.71123493466345        0.37014115350968
H           -6.39526735035205       -4.09726094349662        2.14457862039554
H           -3.91608355024140       -5.48382643689578        1.39142202700648
H           -1.87491873138506        5.29472490902781       -0.53290779240846
H           -0.95329672069971       -5.05114122530904        2.27304423833184
H            1.06886762729456        5.24592856087934       -1.40594589215752
H            1.96873027376108       -5.01287162400497        1.35489441704668
H            4.04045373554164        5.80668560645493       -0.35165470882226
H            4.93473301042167       -4.53535726341656        2.17647435154403
H            6.49968283950079        4.43270249016947       -1.05840889047120
H            6.74977321578269        1.98930462930635        0.61060148234293
H            6.95475029647613       -0.29731820584528        1.12967962827482
H            7.14902419025071       -3.25802373484748        0.76027922012036
