98
 energy: -126.667249381783 gnorm: 0.000946686294 xtb: 6.7.1 (edcfbbe)
O            2.37808064192202       -2.44548740287725        3.24412082285163
C            1.40518627658775       -1.71804294138238        3.40451914664457
S           -0.13097079713111       -2.12265139267764        2.63766122248261
N           -0.78707566674566        0.07507451715827        4.18701243534371
C           -1.85853127368051        0.91402248863637        4.25781271786180
C           -1.79872363562972        2.27852924150019        4.52176880580865
C           -2.95511028316938        3.04389822015507        4.65158974639197
C           -4.19925635776475        2.48230689272301        4.52123110629310
C           -4.32124466048026        1.10457492575134        4.25353822079656
C           -5.58179968638049        0.48224800788473        4.12626566090704
C           -5.68644079455888       -0.85577165527655        3.86748986965043
C           -4.53094558262379       -1.63419099192786        3.71594431228563
C           -3.29456479999999       -1.05942525769936        3.83747324563547
C           -3.15350385616875        0.31216465315886        4.10846657032385
C            0.45163181555220        0.47594026303379        4.14876452039320
O            0.97445115190943        1.58543834654763        4.04364812898433
N            1.39697938067223       -0.64921885409815        4.22084926829952
C            2.48524159345701       -0.49390398321992        5.17684562611252
C            3.73462733927494        0.18559193720596        4.67806607040093
C            4.73354414630399       -0.55481171978827        4.05853079172412
C            5.93057139752516        0.04150042203255        3.70249644698922
C            6.13966941814735        1.38563381129969        3.96045579396685
C            5.13291670238699        2.13802449489617        4.54354512826221
C            3.93605672050619        1.54221713460189        4.89889210312023
H           -0.83428023289510        2.74503587163774        4.64107462294590
H           -2.86072844384277        4.10054165933633        4.86202479172727
H           -5.09321706076501        3.07865125870237        4.63277889736861
H           -6.46857826802763        1.08904462818794        4.24754594337489
H           -6.65766209560738       -1.32058113827799        3.78238694131451
H           -4.62640394126765       -2.69127641813553        3.51572665915521
H           -2.39315269667863       -1.63845165150621        3.73441636047834
H            2.74854637094645       -1.50199863413703        5.51503351389229
H            2.07820743773072        0.07322978755064        6.01829895729149
H            4.56404964768822       -1.60301135108673        3.86662742912608
H            6.70447539617033       -0.54555161046796        3.23199412626319
H            7.08135558983152        1.84675724514078        3.70535043197215
H            5.28662147077883        3.19022148999774        4.73314821212772
H            3.14836036568516        2.12526051723846        5.34993377096722
B           -6.21173245266270        2.51701611504692        0.81352697699188
B           -6.04762779951620        0.81756771955371        0.79906248578557
B           -4.84689111141511        3.42287814192546        1.32260645690499
B           -4.67980667394081        1.79895417040243        0.87945027755142
B           -4.50816123671254        0.15428826652958        0.49332516267141
B           -5.71020473791508       -2.50531323226589        0.21753400247592
B           -5.53947825857936       -4.10646003155750       -0.35104627905402
B           -4.34127222840878       -1.49078947970187        0.20378758216143
B           -4.17574250497119       -3.17104932618782        0.01639928801272
B           -4.00750895172100       -4.84650359816150       -0.13104697212689
B           -3.30053043643343        2.76968205138498        1.09875612269013
B           -3.13249379269110        1.12028677174458        0.70136500527926
B           -1.92754957600240        3.76334411061815        1.08280387310132
B           -1.76229120970633        2.08737839280481        0.92759526101929
B           -1.59349897109584        0.42751075595806        0.63130205012409
B           -2.79618897375707       -2.17661348308442        0.08928512073187
B           -2.62612777179493       -3.87239282007527       -0.03897331203339
B           -1.42662230463629       -1.21746655825749        0.31944934138347
B           -1.25689736312461       -2.86178753393614       -0.05279003274995
B           -1.08837503861515       -4.49658852141658       -0.42821448221110
B           -0.38798507266254        3.05401620786728        1.15791448613612
B           -0.21807535393069        1.39522921790893        0.81827317315914
B            0.98337708179579        3.98169720076161        1.50868483207433
B            1.15313499839166        2.35468266909940        1.08484947923025
B            1.32289855327892        0.72302730358353        0.63502450524967
B            0.11311461366779       -1.95222245332323        0.50728672743413
B            0.28449045768219       -3.57850278376488       -0.02716186829435
B            1.49034959787064       -0.93058959899158        0.37141326806585
B            1.65843640238219       -2.59472779792946        0.10163545108092
B            1.82319221472850       -4.27149143853272       -0.05732315200286
B            2.52474061172068        3.33981286827206        1.21902843654956
B            2.69536628983962        1.66516812250289        0.96188527072195
B            3.90277070190599        4.32379573566377        1.25514069832364
B            4.07137883464551        2.64830557051264        1.09701366000024
B            4.23741874567845        0.98019641830799        0.84177573138739
B            3.02983048421297       -1.63235170101123        0.35796394141869
B            3.19868726392559       -3.28840733067741       -0.00077243383746
B            4.40416769165837       -0.66493590824289        0.55468527940507
B            4.57540245311277       -2.32054441571450        0.22838817675410
B            4.74289205941588       -3.95447656053596       -0.16483757685010
B            5.43862826740985        3.58603513152182        1.44744409550437
B            5.60792665997901        1.99347727954239        0.84215878507462
B            5.94626846324300       -1.34366245661702        0.33298388601759
B            6.10675056389431       -3.04622522956829        0.34792284189056
H           -7.19216469893000        3.06477387739770        0.48266680378361
H           -6.96368203013200        0.14416935241397        1.05273306418553
H           -5.00604759115536        4.46635981449824        1.82856443824014
H           -6.72447770612592       -2.17333043237222        0.68847717870165
H           -6.42839962942703       -4.71541661528779       -0.80973316239322
H           -3.95833295109883       -6.00875832854701        0.01174066138705
H           -2.03921684325777        4.92737126661392        1.00095907613167
H           -0.98486852692348       -5.48002748115354       -1.05828853031472
H            0.87349921441913        5.06577483656019        1.93807248918778
H            1.95218551338516       -5.43117888733361       -0.16345054050125
H            3.83953326577365        5.47707321744782        1.05643551950796
H            4.92131758783893       -4.98178940019811       -0.70105145092361
H            6.32587098381241        4.17760500100001        1.92858092493249
H            6.59943960429576        1.67998133585539        0.31197579243303
H            6.86843367405512       -0.68869945202450        0.04033730420068
H            7.11236623360532       -3.58668887869381        0.60868295872098
