32
 energy: -48.747645627920 gnorm: 0.000596220317 xtb: 6.7.1 (edcfbbe)
C           -4.03745029444253        2.16047860764115        0.45464380245630
N           -3.87279924759062        0.76701291386315        0.11157059622647
C           -5.06992959940241       -0.01716148935065       -0.09116286612525
C           -2.65379860441224        0.22288446961891       -0.00575428014153
C           -2.48334266284130       -1.11323273086200       -0.48613692134099
C           -1.25294493860338       -1.66475087964436       -0.61837805941471
C           -0.06579073202323       -0.95240925290880       -0.28206541470610
N            1.08212181749359       -1.57383022434703       -0.45137706081655
C            2.26198151923755       -1.03763205296061       -0.18282223987337
C            3.40952042768719       -1.84047693605300       -0.43345024608406
C            4.66379966707703       -1.38289246802484       -0.18878633217701
C            4.87202143855224       -0.07772617356209        0.33450802152355
N            6.11500196341717        0.36330549104326        0.57207250235640
C            3.75769599549448        0.73102086508996        0.59257677878436
C            2.48178811725632        0.27476953184540        0.33949927350077
S            1.14340651794391        1.34022837442374        0.67034449804065
C           -0.23885906156195        0.38227058061029        0.20649106943465
C           -1.48886045902313        0.94183214284943        0.33201161999771
H           -3.39174713815517        2.78844528583456       -0.16034750245292
H           -3.80685777525270        2.33893843539094        1.50832351499229
H           -5.06627906744459        2.45934551974203        0.27391417824902
H           -5.01872611698936       -0.95473758059147        0.46323501822255
H           -5.93049235848040        0.53859641289159        0.27113122862398
H           -5.22514109129561       -0.23795228120719       -1.15023025836452
H           -3.34574248663224       -1.69149447550533       -0.77051864338622
H           -1.12386448853735       -2.66813529759100       -0.99097995140926
H            3.23262134622466       -2.82787464870310       -0.82808704398455
H            5.52363981162181       -2.00433476703879       -0.38711456892098
H            6.91097025114235       -0.21920462601182        0.37629850774381
H            6.27396407454167        1.28438620492642        0.94277383745695
H            3.89982283143040        1.72498893560099        0.99030847270826
H           -1.55572965643228        1.94534209298987        0.71832025888009
