33
Myricetin GFN2 opt
O      -2.15625735     -2.18913800      2.15938292
C      -1.72682201     -1.31323852      1.37992960
C      -0.29794340     -1.24242310      1.11984875
O       0.42663519     -2.17484949      1.78530741
C       0.22131529     -0.31147507      0.26285602
C       1.62819292     -0.14560970     -0.09020737
C       2.63870591     -0.77585098      0.63704081
C       3.96267051     -0.59060996      0.28682583
O       5.00088494     -1.17782968      0.96437979
C       4.30267101      0.22230991     -0.79362212
O       5.60610816      0.42224893     -1.16107424
C       3.29321521      0.85365676     -1.52632601
O       3.61321665      1.64147622     -2.58051395
C       1.96824642      0.66951596     -1.17083100
O      -0.59320909      0.57572488     -0.36289846
C      -1.92248581      0.57939060     -0.15843313
C      -2.67840694      1.53382472     -0.82588672
C      -4.05348210      1.56800772     -0.63263554
O      -4.75773573      2.51169375     -1.29244937
C      -4.68158896      0.65668087      0.21636579
C      -3.94200950     -0.30239426      0.88645219
O      -4.54562635     -1.17169415      1.69606594
C      -2.53762432     -0.34472987      0.70158851
H      -0.24603651     -2.69291297      2.27905542
H       2.39323455     -1.40402060      1.47633577
H       4.64417879     -1.72025038      1.67604985
H       6.15868662     -0.08288626     -0.55094614
H       4.57674983      1.64306945     -2.66917636
H       1.20732629      1.16417291     -1.74935537
H      -2.20652871      2.24258528     -1.48357487
H      -5.69676803      2.43706784     -1.07927679
H      -5.75086586      0.68470986      0.36420538
H      -3.84864761     -1.76622267      2.07394283
