33
Myricetin - ETKDG+MMFF conformer
O     -1.941929      2.183586      2.160841
C     -1.584623      1.378998      1.303230
C     -0.144044      1.134638      1.059877
O      0.753498      1.836134      1.844225
C      0.206661      0.244194      0.113422
C      1.612019     -0.094806     -0.203986
C      2.591583      0.902926     -0.375154
C      3.900595      0.548527     -0.694063
O      4.885081      1.483366     -0.858473
C      4.243878     -0.786746     -0.858071
O      5.526223     -1.143613     -1.175168
C      3.285266     -1.776229     -0.702328
O      3.623107     -3.088391     -0.866491
C      1.975476     -1.443243     -0.379291
O     -0.706913     -0.471379     -0.651962
C     -2.048417     -0.263325     -0.454297
C     -2.925240     -0.999908     -1.252843
C     -4.297841     -0.826622     -1.093308
O     -5.192362     -1.523499     -1.850322
C     -4.803782      0.066775     -0.152747
C     -3.924637      0.797599      0.641333
O     -4.477574      1.659548      1.548700
C     -2.545132      0.631746      0.489712
H      0.200265      2.358018      2.463965
H      2.322750      1.948985     -0.259103
H      4.506753      2.358743     -0.662576
H      6.004967     -0.290711     -1.227959
H      4.578592     -3.071014     -1.078471
H      1.245270     -2.239643     -0.260298
H     -2.526914     -1.695438     -1.985269
H     -4.712180     -2.113321     -2.455083
H     -5.877093      0.191877     -0.038857
H     -3.753305      2.102227      2.043252
