      -----------------------------------------------------------      
     |                   =====================                   |     
     |                           x T B                           |     
     |                   =====================                   |     
     |                         S. Grimme                         |     
     |          Mulliken Center for Theoretical Chemistry        |     
     |                    University of Bonn                     |     
      -----------------------------------------------------------      

   * xtb version 6.7.1pre (5071a88) compiled by 'Marcel@Raven' on 2024-07-23

   xtb is free software: you can redistribute it and/or modify it under
   the terms of the GNU Lesser General Public License as published by
   the Free Software Foundation, either version 3 of the License, or
   (at your option) any later version.
   
   xtb is distributed in the hope that it will be useful,
   but WITHOUT ANY WARRANTY; without even the implied warranty of
   MERCHANTABILITY or FITNESS FOR A PARTICULAR PURPOSE.  See the
   GNU Lesser General Public License for more details.
   
   Cite this work as:
   * C. Bannwarth, E. Caldeweyher, S. Ehlert, A. Hansen, P. Pracht,
     J. Seibert, S. Spicher, S. Grimme, WIREs Comput. Mol. Sci., 2020, 11,
     e01493. DOI: 10.1002/wcms.1493
   
   for GFN2-xTB:
   * C. Bannwarth, S. Ehlert and S. Grimme., J. Chem. Theory Comput., 2019,
     15, 1652-1671. DOI: 10.1021/acs.jctc.8b01176
   for GFN1-xTB:
   * S. Grimme, C. Bannwarth, P. Shushkov, J. Chem. Theory Comput., 2017,
     13, 1989-2009. DOI: 10.1021/acs.jctc.7b00118
   for GFN0-xTB:
   * P. Pracht, E. Caldeweyher, S. Ehlert, S. Grimme, ChemRxiv, 2019, preprint.
     DOI: 10.26434/chemrxiv.8326202.v1
   for GFN-FF:
   * S. Spicher and S. Grimme, Angew. Chem. Int. Ed., 2020, 59, 15665-15673.
     DOI: 10.1002/anie.202004239
   
   for ALPB and GBSA implicit solvation:
   * S. Ehlert, M. Stahn, S. Spicher, S. Grimme, J. Chem. Theory Comput.,
     2021, 17, 4250-4261. DOI: 10.1021/acs.jctc.1c00471
   
   for ddCOSMO and CPCM-X implicit solvation:
   * M. Stahn, S. Ehlert, S. Grimme, J. Phys. Chem. A,
     2023, XX, XXXX-XXXX. DOI: 10.1021/acs.jpca.3c04382
   
   for DFT-D4:
   * E. Caldeweyher, C. Bannwarth and S. Grimme, J. Chem. Phys., 2017,
     147, 034112. DOI: 10.1063/1.4993215
   * E. Caldeweyher, S. Ehlert, A. Hansen, H. Neugebauer, S. Spicher,
     C. Bannwarth and S. Grimme, J. Chem. Phys., 2019, 150, 154122.
     DOI: 10.1063/1.5090222
   * E. Caldeweyher, J.-M. Mewes, S. Ehlert and S. Grimme, Phys. Chem. Chem. Phys.
     2020, 22, 8499-8512. DOI: 10.1039/D0CP00502A
   
   for sTDA-xTB:
   * S. Grimme and C. Bannwarth, J. Chem. Phys., 2016, 145, 054103.
     DOI: 10.1063/1.4959605
   
   in the mass-spec context:
   * V. Asgeirsson, C. Bauer and S. Grimme, Chem. Sci., 2017, 8, 4879.
     DOI: 10.1039/c7sc00601b
   * J. Koopman and S. Grimme, ACS Omega 2019, 4, 12, 15120-15133.
     DOI: 10.1021/acsomega.9b02011
   
   for metadynamics refer to:
   * S. Grimme, J. Chem. Theory Comput., 2019, 155, 2847-2862
     DOI: 10.1021/acs.jctc.9b00143
   
   for SPH calculations refer to:
   * S. Spicher and S. Grimme, J. Chem. Theory Comput., 2021, 17, 1701-1714
     DOI: 10.1021/acs.jctc.0c01306
   
   for ONIOM refer to:
   * C. Plett, A. Katbashev, S. Ehlert, S. Grimme, M. Bursch,
     Phys. Chem. Chem. Phys., 2023, 25, 17860-17868. DOI: 10.1039/D3CP02178E
   
   for DIPRO refer to:
   * J. Kohn, N. Gildemeister, S. Grimme, D. Fazzi, A. Hansen,
     J. Chem. Phys., 2023, just accepted.
   
   for PTB refer to:
   * S. Grimme, M. Mueller, A. Hansen, J. Chem. Phys., 2023, 158, 124111.
     DOI: 10.1063/5.0137838
   
   with help from (in alphabetical order)
   P. Atkinson, C. Bannwarth, F. Bohle, G. Brandenburg, E. Caldeweyher
   M. Checinski, S. Dohm, S. Ehlert, S. Ehrlich, I. Gerasimov, C. Hölzer
   A. Katbashev, J. Kohn, J. Koopman, C. Lavigne, S. Lehtola, F. März, M. Müller,
   F. Musil, H. Neugebauer, J. Pisarek, C. Plett, P. Pracht, F. Pultar,
   J. Seibert, P. Shushkov, S. Spicher, M. Stahn, M. Steiner, T. Strunk,
   J. Stückrath, T. Rose, and J. Unsleber
   
 * started run on 2026/08/31 at 22:04:34.230     
   ID    Z sym.   atoms
    1    8 O      1, 4, 9, 11, 13, 15, 19, 22
    2    6 C      2, 3, 5-8, 10, 12, 14, 16-18, 20, 21, 23
    3    1 H      24-33, 87-93
    4    5 B      34-86

           -------------------------------------------------
          |                Calculation Setup                |
           -------------------------------------------------

          program call               : "c:\Users\Andre\Proyectos doctorado\kras-pancreatic-gC3N4-ai\tools\xtb\xtb-6.7.1\bin\xtb.exe" "c:\Users\Andre\Proyectos doctorado\borophene-alzheimer-tau-ai\calculations\tau\Myricetin\Myricetin_B48H12_clean_complex.xyz" --gfn 2 --sp --chrg 0 --uhf 0 --etemp 300 --iterations 500 --norestart
          coordinate file            : c:\Users\Andre\Proyectos doctorado\borophene-alzheimer-tau-ai\calculations\tau\Myricetin\Myricetin_B48H12_clean_complex.xyz
          omp threads                :                    16


molecular fragmentation (1/2 indicates fragments):
111111111111111111111111111111111222222222222222222222222222222222222222
222222222222222222222
# atoms in fragment 1/2:    33    60
 fragment masses (1/2) :      318.24      580.04
CMA distance (Bohr)    :  14.265
constraining FC (au)   :  0.0500

           -------------------------------------------------
          |                 G F N 2 - x T B                 |
           -------------------------------------------------

        Reference                      10.1021/acs.jctc.8b01176
      * Hamiltonian:
        H0-scaling (s, p, d)           1.850000    2.230000    2.230000
        zeta-weighting                 0.500000
      * Dispersion:
        s8                             2.700000
        a1                             0.520000
        a2                             5.000000
        s9                             5.000000
      * Repulsion:
        kExp                           1.500000    1.000000
        rExp                           1.000000
      * Coulomb:
        alpha                          2.000000
        third order                    shell-resolved
        anisotropic                    true
        a3                             3.000000
        a5                             4.000000
        cn-shift                       1.200000
        cn-exp                         4.000000
        max-rad                        5.000000


          ...................................................
          :                      SETUP                      :
          :.................................................:
          :  # basis functions                 321          :
          :  # atomic orbitals                 321          :
          :  # shells                          169          :
          :  # electrons                       284          :
          :  max. iterations                   500          :
          :  Hamiltonian                  GFN2-xTB          :
          :  restarted?                      false          :
          :  GBSA solvation                  false          :
          :  PC potential                    false          :
          :  electronic temp.          300.0000000     K    :
          :  accuracy                    1.0000000          :
          :  -> integral cutoff          0.2500000E+02      :
          :  -> integral neglect         0.1000000E-07      :
          :  -> SCF convergence          0.1000000E-05 Eh   :
          :  -> wf. convergence          0.1000000E-03 e    :
          :  Broyden damping             0.4000000          :
          :  net charge                          0          :
          :  unpaired electrons                  0          :
          ...................................................

 iter      E             dE          RMSdq      gap      omega  full diag
   1   -138.3547829 -0.138355E+03  0.157E+01    0.36       0.0  T
   2   -127.6887427  0.106660E+02  0.109E+01    0.01       1.0  T
   3     80.1507635  0.207840E+03  0.200E+01    0.34       1.0  T
   4     11.4745193 -0.686762E+02  0.165E+01    0.11       1.0  T
   5    -99.8605925 -0.111335E+03  0.968E+00    0.05       1.0  T
   6    -54.0313756  0.458292E+02  0.134E+01    0.18       1.0  T
   7   -132.6428153 -0.786114E+02  0.577E+00    0.14       1.0  T
   8   -128.1072969  0.453552E+01  0.538E+00    0.09       1.0  T
   9   -138.4198528 -0.103126E+02  0.350E+00    0.41       1.0  T
  10   -138.9357955 -0.515943E+00  0.284E+00    0.45       1.0  T
  11   -139.1111178 -0.175322E+00  0.258E+00    0.42       1.0  T
  12   -139.1420485 -0.309307E-01  0.240E+00    0.45       1.0  T
  13   -139.0524216  0.896269E-01  0.205E+00    0.37       1.0  T
  14   -138.7495932  0.302828E+00  0.155E+00    0.01       1.0  T
  15   -139.1396990 -0.390106E+00  0.116E+00    0.28       1.0  T
  16   -138.5696421  0.570057E+00  0.163E+00    0.22       1.0  T
  17   -138.9407455 -0.371103E+00  0.119E+00    0.05       1.0  T
  18   -139.2431165 -0.302371E+00  0.763E-01    0.08       1.0  T
  19   -139.1514138  0.917027E-01  0.902E-01    0.04       1.0  T
  20   -139.2474162 -0.960024E-01  0.686E-01    0.01       1.0  T
  21   -139.0544575  0.192959E+00  0.102E+00    0.11       1.0  T
  22   -139.1408358 -0.863783E-01  0.834E-01    0.06       1.0  T
  23   -139.2918255 -0.150990E+00  0.378E-01    0.03       1.0  T
  24   -139.2839091  0.791635E-02  0.396E-01    0.01       1.0  T
  25   -139.3119644 -0.280553E-01  0.199E-01    0.06       1.0  T
  26   -139.3113030  0.661375E-03  0.181E-01    0.09       1.0  T
  27   -139.3113278 -0.248051E-04  0.171E-01    0.10       1.0  T
  28   -139.3106258  0.702023E-03  0.159E-01    0.10       1.0  T
  29   -139.3100610  0.564763E-03  0.142E-01    0.12       1.0  T
  30   -139.3106960 -0.634913E-03  0.129E-01    0.12       1.0  T
  31   -139.3118914 -0.119546E-02  0.109E-01    0.11       1.0  T
  32   -139.3127770 -0.885585E-03  0.918E-02    0.10       1.0  T
  33   -139.3142102 -0.143318E-02  0.531E-02    0.09       1.0  T
  34   -139.3142797 -0.694682E-04  0.484E-02    0.09       1.0  T
  35   -139.3145977 -0.318045E-03  0.266E-02    0.08       1.0  T
  36   -139.3145777  0.199793E-04  0.264E-02    0.08       1.0  T
  37   -139.3146193 -0.416313E-04  0.225E-02    0.08       1.0  T
  38   -139.3146625 -0.431202E-04  0.178E-02    0.08       1.0  T
  39   -139.3147035 -0.410241E-04  0.120E-02    0.08       1.0  T
  40   -139.3146945  0.900526E-05  0.130E-02    0.08       1.0  T
  41   -139.3147171 -0.225784E-04  0.899E-03    0.08       1.2  T
  42   -139.3147320 -0.148885E-04  0.509E-03    0.08       2.0  T
  43   -139.3147362 -0.422815E-05  0.322E-03    0.08       3.2  T
  44   -139.3147384 -0.221930E-05  0.165E-03    0.08       6.3  T
  45   -139.3147383  0.533288E-07  0.159E-03    0.08       6.5  T
  46   -139.3147382  0.179401E-06  0.153E-03    0.08       6.8  T
  47   -139.3147386 -0.453737E-06  0.734E-04    0.08      14.1  T
  48   -139.3147387 -0.959612E-07  0.420E-04    0.08      24.7  T

   *** convergence criteria satisfied after 48 iterations ***

         #    Occupation            Energy/Eh            Energy/eV
      -------------------------------------------------------------
         1        2.0000           -0.7168833             -19.5074
       ...           ...                  ...                  ...
       136        2.0000           -0.2748258              -7.4784
       137        2.0000           -0.2697083              -7.3391
       138        2.0000           -0.2694316              -7.3316
       139        2.0000           -0.2650683              -7.2129
       140        1.9999           -0.2607158              -7.0944
       141        1.9993           -0.2590244              -7.0484
       142        1.6269           -0.2528202              -6.8796 (HOMO)
       143        0.3739           -0.2500247              -6.8035 (LUMO)
       144        0.0000           -0.2358980              -6.4191
       145                         -0.2323754              -6.3233
       146                         -0.2288002              -6.2260
       147                         -0.2193118              -5.9678
       ...                                ...                  ...
       321                          1.1860247              32.2734
      -------------------------------------------------------------
                  HL-Gap            0.0027955 Eh            0.0761 eV
             Fermi-level           -0.2514212 Eh           -6.8415 eV

 SCC (total)                   0 d,  0 h,  0 min,  1.338 sec
 SCC setup                      ...        0 min,  0.004 sec (  0.299%)
 Dispersion                     ...        0 min,  0.002 sec (  0.149%)
 classical contributions        ...        0 min,  0.000 sec (  0.000%)
 integral evaluation            ...        0 min,  0.007 sec (  0.523%)
 iterations                     ...        0 min,  1.295 sec ( 96.786%)
 molecular gradient             ...        0 min,  0.028 sec (  2.093%)
 printout                       ...        0 min,  0.002 sec (  0.149%)

         :::::::::::::::::::::::::::::::::::::::::::::::::::::
         ::                     SUMMARY                     ::
         :::::::::::::::::::::::::::::::::::::::::::::::::::::
         :: total energy            -137.460837648697 Eh    ::
         :: gradient norm              0.094398835587 Eh/a0 ::
         :: HOMO-LUMO gap              0.076069002860 eV    ::
         ::.................................................::
         :: SCC energy              -139.311673381677 Eh    ::
         :: -> isotropic ES            0.394912686187 Eh    ::
         :: -> anisotropic ES         -0.000010333201 Eh    ::
         :: -> anisotropic XC         -0.056525161612 Eh    ::
         :: -> dispersion             -0.115743994785 Eh    ::
         :: repulsion energy           1.850835732981 Eh    ::
         :: add. restraining           0.000000000000 Eh    ::
         :: total charge               0.000000000630 e     ::
         :::::::::::::::::::::::::::::::::::::::::::::::::::::

           -------------------------------------------------
          |                Property Printout                |
           -------------------------------------------------

    * Orbital Energies and Occupations

         #    Occupation            Energy/Eh            Energy/eV
      -------------------------------------------------------------
         1        2.0000           -0.7168833             -19.5074
       ...           ...                  ...                  ...
       130        2.0000           -0.2901494              -7.8954
       131        2.0000           -0.2884816              -7.8500
       132        2.0000           -0.2839151              -7.7257
       133        2.0000           -0.2811502              -7.6505
       134        2.0000           -0.2802847              -7.6269
       135        2.0000           -0.2766048              -7.5268
       136        2.0000           -0.2748258              -7.4784
       137        2.0000           -0.2697083              -7.3391
       138        2.0000           -0.2694316              -7.3316
       139        2.0000           -0.2650683              -7.2129
       140        1.9999           -0.2607158              -7.0944
       141        1.9993           -0.2590244              -7.0484
       142        1.6269           -0.2528202              -6.8796 (HOMO)
       143        0.3739           -0.2500247              -6.8035 (LUMO)
       144        0.0000           -0.2358980              -6.4191
       145                         -0.2323754              -6.3233
       146                         -0.2288002              -6.2260
       147                         -0.2193118              -5.9678
       148                         -0.2179403              -5.9305
       149                         -0.2174523              -5.9172
       150                         -0.2147419              -5.8434
       151                         -0.2072039              -5.6383
       152                         -0.2057799              -5.5996
       153                         -0.2033448              -5.5333
       ...                                ...                  ...
       321                          1.1860247              32.2734
      -------------------------------------------------------------
                  HL-Gap            0.0027955 Eh            0.0761 eV
             Fermi-level           -0.2514212 Eh           -6.8415 eV

     #   Z          covCN         q      C6AA      α(0)
     1   8 O        0.858    -0.494    23.644     6.519
     2   6 C        2.835     0.179    24.160     8.055
     3   6 C        2.820     0.074    26.341     8.409
     4   8 O        1.655    -0.406    20.973     6.182
     5   6 C        2.850     0.092    25.945     8.348
     6   6 C        2.967    -0.002    28.073     8.691
     7   6 C        2.914    -0.092    30.314     9.028
     8   6 C        2.841     0.101    25.766     8.319
     9   8 O        1.658    -0.414    21.122     6.204
    10   6 C        2.845     0.077    26.276     8.401
    11   8 O        1.657    -0.415    21.142     6.207
    12   6 C        2.843     0.117    25.409     8.261
    13   8 O        1.658    -0.391    20.681     6.139
    14   6 C        2.917    -0.076    29.906     8.968
    15   8 O        1.707    -0.230    17.819     5.699
    16   6 C        2.872     0.129    25.179     8.226
    17   6 C        2.912    -0.122    31.099     9.144
    18   6 C        2.845     0.141    24.931     8.183
    19   8 O        1.659    -0.391    20.671     6.138
    20   6 C        2.913    -0.093    30.339     9.032
    21   6 C        2.846     0.152    24.708     8.146
    22   8 O        1.657    -0.397    20.783     6.154
    23   6 C        2.971    -0.086    30.158     9.008
    24   1 H        0.803     0.325     0.651     1.268
    25   1 H        0.925     0.050     2.325     2.385
    26   1 H        0.804     0.308     0.698     1.312
    27   1 H        0.803     0.324     0.654     1.270
    28   1 H        0.804     0.323     0.656     1.272
    29   1 H        0.925     0.070     2.087     2.259
    30   1 H        0.925     0.054     2.274     2.358
    31   1 H        0.804     0.308     0.697     1.311
    32   1 H        0.925     0.073     2.052     2.240
    33   1 H        0.803     0.342     0.609     1.225
    34   5 B        2.872     0.042    20.687     7.592
    35   5 B        3.645     0.024    21.895     7.618
    36   5 B        3.704     0.009    22.415     7.660
    37   5 B        3.599     0.004    21.948     7.685
    38   5 B        3.804     0.013    22.474     7.644
    39   5 B        3.812     0.037    22.037     7.568
    40   5 B        4.425     0.059    21.673     7.501
    41   5 B        3.843     0.024    22.291     7.610
    42   5 B        5.059     0.048    21.878     7.536
    43   5 B        5.523     0.103    20.921     7.370
    44   5 B        3.792     0.001    22.685     7.681
    45   5 B        4.799     0.086    21.216     7.422
    46   5 B        4.746     0.061    21.641     7.496
    47   5 B        3.691     0.011    22.322     7.652
    48   5 B        3.741     0.013    22.409     7.644
    49   5 B        4.170    -0.016    23.055     7.736
    50   5 B        3.938     0.009    22.574     7.656
    51   5 B        3.779     0.074    21.369     7.456
    52   5 B        3.808     0.065    21.545     7.483
    53   5 B        3.812    -0.011    22.924     7.719
    54   5 B        3.702    -0.008    22.723     7.714
    55   5 B        3.825     0.013    22.478     7.643
    56   5 B        4.691     0.054    21.768     7.517
    57   5 B        4.735     0.044    21.939     7.547
    58   5 B        3.813     0.075    21.384     7.455
    59   5 B        2.071    -0.000    43.036    13.722
    60   5 B        3.706     0.002    22.540     7.681
    61   5 B        4.547     0.021    22.365     7.620
    62   5 B        4.200     0.032    22.161     7.585
    63   5 B        3.748     0.072    21.371     7.463
    64   5 B        3.840    -0.005    22.831     7.701
    65   5 B        3.769     0.017    22.374     7.631
    66   5 B        4.530     0.065    21.572     7.484
    67   5 B        5.624     0.097    21.019     7.387
    68   5 B        3.805     0.019    22.364     7.625
    69   5 B        3.825     0.012    22.503     7.647
    70   5 B        2.886     0.071    20.202     7.502
    71   5 B        2.918     0.043    20.661     7.585
    72   5 B        2.913     0.018    21.096     7.665
    73   5 B        3.630     0.008    22.088     7.670
    74   5 B        3.792     0.002    22.674     7.679
    75   5 B        2.860    -0.005    21.517     7.744
    76   5 B        2.920    -0.035    22.030     7.832
    77   5 B        3.825     0.012    22.496     7.646
    78   5 B        2.901    -0.028    21.916     7.813
    79   5 B        4.532     0.041    21.988     7.555
    80   5 B        3.896     0.035    22.090     7.574
    81   5 B        3.818     0.015    22.439     7.636
    82   5 B        3.778    -0.037    23.397     7.802
    83   5 B        3.628    -0.021    22.609     7.762
    84   5 B        4.556     0.023    22.328     7.614
    85   5 B        3.280     0.018    21.067     7.654
    86   5 B        4.869     0.087    21.194     7.418
    87   1 H        0.937    -0.176     9.126     4.723
    88   1 H        0.935    -0.144     7.400     4.253
    89   1 H        0.936    -0.140     7.172     4.187
    90   1 H        0.939    -0.153     7.811     4.370
    91   1 H        0.936    -0.140     7.188     4.192
    92   1 H        0.937    -0.144     7.389     4.250
    93   1 H        0.934    -0.143     7.323     4.231

 Mol. C6AA /au·bohr⁶  :     155479.381401
 Mol. C8AA /au·bohr⁸  :    5131631.180564
 Mol. α(0) /au        :        633.871322


Wiberg/Mayer (AO) data.
largest (>0.10) Wiberg bond orders for each atom

 ---------------------------------------------------------------------------
     #   Z sym  total        # sym  WBO       # sym  WBO       # sym  WBO
 ---------------------------------------------------------------------------
     1   8 O    1.879 --     2 C    1.547
     2   6 C    3.841 --     1 O    1.547    23 C    1.100     3 C    1.086
     3   6 C    3.909 --     5 C    1.534     2 C    1.086     4 O    1.063
     4   8 O    2.084 --     3 C    1.063    24 H    0.864
     5   6 C    3.815 --     3 C    1.534     6 C    1.055    15 O    1.023
     6   6 C    3.963 --    14 C    1.371     7 C    1.362     5 C    1.055
     7   6 C    3.953 --     8 C    1.395     6 C    1.362    25 H    0.964
     8   6 C    3.931 --     7 C    1.395    10 C    1.325     9 O    1.043
     9   8 O    2.087 --     8 C    1.043    26 H    0.882
    10   6 C    3.904 --     8 C    1.325    12 C    1.316    11 O    1.044
    11   8 O    2.075 --    10 C    1.044    27 H    0.870
    12   6 C    3.943 --    14 C    1.389    10 C    1.316    13 O    1.075
    13   8 O    2.112 --    12 C    1.075    28 H    0.873
    14   6 C    3.955 --    12 C    1.389     6 C    1.371    29 H    0.965
    15   8 O    2.315 --    16 C    1.063     5 C    1.023
    16   6 C    3.918 --    17 C    1.370    23 C    1.305    15 O    1.063
    17   6 C    3.953 --    16 C    1.370    18 C    1.361    30 H    0.963
    18   6 C    3.907 --    20 C    1.364    17 C    1.361    19 O    1.076
    19   8 O    2.110 --    18 C    1.076    31 H    0.884
    20   6 C    3.972 --    21 C    1.386    18 C    1.364    32 H    0.964
    21   6 C    3.908 --    20 C    1.386    23 C    1.272    22 O    1.118
    22   8 O    2.131 --    21 C    1.118    33 H    0.820
    23   6 C    3.977 --    16 C    1.305    21 C    1.272     2 C    1.100
    24   1 H    0.894 --     4 O    0.864
    25   1 H    0.998 --     7 C    0.964
    26   1 H    0.905 --     9 O    0.882
    27   1 H    0.895 --    11 O    0.870
    28   1 H    0.895 --    13 O    0.873
    29   1 H    0.995 --    14 C    0.965
    30   1 H    0.997 --    17 C    0.963
    31   1 H    0.904 --    19 O    0.884
    32   1 H    0.994 --    20 C    0.964
    33   1 H    0.883 --    22 O    0.820
    34   5 B    3.480 --    76 B    1.428    87 H    0.958    40 B    0.836
    35   5 B    3.505 --    76 B    1.123    77 B    0.992    41 B    0.558
                            40 B    0.508
    36   5 B    3.506 --    78 B    1.276    77 B    1.015    43 B    0.485
                            42 B    0.448
    37   5 B    3.471 --    78 B    1.287    38 B    1.017    43 B    0.561
                            79 B    0.359
    38   5 B    3.530 --    80 B    1.094    37 B    1.017    44 B    0.683
                            79 B    0.483
    39   5 B    3.594 --    91 H    0.941    80 B    0.855    51 B    0.809
                            45 B    0.800
    40   5 B    3.614 --    34 B    0.836    46 B    0.835    76 B    0.789
                            35 B    0.508    47 B    0.390
    41   5 B    3.569 --    47 B    1.107    77 B    0.771    42 B    0.691
                            35 B    0.558
    42   5 B    3.590 --    48 B    0.968    41 B    0.691    43 B    0.520
                            77 B    0.503    36 B    0.448    49 B    0.233
    43   5 B    3.597 --    49 B    0.626    79 B    0.618    78 B    0.591
                            37 B    0.561    42 B    0.520    36 B    0.485
    44   5 B    3.595 --    50 B    1.106    79 B    0.920    38 B    0.683
                            80 B    0.506
    45   5 B    3.596 --    51 B    0.845    39 B    0.800    57 B    0.686
                            80 B    0.593    50 B    0.516
    46   5 B    3.620 --    40 B    0.835    52 B    0.754    47 B    0.691
                            53 B    0.557    86 B    0.495
    47   5 B    3.547 --    41 B    1.107    53 B    0.931    46 B    0.691
                            40 B    0.390
    48   5 B    3.440 --    54 B    1.106    42 B    0.968    55 B    0.589
                            49 B    0.417
    49   5 B    3.601 --    55 B    1.116    79 B    0.908    43 B    0.626
                            48 B    0.417    42 B    0.233
    50   5 B    3.550 --    44 B    1.106    56 B    0.832    57 B    0.607
                            45 B    0.516    80 B    0.181
    51   5 B    3.512 --    92 H    0.953    45 B    0.845    39 B    0.809
                            57 B    0.678
    52   5 B    3.523 --    88 H    0.940    58 B    0.828    46 B    0.754
                            86 B    0.728
    53   5 B    3.625 --    59 B    1.268    47 B    0.931    46 B    0.557
                            86 B    0.544
    54   5 B    3.480 --    60 B    1.161    48 B    1.106    55 B    0.555
                            61 B    0.393
    55   5 B    3.567 --    49 B    1.116    61 B    0.970    48 B    0.589
                            54 B    0.555
    56   5 B    3.579 --    62 B    0.864    50 B    0.832    69 B    0.560
                            57 B    0.541    63 B    0.499
    57   5 B    3.605 --    63 B    0.869    45 B    0.686    51 B    0.678
                            50 B    0.607    56 B    0.541
    58   5 B    3.570 --    89 H    0.942    52 B    0.828    86 B    0.772
                            64 B    0.727
    59   5 B    3.414 --    65 B    1.330    53 B    1.268    86 B    0.204
                            81 B    0.157
    60   5 B    3.429 --    54 B    1.161    66 B    1.015    67 B    0.509
                            61 B    0.458
    61   5 B    3.575 --    55 B    0.970    84 B    0.781    67 B    0.657
                            60 B    0.458    54 B    0.393
    62   5 B    3.560 --    68 B    1.007    56 B    0.864    69 B    0.632
                            75 B    0.541    85 B    0.320
    63   5 B    3.413 --    93 H    0.925    69 B    0.890    57 B    0.869
                            56 B    0.499
    64   5 B    3.605 --    70 B    1.227    58 B    0.727    81 B    0.712
                            86 B    0.692
    65   5 B    3.570 --    59 B    1.330    71 B    0.686    81 B    0.606
                            82 B    0.574
    66   5 B    3.513 --    60 B    1.015    72 B    0.647    82 B    0.578
                            67 B    0.538    83 B    0.450
    67   5 B    3.612 --    61 B    0.657    84 B    0.631    66 B    0.538
                            73 B    0.524    60 B    0.509    83 B    0.506
    68   5 B    3.542 --    84 B    1.026    62 B    1.007    74 B    0.630
                            85 B    0.526
    69   5 B    3.504 --    75 B    1.232    63 B    0.890    62 B    0.632
                            56 B    0.560
    70   5 B    3.457 --    64 B    1.227    90 H    0.957    81 B    0.848
                            71 B    0.145
    71   5 B    3.402 --    82 B    1.160    81 B    1.108    65 B    0.686
                            70 B    0.145
    72   5 B    3.347 --    83 B    1.209    82 B    1.134    66 B    0.647
    73   5 B    3.385 --    83 B    1.130    74 B    1.081    67 B    0.524
                            84 B    0.392
    74   5 B    3.487 --    73 B    1.081    85 B    1.062    68 B    0.630
                            84 B    0.494
    75   5 B    3.338 --    85 B    1.264    69 B    1.232    62 B    0.541
    76   5 B    3.522 --    34 B    1.428    35 B    1.123    40 B    0.789
    77   5 B    3.529 --    36 B    1.015    35 B    0.992    41 B    0.771
                            42 B    0.503
    78   5 B    3.442 --    37 B    1.287    36 B    1.276    43 B    0.591
    79   5 B    3.559 --    44 B    0.920    49 B    0.908    43 B    0.618
                            38 B    0.483    37 B    0.359
    80   5 B    3.482 --    38 B    1.094    39 B    0.855    45 B    0.593
                            44 B    0.506    50 B    0.181
    81   5 B    3.628 --    71 B    1.108    70 B    0.848    64 B    0.712
                            65 B    0.606    59 B    0.157
    82   5 B    3.617 --    71 B    1.160    72 B    1.134    66 B    0.578
                            65 B    0.574
    83   5 B    3.498 --    72 B    1.209    73 B    1.130    67 B    0.506
                            66 B    0.450
    84   5 B    3.591 --    68 B    1.026    61 B    0.781    67 B    0.631
                            74 B    0.494    73 B    0.392
    85   5 B    3.387 --    75 B    1.264    74 B    1.062    68 B    0.526
                            62 B    0.320
    86   5 B    3.626 --    58 B    0.772    52 B    0.728    64 B    0.692
                            53 B    0.544    46 B    0.495    59 B    0.204
    87   1 H    0.968 --    34 B    0.958
    88   1 H    0.973 --    52 B    0.940
    89   1 H    0.975 --    58 B    0.942
    90   1 H    0.973 --    70 B    0.957
    91   1 H    0.969 --    39 B    0.941
    92   1 H    0.975 --    51 B    0.953
    93   1 H    0.973 --    63 B    0.925
 ---------------------------------------------------------------------------

Topologies differ in total number of bonds
Writing topology from bond orders to xtbtopo.mol

molecular dipole:
                 x           y           z       tot (Debye)
 q only:        3.173       0.646      -4.052
   full:        3.682       0.783      -5.192      16.300
molecular quadrupole (traceless):
                xx          xy          yy          xz          yz          zz
 q only:      -20.959      31.836     102.614      21.874      -9.643     -81.654
  q+dip:        8.978      13.671      73.798      34.488       9.945     -82.775
   full:       -5.001      18.860      64.394      39.142       8.969     -59.393


           -------------------------------------------------
          | TOTAL ENERGY             -137.460837648697 Eh   |
          | GRADIENT NORM               0.094398835587 Eh/α |
          | HOMO-LUMO GAP               0.076069002860 eV   |
           -------------------------------------------------

------------------------------------------------------------------------
 * finished run on 2026/08/31 at 22:04:35.623     
------------------------------------------------------------------------
 total:
 * wall-time:     0 d,  0 h,  0 min,  1.391 sec
 *  cpu-time:     0 d,  0 h,  0 min, 10.734 sec
 * ratio c/w:     7.717 speedup
 SCF:
 * wall-time:     0 d,  0 h,  0 min,  1.339 sec
 *  cpu-time:     0 d,  0 h,  0 min, 10.344 sec
 * ratio c/w:     7.725 speedup

normal termination of xtb
