60
 energy: -61.506289255377 gnorm: 0.000637623904 xtb: 6.7.1 (edcfbbe)
B           -5.85616209032220        3.40954591377465        0.54530009813260
B           -5.86578037294833        1.73199990414467        0.19808109331022
B           -4.40207138728140        4.24669944658358        0.15597466313428
B           -4.40721094657452        2.56335162883375        0.30058020831688
B           -4.40865059298175        0.86566661678519        0.36467048917221
B           -5.87466666208427       -1.66665149894442        0.18000058557255
B           -5.87416641639277       -3.34418718669992        0.54733384477807
B           -4.41345089999362       -0.80853044969356        0.35768786921548
B           -4.42051740977609       -2.50594543372680        0.29007977750301
B           -4.42526456829640       -4.18833406234125        0.14266450378330
B           -2.93153076880929        3.41533321430056        0.27874032411280
B           -2.93816530676301        1.70651819539941        0.34224727818378
B           -1.46630866921300        4.23773693629350        0.50727712810499
B           -1.47375478080299        2.55565696488946        0.33651558757887
B           -1.48020761299607        0.86129173100624        0.19059981871779
B           -2.94705437456912       -1.65673231572238        0.36276292265391
B           -2.94998299266191       -3.36569211520948        0.25435909559882
B           -1.48472107806480       -0.82004752633832        0.18886646942058
B           -1.48687132050973       -2.51394402115506        0.34222266604800
B           -1.49048855190107       -4.19619811708477        0.50243933506054
B           -0.00532050770332        3.40605404589511        0.28797827465126
B           -0.01082359320925        1.69921131687568        0.23635656379499
B            1.45809152522315        4.23204731406262        0.06470481411519
B            1.45610167178759        2.54821060229651        0.19788280763064
B            1.45179199090687        0.85283053560439        0.26367673300850
B           -0.02081246648093       -1.66598840623774        0.16334607436704
B           -0.02213643828306       -3.36935256637266        0.40170952162335
B            1.44710123406257       -0.82735887472249        0.24389194908608
B            1.44324647886206       -2.52235224267662        0.29099197022784
B            1.44051285486705       -4.20773241066663        0.38745082221055
B            2.92111815943152        3.39934417511168        0.26643531009128
B            2.91873138415261        1.69104600328596        0.21102589036704
B            4.39289964162871        4.22081496544127        0.44011995810391
B            4.38958318229409        2.53855006753182        0.31310649016179
B            4.38224565344231        0.84150235189553        0.24197959766356
B            2.91063260078042       -1.67293138381465        0.28218537816983
B            2.90124310194068       -3.38084165007211        0.15563402038060
B            4.37667851999167       -0.83150697171793        0.15946210854685
B            4.37254431937054       -2.52847444206510        0.10157370287208
B            4.36484110012512       -4.21116866001284       -0.00764911613666
B            5.84709735859490        3.37926010228203        0.05729698776604
B            5.84526048436886        1.69744299897507        0.41035754929109
B            5.82974271703997       -1.69570243996167       -0.03797338692314
B            5.83237823956995       -3.37616430277095        0.34999575479078
H           -6.78080173741299        3.99318120251890        0.97097352794607
H           -6.83048962587963        1.23631605937908       -0.23943878292771
H           -4.46167166220760        5.36681745784801       -0.19445925488733
H           -6.83998933661106       -1.17829541838453       -0.26597913825040
H           -6.80531984646906       -3.91020143969282        0.98264883040921
H           -4.49540810632265       -5.29494429957298       -0.24689449170289
H           -1.46952902937880        5.37888011478410        0.79146193396631
H           -1.50921474299994       -5.33723115237401        0.78776360791881
H            1.46117453787989        5.38124008374179       -0.18578161310188
H            1.45143508764676       -5.37565915826635        0.53030486187662
H            4.45505003712679        5.32642339793718        0.83433798668989
H            4.41870916452993       -5.31477405808351       -0.41039491837104
H            6.77963798576306        3.95783396678963       -0.35640908112760
H            6.79217233843510        1.19882169007591        0.88753593342128
H            6.77638672375448       -1.21433955743792       -0.53462493702545
H            6.77371790232415       -3.94158585252367        0.76302574090708
