34
drug @complex
C       0.95442989      2.70569188      6.04728820
C       0.41880657      1.35443256      5.57209188
C       0.32741651      1.32732523      4.04381349
C      -0.20941016     -0.02414853      3.57936060
C       0.73250480     -1.13469589      4.03992380
C       0.82935796     -1.13558244      5.56877941
C       1.77192459     -2.24475395      6.03941378
C       1.35107994      0.22851478      6.03192397
C      -0.57041146     -1.35218192      6.15302877
C      -1.52730413     -0.24052578      5.68980195
N      -2.87936688     -0.38898463      6.21748447
C      -1.60065670     -0.25525422      4.16086641
C      -0.97591426      1.11012871      6.15473417
H       1.94704136      2.88725881      5.64158051
H       1.01914693      2.73315849      7.13278523
H       0.29863473      3.51050840      5.72412980
H      -0.33327952      2.12616606      3.70541572
H       1.31578171      1.49688581      3.61511648
H      -0.27098983     -0.03159580      2.48989084
H       0.36227873     -2.10283567      3.69900369
H       1.72245212     -0.97929762      3.60937928
H       2.76924644     -2.09616244      5.63186397
H       1.41017377     -3.21786998      5.71490576
H       1.84455518     -2.25239248      7.12488338
H       2.35143149      0.39276059      5.62615137
H       1.42960686      0.23994768      7.12158088
H      -0.51804683     -1.35704505      7.24573198
H      -0.95773346     -2.32429108      5.83488311
H      -2.87118968     -0.35545532      7.23094331
H      -3.27047452     -1.28231408      5.93957864
H      -1.99420376     -1.21594067      3.82536925
H      -2.29036907      0.52079438      3.83188317
H      -0.92960022      1.12676421      7.24637717
H      -1.66250351      1.89693764      5.84053722
