94
 energy: -100.912419875707 gnorm: 0.000753567570 xtb: 6.7.1 (edcfbbe)
C           -2.71434408712678        0.89706509156919        6.07090519520902
C           -1.35493740437217        0.41351630551804        5.56425136520065
C           -1.30851316538170        0.47127838115113        4.03477453254551
C            0.05167235001649       -0.01297271955844        3.54057974397567
C            1.15420944508040        0.88083836411654        4.10333379150866
C            1.13516085849010        0.82894482371575        5.63416446540475
C            2.23445915328043        1.72498757253516        6.20729435461132
C           -0.23775583705160        1.29976994600643        6.12652332411263
C            1.34981302251339       -0.61977859903317        6.08377437427027
C            0.24710890502725       -1.52935750444069        5.51635927432600
N            0.39291171290744       -2.92648464758629        5.90986108231869
C            0.28076800259696       -1.45318251347625        3.98857390693674
C           -1.11206923591351       -1.02974608644276        6.01383376656840
H           -2.89529933527701        1.92301628686025        5.75859143412573
H           -2.75574264050349        0.85882265980882        7.15718373238848
H           -3.51164789147676        0.27193861082721        5.67622328925683
H           -2.09795715242993       -0.15277876462499        3.61572530125678
H           -1.47883777774771        1.49662150128415        3.70432317591789
H            0.07569167929361        0.03004240552961        2.45100133539189
H            2.12508196067841        0.54843202213275        3.73309815542217
H            1.00231051035818        1.90994091526807        3.77453026514700
H            2.08829067238090        2.75599321898775        5.89332965113399
H            3.21277019097470        1.39715517012057        5.86283912658140
H            2.22721158196059        1.69542378393057        7.29475961331484
H           -0.40054856778982        2.33425737758380        5.81676372973551
H           -0.26384231440368        1.27377457550664        7.21843834109700
H            1.34143584759421       -0.67263684713276        7.17638582193748
H            2.32684323036619       -0.97195947230545        5.74106310269696
H            0.35270259367375       -3.01897570142582        6.91874689762223
H            1.28717189775282       -3.28995267078214        5.59961890885056
H            1.24778871420774       -1.80812994195157        3.62928245328563
H           -0.49144753742004       -2.10962380704481        3.58975939143723
H           -1.14346447630761       -1.08836214404233        7.10450356709648
H           -1.89139622179113       -1.68552059266231        5.62427909213939
B           -5.86702068526550        3.35902909104044        0.63159795715249
B           -5.86523387267518        1.67851438412372        0.31447092314432
B           -4.40896676440972        4.20495087967698        0.31538357380605
B           -4.40868649732922        2.51873862365767        0.42736521845105
B           -4.40500259456606        0.82277088580318        0.50193468868223
B           -5.86122772250986       -1.71182580125493        0.28661738361878
B           -5.85894322944081       -3.39747883028346        0.57564223615252
B           -4.40298917881621       -0.85591719349779        0.48927021935363
B           -4.40266555194019       -2.55039379292048        0.38647653837213
B           -4.39904331478502       -4.23431232516650        0.24307023173149
B           -2.93828923846315        3.37258242542716        0.39687663218055
B           -2.93832593714788        1.66921819567306        0.52497640506144
B           -1.47908632245710        4.20784255388345        0.59405582738437
B           -1.47689241168472        2.52190563711992        0.49525065431558
B           -1.47495719326914        0.82973697452023        0.38865956319763
B           -2.93428021337124       -1.69918024459268        0.50161627290186
B           -2.93032349455356       -3.39997613616189        0.33810468007273
B           -1.47295388798949       -0.85398641392995        0.37794526643562
B           -1.47087224071963       -2.54777000882456        0.44931620511973
B           -1.46900818453975       -4.23537598419185        0.51100152682686
B           -0.01118480648810        3.37236402006477        0.56699154397142
B           -0.00937654917701        1.67494536854156        0.35113325985156
B            1.45220202821771        4.21116178372614        0.59558546631281
B            1.45387897534797        2.52543098190827        0.49066983413895
B            1.45574849640441        0.83331354020525        0.38042020231096
B           -0.00537551205980       -1.69492238461274        0.32733467103946
B           -0.00312188855735       -3.39583119105518        0.50826265624061
B            1.45774879696878       -0.85042948672690        0.36810090954495
B            1.45990679331449       -2.54423398726266        0.44536824821930
B            1.46224645232124       -4.23166197934266        0.51646759920409
B            2.91555661164847        3.37967817080089        0.39423846108119
B            2.91992206502453        1.67626942902133        0.51682296377003
B            4.38153596081025        4.21547092812551        0.30828660688834
B            4.38554956327056        2.52923235625978        0.41969725303932
B            4.38600763134830        0.83326355559332        0.49295672723359
B            2.92392892475461       -1.69214292990798        0.49020383420246
B            2.92367261059984       -3.39311798432998        0.33396087067822
B            4.38799516589267       -0.84535091604715        0.47955858233858
B            4.39158307431307       -2.53978235078651        0.37541729516527
B            4.39166120299306       -4.22380868476219        0.23506786173608
B            5.84486305473231        3.37301451277174        0.62060152712770
B            5.84652744897741        1.69267863111140        0.30531796099358
B            5.85060837348723       -1.69793444155239        0.27755551974052
B            5.85288106436235       -3.38345677779668        0.56394715391216
H           -6.81879866312818        3.92871222752064        1.01735293716958
H           -6.82801645404662        1.18238991737979       -0.12878348737157
H           -4.46135309581272        5.32841165098547       -0.02728319524666
H           -6.82481218634182       -1.20903526120301       -0.14716675379721
H           -6.80803387098211       -3.97469674768331        0.95669139474333
H           -4.44883445327365       -5.35124953720947       -0.11983523784522
H           -1.49310832056145        5.36758892274848        0.78935580700486
H           -1.47887857664944       -5.40112531982552        0.66155436324024
H            1.46568591398966        5.37018302198612        0.79493895500427
H            1.47807093961038       -5.39556868531520        0.68104020468280
H            4.43171588061274        5.33975081797283       -0.03234516176000
H            4.44462647426101       -5.34224310631639       -0.12322521761274
H            6.79387301480959        3.94699375288807        1.00683331859601
H            6.80930164188337        1.19575702281338       -0.13717547814805
H            6.81182210134751       -1.19019402314935       -0.15576472184661
H            6.80094396758824       -3.96125471768733        0.94727008838123
