94
 energy: -100.914989673995 gnorm: 0.000628524903 xtb: 6.7.1 (edcfbbe)
C            0.95442988530323        2.70569187897952        6.04728820435086
C            0.41880657486590        1.35443255823072        5.57209188440087
C            0.32741651438150        1.32732523088075        4.04381349195618
C           -0.20941015756639       -0.02414853231255        3.57936060255995
C            0.73250480497902       -1.13469589063025        4.03992380104493
C            0.82935795545799       -1.13558243811580        5.56877941491851
C            1.77192458568844       -2.24475394668083        6.03941378487620
C            1.35107993960800        0.22851478191200        6.03192397250732
C           -0.57041145823797       -1.35218192187478        6.15302877198883
C           -1.52730413383597       -0.24052578062371        5.68980194607017
N           -2.87936688126817       -0.38898462852034        6.21748447414520
C           -1.60065670199924       -0.25525422411368        4.16086641102206
C           -0.97591425709754        1.11012870937575        6.15473417267816
H            1.94704136078625        2.88725880693101        5.64158050662229
H            1.01914693241947        2.73315849033052        7.13278522778708
H            0.29863472990614        3.51050839874623        5.72412979714656
H           -0.33327952354184        2.12616606479654        3.70541571654464
H            1.31578170516262        1.49688581228979        3.61511648043770
H           -0.27098982686473       -0.03159580490916        2.48989083567816
H            0.36227873349639       -2.10283566707019        3.69900369227357
H            1.72245211867253       -0.97929761753583        3.60937927754717
H            2.76924644165128       -2.09616244378538        5.63186396658531
H            1.41017376879340       -3.21786998391910        5.71490575831827
H            1.84455518244728       -2.25239248304069        7.12488337977351
H            2.35143148866977        0.39276058851243        5.62615137096371
H            1.42960685958538        0.23994767847239        7.12158087737442
H           -0.51804682935905       -1.35704504556001        7.24573198484416
H           -0.95773345513108       -2.32429107761773        5.83488311145071
H           -2.87118968436829       -0.35545531896664        7.23094330640443
H           -3.27047451990898       -1.28231408362641        5.93957864013455
H           -1.99420376399278       -1.21594066502078        3.82536924987045
H           -2.29036906877904        0.52079438286969        3.83188317263001
H           -0.92960022057193        1.12676420781927        7.24637716612079
H           -1.66250350590292        1.89693763571693        5.84053722281376
B           -5.85174226111990        3.38667733407872        0.62093479125529
B           -5.85442333943561        1.70489604679759        0.31210667861093
B           -4.39372891436333        4.22873475323910        0.29718434244578
B           -4.39590475139488        2.54294581574173        0.42121005078761
B           -4.39471789616056        0.84712727435934        0.49368027046114
B           -5.85674252072927       -1.68582279199609        0.31419880003602
B           -5.85571057560289       -3.37013032900027        0.59241052879811
B           -4.39556070114456       -0.83107583957436        0.49162911593014
B           -4.39907612631162       -2.52641514928407        0.40841334047138
B           -4.39858957770172       -4.21155164133410        0.27046169632422
B           -2.92413244335382        3.39425749098413        0.39026115429111
B           -2.92650388653763        1.69127796927354        0.50223106192388
B           -1.46228183894842        4.22675776856061        0.58395441944125
B           -1.46366137230558        2.54108581926918        0.47472020915246
B           -1.46537853022648        0.84884357965289        0.34531628271405
B           -2.92869654121013       -1.67718751074868        0.46027138163284
B           -2.92814856683747       -3.37947160763876        0.38191588710971
B           -1.46645946086991       -0.83470271881748        0.32772114908591
B           -1.46692266723633       -2.52859124750530        0.43701845849598
B           -1.46646939377135       -4.21456798740629        0.56142128181793
B            0.00379960692499        3.38977696730175        0.52201347484220
B            0.00151751647837        1.69101211909853        0.33336949221087
B            1.46846955137081        4.22689627818773        0.51585943909018
B            1.46703178492793        2.53992321320007        0.43862203556985
B            1.46563502749136        0.84641913853462        0.41025810962606
B           -0.00014473167115       -1.67882810923008        0.36742591318854
B           -0.00078130102012       -3.38046081298012        0.40393624824501
B            1.46464646858668       -0.83666040194837        0.42014865434846
B            1.46382529227594       -2.53017254779941        0.35590589638472
B            1.46136307397770       -4.21559120518896        0.23219259781339
B            2.93012240807545        3.39079487844209        0.34711424252548
B            2.93195159440431        1.68840649657139        0.45762630539087
B            4.39595294659400        4.22343690264144        0.21958997251282
B            4.39757819579528        2.53765155604283        0.30853403515587
B            4.39566114079418        0.84222941989316        0.35673176341336
B            2.92946813229037       -1.68041075851823        0.36729710457091
B            2.92674592084321       -3.38299263898525        0.39375974904917
B            4.39499098379876       -0.83563444351945        0.40389312151494
B            4.39590949568987       -2.53138102185581        0.44349617349184
B            4.39312816892283       -4.21735164344321        0.53391280288262
B            5.86030683444633        3.38032697483015        0.52266796192110
B            5.85612329439155        1.69719211245063        0.19635052805862
B            5.85661740293439       -1.69254846867522        0.54077811420164
B            5.85466457929669       -3.37554903882629        0.22343803428623
H           -6.80055017447917        3.95904937815719        1.00912257564930
H           -6.81981498599217        1.20637557947664       -0.12268805669728
H           -4.44221353529009        5.34862319537638       -0.05716287688173
H           -6.81870579310857       -1.17148227281816       -0.10759329172060
H           -6.79788842754314       -3.95525345499893        0.97784916944400
H           -4.44594131858664       -5.34033159087581       -0.05460533260705
H           -1.47233083684967        5.37986500177027        0.81461658106278
H           -1.47330111255862       -5.36841196804991        0.78845563710286
H            1.47743265495611        5.39920108572750        0.61045188809952
H            1.46243727819520       -5.37530756360778        0.03698990116362
H            4.44308841342149        5.33924974489836       -0.14976649352874
H            4.43890237619919       -5.33877788956201        0.88434934653281
H            6.81515506674234        3.94938710779391        0.90154645262317
H            6.81233519721015        1.19738349290694       -0.26280503419322
H            6.81042462336199       -1.19079444569670        1.00084357723529
H            6.79682298852061       -3.95429501730040       -0.17035599755493
