94
 energy: -100.914972557547 gnorm: 0.000557707131 xtb: 6.7.1 (edcfbbe)
C           -0.95350620664654       -2.70815848658757        6.04609134241473
C           -0.41809180592784       -1.35667569109440        5.57130399964103
C           -0.32722015116790       -1.32895479823932        4.04301769414216
C            0.20940300428536        0.02272721740664        3.57894159107290
C           -0.73238466069481        1.13307426235386        4.04022090267425
C           -0.82871261230394        1.13336763272922        5.56909868005857
C           -1.77114543714238        2.24235382166754        6.04042389520917
C           -1.35023062623467       -0.23094004148429        6.03185457083388
C            0.57128347822113        1.34976347039044        6.15287951332545
C            1.52805341505919        0.23830253794894        5.68892640765396
N            2.88031008943982        0.38659300363202        6.21616924680197
C            1.60087960816317        0.25361530741844        4.15998025020056
C            0.97684558472685       -1.11255053037715        6.15349986532785
H           -1.94630932209130       -2.88952298436580        5.64075950473764
H           -1.01771910641727       -2.73610350202529        7.13160236053716
H           -0.29786449969151       -3.51283473211323        5.72226419461948
H            0.33337295703352       -2.12765116163765        3.70407008415207
H           -1.31573347324069       -1.49837561435121        3.61461024012192
H            0.27059858416479        0.03063424183431        2.48946410280056
H           -0.36229570806608        2.10134478164425        3.69951894836709
H           -1.72247298242256        0.97781150952486        3.60995558241719
H           -2.76858700484574        2.09390531102917        5.63311289259401
H           -1.40949755382165        3.21560607761573        5.71620155577975
H           -1.84343858672120        2.24953839403805        7.12591374300103
H           -2.35071524158192       -0.39505095349896        5.62635600200917
H           -1.42838207291165       -0.24279984407803        7.12152757686424
H            0.51929647323496        1.35420800782911        7.24559571035431
H            0.95847474065801        2.32200577744990        5.83497758973654
H            2.87248398395990        0.35267130125316        7.22961551637560
H            3.27128396720366        1.28004769785743        5.93847850308922
H            1.99430941580033        1.21442423762482        3.82469526422692
H            2.29047718931503       -0.52231492435637        3.83046769645628
H            0.93089994936521       -1.12960617236049        7.24514575996489
H            1.66334402547927       -1.89922971809441        5.83877470373143
B           -5.85562802942165        3.37303046464003        0.22332532359083
B           -5.85651970917268        1.68997913031089        0.54250321894834
B           -4.39726366379441        4.21583642901041        0.53467762842881
B           -4.39898228225934        2.52986967576279        0.44408548639916
B           -4.39703192595551        0.83407735034652        0.40528196440893
B           -5.85396485821018       -1.69961119207350        0.19788462577463
B           -5.85695007478485       -3.38279093155376        0.52600329253653
B           -4.39664850292650       -0.84382058920036        0.35765037229466
B           -4.39748823284831       -2.53929507547318        0.31044415118084
B           -4.39484658111577       -4.22509684950854        0.22190747897782
B           -2.92786351151031        3.38231572779317        0.39570838715956
B           -2.92948578151625        1.67972188353207        0.36724627481049
B           -1.46559416378447        4.21588504778804        0.23260541313801
B           -1.46690640037566        2.53046827054037        0.35698918619608
B           -1.46668387014649        0.83694435068763        0.42057390943659
B           -2.92982607507582       -1.68900409495135        0.45849209092891
B           -2.92693650584067       -3.39138380249688        0.34748945057768
B           -1.46661483527585       -0.84614745059278        0.41093315380045
B           -1.46690917026454       -2.53965803514542        0.43968164519987
B           -1.46727370854684       -4.22662824485980        0.51643448130323
B           -0.00027507543289        3.38167179787312        0.40215195694114
B            0.00012661182491        1.68002367728546        0.36816045869934
B            1.46234095166668        4.21672181843280        0.56048889479502
B            1.46386745812949        2.53071419202032        0.43568898086671
B            1.46439531008641        0.83680240982298        0.32731447340690
B            0.00058714369780       -1.68983548168845        0.33372739456065
B           -0.00058632321770       -3.38853000713218        0.52249613652875
B            1.46438765561498       -0.84672549482695        0.34506471459597
B            1.46379928639914       -2.53890646303833        0.47594640729042
B            1.46347089601943       -4.22452847945495        0.58603907917201
B            2.92704994830651        3.38258183135126        0.38218998244115
B            2.92872420100642        1.68028948089493        0.45818927944536
B            4.39440621212760        4.21546503154483        0.26865728123103
B            4.39600410981856        2.53034199117887        0.40706996214854
B            4.39354873979457        0.83505176512609        0.49041018166527
B            2.92865594091968       -1.68824681351023        0.50098174986662
B            2.92729609502532       -3.39126973909697        0.39184973162398
B            4.39377100252129       -0.84310937517819        0.49265818891594
B            4.39604032373862       -2.53890957505244        0.42082307365477
B            4.39486978150167       -4.22474247696931        0.29706594317414
B            5.85479975797378        3.37503938153011        0.58957546835904
B            5.85679364167641        1.69082134889567        0.31318956602854
B            5.85660502357155       -1.70013385429260        0.31161994010802
B            5.85511105041345       -3.38173287736513        0.61928772551624
H           -6.80017097216495        3.94833483245816       -0.16997851344980
H           -6.81229142601376        1.18950405673430        0.99996794733747
H           -4.44225966628844        5.33706547107736        0.88583538637772
H           -6.81261306857465       -1.20232541895754       -0.25899189091639
H           -6.81326822857803       -3.94960194160521        0.90467334420894
H           -4.43997451937171       -5.34097507318475       -0.14746849092793
H           -1.46604253195180        5.37584367688807        0.03893952577145
H           -1.47389933475715       -5.39882582448169        0.61198239719794
H            1.46983062086107        5.37080485351291        0.78626291727116
H            1.47584568290875       -5.37712754758029        0.81914212947953
H            4.44238420327024        5.34438544367081       -0.05582241595373
H            4.44522566034039       -5.34507192450556       -0.05565841485258
H            6.79468624121802        3.96350921821131        0.97543068935042
H            6.81699150626908        1.17511703666736       -0.11079862059442
H            6.81963754199798       -1.19916955668383       -0.12547109042833
H            6.80253704631128       -3.95623890171005        1.00760789337509
