100
Drug@B48H12 clean complex
C      4.823997     -1.581580      6.091716
O      3.871776     -0.552396      6.319487
C      2.685700     -0.920800      6.882599
C      2.335114     -2.203756      7.308714
C      1.039932     -2.473529      7.798598
C      0.078741     -1.457644      7.921551
C      0.479783     -0.166102      7.625104
C      1.731760      0.072010      7.040624
O      1.845486      1.362784      6.539563
C      0.839878      2.026956      7.309736
C      0.376403      3.380015      6.811948
C     -0.633071      3.917366      7.819214
O     -0.984953      5.094608      7.824222
C     -1.228138      2.979193      8.831297
C     -1.077354      1.646066      8.711068
C     -0.356376      1.064601      7.520059
C     -1.333073      0.829147      6.346612
C     -2.504491     -0.131510      6.676858
N     -2.177781     -1.547577      6.942740
C     -3.418665     -2.326039      7.023749
C     -1.376143     -1.767097      8.162794
H      5.154339     -2.028687      7.035109
H      4.429484     -2.342777      5.410385
H      5.698459     -1.129038      5.614248
H      3.023941     -3.037925      7.222093
H      0.773310     -3.505011      8.022434
H      1.339436      2.224269      8.279068
H     -0.073978      3.324992      5.816956
H      1.228150      4.066179      6.755581
H     -1.779577      3.437566      9.644301
H     -1.513591      0.988611      9.455139
H     -0.804649      0.455070      5.458586
H     -1.784673      1.781595      6.040172
H     -3.101343      0.279527      7.501362
H     -3.158364     -0.100969      5.794257
H     -4.003601     -2.222933      6.102809
H     -3.199550     -3.394663      7.128718
H     -4.043926     -2.015220      7.868583
H     -1.437744     -2.822460      8.461578
H     -1.764649     -1.202844      9.017806
B     -6.351142     -2.854456     -0.339557
B     -3.863246     -3.427578      0.871248
B     -1.055185     -4.165135      1.979350
B      1.685312     -4.231770      1.354949
B      2.970257     -3.692274      0.621871
B      5.907588     -3.848572     -0.380027
B     -4.761208     -2.330720     -0.407809
B     -2.619857     -2.211059      0.844160
B     -1.232659     -2.391074      1.779162
B      0.281426     -3.144602      1.258585
B      3.128005     -2.135340      0.033717
B      5.282428     -2.580677     -1.142740
B     -4.382652     -1.054498     -1.346132
B     -3.192369     -1.268483     -0.239841
B     -0.766749     -0.915069      2.147107
B      0.434070     -1.509850      0.882523
B      4.260331     -1.271884     -0.605716
B      6.845204     -2.475577     -0.806482
B     -5.007204     -0.643659     -2.849649
B     -3.195209      0.154301     -0.925672
B     -0.946947      0.623306      2.210385
B      0.001581     -0.020442      0.908402
B      4.875444      0.224219     -0.547589
B      5.878568     -1.066378     -1.130575
B     -5.767164      0.853536     -2.917565
B     -2.897102      1.628167     -0.708344
B     -1.239865      2.133184      2.088909
B      0.188320      1.549872      1.054031
B      4.258123      1.584106      0.064663
B      6.307532      0.439704     -1.625845
B     -5.734132      1.755409     -1.493813
B     -3.346886      2.973961     -0.174554
B     -1.664632      3.616005      1.797280
B     -0.058970      3.164039      1.323482
B      2.965632      2.258875      0.684366
B      5.791920      1.672515     -0.698507
B     -6.638907      2.799988     -0.842193
B     -4.474576      3.887338      0.587924
B     -1.777076      5.175247      1.215356
B      1.175393      4.406638      1.328978
B      2.593810      3.922874      0.879575
B      5.350926      2.985997     -0.054101
B     -5.318955     -3.634817      0.416463
B     -2.487709     -3.632854      1.605545
B      0.359579     -4.721327      1.906320
B      1.721498     -2.416215      0.734504
B      4.338705     -3.479950     -0.072929
B     -5.095331      2.847233     -0.373491
B     -3.034495      4.318735      0.932612
B     -0.286930      4.895064      1.442591
B      1.461620      2.548192      0.992407
B      4.078380      3.619763      0.510634
B     -4.595730      0.591276     -1.841534
H     -7.368369     -2.502749     -0.810293
H     -4.959065     -1.376034     -3.773890
H     -6.324579      1.260780     -3.871541
H     -7.613398      3.401728     -0.597572
H      6.361232     -4.935383     -0.360239
H      8.016260     -2.468237     -0.906140
H      6.939156      0.614609     -2.612760
