      -----------------------------------------------------------      
     |                   =====================                   |     
     |                           x T B                           |     
     |                   =====================                   |     
     |                         S. Grimme                         |     
     |          Mulliken Center for Theoretical Chemistry        |     
     |                    University of Bonn                     |     
      -----------------------------------------------------------      

   * xtb version 6.7.1pre (5071a88) compiled by 'Marcel@Raven' on 2024-07-23

   xtb is free software: you can redistribute it and/or modify it under
   the terms of the GNU Lesser General Public License as published by
   the Free Software Foundation, either version 3 of the License, or
   (at your option) any later version.
   
   xtb is distributed in the hope that it will be useful,
   but WITHOUT ANY WARRANTY; without even the implied warranty of
   MERCHANTABILITY or FITNESS FOR A PARTICULAR PURPOSE.  See the
   GNU Lesser General Public License for more details.
   
   Cite this work as:
   * C. Bannwarth, E. Caldeweyher, S. Ehlert, A. Hansen, P. Pracht,
     J. Seibert, S. Spicher, S. Grimme, WIREs Comput. Mol. Sci., 2020, 11,
     e01493. DOI: 10.1002/wcms.1493
   
   for GFN2-xTB:
   * C. Bannwarth, S. Ehlert and S. Grimme., J. Chem. Theory Comput., 2019,
     15, 1652-1671. DOI: 10.1021/acs.jctc.8b01176
   for GFN1-xTB:
   * S. Grimme, C. Bannwarth, P. Shushkov, J. Chem. Theory Comput., 2017,
     13, 1989-2009. DOI: 10.1021/acs.jctc.7b00118
   for GFN0-xTB:
   * P. Pracht, E. Caldeweyher, S. Ehlert, S. Grimme, ChemRxiv, 2019, preprint.
     DOI: 10.26434/chemrxiv.8326202.v1
   for GFN-FF:
   * S. Spicher and S. Grimme, Angew. Chem. Int. Ed., 2020, 59, 15665-15673.
     DOI: 10.1002/anie.202004239
   
   for ALPB and GBSA implicit solvation:
   * S. Ehlert, M. Stahn, S. Spicher, S. Grimme, J. Chem. Theory Comput.,
     2021, 17, 4250-4261. DOI: 10.1021/acs.jctc.1c00471
   
   for ddCOSMO and CPCM-X implicit solvation:
   * M. Stahn, S. Ehlert, S. Grimme, J. Phys. Chem. A,
     2023, XX, XXXX-XXXX. DOI: 10.1021/acs.jpca.3c04382
   
   for DFT-D4:
   * E. Caldeweyher, C. Bannwarth and S. Grimme, J. Chem. Phys., 2017,
     147, 034112. DOI: 10.1063/1.4993215
   * E. Caldeweyher, S. Ehlert, A. Hansen, H. Neugebauer, S. Spicher,
     C. Bannwarth and S. Grimme, J. Chem. Phys., 2019, 150, 154122.
     DOI: 10.1063/1.5090222
   * E. Caldeweyher, J.-M. Mewes, S. Ehlert and S. Grimme, Phys. Chem. Chem. Phys.
     2020, 22, 8499-8512. DOI: 10.1039/D0CP00502A
   
   for sTDA-xTB:
   * S. Grimme and C. Bannwarth, J. Chem. Phys., 2016, 145, 054103.
     DOI: 10.1063/1.4959605
   
   in the mass-spec context:
   * V. Asgeirsson, C. Bauer and S. Grimme, Chem. Sci., 2017, 8, 4879.
     DOI: 10.1039/c7sc00601b
   * J. Koopman and S. Grimme, ACS Omega 2019, 4, 12, 15120-15133.
     DOI: 10.1021/acsomega.9b02011
   
   for metadynamics refer to:
   * S. Grimme, J. Chem. Theory Comput., 2019, 155, 2847-2862
     DOI: 10.1021/acs.jctc.9b00143
   
   for SPH calculations refer to:
   * S. Spicher and S. Grimme, J. Chem. Theory Comput., 2021, 17, 1701-1714
     DOI: 10.1021/acs.jctc.0c01306
   
   for ONIOM refer to:
   * C. Plett, A. Katbashev, S. Ehlert, S. Grimme, M. Bursch,
     Phys. Chem. Chem. Phys., 2023, 25, 17860-17868. DOI: 10.1039/D3CP02178E
   
   for DIPRO refer to:
   * J. Kohn, N. Gildemeister, S. Grimme, D. Fazzi, A. Hansen,
     J. Chem. Phys., 2023, just accepted.
   
   for PTB refer to:
   * S. Grimme, M. Mueller, A. Hansen, J. Chem. Phys., 2023, 158, 124111.
     DOI: 10.1063/5.0137838
   
   with help from (in alphabetical order)
   P. Atkinson, C. Bannwarth, F. Bohle, G. Brandenburg, E. Caldeweyher
   M. Checinski, S. Dohm, S. Ehlert, S. Ehrlich, I. Gerasimov, C. Hölzer
   A. Katbashev, J. Kohn, J. Koopman, C. Lavigne, S. Lehtola, F. März, M. Müller,
   F. Musil, H. Neugebauer, J. Pisarek, C. Plett, P. Pracht, F. Pultar,
   J. Seibert, P. Shushkov, S. Spicher, M. Stahn, M. Steiner, T. Strunk,
   J. Stückrath, T. Rose, and J. Unsleber
   
 * started run on 2026/09/01 at 20:28:48.066     
   ID    Z sym.   atoms
    1    6 C      1, 3-8, 10-12, 14-18, 20, 21
    2    8 O      2, 9, 13
    3    7 N      19
    4    1 H      22-40, 81-95
    5    5 B      41-80

           -------------------------------------------------
          |                Calculation Setup                |
           -------------------------------------------------

          program call               : "c:\Users\Andre\Proyectos doctorado\nano-qsar-ai-papers\kras-pancreatic-gC3N4-ai\tools\xtb\xtb-6.7.1\bin\xtb.exe" "c:\Users\Andre\Proyectos doctorado\borophene-alzheimer-tau-ai\calculations\tau\Galantamine\Galantamine_B40H15_clean_complex.xyz" --gfn 2 --sp --chrg 0 --uhf 0 --iterations 500 --norestart
          coordinate file            : c:\Users\Andre\Proyectos doctorado\borophene-alzheimer-tau-ai\calculations\tau\Galantamine\Galantamine_B40H15_clean_complex.xyz
          omp threads                :                    16


molecular fragmentation (1/2 indicates fragments):
111111111111111111111111111111111111111122222222222222222222222222222222
22222222222222222222222
# atoms in fragment 1/2:    40    55
 fragment masses (1/2) :      285.34      447.56
CMA distance (Bohr)    :  15.300
constraining FC (au)   :  0.0500

           -------------------------------------------------
          |                 G F N 2 - x T B                 |
           -------------------------------------------------

        Reference                      10.1021/acs.jctc.8b01176
      * Hamiltonian:
        H0-scaling (s, p, d)           1.850000    2.230000    2.230000
        zeta-weighting                 0.500000
      * Dispersion:
        s8                             2.700000
        a1                             0.520000
        a2                             5.000000
        s9                             5.000000
      * Repulsion:
        kExp                           1.500000    1.000000
        rExp                           1.000000
      * Coulomb:
        alpha                          2.000000
        third order                    shell-resolved
        anisotropic                    true
        a3                             3.000000
        a5                             4.000000
        cn-shift                       1.200000
        cn-exp                         4.000000
        max-rad                        5.000000


          ...................................................
          :                      SETUP                      :
          :.................................................:
          :  # basis functions                 278          :
          :  # atomic orbitals                 278          :
          :  # shells                          156          :
          :  # electrons                       245          :
          :  max. iterations                   500          :
          :  Hamiltonian                  GFN2-xTB          :
          :  restarted?                      false          :
          :  GBSA solvation                  false          :
          :  PC potential                    false          :
          :  electronic temp.          300.0000000     K    :
          :  accuracy                    1.0000000          :
          :  -> integral cutoff          0.2500000E+02      :
          :  -> integral neglect         0.1000000E-07      :
          :  -> SCF convergence          0.1000000E-05 Eh   :
          :  -> wf. convergence          0.1000000E-03 e    :
          :  Broyden damping             0.4000000          :
          :  net charge                          0          :
          :  unpaired electrons                  0          :
          ...................................................

 iter      E             dE          RMSdq      gap      omega  full diag
   1   -118.0498866 -0.118050E+03  0.132E+01    0.25       0.0  T
   2   -116.4189824  0.163090E+01  0.883E+00    0.29       1.0  T
   3    -50.1229139  0.662961E+02  0.141E+01    0.12       1.0  T
   4    -52.4118862 -0.228897E+01  0.124E+01    0.28       1.0  T
   5   -104.5347956 -0.521229E+02  0.644E+00    0.18       1.0  T
   6   -116.2508063 -0.117160E+02  0.346E+00    0.10       1.0  T
   7   -114.5158538  0.173495E+01  0.360E+00    0.12       1.0  T
   8   -118.5908818 -0.407503E+01  0.210E+00    0.14       1.0  T
   9   -118.8724214 -0.281540E+00  0.170E+00    0.30       1.0  T
  10   -118.8224534  0.499680E-01  0.157E+00    0.26       1.0  T
  11   -118.8107943  0.116591E-01  0.132E+00    0.26       1.0  T
  12   -118.8610915 -0.502972E-01  0.840E-01    0.40       1.0  T
  13   -118.9016700 -0.405784E-01  0.566E-01    0.43       1.0  T
  14   -118.9255566 -0.238867E-01  0.471E-01    0.43       1.0  T
  15   -118.9327931 -0.723648E-02  0.433E-01    0.44       1.0  T
  16   -118.9371184 -0.432533E-02  0.396E-01    0.43       1.0  T
  17   -118.9458838 -0.876542E-02  0.312E-01    0.43       1.0  T
  18   -118.9526179 -0.673411E-02  0.234E-01    0.13       1.0  T
  19   -118.9544293 -0.181134E-02  0.256E-01    0.05       1.0  T
  20   -118.8657445  0.886848E-01  0.749E-01    0.09       1.0  T
  21   -118.7747323  0.910121E-01  0.984E-01    0.28       1.0  T
  22   -118.8197066 -0.449742E-01  0.874E-01    0.20       1.0  T
  23   -118.8959992 -0.762926E-01  0.604E-01    0.05       1.0  T
  24   -118.9571207 -0.611215E-01  0.126E-01    0.06       1.0  T
  25   -118.9577036 -0.582831E-03  0.878E-02    0.08       1.0  T
  26   -118.9576921  0.114925E-04  0.740E-02    0.07       1.0  T
  27   -118.9542801  0.341195E-02  0.149E-01    0.04       1.0  T
  28   -118.9535059  0.774225E-03  0.155E-01    0.04       1.0  T
  29   -118.9556364 -0.213051E-02  0.111E-01    0.05       1.0  T
  30   -118.9569002 -0.126380E-02  0.755E-02    0.05       1.0  T
  31   -118.9572154 -0.315230E-03  0.635E-02    0.06       1.0  T
  32   -118.9574102 -0.194752E-03  0.542E-02    0.06       1.0  T
  33   -118.9576307 -0.220519E-03  0.420E-02    0.06       1.0  T
  34   -118.9579113 -0.280618E-03  0.173E-02    0.07       1.0  T
  35   -118.9579505 -0.391464E-04  0.859E-03    0.07       1.2  T
  36   -118.9579506 -0.174924E-06  0.786E-03    0.07       1.3  T
  37   -118.9579558 -0.519338E-05  0.562E-03    0.07       1.8  T
  38   -118.9579599 -0.406973E-05  0.310E-03    0.08       3.3  T
  39   -118.9579616 -0.169745E-05  0.515E-04    0.08      19.9  T
  40   -118.9579616  0.251159E-07  0.582E-04    0.08      17.6  T
  41   -118.9579616 -0.334161E-07  0.372E-04    0.08      27.6  T

   *** convergence criteria satisfied after 41 iterations ***

         #    Occupation            Energy/Eh            Energy/eV
      -------------------------------------------------------------
         1        2.0000           -0.7092688             -19.3002
       ...           ...                  ...                  ...
       117        2.0000           -0.2972448              -8.0884
       118        2.0000           -0.2907071              -7.9105
       119        2.0000           -0.2877255              -7.8294
       120        2.0000           -0.2846318              -7.7452
       121        2.0000           -0.2797128              -7.6114
       122        1.9990           -0.2763052              -7.5186
       123        0.8155           -0.2632255              -7.1627 (HOMO)
       124        0.1856           -0.2604150              -7.0863 (LUMO)
       125        0.0000           -0.2472111              -6.7270
       126                         -0.2297607              -6.2521
       127                         -0.2231416              -6.0720
       128                         -0.2227314              -6.0608
       ...                                ...                  ...
       278                          1.0663157              29.0159
      -------------------------------------------------------------
                  HL-Gap            0.0028106 Eh            0.0765 eV
             Fermi-level           -0.2657983 Eh           -7.2327 eV

 SCC (total)                   0 d,  0 h,  0 min,  0.540 sec
 SCC setup                      ...        0 min,  0.001 sec (  0.185%)
 Dispersion                     ...        0 min,  0.002 sec (  0.370%)
 classical contributions        ...        0 min,  0.000 sec (  0.000%)
 integral evaluation            ...        0 min,  0.008 sec (  1.481%)
 iterations                     ...        0 min,  0.509 sec ( 94.259%)
 molecular gradient             ...        0 min,  0.017 sec (  3.148%)
 printout                       ...        0 min,  0.003 sec (  0.556%)

         :::::::::::::::::::::::::::::::::::::::::::::::::::::
         ::                     SUMMARY                     ::
         :::::::::::::::::::::::::::::::::::::::::::::::::::::
         :: total energy            -117.388828344230 Eh    ::
         :: gradient norm              0.071233647103 Eh/a0 ::
         :: HOMO-LUMO gap              0.076479129387 eV    ::
         ::.................................................::
         :: SCC energy              -118.954943591538 Eh    ::
         :: -> isotropic ES            0.269028101794 Eh    ::
         :: -> anisotropic ES          0.014747575629 Eh    ::
         :: -> anisotropic XC          0.005835966498 Eh    ::
         :: -> dispersion             -0.117671291191 Eh    ::
         :: repulsion energy           1.566115247308 Eh    ::
         :: add. restraining           0.000000000000 Eh    ::
         :: total charge              -0.000000000000 e     ::
         :::::::::::::::::::::::::::::::::::::::::::::::::::::

           -------------------------------------------------
          |                Property Printout                |
           -------------------------------------------------

    * Orbital Energies and Occupations

         #    Occupation            Energy/Eh            Energy/eV
      -------------------------------------------------------------
         1        2.0000           -0.7092688             -19.3002
       ...           ...                  ...                  ...
       111        2.0000           -0.3136432              -8.5347
       112        2.0000           -0.3098967              -8.4327
       113        2.0000           -0.3082331              -8.3874
       114        2.0000           -0.3072123              -8.3597
       115        2.0000           -0.3015131              -8.2046
       116        2.0000           -0.3000178              -8.1639
       117        2.0000           -0.2972448              -8.0884
       118        2.0000           -0.2907071              -7.9105
       119        2.0000           -0.2877255              -7.8294
       120        2.0000           -0.2846318              -7.7452
       121        2.0000           -0.2797128              -7.6114
       122        1.9990           -0.2763052              -7.5186
       123        0.8155           -0.2632255              -7.1627 (HOMO)
       124        0.1856           -0.2604150              -7.0863 (LUMO)
       125        0.0000           -0.2472111              -6.7270
       126                         -0.2297607              -6.2521
       127                         -0.2231416              -6.0720
       128                         -0.2227314              -6.0608
       129                         -0.2162713              -5.8850
       130                         -0.2120950              -5.7714
       131                         -0.2054163              -5.5897
       132                         -0.1994067              -5.4261
       133                         -0.1941732              -5.2837
       134                         -0.1860205              -5.0619
       ...                                ...                  ...
       278                          1.0663157              29.0159
      -------------------------------------------------------------
                  HL-Gap            0.0028106 Eh            0.0765 eV
             Fermi-level           -0.2657983 Eh           -7.2327 eV

     #   Z          covCN         q      C6AA      α(0)
     1   6 C        3.644     0.028    20.444     6.499
     2   8 O        1.704    -0.261    18.319     5.779
     3   6 C        2.855     0.120    25.353     8.253
     4   6 C        2.918    -0.078    29.943     8.973
     5   6 C        2.918    -0.056    29.388     8.890
     6   6 C        2.961    -0.007    28.193     8.709
     7   6 C        3.080    -0.025    28.533     8.757
     8   6 C        3.065     0.110    25.518     8.283
     9   8 O        1.702    -0.288    18.784     5.852
    10   6 C        4.024     0.113    18.663     6.137
    11   6 C        3.803    -0.093    22.281     6.720
    12   6 C        2.821     0.210    23.558     7.953
    13   8 O        0.857    -0.396    21.599     6.231
    14   6 C        2.890    -0.076    29.886     8.963
    15   6 C        2.907    -0.038    28.953     8.823
    16   6 C        3.936     0.010    20.336     6.408
    17   6 C        3.807    -0.060    21.654     6.624
    18   6 C        3.747     0.007    20.523     6.462
    19   7 N        2.720    -0.178    24.854     7.404
    20   6 C        3.709    -0.037    21.382     6.609
    21   6 C        3.756     0.008    20.490     6.454
    22   1 H        0.924     0.044     2.390     2.418
    23   1 H        0.924     0.047     2.364     2.404
    24   1 H        0.924     0.064     2.158     2.297
    25   1 H        0.925     0.044     2.398     2.422
    26   1 H        0.925     0.039     2.466     2.456
    27   1 H        0.922     0.027     2.637     2.540
    28   1 H        0.924     0.071     2.075     2.253
    29   1 H        0.924     0.070     2.083     2.257
    30   1 H        0.925     0.059     2.214     2.327
    31   1 H        0.925     0.036     2.496     2.471
    32   1 H        0.923     0.048     2.346     2.395
    33   1 H        0.924     0.044     2.397     2.421
    34   1 H        0.924     0.017     2.782     2.608
    35   1 H        0.923     0.039     2.468     2.457
    36   1 H        0.924     0.040     2.451     2.448
    37   1 H        0.924     0.040     2.449     2.447
    38   1 H        0.924     0.017     2.784     2.609
    39   1 H        0.923     0.038     2.478     2.462
    40   1 H        0.924     0.019     2.745     2.591
    41   5 B        3.729     0.065    21.467     7.486
    42   5 B        4.543     0.068    21.512     7.473
    43   5 B        3.764     0.031    22.120     7.589
    44   5 B        3.812     0.041    21.975     7.557
    45   5 B        3.866     0.059    21.668     7.502
    46   5 B        4.607     0.025    22.286     7.606
    47   5 B        2.881     0.052    20.517     7.561
    48   5 B        2.866     0.088    19.945     7.456
    49   5 B        4.657     0.033    22.147     7.583
    50   5 B        2.924     0.072    20.177     7.495
    51   5 B        3.820     0.055    21.732     7.515
    52   5 B        3.871     0.023    22.320     7.614
    53   5 B        4.530    -0.003    22.809     7.695
    54   5 B        3.833     0.047    21.877     7.539
    55   5 B        4.711     0.060    21.661     7.499
    56   5 B        4.714     0.049    21.859     7.533
    57   5 B        3.891     0.047    21.875     7.537
    58   5 B        2.930     0.024    20.979     7.643
    59   5 B        4.652     0.020    22.377     7.622
    60   5 B        2.877     0.058    20.427     7.544
    61   5 B        3.828     0.064    21.564     7.485
    62   5 B        3.859     0.023    22.317     7.613
    63   5 B        3.858    -0.007    22.862     7.706
    64   5 B        3.841     0.050    21.815     7.528
    65   5 B        4.594     0.026    22.266     7.603
    66   5 B        5.681     0.106    20.874     7.361
    67   5 B        4.131     0.017    22.438     7.632
    68   5 B        2.924     0.033    20.832     7.616
    69   5 B        5.586     0.062    21.617     7.491
    70   5 B        3.637     0.066    21.101     7.488
    71   5 B        3.826     0.044    21.915     7.546
    72   5 B        3.877     0.031    22.170     7.588
    73   5 B        3.870     0.020    22.366     7.621
    74   5 B        2.915     0.089    19.909     7.446
    75   5 B        3.773     0.074    21.361     7.456
    76   5 B        5.329     0.100    20.976     7.379
    77   5 B        4.732     0.046    21.901     7.540
    78   5 B        3.808     0.014    22.454     7.640
    79   5 B        3.784     0.078    21.311     7.445
    80   5 B        2.896     0.053    20.503     7.557
    81   1 H        0.938    -0.122     6.379     3.949
    82   1 H        1.528     0.031     2.559     2.498
    83   1 H        0.935    -0.147     7.535     4.292
    84   1 H        0.931    -0.138     7.095     4.165
    85   1 H        0.935    -0.122     6.384     3.951
    86   1 H        0.934    -0.120     6.318     3.930
    87   1 H        0.938    -0.108     5.851     3.782
    88   1 H        0.936    -0.135     6.956     4.124
    89   1 H        0.938    -0.093     5.332     3.610
    90   1 H        0.933    -0.152     7.805     4.368
    91   1 H        0.938    -0.101     5.590     3.697
    92   1 H        0.940    -0.138     7.110     4.169
    93   1 H        0.939    -0.113     6.038     3.842
    94   1 H        0.938    -0.114     6.073     3.853
    95   1 H        0.940    -0.142     7.270     4.215

 Mol. C6AA /au·bohr⁶  :     125525.102708
 Mol. C8AA /au·bohr⁸  :    3751047.714212
 Mol. α(0) /au        :        561.301209


Wiberg/Mayer (AO) data.
largest (>0.10) Wiberg bond orders for each atom

 ---------------------------------------------------------------------------
     #   Z sym  total        # sym  WBO       # sym  WBO       # sym  WBO
 ---------------------------------------------------------------------------
     1   6 C    3.944 --     2 O    0.982    24 H    0.980    23 H    0.978
                            22 H    0.978
     2   8 O    2.225 --     3 C    1.059     1 C    0.982
     3   6 C    3.938 --     4 C    1.370     8 C    1.322     2 O    1.059
     4   6 C    3.979 --     5 C    1.430     3 C    1.370    25 H    0.967
     5   6 C    3.986 --     4 C    1.430     6 C    1.405    26 H    0.969
     6   6 C    3.985 --     5 C    1.405     7 C    1.398    21 C    1.003
     7   6 C    3.980 --     6 C    1.398     8 C    1.348    16 C    0.987
     8   6 C    3.936 --     7 C    1.348     3 C    1.322     9 O    1.034
     9   8 O    2.184 --     8 C    1.034    10 C    0.950
    10   6 C    3.941 --    11 C    1.001    27 H    0.960     9 O    0.950
                            16 C    0.950
    11   6 C    3.993 --    10 C    1.001    12 C    0.977    29 H    0.959
                            28 H    0.949
    12   6 C    3.856 --    13 O    1.753    14 C    1.066    11 C    0.977
    13   8 O    1.963 --    12 C    1.753
    14   6 C    3.950 --    15 C    1.796    12 C    1.066    30 H    0.964
    15   6 C    3.883 --    14 C    1.796    16 C    0.996    31 H    0.963
    16   6 C    3.988 --    15 C    0.996     7 C    0.987    17 C    0.951
                            10 C    0.950
    17   6 C    3.989 --    18 C    0.999    32 H    0.975    33 H    0.970
                            16 C    0.951
    18   6 C    3.985 --    17 C    0.999    19 N    0.999    35 H    0.972
                            34 H    0.966
    19   7 N    3.103 --    20 C    1.012    18 C    0.999    21 C    0.989
    20   6 C    3.985 --    19 N    1.012    37 H    0.982    36 H    0.982
                            38 H    0.976
    21   6 C    3.986 --     6 C    1.003    19 N    0.989    39 H    0.971
                            40 H    0.955
    22   1 H    0.998 --     1 C    0.978
    23   1 H    0.998 --     1 C    0.978
    24   1 H    0.995 --     1 C    0.980
    25   1 H    0.997 --     4 C    0.967
    26   1 H    0.998 --     5 C    0.969
    27   1 H    0.999 --    10 C    0.960
    28   1 H    0.991 --    11 C    0.949
    29   1 H    0.993 --    11 C    0.959
    30   1 H    0.995 --    14 C    0.964
    31   1 H    0.999 --    15 C    0.963
    32   1 H    0.997 --    17 C    0.975
    33   1 H    0.997 --    17 C    0.970
    34   1 H    1.000 --    18 C    0.966
    35   1 H    0.998 --    18 C    0.972
    36   1 H    0.998 --    20 C    0.982
    37   1 H    0.998 --    20 C    0.982
    38   1 H    1.000 --    20 C    0.976
    39   1 H    0.998 --    21 C    0.971
    40   1 H    0.999 --    21 C    0.955
    41   5 B    3.571 --    81 H    0.951    44 B    0.919    42 B    0.877
                            82 H    0.538
    42   5 B    3.538 --    41 B    0.877    43 B    0.753    44 B    0.606
                            46 B    0.545    82 H    0.426    45 B    0.133
    43   5 B    3.575 --    45 B    1.120    83 H    0.949    42 B    0.753
                            46 B    0.454
    44   5 B    3.559 --    41 B    0.919    51 B    0.843    52 B    0.814
                            42 B    0.606    54 B    0.109
    45   5 B    3.391 --    43 B    1.120    53 B    0.803    49 B    0.634
                            46 B    0.432    42 B    0.133
    46   5 B    3.598 --    47 B    1.081    49 B    0.764    42 B    0.545
                            43 B    0.454    45 B    0.432
    47   5 B    3.430 --    46 B    1.081    48 B    0.994    84 H    0.912
                            49 B    0.156
    48   5 B    3.248 --    50 B    1.016    47 B    0.994    85 H    0.939
                            58 B    0.108
    49   5 B    3.679 --    57 B    0.779    46 B    0.764    56 B    0.700
                            45 B    0.634    53 B    0.374    47 B    0.156
    50   5 B    3.408 --    48 B    1.016    58 B    0.985    86 H    0.924
                            57 B    0.192
    51   5 B    3.630 --    87 H    0.928    52 B    0.844    44 B    0.843
                            54 B    0.792
    52   5 B    3.612 --    54 B    0.859    51 B    0.844    44 B    0.814
                            53 B    0.809
    53   5 B    3.639 --    55 B    0.836    52 B    0.809    45 B    0.803
                            56 B    0.435    49 B    0.374
    54   5 B    3.582 --    52 B    0.859    51 B    0.792    61 B    0.778
                            62 B    0.718    44 B    0.109
    55   5 B    3.587 --    53 B    0.836    63 B    0.681    56 B    0.636
                            66 B    0.568    59 B    0.458
    56   5 B    3.600 --    59 B    0.950    49 B    0.700    55 B    0.636
                            57 B    0.594    53 B    0.435
    57   5 B    3.551 --    58 B    0.969    49 B    0.779    59 B    0.666
                            56 B    0.594    50 B    0.192
    58   5 B    3.448 --    50 B    0.985    57 B    0.969    60 B    0.960
                            68 B    0.182    48 B    0.108
    59   5 B    3.640 --    56 B    0.950    67 B    0.774    57 B    0.666
                            55 B    0.458    66 B    0.437
    60   5 B    3.414 --    68 B    1.138    58 B    0.960    88 H    0.952
                            70 B    0.112
    61   5 B    3.569 --    89 H    0.921    64 B    0.842    62 B    0.798
                            54 B    0.778
    62   5 B    3.592 --    63 B    1.010    61 B    0.798    54 B    0.718
                            64 B    0.701
    63   5 B    3.632 --    62 B    1.010    65 B    0.893    55 B    0.681
                            66 B    0.607
    64   5 B    3.587 --    72 B    0.842    61 B    0.842    71 B    0.757
                            62 B    0.701    74 B    0.144
    65   5 B    3.667 --    63 B    0.893    73 B    0.701    66 B    0.682
                            76 B    0.615    69 B    0.392
    66   5 B    3.669 --    65 B    0.682    63 B    0.607    69 B    0.586
                            55 B    0.568    67 B    0.523    59 B    0.437
    67   5 B    3.524 --    68 B    0.966    59 B    0.774    69 B    0.773
                            66 B    0.523    70 B    0.196
    68   5 B    3.404 --    60 B    1.138    67 B    0.966    70 B    0.780
                            58 B    0.182
    69   5 B    3.633 --    67 B    0.773    77 B    0.617    66 B    0.586
                            78 B    0.486    65 B    0.392    76 B    0.292
                            70 B    0.266
    70   5 B    3.505 --    78 B    0.972    90 H    0.939    68 B    0.780
                            69 B    0.266    67 B    0.196    60 B    0.112
    71   5 B    3.605 --    74 B    1.025    91 H    0.919    64 B    0.757
                            72 B    0.752
    72   5 B    3.600 --    74 B    0.928    73 B    0.892    64 B    0.842
                            71 B    0.752
    73   5 B    3.614 --    72 B    0.892    75 B    0.862    65 B    0.701
                            76 B    0.633    74 B    0.230
    74   5 B    3.460 --    71 B    1.025    92 H    0.971    72 B    0.928
                            73 B    0.230    64 B    0.144
    75   5 B    3.513 --    93 H    0.953    73 B    0.862    76 B    0.766
                            79 B    0.688
    76   5 B    3.652 --    75 B    0.766    79 B    0.763    73 B    0.633
                            65 B    0.615    77 B    0.441    69 B    0.292
    77   5 B    3.634 --    80 B    0.951    79 B    0.762    78 B    0.706
                            69 B    0.617    76 B    0.441
    78   5 B    3.570 --    80 B    1.166    70 B    0.972    77 B    0.706
                            69 B    0.486
    79   5 B    3.555 --    94 H    0.953    76 B    0.763    77 B    0.762
                            75 B    0.688    80 B    0.187
    80   5 B    3.510 --    78 B    1.166    95 H    0.969    77 B    0.951
                            79 B    0.187
    81   1 H    0.980 --    41 B    0.951
    82   1 H    0.995 --    41 B    0.538    42 B    0.426
    83   1 H    0.976 --    43 B    0.949
    84   1 H    0.978 --    47 B    0.912
    85   1 H    0.983 --    48 B    0.939
    86   1 H    0.982 --    50 B    0.924
    87   1 H    0.977 --    51 B    0.928
    88   1 H    0.978 --    60 B    0.952
    89   1 H    0.980 --    61 B    0.921
    90   1 H    0.975 --    70 B    0.939
    91   1 H    0.980 --    71 B    0.919
    92   1 H    0.980 --    74 B    0.971
    93   1 H    0.984 --    75 B    0.953
    94   1 H    0.983 --    79 B    0.953
    95   1 H    0.979 --    80 B    0.969
 ---------------------------------------------------------------------------

Topologies differ in total number of bonds
Writing topology from bond orders to xtbtopo.mol

molecular dipole:
                 x           y           z       tot (Debye)
 q only:        1.037      -3.438      -3.087
   full:        0.489      -4.272      -1.900      11.949
molecular quadrupole (traceless):
                xx          xy          yy          xz          yz          zz
 q only:       14.667       6.438      -5.476       8.529     -51.297      -9.191
  q+dip:       35.988      13.384     -21.125       4.273     -59.782     -14.863
   full:       27.466       9.545     -25.437       4.869     -58.357      -2.030


           -------------------------------------------------
          | TOTAL ENERGY             -117.388828344230 Eh   |
          | GRADIENT NORM               0.071233647103 Eh/α |
          | HOMO-LUMO GAP               0.076479129387 eV   |
           -------------------------------------------------

------------------------------------------------------------------------
 * finished run on 2026/09/01 at 20:28:48.657     
------------------------------------------------------------------------
 total:
 * wall-time:     0 d,  0 h,  0 min,  0.590 sec
 *  cpu-time:     0 d,  0 h,  0 min,  6.953 sec
 * ratio c/w:    11.785 speedup
 SCF:
 * wall-time:     0 d,  0 h,  0 min,  0.541 sec
 *  cpu-time:     0 d,  0 h,  0 min,  6.359 sec
 * ratio c/w:    11.755 speedup

