60
carrier @complex
B      -5.85174226      3.38667733      0.62093479
B      -5.85442334      1.70489605      0.31210668
B      -4.39372891      4.22873475      0.29718434
B      -4.39590475      2.54294582      0.42121005
B      -4.39471790      0.84712727      0.49368027
B      -5.85674252     -1.68582279      0.31419880
B      -5.85571058     -3.37013033      0.59241053
B      -4.39556070     -0.83107584      0.49162912
B      -4.39907613     -2.52641515      0.40841334
B      -4.39858958     -4.21155164      0.27046170
B      -2.92413244      3.39425749      0.39026115
B      -2.92650389      1.69127797      0.50223106
B      -1.46228184      4.22675777      0.58395442
B      -1.46366137      2.54108582      0.47472021
B      -1.46537853      0.84884358      0.34531628
B      -2.92869654     -1.67718751      0.46027138
B      -2.92814857     -3.37947161      0.38191589
B      -1.46645946     -0.83470272      0.32772115
B      -1.46692267     -2.52859125      0.43701846
B      -1.46646939     -4.21456799      0.56142128
B       0.00379961      3.38977697      0.52201347
B       0.00151752      1.69101212      0.33336949
B       1.46846955      4.22689628      0.51585944
B       1.46703178      2.53992321      0.43862204
B       1.46563503      0.84641914      0.41025811
B      -0.00014473     -1.67882811      0.36742591
B      -0.00078130     -3.38046081      0.40393625
B       1.46464647     -0.83666040      0.42014865
B       1.46382529     -2.53017255      0.35590590
B       1.46136307     -4.21559121      0.23219260
B       2.93012241      3.39079488      0.34711424
B       2.93195159      1.68840650      0.45762631
B       4.39595295      4.22343690      0.21958997
B       4.39757820      2.53765156      0.30853404
B       4.39566114      0.84222942      0.35673176
B       2.92946813     -1.68041076      0.36729710
B       2.92674592     -3.38299264      0.39375975
B       4.39499098     -0.83563444      0.40389312
B       4.39590950     -2.53138102      0.44349617
B       4.39312817     -4.21735164      0.53391280
B       5.86030683      3.38032697      0.52266796
B       5.85612329      1.69719211      0.19635053
B       5.85661740     -1.69254847      0.54077811
B       5.85466458     -3.37554904      0.22343803
H      -6.80055017      3.95904938      1.00912258
H      -6.81981499      1.20637558     -0.12268806
H      -4.44221354      5.34862320     -0.05716288
H      -6.81870579     -1.17148227     -0.10759329
H      -6.79788843     -3.95525345      0.97784917
H      -4.44594132     -5.34033159     -0.05460533
H      -1.47233084      5.37986500      0.81461658
H      -1.47330111     -5.36841197      0.78845564
H       1.47743265      5.39920109      0.61045189
H       1.46243728     -5.37530756      0.03698990
H       4.44308841      5.33924974     -0.14976649
H       4.43890238     -5.33877789      0.88434935
H       6.81515507      3.94938711      0.90154645
H       6.81233520      1.19738349     -0.26280503
H       6.81042462     -1.19079445      1.00084358
H       6.79682299     -3.95429502     -0.17035600
