60
 energy: -61.505976834982 gnorm: 0.000697139285 xtb: 6.7.1 (edcfbbe)
B           -5.84943655832518        3.38599361132821        0.64329047462106
B           -5.85232557710030        1.70852740085373        0.28632571344678
B           -4.39412914245866        4.22577299290800        0.25851164765354
B           -4.39622274396588        2.54304633304685        0.40644766032294
B           -4.39501912849928        0.84515905049330        0.48529210563887
B           -5.85499567126130       -1.68922355628647        0.30025841056439
B           -5.85339567668615       -3.36930455076156        0.62137674593307
B           -4.39579817671724       -0.82861680525783        0.48739481179858
B           -4.39969889593879       -2.52628275381071        0.40111532139559
B           -4.39910164322181       -4.20858554906196        0.23998151365939
B           -2.92249048561217        3.39785332515095        0.37733393153396
B           -2.92606430467364        1.68876981095819        0.50647064079059
B           -1.46220498738319        4.22418733101802        0.62628157734103
B           -1.46318874759117        2.54088141241176        0.49116320606273
B           -1.46527996330872        0.84779616153503        0.34625058015542
B           -2.92821603393230       -1.67448861684225        0.46939842126690
B           -2.92672765713831       -3.38295442823161        0.37346953064550
B           -1.46639434563897       -0.83349899604341        0.33907095364832
B           -1.46675612703855       -2.52855337737626        0.44894092843621
B           -1.46609211025967       -4.21254957583720        0.59479018766671
B            0.00431381952867        3.39198980214937        0.54935029292114
B            0.00158010333767        1.68875495002331        0.32398041315387
B            1.46967427043120        4.22510620278352        0.55069359530212
B            1.46758700364494        2.53986889243689        0.45545417367788
B            1.46612435013482        0.84512713178291        0.41400676663870
B            0.00005649467096       -1.67633702800616        0.38056419748410
B           -0.00052138254928       -3.38374224158463        0.40454879633707
B            1.46505893698780       -0.83529887350540        0.42667233050578
B            1.46417664064367       -2.52998697597411        0.33676394843066
B            1.46138736031378       -4.21298874927408        0.19091128651993
B            2.92895154924765        3.39396306142614        0.32130542104841
B            2.93212325373892        1.68592617206571        0.45574899301353
B            4.39584969553022        4.21986648504886        0.16548162856459
B            4.39767003233861        2.53708504397575        0.27266390896619
B            4.39614703664863        0.83982353494014        0.34104796708498
B            2.92949506757273       -1.67773767557849        0.37332086598188
B            2.92584578957175       -3.38658217085212        0.40564777769454
B            4.39562500680835       -0.83318423252457        0.41446256782362
B            4.39686203987782       -2.53106008629516        0.47037700005040
B            4.39382742853564       -4.21446731619484        0.57280553580153
B            5.85904667015951        3.37958270828448        0.52694198676177
B            5.85336452992797        1.69955606033785        0.15019468044690
B            5.85477602362160       -1.69506789194917        0.57810922961961
B            5.85317194982563       -3.37481921229831        0.21389002628009
H           -6.78375229715945        3.95679877792245        1.06579391674792
H           -6.81307704906599        1.22035984045952       -0.16966080836870
H           -4.45621979891216        5.33340223304592       -0.12970682943714
H           -6.81420599488805       -1.18324287069298       -0.13755868427339
H           -6.78338397661536       -3.95603156533285        1.03130611371439
H           -4.46026088193537       -5.32602674436711       -0.11880190071489
H           -1.47863284861809        5.36823306643677        0.89958922324246
H           -1.47472176622191       -5.35979297935725        0.85326916799170
H            1.48390716775150        5.39226174585260        0.69899704998501
H            1.46312552324749       -5.36014867344622       -0.06868338584194
H            4.45534042932557        5.32300139733465       -0.23775716622813
H            4.44907195325196       -5.32593316241272        0.95175671482289
H            6.79981444075019        3.94555150082101        0.94090589236641
H            6.80005165601373        1.21194054446131       -0.34047604202961
H            6.80222382364635       -1.20376683400062        1.06184452540985
H            6.78764834563148       -3.95186070813710       -0.19769483007773
