47
drug
C     -5.10071132     0.05709624    11.24141350
O     -5.58390548    -0.62105687    10.11083533
C     -5.05510654    -0.30734299     8.89432185
C     -4.06005254     0.62383928     8.67050182
C     -3.56587714     0.88230899     7.38208645
C     -2.50266298     1.84228457     7.22734672
C     -1.77581713     2.07637600     6.11502933
C     -0.72245348     3.07716149     6.10421526
O     -0.41512532     3.76497043     7.06624538
C      0.06468438     3.13157750     4.79868835
C      0.78154578     1.81095447     4.81087409
O      0.43205404     0.85664220     3.95808023
C      1.75189776     1.57347555     5.77523570
C      2.49556907     0.41476447     5.87935205
C      3.53467892     0.16726756     6.82030303
C      3.97189403     1.11483253     7.75660648
C      4.99519512     0.81722781     8.63166975
C      5.61826997    -0.42081244     8.61814579
O      6.63654644    -0.73564658     9.47262369
C      5.19308557    -1.39527484     7.69305502
O      5.85178235    -2.59017595     7.75247488
C      5.46855652    -3.60229370     6.85705932
C      4.17269597    -1.09080159     6.81782676
C     -4.12100823     0.18783712     6.30801302
C     -5.11783177    -0.74393703     6.52199266
C     -5.59080044    -1.01015635     7.79605772
O     -6.56696487    -1.92961184     8.03141751
H     -5.66026483    -0.34417895    12.08499768
H     -4.03212199    -0.12585331    11.39687769
H     -5.27698001     1.13580222    11.17112320
H     -3.63242025     1.16947740     9.49654722
H     -2.23965209     2.41595137     8.10756690
H     -1.95347776     1.53522800     5.20005248
H      0.75827555     3.97145026     4.82930826
H     -0.59973389     3.21659500     3.94102853
H      1.92328004     2.38361023     6.46596850
H      2.27693084    -0.38267617     5.18130052
H      3.51237987     2.08806015     7.80178520
H      5.32505540     1.55960663     9.34754873
H      6.80989528     0.02162654    10.04404154
H      6.09871186    -4.45803106     7.09535994
H      5.63609463    -3.30293718     5.81758581
H      4.41742299    -3.88020312     6.99181154
H      3.83928122    -1.82018113     6.09822219
H     -3.79472740     0.38426429     5.30056790
H     -5.54146629    -1.27854642     5.68292212
H     -6.83746550    -2.32405889     7.19353047
