109
Drug@beta12-B40H15 clean complex
O     -6.228816      1.630536     12.960796
C     -6.358757      0.723999     12.155135
O     -6.595155     -0.540029     12.541071
C     -6.271091      0.895377     10.689591
C     -6.446628     -0.191215      9.822336
C     -6.334374     -0.020152      8.437210
N     -6.529897     -1.107113      7.563511
N     -5.567650     -1.857652      7.251385
C     -4.277869     -1.617475      7.763005
C     -3.389115     -0.773065      7.092327
C     -2.102510     -0.550986      7.594576
C     -1.665069     -1.186441      8.767998
C     -0.314464     -0.946629      9.300144
C      0.563420     -2.012192      9.555865
C      1.847892     -1.781908     10.061966
C      2.291046     -0.482408     10.317843
N      3.576258     -0.285721     10.854643
N      4.278274      0.398764     10.077605
C      5.564059      0.580518     10.615937
C      6.661963     -0.019765      9.989916
C      7.957824      0.167960     10.490803
C      9.125990     -0.466775      9.844072
O     10.276114     -0.342507     10.230929
O      8.815079     -1.209669      8.770011
C      8.148338      0.973109     11.622620
O      9.374852      1.214635     12.181923
C      7.062308      1.583993     12.244337
C      5.775621      1.391173     11.739139
C      1.417799      0.584424     10.079318
C      0.133748      0.355990      9.571919
C     -2.553038     -2.060900      9.414912
C     -3.840170     -2.280265      8.912959
C     -6.100464      1.260803      7.922957
C     -5.929608      2.349568      8.778866
C     -6.009386      2.165371     10.156885
O     -5.824962      3.284611     10.924173
H     -6.628401     -0.500511     13.520253
H     -6.662550     -1.183312     10.210538
H     -3.702958     -0.280842      6.175674
H     -1.434924      0.115755      7.051847
H      0.256259     -3.036161      9.351763
H      2.510477     -2.622171     10.252908
H      6.489220     -0.636253      9.111150
H      9.672802     -1.561279      8.450783
H     10.061290      0.738302     11.665840
H      7.217635      2.209883     13.119340
H      4.928980      1.872158     12.222921
H      1.738988      1.600928     10.291421
H     -0.522386      1.207890      9.402978
H     -2.250502     -2.573589     10.326021
H     -4.510136     -2.965139      9.426245
H     -6.045579      1.406146      6.846934
H     -5.737294      3.339313      8.372832
H     -5.912484      3.040919     11.871556
B     -4.780602     -2.604513      0.317266
B     -4.569465     -1.356683     -0.648004
B     -4.463861     -0.247381     -1.882945
B     -3.396531     -2.661979     -0.502827
B     -3.038009      0.177607     -1.404773
B     -4.390872      0.342644     -0.192397
B     -5.031012      1.403078      0.819222
B     -4.620094      2.986388      0.997562
B     -2.808851      0.512803      0.199513
B     -3.218551      3.227540      1.793236
B     -2.161133     -3.775821     -0.584343
B     -1.876928     -2.248084     -0.933414
B     -1.697164     -0.613334     -0.835751
B     -0.584443     -3.218984     -0.835049
B     -0.219751     -0.148448     -0.311803
B     -1.394985      0.035818      0.852087
B     -1.775686      1.662110      0.759224
B     -1.897502      3.236989      0.882584
B     -0.215292      1.037200      1.069695
B     -0.752118      4.348002      0.558417
B      0.826501     -4.112870     -0.740049
B      0.925144     -2.505404     -0.749723
B      1.214364     -0.948979     -0.586972
B      2.200665     -3.402586     -0.168167
B      2.622046     -0.195651     -0.292977
B      1.234081      0.551562      0.142600
B      1.124844      2.000923      1.042986
B      0.536600      3.437229      0.618007
B      2.458015      1.672646      0.087495
B      1.213646      3.017073     -0.852963
B      3.220244     -3.850820      1.104428
B      3.624046     -2.653486      0.063737
B      4.025027     -1.121930     -0.236552
B      4.417376     -2.835474      1.420329
B      5.363640     -0.241898     -0.689778
B      4.104119      0.531009     -0.013477
B      4.018093      2.321775     -0.033810
B      2.821838      3.096833     -0.912930
B      5.422007      1.458254     -0.185288
B      4.296118      3.550090     -1.013979
H     -5.168734     -3.094856      1.310677
H     -5.716063     -2.076392     -0.393509
H     -5.264034     -0.120717     -2.741690
H     -5.771097      1.007443      1.664604
H     -5.364514      3.843125      0.672044
H     -3.234300      3.224974      2.975674
H     -2.359297     -4.926237     -0.473225
H     -0.896482      5.475480      0.244253
H      0.822346     -5.249794     -1.023329
H      0.553695      2.694294     -1.783686
H      2.970323     -4.817556      1.717250
H      5.263074     -2.512454      2.156542
H      6.384778     -0.646686     -1.095590
H      6.503197      1.838169      0.065012
H      5.138890      4.252414     -1.415442
