      -----------------------------------------------------------      
     |                   =====================                   |     
     |                           x T B                           |     
     |                   =====================                   |     
     |                         S. Grimme                         |     
     |          Mulliken Center for Theoretical Chemistry        |     
     |                    University of Bonn                     |     
      -----------------------------------------------------------      

   * xtb version 6.7.1pre (5071a88) compiled by 'Marcel@Raven' on 2024-07-23

   xtb is free software: you can redistribute it and/or modify it under
   the terms of the GNU Lesser General Public License as published by
   the Free Software Foundation, either version 3 of the License, or
   (at your option) any later version.
   
   xtb is distributed in the hope that it will be useful,
   but WITHOUT ANY WARRANTY; without even the implied warranty of
   MERCHANTABILITY or FITNESS FOR A PARTICULAR PURPOSE.  See the
   GNU Lesser General Public License for more details.
   
   Cite this work as:
   * C. Bannwarth, E. Caldeweyher, S. Ehlert, A. Hansen, P. Pracht,
     J. Seibert, S. Spicher, S. Grimme, WIREs Comput. Mol. Sci., 2020, 11,
     e01493. DOI: 10.1002/wcms.1493
   
   for GFN2-xTB:
   * C. Bannwarth, S. Ehlert and S. Grimme., J. Chem. Theory Comput., 2019,
     15, 1652-1671. DOI: 10.1021/acs.jctc.8b01176
   for GFN1-xTB:
   * S. Grimme, C. Bannwarth, P. Shushkov, J. Chem. Theory Comput., 2017,
     13, 1989-2009. DOI: 10.1021/acs.jctc.7b00118
   for GFN0-xTB:
   * P. Pracht, E. Caldeweyher, S. Ehlert, S. Grimme, ChemRxiv, 2019, preprint.
     DOI: 10.26434/chemrxiv.8326202.v1
   for GFN-FF:
   * S. Spicher and S. Grimme, Angew. Chem. Int. Ed., 2020, 59, 15665-15673.
     DOI: 10.1002/anie.202004239
   
   for ALPB and GBSA implicit solvation:
   * S. Ehlert, M. Stahn, S. Spicher, S. Grimme, J. Chem. Theory Comput.,
     2021, 17, 4250-4261. DOI: 10.1021/acs.jctc.1c00471
   
   for ddCOSMO and CPCM-X implicit solvation:
   * M. Stahn, S. Ehlert, S. Grimme, J. Phys. Chem. A,
     2023, XX, XXXX-XXXX. DOI: 10.1021/acs.jpca.3c04382
   
   for DFT-D4:
   * E. Caldeweyher, C. Bannwarth and S. Grimme, J. Chem. Phys., 2017,
     147, 034112. DOI: 10.1063/1.4993215
   * E. Caldeweyher, S. Ehlert, A. Hansen, H. Neugebauer, S. Spicher,
     C. Bannwarth and S. Grimme, J. Chem. Phys., 2019, 150, 154122.
     DOI: 10.1063/1.5090222
   * E. Caldeweyher, J.-M. Mewes, S. Ehlert and S. Grimme, Phys. Chem. Chem. Phys.
     2020, 22, 8499-8512. DOI: 10.1039/D0CP00502A
   
   for sTDA-xTB:
   * S. Grimme and C. Bannwarth, J. Chem. Phys., 2016, 145, 054103.
     DOI: 10.1063/1.4959605
   
   in the mass-spec context:
   * V. Asgeirsson, C. Bauer and S. Grimme, Chem. Sci., 2017, 8, 4879.
     DOI: 10.1039/c7sc00601b
   * J. Koopman and S. Grimme, ACS Omega 2019, 4, 12, 15120-15133.
     DOI: 10.1021/acsomega.9b02011
   
   for metadynamics refer to:
   * S. Grimme, J. Chem. Theory Comput., 2019, 155, 2847-2862
     DOI: 10.1021/acs.jctc.9b00143
   
   for SPH calculations refer to:
   * S. Spicher and S. Grimme, J. Chem. Theory Comput., 2021, 17, 1701-1714
     DOI: 10.1021/acs.jctc.0c01306
   
   for ONIOM refer to:
   * C. Plett, A. Katbashev, S. Ehlert, S. Grimme, M. Bursch,
     Phys. Chem. Chem. Phys., 2023, 25, 17860-17868. DOI: 10.1039/D3CP02178E
   
   for DIPRO refer to:
   * J. Kohn, N. Gildemeister, S. Grimme, D. Fazzi, A. Hansen,
     J. Chem. Phys., 2023, just accepted.
   
   for PTB refer to:
   * S. Grimme, M. Mueller, A. Hansen, J. Chem. Phys., 2023, 158, 124111.
     DOI: 10.1063/5.0137838
   
   with help from (in alphabetical order)
   P. Atkinson, C. Bannwarth, F. Bohle, G. Brandenburg, E. Caldeweyher
   M. Checinski, S. Dohm, S. Ehlert, S. Ehrlich, I. Gerasimov, C. Hölzer
   A. Katbashev, J. Kohn, J. Koopman, C. Lavigne, S. Lehtola, F. März, M. Müller,
   F. Musil, H. Neugebauer, J. Pisarek, C. Plett, P. Pracht, F. Pultar,
   J. Seibert, P. Shushkov, S. Spicher, M. Stahn, M. Steiner, T. Strunk,
   J. Stückrath, T. Rose, and J. Unsleber
   
 * started run on 2026/08/31 at 21:15:22.193     
   ID    Z sym.   atoms
    1    8 O      1, 3, 23, 24, 26, 36
    2    6 C      2, 4-6, 9-16, 19-22, 25, 27-35
    3    7 N      7, 8, 17, 18
    4    1 H      37-54, 108-114
    5    5 B      55-107

           -------------------------------------------------
          |                Calculation Setup                |
           -------------------------------------------------

          program call               : "c:\Users\Andre\Proyectos doctorado\kras-pancreatic-gC3N4-ai\tools\xtb\xtb-6.7.1\bin\xtb.exe" "c:\Users\Andre\Proyectos doctorado\borophene-alzheimer-tau-ai\calculations\tau\Chrysamine_G\Chrysamine_G_B48H12_phys_complex.xyz" --gfn 2 --sp --chrg 0 --uhf 0 --etemp 300 --iterations 500 --norestart
          coordinate file            : c:\Users\Andre\Proyectos doctorado\borophene-alzheimer-tau-ai\calculations\tau\Chrysamine_G\Chrysamine_G_B48H12_phys_complex.xyz
          omp threads                :                    16


molecular fragmentation (1/2 indicates fragments):
111111111111111111111111111111111111111111111111111111222222222222222222
222222222222222222222222222222222222222222
# atoms in fragment 1/2:    54    60
 fragment masses (1/2) :      482.45      580.04
CMA distance (Bohr)    :  12.773
constraining FC (au)   :  0.0500

           -------------------------------------------------
          |                 G F N 2 - x T B                 |
           -------------------------------------------------

        Reference                      10.1021/acs.jctc.8b01176
      * Hamiltonian:
        H0-scaling (s, p, d)           1.850000    2.230000    2.230000
        zeta-weighting                 0.500000
      * Dispersion:
        s8                             2.700000
        a1                             0.520000
        a2                             5.000000
        s9                             5.000000
      * Repulsion:
        kExp                           1.500000    1.000000
        rExp                           1.000000
      * Coulomb:
        alpha                          2.000000
        third order                    shell-resolved
        anisotropic                    true
        a3                             3.000000
        a5                             4.000000
        cn-shift                       1.200000
        cn-exp                         4.000000
        max-rad                        5.000000


          ...................................................
          :                      SETUP                      :
          :.................................................:
          :  # basis functions                 381          :
          :  # atomic orbitals                 381          :
          :  # shells                          203          :
          :  # electrons                       344          :
          :  max. iterations                   500          :
          :  Hamiltonian                  GFN2-xTB          :
          :  restarted?                      false          :
          :  GBSA solvation                  false          :
          :  PC potential                    false          :
          :  electronic temp.          300.0000000     K    :
          :  accuracy                    1.0000000          :
          :  -> integral cutoff          0.2500000E+02      :
          :  -> integral neglect         0.1000000E-07      :
          :  -> SCF convergence          0.1000000E-05 Eh   :
          :  -> wf. convergence          0.1000000E-03 e    :
          :  Broyden damping             0.4000000          :
          :  net charge                          0          :
          :  unpaired electrons                  0          :
          ...................................................

 iter      E             dE          RMSdq      gap      omega  full diag
   1   -169.9775938 -0.169978E+03  0.143E+01    0.32       0.0  T
   2   -156.4210551  0.135565E+02  0.992E+00    0.03       1.0  T
   3     79.2227287  0.235644E+03  0.204E+01    0.10       1.0  T
   4     26.4234758 -0.527993E+02  0.158E+01    0.06       1.0  T
   5    -38.6503636 -0.650738E+02  0.127E+01    0.10       1.0  T
   6    -88.2215621 -0.495712E+02  0.129E+01    0.02       1.0  T
   7   -157.3395811 -0.691180E+02  0.666E+00    0.05       1.0  T
   8   -129.1340110  0.282056E+02  0.784E+00    0.07       1.0  T
   9   -166.2809329 -0.371469E+02  0.411E+00    0.10       1.0  T
  10   -169.1987157 -0.291778E+01  0.340E+00    0.10       1.0  T
  11   -170.6743485 -0.147563E+01  0.291E+00    0.43       1.0  T
  12   -170.7641705 -0.898219E-01  0.267E+00    0.44       1.0  T
  13   -170.7155554  0.486151E-01  0.248E+00    0.38       1.0  T
  14   -170.2503400  0.465215E+00  0.208E+00    0.03       1.0  T
  15   -170.7637315 -0.513391E+00  0.168E+00    0.22       1.0  T
  16   -169.8541925  0.909539E+00  0.174E+00    0.15       1.0  T
  17   -170.2450766 -0.390884E+00  0.144E+00    0.04       1.0  T
  18   -170.8068861 -0.561809E+00  0.928E-01    0.30       1.0  T
  19   -170.8541348 -0.472488E-01  0.861E-01    0.37       1.0  T
  20   -170.8584104 -0.427552E-02  0.751E-01    0.40       1.0  T
  21   -170.8891133 -0.307029E-01  0.657E-01    0.15       1.0  T
  22   -170.9107392 -0.216259E-01  0.590E-01    0.20       1.0  T
  23   -170.9165212 -0.578204E-02  0.579E-01    0.09       1.0  T
  24   -170.8911269  0.253943E-01  0.662E-01    0.06       1.0  T
  25   -170.8554488  0.356781E-01  0.763E-01    0.04       1.0  T
  26   -170.9341802 -0.787314E-01  0.468E-01    0.08       1.0  T
  27   -170.8047105  0.129470E+00  0.895E-01    0.03       1.0  T
  28   -170.7177828  0.869278E-01  0.107E+00    0.06       1.0  T
  29   -170.6629651  0.548177E-01  0.116E+00    0.07       1.0  T
  30   -170.6419058  0.210593E-01  0.119E+00    0.08       1.0  T
  31   -170.6696996 -0.277938E-01  0.112E+00    0.07       1.0  T
  32   -170.8958201 -0.226121E+00  0.552E-01    0.01       1.0  T
  33   -170.7987128  0.971074E-01  0.811E-01    0.03       1.0  T
  34   -170.8215134 -0.228006E-01  0.752E-01    0.02       1.0  T
  35   -170.7913367  0.301767E-01  0.822E-01    0.03       1.0  T
  36   -170.9442589 -0.152922E+00  0.318E-01    0.04       1.0  T
  37   -170.9526649 -0.840608E-02  0.261E-01    0.06       1.0  T
  38   -170.9424363  0.102287E-01  0.331E-01    0.03       1.0  T
  39   -170.9292339  0.132024E-01  0.385E-01    0.02       1.0  T
  40   -170.9430416 -0.138077E-01  0.322E-01    0.03       1.0  T
  41   -170.9587128 -0.156713E-01  0.204E-01    0.07       1.0  T
  42   -170.9576754  0.103741E-02  0.196E-01    0.10       1.0  T
  43   -170.9565012  0.117426E-02  0.203E-01    0.11       1.0  T
  44   -170.9528359  0.366528E-02  0.230E-01    0.13       1.0  T
  45   -170.9502892  0.254671E-02  0.245E-01    0.13       1.0  T
  46   -170.9552619 -0.497268E-02  0.206E-01    0.12       1.0  T
  47   -170.9612034 -0.594156E-02  0.138E-01    0.10       1.0  T
  48   -170.9627238 -0.152039E-02  0.114E-01    0.09       1.0  T
  49   -170.9629263 -0.202480E-03  0.113E-01    0.09       1.0  T
  50   -170.9645728 -0.164652E-02  0.837E-02    0.08       1.0  T
  51   -170.9656835 -0.111063E-02  0.551E-02    0.07       1.0  T
  52   -170.9656580  0.254599E-04  0.587E-02    0.07       1.0  T
  53   -170.9657908 -0.132839E-03  0.540E-02    0.07       1.0  T
  54   -170.9659114 -0.120553E-03  0.485E-02    0.06       1.0  T
  55   -170.9661197 -0.208294E-03  0.368E-02    0.06       1.0  T
  56   -170.9662638 -0.144102E-03  0.263E-02    0.07       1.0  T
  57   -170.9663719 -0.108095E-03  0.148E-02    0.07       1.0  T
  58   -170.9664115 -0.396224E-04  0.705E-03    0.07       1.3  T
  59   -170.9664150 -0.349092E-05  0.545E-03    0.07       1.7  T
  60   -170.9664125  0.246850E-05  0.586E-03    0.07       1.6  T
  61   -170.9664148 -0.225391E-05  0.524E-03    0.07       1.8  T
  62   -170.9664165 -0.175822E-05  0.425E-03    0.07       2.2  T
  63   -170.9664156  0.900546E-06  0.473E-03    0.07       2.0  T
  64   -170.9664176 -0.193090E-05  0.373E-03    0.07       2.5  T
  65   -170.9664170  0.540030E-06  0.392E-03    0.07       2.4  T
  66   -170.9664177 -0.674780E-06  0.344E-03    0.07       2.7  T
  67   -170.9664182 -0.457908E-06  0.296E-03    0.07       3.2  T
  68   -170.9664199 -0.174339E-05  0.122E-03    0.07       7.6  T
  69   -170.9664202 -0.275566E-06  0.672E-04    0.07      13.9  T
  70   -170.9664203 -0.899461E-07  0.405E-04    0.07      23.1  T

   *** convergence criteria satisfied after 70 iterations ***

         #    Occupation            Energy/Eh            Energy/eV
      -------------------------------------------------------------
         1        2.0000           -0.7330628             -19.9477
       ...           ...                  ...                  ...
       166        2.0000           -0.2855021              -7.7689
       167        2.0000           -0.2817388              -7.6665
       168        2.0000           -0.2811329              -7.6500
       169        2.0000           -0.2768741              -7.5341
       170        1.9993           -0.2716341              -7.3915
       171        1.9980           -0.2706523              -7.3648
       172        1.4193           -0.2649275              -7.2090 (HOMO)
       173        0.2866           -0.2623797              -7.1397 (LUMO)
       174        0.2060           -0.2620223              -7.1300
       175        0.0564           -0.2607161              -7.0944
       176        0.0344           -0.2602360              -7.0814
       177                         -0.2478920              -6.7455
       ...                                ...                  ...
       381                          1.1733815              31.9293
      -------------------------------------------------------------
                  HL-Gap            0.0025479 Eh            0.0693 eV
             Fermi-level           -0.2640786 Eh           -7.1859 eV

 SCC (total)                   0 d,  0 h,  0 min,  1.802 sec
 SCC setup                      ...        0 min,  0.001 sec (  0.055%)
 Dispersion                     ...        0 min,  0.003 sec (  0.166%)
 classical contributions        ...        0 min,  0.000 sec (  0.000%)
 integral evaluation            ...        0 min,  0.009 sec (  0.499%)
 iterations                     ...        0 min,  1.757 sec ( 97.503%)
 molecular gradient             ...        0 min,  0.029 sec (  1.609%)
 printout                       ...        0 min,  0.003 sec (  0.166%)

         :::::::::::::::::::::::::::::::::::::::::::::::::::::
         ::                     SUMMARY                     ::
         :::::::::::::::::::::::::::::::::::::::::::::::::::::
         :: total energy            -168.533901061383 Eh    ::
         :: gradient norm              0.113104863090 Eh/a0 ::
         :: HOMO-LUMO gap              0.069331396587 eV    ::
         ::.................................................::
         :: SCC energy              -170.961297641513 Eh    ::
         :: -> isotropic ES            0.377686964606 Eh    ::
         :: -> anisotropic ES          0.000597559134 Eh    ::
         :: -> anisotropic XC         -0.000785265989 Eh    ::
         :: -> dispersion             -0.152192336026 Eh    ::
         :: repulsion energy           2.427396580131 Eh    ::
         :: add. restraining           0.000000000000 Eh    ::
         :: total charge              -0.000000000842 e     ::
         :::::::::::::::::::::::::::::::::::::::::::::::::::::

           -------------------------------------------------
          |                Property Printout                |
           -------------------------------------------------

    * Orbital Energies and Occupations

         #    Occupation            Energy/Eh            Energy/eV
      -------------------------------------------------------------
         1        2.0000           -0.7330628             -19.9477
       ...           ...                  ...                  ...
       160        2.0000           -0.3018231              -8.2130
       161        2.0000           -0.2998916              -8.1605
       162        2.0000           -0.2958142              -8.0495
       163        2.0000           -0.2922106              -7.9515
       164        2.0000           -0.2917609              -7.9392
       165        2.0000           -0.2884249              -7.8484
       166        2.0000           -0.2855021              -7.7689
       167        2.0000           -0.2817388              -7.6665
       168        2.0000           -0.2811329              -7.6500
       169        2.0000           -0.2768741              -7.5341
       170        1.9993           -0.2716341              -7.3915
       171        1.9980           -0.2706523              -7.3648
       172        1.4193           -0.2649275              -7.2090 (HOMO)
       173        0.2866           -0.2623797              -7.1397 (LUMO)
       174        0.2060           -0.2620223              -7.1300
       175        0.0564           -0.2607161              -7.0944
       176        0.0344           -0.2602360              -7.0814
       177                         -0.2478920              -6.7455
       178                         -0.2440452              -6.6408
       179                         -0.2408211              -6.5531
       180                         -0.2313399              -6.2951
       181                         -0.2298311              -6.2540
       182                         -0.2270350              -6.1779
       183                         -0.2195661              -5.9747
       ...                                ...                  ...
       381                          1.1733815              31.9293
      -------------------------------------------------------------
                  HL-Gap            0.0025479 Eh            0.0693 eV
             Fermi-level           -0.2640786 Eh           -7.1859 eV

     #   Z          covCN         q      C6AA      α(0)
     1   8 O        0.856    -0.462    22.958     6.424
     2   6 C        2.696     0.348    21.088     7.516
     3   8 O        1.658    -0.379    20.449     6.105
     4   6 C        2.963    -0.062    29.539     8.915
     5   6 C        2.918    -0.041    29.025     8.835
     6   6 C        2.911     0.060    26.647     8.465
     7   7 N        1.916    -0.131    24.604     7.354
     8   7 N        1.916    -0.130    24.589     7.352
     9   6 C        2.912     0.061    26.643     8.464
    10   6 C        2.914    -0.069    29.712     8.938
    11   6 C        2.915    -0.085    30.134     9.002
    12   6 C        2.966    -0.005    28.151     8.703
    13   6 C        2.965    -0.002    28.080     8.692
    14   6 C        2.915    -0.048    29.182     8.858
    15   6 C        2.915    -0.051    29.261     8.870
    16   6 C        2.978     0.070    26.420     8.431
    17   7 N        1.988    -0.146    24.910     7.402
    18   7 N        1.984    -0.155    25.101     7.430
    19   6 C        2.983     0.068    26.477     8.441
    20   6 C        2.919    -0.045    29.124     8.850
    21   6 C        2.963    -0.063    29.556     8.917
    22   6 C        2.696     0.346    21.114     7.521
    23   8 O        0.856    -0.463    22.992     6.429
    24   8 O        1.658    -0.384    20.538     6.118
    25   6 C        2.845     0.151    24.725     8.149
    26   8 O        1.657    -0.400    20.851     6.164
    27   6 C        2.910    -0.056    29.395     8.890
    28   6 C        2.916    -0.037    28.917     8.818
    29   6 C        2.913    -0.049    29.215     8.863
    30   6 C        2.915    -0.050    29.237     8.867
    31   6 C        2.915    -0.043    29.078     8.843
    32   6 C        2.914    -0.052    29.300     8.876
    33   6 C        2.917    -0.048    29.183     8.859
    34   6 C        2.910    -0.061    29.525     8.910
    35   6 C        2.845     0.149    24.764     8.156
    36   8 O        1.657    -0.403    20.903     6.172
    37   1 H        0.803     0.330     0.639     1.255
    38   1 H        0.925     0.059     2.209     2.324
    39   1 H        0.925     0.042     2.421     2.433
    40   1 H        0.925     0.085     1.930     2.172
    41   1 H        0.925     0.033     2.540     2.492
    42   1 H        0.925     0.035     2.523     2.484
    43   1 H        0.925     0.057     2.229     2.335
    44   1 H        0.803     0.329     0.640     1.257
    45   1 H        0.803     0.333     0.630     1.247
    46   1 H        0.925     0.058     2.228     2.334
    47   1 H        0.925     0.047     2.364     2.404
    48   1 H        0.925     0.031     2.569     2.507
    49   1 H        0.925     0.032     2.557     2.501
    50   1 H        0.925     0.028     2.617     2.530
    51   1 H        0.925     0.030     2.588     2.516
    52   1 H        0.925     0.049     2.333     2.389
    53   1 H        0.925     0.061     2.191     2.315
    54   1 H        0.803     0.334     0.628     1.245
    55   5 B        2.872     0.052    20.524     7.562
    56   5 B        3.645     0.037    21.659     7.577
    57   5 B        3.704     0.016    22.273     7.636
    58   5 B        3.599     0.008    21.885     7.673
    59   5 B        3.804     0.017    22.396     7.630
    60   5 B        3.812     0.040    21.993     7.561
    61   5 B        4.425     0.063    21.613     7.491
    62   5 B        3.843     0.030    22.179     7.591
    63   5 B        5.059     0.052    21.798     7.523
    64   5 B        5.523     0.104    20.907     7.367
    65   5 B        3.792     0.004    22.635     7.672
    66   5 B        4.799     0.087    21.188     7.417
    67   5 B        4.746     0.063    21.597     7.488
    68   5 B        3.691     0.016    22.234     7.637
    69   5 B        3.741     0.029    22.118     7.594
    70   5 B        4.170    -0.016    23.042     7.734
    71   5 B        3.938     0.011    22.532     7.649
    72   5 B        3.779     0.078    21.310     7.446
    73   5 B        3.808     0.068    21.498     7.475
    74   5 B        3.812    -0.009    22.897     7.714
    75   5 B        3.702     0.002    22.523     7.680
    76   5 B        3.825     0.015    22.447     7.637
    77   5 B        4.691     0.058    21.695     7.505
    78   5 B        4.735     0.048    21.877     7.536
    79   5 B        3.813     0.077    21.343     7.448
    80   5 B        2.071     0.001    43.000    13.716
    81   5 B        3.706     0.005    22.487     7.672
    82   5 B        4.547     0.023    22.327     7.613
    83   5 B        4.200     0.035    22.107     7.576
    84   5 B        3.748     0.074    21.339     7.457
    85   5 B        3.840    -0.001    22.758     7.689
    86   5 B        3.769     0.019    22.347     7.627
    87   5 B        4.530     0.068    21.520     7.475
    88   5 B        5.624     0.098    21.009     7.385
    89   5 B        3.805     0.024    22.275     7.610
    90   5 B        3.825     0.017    22.409     7.631
    91   5 B        2.886     0.077    20.109     7.485
    92   5 B        2.918     0.048    20.568     7.568
    93   5 B        2.913     0.023    20.997     7.647
    94   5 B        3.630     0.014    21.964     7.649
    95   5 B        3.792     0.008    22.560     7.659
    96   5 B        2.860     0.004    21.357     7.715
    97   5 B        2.920    -0.015    21.678     7.769
    98   5 B        3.825     0.028    22.218     7.598
    99   5 B        2.901    -0.021    21.791     7.790
   100   5 B        4.532     0.044    21.937     7.547
   101   5 B        3.896     0.040    22.013     7.560
   102   5 B        3.818     0.019    22.378     7.626
   103   5 B        3.778    -0.032    23.316     7.789
   104   5 B        3.628    -0.015    22.488     7.741
   105   5 B        4.556     0.027    22.251     7.600
   106   5 B        3.280     0.027    20.915     7.627
   107   5 B        4.869     0.089    21.161     7.412
   108   1 H        0.937    -0.163     8.382     4.527
   109   1 H        0.935    -0.137     7.057     4.154
   110   1 H        0.936    -0.132     6.831     4.087
   111   1 H        0.939    -0.144     7.396     4.252
   112   1 H        0.936    -0.132     6.826     4.085
   113   1 H        0.937    -0.136     7.017     4.142
   114   1 H        0.934    -0.134     6.919     4.113

 Mol. C6AA /au·bohr⁶  :     227756.786236
 Mol. C8AA /au·bohr⁸  :    7179100.238332
 Mol. α(0) /au        :        768.172859


Wiberg/Mayer (AO) data.
largest (>0.10) Wiberg bond orders for each atom

 ---------------------------------------------------------------------------
     #   Z sym  total        # sym  WBO       # sym  WBO       # sym  WBO
 ---------------------------------------------------------------------------
     1   8 O    1.992 --     2 C    1.645     3 O    0.151
     2   6 C    3.885 --     1 O    1.645     3 O    1.122     4 C    1.055
     3   8 O    2.185 --     2 C    1.122    37 H    0.866     1 O    0.151
     4   6 C    3.969 --     5 C    1.358    35 C    1.299     2 C    1.055
     5   6 C    3.966 --     6 C    1.390     4 C    1.358    38 H    0.966
                            34 C    0.106
     6   6 C    3.981 --     5 C    1.390    33 C    1.338     7 N    1.083
     7   7 N    2.970 --     8 N    1.677     6 C    1.083
     8   7 N    2.964 --     7 N    1.677     9 C    1.082
     9   6 C    3.974 --    10 C    1.366    32 C    1.356     8 N    1.082
    10   6 C    3.978 --    11 C    1.441     9 C    1.366    39 H    0.967
                            31 C    0.105
    11   6 C    3.963 --    10 C    1.441    12 C    1.380    40 H    0.902
                            32 C    0.104
    12   6 C    3.984 --    31 C    1.386    11 C    1.380    13 C    1.039
    13   6 C    3.971 --    30 C    1.383    14 C    1.382    12 C    1.039
    14   6 C    3.986 --    15 C    1.459    13 C    1.382    41 H    0.969
                            29 C    0.103
    15   6 C    3.970 --    14 C    1.459    16 C    1.357    42 H    0.970
                            30 C    0.104
    16   6 C    3.969 --    15 C    1.357    29 C    1.353    17 N    1.096
    17   7 N    2.905 --    18 N    1.632    16 C    1.096
    18   7 N    2.900 --    17 N    1.632    19 C    1.086
    19   6 C    3.978 --    20 C    1.390    28 C    1.337    18 N    1.086
    20   6 C    3.947 --    19 C    1.390    21 C    1.357    43 H    0.966
                            27 C    0.103
    21   6 C    3.968 --    20 C    1.357    25 C    1.296    22 C    1.058
    22   6 C    3.881 --    23 O    1.643    24 O    1.117    21 C    1.058
    23   8 O    1.989 --    22 C    1.643    24 O    0.149
    24   8 O    2.178 --    22 C    1.117    44 H    0.867    23 O    0.149
    25   6 C    3.935 --    27 C    1.362    21 C    1.296    26 O    1.110
    26   8 O    2.133 --    25 C    1.110    45 H    0.829
    27   6 C    3.979 --    28 C    1.460    25 C    1.362    46 H    0.966
                            20 C    0.103
    28   6 C    3.962 --    27 C    1.460    19 C    1.337    47 H    0.969
    29   6 C    3.972 --    30 C    1.458    16 C    1.353    48 H    0.970
                            14 C    0.103
    30   6 C    3.986 --    29 C    1.458    13 C    1.383    49 H    0.969
                            15 C    0.104
    31   6 C    3.985 --    32 C    1.453    12 C    1.386    50 H    0.969
                            10 C    0.105
    32   6 C    3.975 --    31 C    1.453     9 C    1.356    51 H    0.970
                            11 C    0.104
    33   6 C    3.962 --    34 C    1.456     6 C    1.338    52 H    0.969
    34   6 C    3.980 --    33 C    1.456    35 C    1.364    53 H    0.965
                             5 C    0.106
    35   6 C    3.939 --    34 C    1.364     4 C    1.299    36 O    1.108
    36   8 O    2.130 --    35 C    1.108    54 H    0.829
    37   1 H    0.891 --     3 O    0.866
    38   1 H    0.996 --     5 C    0.966
    39   1 H    0.997 --    10 C    0.967
    40   1 H    0.992 --    11 C    0.902
    41   1 H    0.997 --    14 C    0.969
    42   1 H    0.998 --    15 C    0.970
    43   1 H    0.997 --    20 C    0.966
    44   1 H    0.891 --    24 O    0.867
    45   1 H    0.889 --    26 O    0.829
    46   1 H    0.996 --    27 C    0.966
    47   1 H    0.997 --    28 C    0.969
    48   1 H    0.998 --    29 C    0.970
    49   1 H    0.998 --    30 C    0.969
    50   1 H    0.997 --    31 C    0.969
    51   1 H    0.998 --    32 C    0.970
    52   1 H    0.997 --    33 C    0.969
    53   1 H    0.994 --    34 C    0.965
    54   1 H    0.889 --    36 O    0.829
    55   5 B    3.453 --    97 B    1.412   108 H    0.963    61 B    0.827
    56   5 B    3.495 --    97 B    1.119    98 B    0.984    62 B    0.556
                            61 B    0.508
    57   5 B    3.500 --    99 B    1.273    98 B    1.012    64 B    0.487
                            63 B    0.447
    58   5 B    3.466 --    99 B    1.282    59 B    1.018    64 B    0.562
                           100 B    0.360
    59   5 B    3.525 --   101 B    1.089    58 B    1.018    65 B    0.683
                           100 B    0.485
    60   5 B    3.591 --   112 H    0.942   101 B    0.854    72 B    0.806
                            66 B    0.800
    61   5 B    3.601 --    67 B    0.836    55 B    0.827    97 B    0.782
                            56 B    0.508    68 B    0.393
    62   5 B    3.551 --    68 B    1.100    98 B    0.762    63 B    0.695
                            56 B    0.556
    63   5 B    3.593 --    69 B    0.966    62 B    0.695    64 B    0.517
                            98 B    0.503    57 B    0.447    70 B    0.232
    64   5 B    3.595 --    70 B    0.623   100 B    0.619    99 B    0.591
                            58 B    0.562    63 B    0.517    57 B    0.487
    65   5 B    3.593 --    71 B    1.109   100 B    0.918    59 B    0.683
                           101 B    0.506
    66   5 B    3.596 --    72 B    0.844    60 B    0.800    78 B    0.686
                           101 B    0.595    71 B    0.515
    67   5 B    3.619 --    61 B    0.836    73 B    0.755    68 B    0.691
                            74 B    0.554   107 B    0.496
    68   5 B    3.538 --    62 B    1.100    74 B    0.929    67 B    0.691
                            61 B    0.393
    69   5 B    3.440 --    75 B    1.055    63 B    0.966    76 B    0.592
                            70 B    0.422
    70   5 B    3.594 --    76 B    1.111   100 B    0.906    64 B    0.623
                            69 B    0.422    63 B    0.232
    71   5 B    3.549 --    65 B    1.109    77 B    0.830    78 B    0.607
                            66 B    0.515   101 B    0.183
    72   5 B    3.507 --   113 H    0.955    66 B    0.844    60 B    0.806
                            78 B    0.674
    73   5 B    3.514 --   109 H    0.941    79 B    0.822    67 B    0.755
                           107 B    0.723
    74   5 B    3.622 --    80 B    1.269    68 B    0.929    67 B    0.554
                           107 B    0.545
    75   5 B    3.483 --    81 B    1.158    69 B    1.055    76 B    0.551
                            82 B    0.396
    76   5 B    3.560 --    70 B    1.111    82 B    0.970    69 B    0.592
                            75 B    0.551
    77   5 B    3.576 --    83 B    0.861    71 B    0.830    90 B    0.562
                            78 B    0.544    84 B    0.500
    78   5 B    3.602 --    84 B    0.869    66 B    0.686    72 B    0.674
                            71 B    0.607    77 B    0.544
    79   5 B    3.567 --   110 H    0.944    73 B    0.822   107 B    0.768
                            85 B    0.730
    80   5 B    3.411 --    86 B    1.330    74 B    1.269   107 B    0.204
                           102 B    0.156
    81   5 B    3.430 --    75 B    1.158    87 B    1.014    88 B    0.508
                            82 B    0.457
    82   5 B    3.565 --    76 B    0.970   105 B    0.779    88 B    0.656
                            81 B    0.457    75 B    0.396
    83   5 B    3.559 --    89 B    1.006    77 B    0.861    90 B    0.632
                            96 B    0.544   106 B    0.325
    84   5 B    3.411 --   114 H    0.926    90 B    0.887    78 B    0.869
                            77 B    0.500
    85   5 B    3.599 --    91 B    1.219    79 B    0.730   102 B    0.707
                           107 B    0.695
    86   5 B    3.567 --    80 B    1.330    92 B    0.684   102 B    0.609
                           103 B    0.571
    87   5 B    3.510 --    81 B    1.014    93 B    0.645   103 B    0.579
                            88 B    0.539   104 B    0.450
    88   5 B    3.610 --    82 B    0.656   105 B    0.628    87 B    0.539
                            94 B    0.525   104 B    0.510    81 B    0.508
    89   5 B    3.538 --   105 B    1.018    83 B    1.006    95 B    0.632
                           106 B    0.532
    90   5 B    3.500 --    96 B    1.230    84 B    0.887    83 B    0.632
                            77 B    0.562
    91   5 B    3.444 --    85 B    1.219   111 H    0.959   102 B    0.840
                            92 B    0.145
    92   5 B    3.400 --   103 B    1.155   102 B    1.111    86 B    0.684
                            91 B    0.145
    93   5 B    3.343 --   104 B    1.206   103 B    1.136    87 B    0.645
    94   5 B    3.375 --   104 B    1.122    95 B    1.079    88 B    0.525
                           105 B    0.397
    95   5 B    3.480 --    94 B    1.079   106 B    1.053    89 B    0.632
                           105 B    0.499
    96   5 B    3.332 --   106 B    1.259    90 B    1.230    83 B    0.544
    97   5 B    3.496 --    55 B    1.412    56 B    1.119    61 B    0.782
    98   5 B    3.510 --    57 B    1.012    56 B    0.984    62 B    0.762
                            63 B    0.503
    99   5 B    3.434 --    58 B    1.282    57 B    1.273    64 B    0.591
   100   5 B    3.556 --    65 B    0.918    70 B    0.906    64 B    0.619
                            59 B    0.485    58 B    0.360
   101   5 B    3.479 --    59 B    1.089    60 B    0.854    66 B    0.595
                            65 B    0.506    71 B    0.183
   102   5 B    3.618 --    92 B    1.111    91 B    0.840    85 B    0.707
                            86 B    0.609    80 B    0.156
   103   5 B    3.610 --    92 B    1.155    93 B    1.136    87 B    0.579
                            86 B    0.571
   104   5 B    3.484 --    93 B    1.206    94 B    1.122    88 B    0.510
                            87 B    0.450
   105   5 B    3.578 --    89 B    1.018    82 B    0.779    88 B    0.628
                            95 B    0.499    94 B    0.397
   106   5 B    3.375 --    96 B    1.259    95 B    1.053    89 B    0.532
                            83 B    0.325
   107   5 B    3.621 --    79 B    0.768    73 B    0.723    85 B    0.695
                            74 B    0.545    67 B    0.496    80 B    0.204
   108   1 H    0.972 --    55 B    0.963
   109   1 H    0.975 --    73 B    0.941
   110   1 H    0.977 --    79 B    0.944
   111   1 H    0.975 --    91 B    0.959
   112   1 H    0.971 --    60 B    0.942
   113   1 H    0.977 --    72 B    0.955
   114   1 H    0.975 --    84 B    0.926
 ---------------------------------------------------------------------------

Topologies differ in total number of bonds
Writing topology from bond orders to xtbtopo.mol

molecular dipole:
                 x           y           z       tot (Debye)
 q only:        1.129       0.413      -6.688
   full:        1.525       0.030      -6.868      17.881
molecular quadrupole (traceless):
                xx          xy          yy          xz          yz          zz
 q only:      -79.689      14.009     145.182     -46.454     -17.924     -65.493
  q+dip:      -50.467     -13.157     105.055     -53.837     -15.395     -54.588
   full:      -62.625      -9.330      95.145     -52.296     -15.034     -32.520


           -------------------------------------------------
          | TOTAL ENERGY             -168.533901061383 Eh   |
          | GRADIENT NORM               0.113104863090 Eh/α |
          | HOMO-LUMO GAP               0.069331396587 eV   |
           -------------------------------------------------

------------------------------------------------------------------------
 * finished run on 2026/08/31 at 21:15:24.049     
------------------------------------------------------------------------
 total:
 * wall-time:     0 d,  0 h,  0 min,  1.855 sec
 *  cpu-time:     0 d,  0 h,  0 min, 19.453 sec
 * ratio c/w:    10.487 speedup
 SCF:
 * wall-time:     0 d,  0 h,  0 min,  1.803 sec
 *  cpu-time:     0 d,  0 h,  0 min, 18.938 sec
 * ratio c/w:    10.503 speedup

normal termination of xtb
