      -----------------------------------------------------------      
     |                   =====================                   |     
     |                           x T B                           |     
     |                   =====================                   |     
     |                         S. Grimme                         |     
     |          Mulliken Center for Theoretical Chemistry        |     
     |                    University of Bonn                     |     
      -----------------------------------------------------------      

   * xtb version 6.7.1pre (5071a88) compiled by 'Marcel@Raven' on 2024-07-23

   xtb is free software: you can redistribute it and/or modify it under
   the terms of the GNU Lesser General Public License as published by
   the Free Software Foundation, either version 3 of the License, or
   (at your option) any later version.
   
   xtb is distributed in the hope that it will be useful,
   but WITHOUT ANY WARRANTY; without even the implied warranty of
   MERCHANTABILITY or FITNESS FOR A PARTICULAR PURPOSE.  See the
   GNU Lesser General Public License for more details.
   
   Cite this work as:
   * C. Bannwarth, E. Caldeweyher, S. Ehlert, A. Hansen, P. Pracht,
     J. Seibert, S. Spicher, S. Grimme, WIREs Comput. Mol. Sci., 2020, 11,
     e01493. DOI: 10.1002/wcms.1493
   
   for GFN2-xTB:
   * C. Bannwarth, S. Ehlert and S. Grimme., J. Chem. Theory Comput., 2019,
     15, 1652-1671. DOI: 10.1021/acs.jctc.8b01176
   for GFN1-xTB:
   * S. Grimme, C. Bannwarth, P. Shushkov, J. Chem. Theory Comput., 2017,
     13, 1989-2009. DOI: 10.1021/acs.jctc.7b00118
   for GFN0-xTB:
   * P. Pracht, E. Caldeweyher, S. Ehlert, S. Grimme, ChemRxiv, 2019, preprint.
     DOI: 10.26434/chemrxiv.8326202.v1
   for GFN-FF:
   * S. Spicher and S. Grimme, Angew. Chem. Int. Ed., 2020, 59, 15665-15673.
     DOI: 10.1002/anie.202004239
   
   for ALPB and GBSA implicit solvation:
   * S. Ehlert, M. Stahn, S. Spicher, S. Grimme, J. Chem. Theory Comput.,
     2021, 17, 4250-4261. DOI: 10.1021/acs.jctc.1c00471
   
   for ddCOSMO and CPCM-X implicit solvation:
   * M. Stahn, S. Ehlert, S. Grimme, J. Phys. Chem. A,
     2023, XX, XXXX-XXXX. DOI: 10.1021/acs.jpca.3c04382
   
   for DFT-D4:
   * E. Caldeweyher, C. Bannwarth and S. Grimme, J. Chem. Phys., 2017,
     147, 034112. DOI: 10.1063/1.4993215
   * E. Caldeweyher, S. Ehlert, A. Hansen, H. Neugebauer, S. Spicher,
     C. Bannwarth and S. Grimme, J. Chem. Phys., 2019, 150, 154122.
     DOI: 10.1063/1.5090222
   * E. Caldeweyher, J.-M. Mewes, S. Ehlert and S. Grimme, Phys. Chem. Chem. Phys.
     2020, 22, 8499-8512. DOI: 10.1039/D0CP00502A
   
   for sTDA-xTB:
   * S. Grimme and C. Bannwarth, J. Chem. Phys., 2016, 145, 054103.
     DOI: 10.1063/1.4959605
   
   in the mass-spec context:
   * V. Asgeirsson, C. Bauer and S. Grimme, Chem. Sci., 2017, 8, 4879.
     DOI: 10.1039/c7sc00601b
   * J. Koopman and S. Grimme, ACS Omega 2019, 4, 12, 15120-15133.
     DOI: 10.1021/acsomega.9b02011
   
   for metadynamics refer to:
   * S. Grimme, J. Chem. Theory Comput., 2019, 155, 2847-2862
     DOI: 10.1021/acs.jctc.9b00143
   
   for SPH calculations refer to:
   * S. Spicher and S. Grimme, J. Chem. Theory Comput., 2021, 17, 1701-1714
     DOI: 10.1021/acs.jctc.0c01306
   
   for ONIOM refer to:
   * C. Plett, A. Katbashev, S. Ehlert, S. Grimme, M. Bursch,
     Phys. Chem. Chem. Phys., 2023, 25, 17860-17868. DOI: 10.1039/D3CP02178E
   
   for DIPRO refer to:
   * J. Kohn, N. Gildemeister, S. Grimme, D. Fazzi, A. Hansen,
     J. Chem. Phys., 2023, just accepted.
   
   for PTB refer to:
   * S. Grimme, M. Mueller, A. Hansen, J. Chem. Phys., 2023, 158, 124111.
     DOI: 10.1063/5.0137838
   
   with help from (in alphabetical order)
   P. Atkinson, C. Bannwarth, F. Bohle, G. Brandenburg, E. Caldeweyher
   M. Checinski, S. Dohm, S. Ehlert, S. Ehrlich, I. Gerasimov, C. Hölzer
   A. Katbashev, J. Kohn, J. Koopman, C. Lavigne, S. Lehtola, F. März, M. Müller,
   F. Musil, H. Neugebauer, J. Pisarek, C. Plett, P. Pracht, F. Pultar,
   J. Seibert, P. Shushkov, S. Spicher, M. Stahn, M. Steiner, T. Strunk,
   J. Stückrath, T. Rose, and J. Unsleber
   
 * started run on 2026/09/01 at 20:28:37.102     
   ID    Z sym.   atoms
    1    8 O      1, 3, 23, 24, 26, 36
    2    6 C      2, 4-6, 9-16, 19-22, 25, 27-35
    3    7 N      7, 8, 17, 18
    4    1 H      37-54, 95-109
    5    5 B      55-94

           -------------------------------------------------
          |                Calculation Setup                |
           -------------------------------------------------

          program call               : "c:\Users\Andre\Proyectos doctorado\nano-qsar-ai-papers\kras-pancreatic-gC3N4-ai\tools\xtb\xtb-6.7.1\bin\xtb.exe" "c:\Users\Andre\Proyectos doctorado\borophene-alzheimer-tau-ai\calculations\tau\Chrysamine_G\Chrysamine_G_B40H15_clean_complex.xyz" --gfn 2 --sp --chrg 0 --uhf 0 --iterations 500 --norestart
          coordinate file            : c:\Users\Andre\Proyectos doctorado\borophene-alzheimer-tau-ai\calculations\tau\Chrysamine_G\Chrysamine_G_B40H15_clean_complex.xyz
          omp threads                :                    16


molecular fragmentation (1/2 indicates fragments):
111111111111111111111111111111111111111111111111111111222222222222222222
2222222222222222222222222222222222222
# atoms in fragment 1/2:    54    55
 fragment masses (1/2) :      482.45      447.56
CMA distance (Bohr)    :  18.877
constraining FC (au)   :  0.0500

           -------------------------------------------------
          |                 G F N 2 - x T B                 |
           -------------------------------------------------

        Reference                      10.1021/acs.jctc.8b01176
      * Hamiltonian:
        H0-scaling (s, p, d)           1.850000    2.230000    2.230000
        zeta-weighting                 0.500000
      * Dispersion:
        s8                             2.700000
        a1                             0.520000
        a2                             5.000000
        s9                             5.000000
      * Repulsion:
        kExp                           1.500000    1.000000
        rExp                           1.000000
      * Coulomb:
        alpha                          2.000000
        third order                    shell-resolved
        anisotropic                    true
        a3                             3.000000
        a5                             4.000000
        cn-shift                       1.200000
        cn-exp                         4.000000
        max-rad                        5.000000


          ...................................................
          :                      SETUP                      :
          :.................................................:
          :  # basis functions                 337          :
          :  # atomic orbitals                 337          :
          :  # shells                          185          :
          :  # electrons                       313          :
          :  max. iterations                   500          :
          :  Hamiltonian                  GFN2-xTB          :
          :  restarted?                      false          :
          :  GBSA solvation                  false          :
          :  PC potential                    false          :
          :  electronic temp.          300.0000000     K    :
          :  accuracy                    1.0000000          :
          :  -> integral cutoff          0.2500000E+02      :
          :  -> integral neglect         0.1000000E-07      :
          :  -> SCF convergence          0.1000000E-05 Eh   :
          :  -> wf. convergence          0.1000000E-03 e    :
          :  Broyden damping             0.4000000          :
          :  net charge                          0          :
          :  unpaired electrons                  0          :
          ...................................................

 iter      E             dE          RMSdq      gap      omega  full diag
   1   -158.4315872 -0.158432E+03  0.125E+01    0.03       0.0  T
   2   -157.2249381  0.120665E+01  0.822E+00    0.09       1.0  T
   3    -98.8000712  0.584249E+02  0.124E+01    0.45       1.0  T
   4   -104.6571280 -0.585706E+01  0.106E+01    0.06       1.0  T
   5   -154.3632665 -0.497061E+02  0.397E+00    0.06       1.0  T
   6   -144.6964649  0.966680E+01  0.575E+00    0.12       1.0  T
   7   -157.0466599 -0.123502E+02  0.287E+00    0.19       1.0  T
   8   -158.2210765 -0.117442E+01  0.237E+00    0.36       1.0  T
   9   -159.1238450 -0.902768E+00  0.144E+00    0.39       1.0  T
  10   -159.1165602  0.728473E-02  0.128E+00    0.42       1.0  T
  11   -159.1130632  0.349701E-02  0.109E+00    0.46       1.0  T
  12   -158.9121652  0.200898E+00  0.124E+00    0.21       1.0  T
  13   -159.1300177 -0.217853E+00  0.628E-01    0.10       1.0  T
  14   -158.1163418  0.101368E+01  0.209E+00    0.01       1.0  T
  15   -158.4315190 -0.315177E+00  0.182E+00    0.06       1.0  T
  16   -158.3469621  0.845569E-01  0.183E+00    0.03       1.0  T
  17   -158.6257462 -0.278784E+00  0.155E+00    0.01       1.0  T
  18   -159.0545208 -0.428775E+00  0.859E-01    0.03       1.0  T
  19   -159.0684586 -0.139378E-01  0.823E-01    0.02       1.0  T
  20   -159.0710661 -0.260745E-02  0.783E-01    0.03       1.0  T
  21   -159.1171015 -0.460355E-01  0.585E-01    0.00       1.0  T
  22   -159.1280427 -0.109412E-01  0.500E-01    0.02       1.0  T
  23   -159.1828875 -0.548448E-01  0.186E-01    0.02       1.0  T
  24   -159.1870893 -0.420181E-02  0.146E-01    0.04       1.0  T
  25   -159.1878183 -0.728986E-03  0.129E-01    0.05       1.0  T
  26   -159.1878068  0.114808E-04  0.124E-01    0.04       1.0  T
  27   -159.1847580  0.304880E-02  0.146E-01    0.07       1.0  T
  28   -159.1861403 -0.138232E-02  0.131E-01    0.06       1.0  T
  29   -159.1894975 -0.335722E-02  0.635E-02    0.04       1.0  T
  30   -159.1897939 -0.296363E-03  0.528E-02    0.04       1.0  T
  31   -159.1902190 -0.425121E-03  0.299E-02    0.05       1.0  T
  32   -159.1902072  0.117928E-04  0.298E-02    0.04       1.0  T
  33   -159.1903079 -0.100644E-03  0.193E-02    0.05       1.0  T
  34   -159.1903441 -0.362324E-04  0.168E-02    0.05       1.0  T
  35   -159.1903392  0.486728E-05  0.162E-02    0.05       1.0  T
  36   -159.1902812  0.580589E-04  0.216E-02    0.05       1.0  T
  37   -159.1903361 -0.549029E-04  0.159E-02    0.05       1.0  T
  38   -159.1903466 -0.105179E-04  0.136E-02    0.05       1.0  T
  39   -159.1903568 -0.101622E-04  0.119E-02    0.05       1.0  T
  40   -159.1903683 -0.115522E-04  0.940E-03    0.05       1.0  T
  41   -159.1903833 -0.149901E-04  0.495E-03    0.05       1.9  T
  42   -159.1903870 -0.369206E-05  0.297E-03    0.05       3.2  T
  43   -159.1903864  0.581347E-06  0.321E-03    0.05       3.0  T
  44   -159.1903869 -0.480600E-06  0.249E-03    0.05       3.8  T
  45   -159.1903867  0.164719E-06  0.252E-03    0.05       3.8  T
  46   -159.1903873 -0.527426E-06  0.198E-03    0.05       4.8  T
  47   -159.1903880 -0.778907E-06  0.676E-04    0.05      14.2  T
  48   -159.1903881 -0.261360E-07  0.513E-04    0.05      18.7  T

   *** convergence criteria satisfied after 48 iterations ***

         #    Occupation            Energy/Eh            Energy/eV
      -------------------------------------------------------------
         1        2.0000           -0.7430875             -20.2204
       ...           ...                  ...                  ...
       151        2.0000           -0.3128516              -8.5131
       152        2.0000           -0.3060656              -8.3285
       153        2.0000           -0.3030018              -8.2451
       154        2.0000           -0.2997029              -8.1553
       155        2.0000           -0.2950380              -8.0284
       156        1.9987           -0.2916077              -7.9350
       157        0.6181           -0.2788271              -7.5873 (HOMO)
       158        0.1962           -0.2770333              -7.5385 (LUMO)
       159        0.1847           -0.2769629              -7.5365
       160        0.0012           -0.2719918              -7.4013
       161        0.0012           -0.2719891              -7.4012
       162                         -0.2626005              -7.1457
       ...                                ...                  ...
       337                          1.0515317              28.6136
      -------------------------------------------------------------
                  HL-Gap            0.0017938 Eh            0.0488 eV
             Fermi-level           -0.2818506 Eh           -7.6695 eV

 SCC (total)                   0 d,  0 h,  0 min,  0.905 sec
 SCC setup                      ...        0 min,  0.001 sec (  0.111%)
 Dispersion                     ...        0 min,  0.002 sec (  0.221%)
 classical contributions        ...        0 min,  0.000 sec (  0.000%)
 integral evaluation            ...        0 min,  0.007 sec (  0.773%)
 iterations                     ...        0 min,  0.866 sec ( 95.691%)
 molecular gradient             ...        0 min,  0.024 sec (  2.652%)
 printout                       ...        0 min,  0.005 sec (  0.552%)

         :::::::::::::::::::::::::::::::::::::::::::::::::::::
         ::                     SUMMARY                     ::
         :::::::::::::::::::::::::::::::::::::::::::::::::::::
         :: total energy            -157.054161457690 Eh    ::
         :: gradient norm              0.105753584454 Eh/a0 ::
         :: HOMO-LUMO gap              0.048812943104 eV    ::
         ::.................................................::
         :: SCC energy              -159.188451585269 Eh    ::
         :: -> isotropic ES            0.346066345986 Eh    ::
         :: -> anisotropic ES          0.007176217032 Eh    ::
         :: -> anisotropic XC          0.038245810719 Eh    ::
         :: -> dispersion             -0.135267982816 Eh    ::
         :: repulsion energy           2.134290127579 Eh    ::
         :: add. restraining           0.000000000000 Eh    ::
         :: total charge              -0.000000000171 e     ::
         :::::::::::::::::::::::::::::::::::::::::::::::::::::

           -------------------------------------------------
          |                Property Printout                |
           -------------------------------------------------

    * Orbital Energies and Occupations

         #    Occupation            Energy/Eh            Energy/eV
      -------------------------------------------------------------
         1        2.0000           -0.7430875             -20.2204
       ...           ...                  ...                  ...
       145        2.0000           -0.3288470              -8.9484
       146        2.0000           -0.3249931              -8.8435
       147        2.0000           -0.3235499              -8.8042
       148        2.0000           -0.3223225              -8.7708
       149        2.0000           -0.3168725              -8.6225
       150        2.0000           -0.3152734              -8.5790
       151        2.0000           -0.3128516              -8.5131
       152        2.0000           -0.3060656              -8.3285
       153        2.0000           -0.3030018              -8.2451
       154        2.0000           -0.2997029              -8.1553
       155        2.0000           -0.2950380              -8.0284
       156        1.9987           -0.2916077              -7.9350
       157        0.6181           -0.2788271              -7.5873 (HOMO)
       158        0.1962           -0.2770333              -7.5385 (LUMO)
       159        0.1847           -0.2769629              -7.5365
       160        0.0012           -0.2719918              -7.4013
       161        0.0012           -0.2719891              -7.4012
       162                         -0.2626005              -7.1457
       163                         -0.2450744              -6.6688
       164                         -0.2384982              -6.4899
       165                         -0.2314463              -6.2980
       166                         -0.2261270              -6.1532
       167                         -0.2211030              -6.0165
       168                         -0.2208755              -6.0103
       ...                                ...                  ...
       337                          1.0515317              28.6136
      -------------------------------------------------------------
                  HL-Gap            0.0017938 Eh            0.0488 eV
             Fermi-level           -0.2818506 Eh           -7.6695 eV

     #   Z          covCN         q      C6AA      α(0)
     1   8 O        0.856    -0.451    22.731     6.392
     2   6 C        2.696     0.353    21.004     7.501
     3   8 O        1.658    -0.374    20.353     6.090
     4   6 C        2.963    -0.059    29.464     8.903
     5   6 C        2.918    -0.037    28.923     8.819
     6   6 C        2.911     0.062    26.609     8.459
     7   7 N        1.916    -0.113    24.234     7.299
     8   7 N        1.916    -0.114    24.248     7.301
     9   6 C        2.912     0.065    26.538     8.447
    10   6 C        2.914    -0.049    29.228     8.865
    11   6 C        2.915    -0.041    29.025     8.835
    12   6 C        2.966     0.004    27.928     8.668
    13   6 C        2.965     0.005    27.909     8.665
    14   6 C        2.915    -0.039    28.957     8.824
    15   6 C        2.915    -0.043    29.076     8.842
    16   6 C        2.978     0.073    26.358     8.421
    17   7 N        1.988    -0.129    24.529     7.345
    18   7 N        1.984    -0.132    24.594     7.355
    19   6 C        2.983     0.070    26.432     8.433
    20   6 C        2.919    -0.037    28.927     8.820
    21   6 C        2.963    -0.059    29.455     8.902
    22   6 C        2.696     0.353    21.011     7.502
    23   8 O        0.856    -0.452    22.749     6.395
    24   8 O        1.658    -0.375    20.371     6.093
    25   6 C        2.845     0.154    24.656     8.138
    26   8 O        1.657    -0.394    20.742     6.148
    27   6 C        2.910    -0.053    29.304     8.876
    28   6 C        2.916    -0.032    28.788     8.798
    29   6 C        2.913    -0.041    29.016     8.833
    30   6 C        2.915    -0.038    28.955     8.824
    31   6 C        2.915    -0.037    28.923     8.819
    32   6 C        2.914    -0.045    29.109     8.847
    33   6 C        2.917    -0.037    28.909     8.817
    34   6 C        2.910    -0.054    29.340     8.882
    35   6 C        2.845     0.153    24.681     8.142
    36   8 O        1.657    -0.396    20.768     6.152
    37   1 H        0.803     0.333     0.631     1.248
    38   1 H        0.925     0.061     2.193     2.316
    39   1 H        0.925     0.032     2.559     2.502
    40   1 H        0.925     0.031     2.566     2.505
    41   1 H        0.925     0.032     2.560     2.502
    42   1 H        0.925     0.037     2.494     2.470
    43   1 H        0.925     0.064     2.157     2.296
    44   1 H        0.803     0.332     0.632     1.249
    45   1 H        0.803     0.335     0.626     1.243
    46   1 H        0.925     0.063     2.164     2.301
    47   1 H        0.925     0.051     2.308     2.376
    48   1 H        0.925     0.036     2.509     2.477
    49   1 H        0.925     0.033     2.543     2.494
    50   1 H        0.925     0.033     2.539     2.492
    51   1 H        0.925     0.034     2.532     2.489
    52   1 H        0.925     0.051     2.311     2.377
    53   1 H        0.925     0.064     2.157     2.297
    54   1 H        0.803     0.335     0.625     1.242
    55   5 B        3.729     0.068    21.405     7.475
    56   5 B        4.543     0.070    21.482     7.468
    57   5 B        3.764     0.033    22.072     7.581
    58   5 B        3.812     0.047    21.873     7.540
    59   5 B        3.866     0.061    21.641     7.497
    60   5 B        4.607     0.028    22.234     7.598
    61   5 B        2.881     0.055    20.475     7.553
    62   5 B        2.866     0.089    19.917     7.450
    63   5 B        4.657     0.034    22.118     7.578
    64   5 B        2.924     0.073    20.156     7.491
    65   5 B        3.820     0.056    21.703     7.510
    66   5 B        3.871     0.024    22.288     7.608
    67   5 B        4.530    -0.001    22.767     7.688
    68   5 B        3.833     0.051    21.807     7.527
    69   5 B        4.711     0.060    21.649     7.497
    70   5 B        4.714     0.051    21.817     7.526
    71   5 B        3.891     0.049    21.855     7.533
    72   5 B        2.930     0.026    20.952     7.638
    73   5 B        4.652     0.021    22.353     7.618
    74   5 B        2.877     0.059    20.409     7.541
    75   5 B        3.828     0.068    21.508     7.476
    76   5 B        3.859     0.025    22.265     7.605
    77   5 B        3.858    -0.005    22.835     7.701
    78   5 B        3.841     0.053    21.759     7.518
    79   5 B        4.594     0.027    22.255     7.601
    80   5 B        5.681     0.106    20.867     7.360
    81   5 B        4.131     0.017    22.435     7.632
    82   5 B        2.924     0.034    20.810     7.612
    83   5 B        5.586     0.063    21.608     7.490
    84   5 B        3.637     0.067    21.086     7.486
    85   5 B        3.826     0.047    21.863     7.537
    86   5 B        3.877     0.033    22.132     7.581
    87   5 B        3.870     0.023    22.312     7.612
    88   5 B        2.915     0.095    19.804     7.426
    89   5 B        3.773     0.076    21.332     7.451
    90   5 B        5.329     0.100    20.966     7.378
    91   5 B        4.732     0.047    21.889     7.538
    92   5 B        3.808     0.017    22.407     7.632
    93   5 B        3.784     0.080    21.269     7.438
    94   5 B        2.896     0.056    20.452     7.548
    95   1 H        0.938    -0.107     5.818     3.771
    96   1 H        1.528     0.039     2.440     2.439
    97   1 H        0.935    -0.140     7.198     4.195
    98   1 H        0.931    -0.128     6.629     4.026
    99   1 H        0.935    -0.115     6.123     3.869
   100   1 H        0.934    -0.114     6.059     3.849
   101   1 H        0.938    -0.099     5.532     3.677
   102   1 H        0.936    -0.130     6.751     4.062
   103   1 H        0.938    -0.086     5.097     3.530
   104   1 H        0.933    -0.149     7.615     4.315
   105   1 H        0.938    -0.091     5.238     3.578
   106   1 H        0.940    -0.129     6.672     4.038
   107   1 H        0.939    -0.107     5.817     3.771
   108   1 H        0.938    -0.108     5.850     3.782
   109   1 H        0.940    -0.136     7.010     4.139

 Mol. C6AA /au·bohr⁶  :     185208.300418
 Mol. C8AA /au·bohr⁸  :    5446773.592568
 Mol. α(0) /au        :        687.906550


Wiberg/Mayer (AO) data.
largest (>0.10) Wiberg bond orders for each atom

 ---------------------------------------------------------------------------
     #   Z sym  total        # sym  WBO       # sym  WBO       # sym  WBO
 ---------------------------------------------------------------------------
     1   8 O    2.020 --     2 C    1.662     3 O    0.156
     2   6 C    3.911 --     1 O    1.662     3 O    1.131     4 C    1.050
     3   8 O    2.199 --     2 C    1.131    37 H    0.865     1 O    0.156
     4   6 C    3.978 --     5 C    1.363    35 C    1.303     2 C    1.050
     5   6 C    3.982 --     6 C    1.391     4 C    1.363    38 H    0.966
                            34 C    0.109
     6   6 C    3.981 --     5 C    1.391    33 C    1.338     7 N    1.080
     7   7 N    3.009 --     8 N    1.719     6 C    1.080
     8   7 N    3.006 --     7 N    1.719     9 C    1.080
     9   6 C    3.975 --    10 C    1.362    32 C    1.361     8 N    1.080
    10   6 C    3.982 --    11 C    1.451     9 C    1.362    39 H    0.970
                            31 C    0.106
    11   6 C    3.987 --    10 C    1.451    12 C    1.388    40 H    0.969
                            32 C    0.107
    12   6 C    3.988 --    11 C    1.388    31 C    1.387    13 C    1.039
    13   6 C    3.977 --    30 C    1.386    14 C    1.383    12 C    1.039
    14   6 C    3.987 --    15 C    1.458    13 C    1.383    41 H    0.969
                            29 C    0.104
    15   6 C    3.976 --    14 C    1.458    16 C    1.359    42 H    0.970
                            30 C    0.105
    16   6 C    3.972 --    15 C    1.359    29 C    1.356    17 N    1.091
    17   7 N    2.965 --    18 N    1.691    16 C    1.091
    18   7 N    2.970 --    17 N    1.691    19 C    1.085
    19   6 C    3.979 --    20 C    1.392    28 C    1.337    18 N    1.085
    20   6 C    3.974 --    19 C    1.392    21 C    1.366    43 H    0.965
                            27 C    0.108
    21   6 C    3.977 --    20 C    1.366    25 C    1.299    22 C    1.052
    22   6 C    3.911 --    23 O    1.661    24 O    1.129    21 C    1.052
    23   8 O    2.019 --    22 C    1.661    24 O    0.155
    24   8 O    2.197 --    22 C    1.129    44 H    0.865    23 O    0.155
    25   6 C    3.944 --    27 C    1.357    21 C    1.299    26 O    1.116
    26   8 O    2.142 --    25 C    1.116    45 H    0.828
    27   6 C    3.985 --    28 C    1.467    25 C    1.357    46 H    0.965
                            20 C    0.108
    28   6 C    3.980 --    27 C    1.467    19 C    1.337    47 H    0.969
    29   6 C    3.977 --    30 C    1.456    16 C    1.356    48 H    0.969
                            14 C    0.104
    30   6 C    3.987 --    29 C    1.456    13 C    1.386    49 H    0.969
                            15 C    0.105
    31   6 C    3.987 --    32 C    1.453    12 C    1.387    50 H    0.969
                            10 C    0.106
    32   6 C    3.982 --    31 C    1.453     9 C    1.361    51 H    0.970
                            11 C    0.107
    33   6 C    3.982 --    34 C    1.464     6 C    1.338    52 H    0.969
    34   6 C    3.985 --    33 C    1.464    35 C    1.357    53 H    0.965
                             5 C    0.109
    35   6 C    3.948 --    34 C    1.357     4 C    1.303    36 O    1.115
    36   8 O    2.142 --    35 C    1.115    54 H    0.828
    37   1 H    0.889 --     3 O    0.865
    38   1 H    0.996 --     5 C    0.966
    39   1 H    0.998 --    10 C    0.970
    40   1 H    0.999 --    11 C    0.969
    41   1 H    0.997 --    14 C    0.969
    42   1 H    0.998 --    15 C    0.970
    43   1 H    0.996 --    20 C    0.965
    44   1 H    0.889 --    24 O    0.865
    45   1 H    0.888 --    26 O    0.828
    46   1 H    0.995 --    27 C    0.965
    47   1 H    0.997 --    28 C    0.969
    48   1 H    0.998 --    29 C    0.969
    49   1 H    0.998 --    30 C    0.969
    50   1 H    0.997 --    31 C    0.969
    51   1 H    0.998 --    32 C    0.970
    52   1 H    0.997 --    33 C    0.969
    53   1 H    0.994 --    34 C    0.965
    54   1 H    0.888 --    36 O    0.828
    55   5 B    3.563 --    95 H    0.953    58 B    0.905    56 B    0.883
                            96 H    0.537
    56   5 B    3.536 --    55 B    0.883    57 B    0.749    58 B    0.602
                            60 B    0.545    96 H    0.425    59 B    0.134
    57   5 B    3.568 --    59 B    1.120    97 H    0.950    56 B    0.749
                            60 B    0.452
    58   5 B    3.551 --    55 B    0.905    65 B    0.842    66 B    0.819
                            56 B    0.602    68 B    0.113
    59   5 B    3.391 --    57 B    1.120    67 B    0.804    63 B    0.632
                            60 B    0.431    56 B    0.134
    60   5 B    3.592 --    61 B    1.076    63 B    0.766    56 B    0.545
                            57 B    0.452    59 B    0.431
    61   5 B    3.423 --    60 B    1.076    62 B    0.992    98 H    0.912
                            63 B    0.154    64 B    0.101
    62   5 B    3.245 --    64 B    1.013    61 B    0.992    99 H    0.939
                            72 B    0.108
    63   5 B    3.676 --    71 B    0.779    60 B    0.766    70 B    0.699
                            59 B    0.632    67 B    0.374    61 B    0.154
    64   5 B    3.406 --    62 B    1.013    72 B    0.984   100 H    0.924
                            71 B    0.192    61 B    0.101
    65   5 B    3.627 --   101 H    0.926    58 B    0.842    66 B    0.842
                            68 B    0.794
    66   5 B    3.606 --    68 B    0.866    65 B    0.842    58 B    0.819
                            67 B    0.797
    67   5 B    3.632 --    69 B    0.840    59 B    0.804    66 B    0.797
                            70 B    0.436    63 B    0.374
    68   5 B    3.574 --    66 B    0.866    65 B    0.794    75 B    0.770
                            76 B    0.712    58 B    0.113
    69   5 B    3.584 --    67 B    0.840    77 B    0.681    70 B    0.636
                            80 B    0.567    73 B    0.457
    70   5 B    3.599 --    73 B    0.951    63 B    0.699    69 B    0.636
                            71 B    0.593    67 B    0.436
    71   5 B    3.549 --    72 B    0.970    63 B    0.779    73 B    0.666
                            70 B    0.593    64 B    0.192
    72   5 B    3.448 --    64 B    0.984    71 B    0.970    74 B    0.958
                            82 B    0.183    62 B    0.108
    73   5 B    3.637 --    70 B    0.951    81 B    0.774    71 B    0.666
                            69 B    0.457    80 B    0.436
    74   5 B    3.411 --    82 B    1.137    72 B    0.958   102 H    0.953
                            84 B    0.112
    75   5 B    3.562 --   103 H    0.921    78 B    0.836    76 B    0.805
                            68 B    0.770
    76   5 B    3.584 --    77 B    1.008    75 B    0.805    68 B    0.712
                            78 B    0.699
    77   5 B    3.629 --    76 B    1.008    79 B    0.895    69 B    0.681
                            80 B    0.608
    78   5 B    3.583 --    86 B    0.846    75 B    0.836    85 B    0.762
                            76 B    0.699    88 B    0.149
    79   5 B    3.667 --    77 B    0.895    87 B    0.700    80 B    0.683
                            90 B    0.613    83 B    0.392
    80   5 B    3.669 --    79 B    0.683    77 B    0.608    83 B    0.586
                            69 B    0.567    81 B    0.523    73 B    0.436
    81   5 B    3.523 --    82 B    0.966    73 B    0.774    83 B    0.772
                            80 B    0.523    84 B    0.197
    82   5 B    3.403 --    74 B    1.137    81 B    0.966    84 B    0.780
                            72 B    0.183
    83   5 B    3.633 --    81 B    0.772    91 B    0.618    80 B    0.586
                            92 B    0.486    79 B    0.392    90 B    0.292
                            84 B    0.266
    84   5 B    3.504 --    92 B    0.971   104 H    0.940    82 B    0.780
                            83 B    0.266    81 B    0.197    74 B    0.112
    85   5 B    3.598 --    88 B    1.012   105 H    0.918    78 B    0.762
                            86 B    0.752
    86   5 B    3.596 --    88 B    0.926    87 B    0.887    78 B    0.846
                            85 B    0.752
    87   5 B    3.607 --    86 B    0.887    89 B    0.862    79 B    0.700
                            90 B    0.636    88 B    0.227
    88   5 B    3.449 --    85 B    1.012   106 H    0.974    86 B    0.926
                            87 B    0.227    78 B    0.149
    89   5 B    3.509 --   107 H    0.954    87 B    0.862    90 B    0.763
                            93 B    0.686
    90   5 B    3.650 --    89 B    0.763    93 B    0.761    87 B    0.636
                            79 B    0.613    91 B    0.441    83 B    0.292
    91   5 B    3.633 --    94 B    0.949    93 B    0.761    92 B    0.707
                            83 B    0.618    90 B    0.441
    92   5 B    3.567 --    94 B    1.162    84 B    0.971    91 B    0.707
                            83 B    0.486
    93   5 B    3.547 --   108 H    0.954    90 B    0.761    91 B    0.761
                            89 B    0.686    94 B    0.185
    94   5 B    3.504 --    92 B    1.162   109 H    0.970    91 B    0.949
                            93 B    0.185
    95   1 H    0.982 --    55 B    0.953
    96   1 H    0.994 --    55 B    0.537    56 B    0.425
    97   1 H    0.978 --    57 B    0.950
    98   1 H    0.980 --    61 B    0.912
    99   1 H    0.984 --    62 B    0.939
   100   1 H    0.983 --    64 B    0.924
   101   1 H    0.978 --    65 B    0.926
   102   1 H    0.980 --    74 B    0.953
   103   1 H    0.981 --    75 B    0.921
   104   1 H    0.976 --    84 B    0.940
   105   1 H    0.981 --    85 B    0.918
   106   1 H    0.983 --    88 B    0.974
   107   1 H    0.985 --    89 B    0.954
   108   1 H    0.984 --    93 B    0.954
   109   1 H    0.980 --    94 B    0.970
 ---------------------------------------------------------------------------

Topologies differ in total number of bonds
Writing topology from bond orders to xtbtopo.mol

molecular dipole:
                 x           y           z       tot (Debye)
 q only:        0.547      -1.621      -7.495
   full:        0.502      -2.394      -6.222      16.992
molecular quadrupole (traceless):
                xx          xy          yy          xz          yz          zz
 q only:       -1.422       2.987      93.131     -22.538     -12.785     -91.709
  q+dip:       14.843       1.986      77.204     -29.085     -22.403     -92.048
   full:        5.749      -3.093      73.880     -32.270     -21.646     -79.628


           -------------------------------------------------
          | TOTAL ENERGY             -157.054161457690 Eh   |
          | GRADIENT NORM               0.105753584454 Eh/α |
          | HOMO-LUMO GAP               0.048812943104 eV   |
           -------------------------------------------------

------------------------------------------------------------------------
 * finished run on 2026/09/01 at 20:28:38.058     
------------------------------------------------------------------------
 total:
 * wall-time:     0 d,  0 h,  0 min,  0.954 sec
 *  cpu-time:     0 d,  0 h,  0 min, 11.125 sec
 * ratio c/w:    11.661 speedup
 SCF:
 * wall-time:     0 d,  0 h,  0 min,  0.906 sec
 *  cpu-time:     0 d,  0 h,  0 min, 10.609 sec
 * ratio c/w:    11.710 speedup

