114
Drug@B48H12 complex
O     -6.228816      1.630536      6.575267
C     -6.358757      0.723999      5.769606
O     -6.595155     -0.540029      6.155542
C     -6.271091      0.895377      4.304062
C     -6.446628     -0.191215      3.436807
C     -6.334374     -0.020152      2.051681
N     -6.529897     -1.107113      1.177982
N     -5.567650     -1.857652      0.865856
C     -4.277869     -1.617475      1.377476
C     -3.389115     -0.773065      0.706798
C     -2.102510     -0.550986      1.209047
C     -1.665069     -1.186441      2.382469
C     -0.314464     -0.946629      2.914615
C      0.563420     -2.012192      3.170336
C      1.847892     -1.781908      3.676437
C      2.291046     -0.482408      3.932314
N      3.576258     -0.285721      4.469114
N      4.278274      0.398764      3.692076
C      5.564059      0.580518      4.230408
C      6.661963     -0.019765      3.604387
C      7.957824      0.167960      4.105274
C      9.125990     -0.466775      3.458543
O     10.276114     -0.342507      3.845400
O      8.815079     -1.209669      2.384482
C      8.148338      0.973109      5.237091
O      9.374852      1.214635      5.796394
C      7.062308      1.583993      5.858808
C      5.775621      1.391173      5.353610
C      1.417799      0.584424      3.693789
C      0.133748      0.355990      3.186390
C     -2.553038     -2.060900      3.029383
C     -3.840170     -2.280265      2.527430
C     -6.100464      1.260803      1.537428
C     -5.929608      2.349568      2.393337
C     -6.009386      2.165371      3.771356
O     -5.824962      3.284611      4.538644
H     -6.628401     -0.500511      7.134724
H     -6.662550     -1.183312      3.825009
H     -3.702958     -0.280842     -0.209855
H     -1.434924      0.115755      0.666318
H      0.256259     -3.036161      2.966234
H      2.510477     -2.622171      3.867379
H      6.489220     -0.636253      2.725621
H      9.672802     -1.561279      2.065254
H     10.061290      0.738302      5.280311
H      7.217635      2.209883      6.733811
H      4.928980      1.872158      5.837392
H      1.738988      1.600928      3.905892
H     -0.522386      1.207890      3.017449
H     -2.250502     -2.573589      3.940492
H     -4.510136     -2.965139      3.040716
H     -6.045579      1.406146      0.461405
H     -5.737294      3.339313      1.987303
H     -5.912484      3.040919      5.486027
B     -7.500000     -4.500000      0.000000
B     -4.500000     -4.500000      0.000000
B     -1.500000     -4.500000      0.000000
B      1.500000     -4.500000      0.000000
B      4.500000     -4.500000      0.000000
B      7.500000     -4.500000      0.000000
B     -7.500000     -3.000000      0.000000
B     -4.500000     -3.000000      0.000000
B     -1.500000     -3.000000      0.000000
B      1.500000     -3.000000      0.000000
B      4.500000     -3.000000      0.000000
B      7.500000     -3.000000      0.000000
B     -7.500000     -1.500000      0.000000
B     -4.500000     -1.500000      0.000000
B     -1.500000     -1.500000      0.000000
B      1.500000     -1.500000      0.000000
B      4.500000     -1.500000      0.000000
B      7.500000     -1.500000      0.000000
B     -7.500000      0.000000      0.000000
B     -4.500000      0.000000      0.000000
B     -1.500000      0.000000      0.000000
B      1.500000      0.000000      0.000000
B      4.500000      0.000000      0.000000
B      7.500000      0.000000      0.000000
B     -7.500000      1.500000      0.000000
B     -4.500000      1.500000      0.000000
B     -1.500000      1.500000      0.000000
B      1.500000      1.500000      0.000000
B      4.500000      1.500000      0.000000
B      7.500000      1.500000      0.000000
B     -7.500000      3.000000      0.000000
B     -4.500000      3.000000      0.000000
B     -1.500000      3.000000      0.000000
B      1.500000      3.000000      0.000000
B      4.500000      3.000000      0.000000
B      7.500000      3.000000      0.000000
B     -7.500000      4.500000      0.000000
B     -4.500000      4.500000      0.000000
B     -1.500000      4.500000      0.000000
B      1.500000      4.500000      0.000000
B      4.500000      4.500000      0.000000
B      7.500000      4.500000      0.000000
B     -6.000000     -3.750000      0.000000
B     -3.000000     -3.750000      0.000000
B      0.000000     -3.750000      0.000000
B      3.000000     -3.750000      0.000000
B      6.000000     -3.750000      0.000000
B     -6.000000      3.750000      0.000000
B     -3.000000      3.750000      0.000000
B      0.000000      3.750000      0.000000
B      3.000000      3.750000      0.000000
B      6.000000      3.750000      0.000000
B     -6.000000      0.000000      0.000000
H     -8.600000     -4.500000      0.000000
H     -8.600000     -1.500000      0.000000
H     -8.600000      1.500000      0.000000
H     -8.600000      4.500000      0.000000
H      8.600000     -4.500000      0.000000
H      8.600000     -1.500000      0.000000
H      8.600000      1.500000      0.000000
