      -----------------------------------------------------------      
     |                   =====================                   |     
     |                           x T B                           |     
     |                   =====================                   |     
     |                         S. Grimme                         |     
     |          Mulliken Center for Theoretical Chemistry        |     
     |                    University of Bonn                     |     
      -----------------------------------------------------------      

   * xtb version 6.7.1pre (5071a88) compiled by 'Marcel@Raven' on 2024-07-23

   xtb is free software: you can redistribute it and/or modify it under
   the terms of the GNU Lesser General Public License as published by
   the Free Software Foundation, either version 3 of the License, or
   (at your option) any later version.
   
   xtb is distributed in the hope that it will be useful,
   but WITHOUT ANY WARRANTY; without even the implied warranty of
   MERCHANTABILITY or FITNESS FOR A PARTICULAR PURPOSE.  See the
   GNU Lesser General Public License for more details.
   
   Cite this work as:
   * C. Bannwarth, E. Caldeweyher, S. Ehlert, A. Hansen, P. Pracht,
     J. Seibert, S. Spicher, S. Grimme, WIREs Comput. Mol. Sci., 2020, 11,
     e01493. DOI: 10.1002/wcms.1493
   
   for GFN2-xTB:
   * C. Bannwarth, S. Ehlert and S. Grimme., J. Chem. Theory Comput., 2019,
     15, 1652-1671. DOI: 10.1021/acs.jctc.8b01176
   for GFN1-xTB:
   * S. Grimme, C. Bannwarth, P. Shushkov, J. Chem. Theory Comput., 2017,
     13, 1989-2009. DOI: 10.1021/acs.jctc.7b00118
   for GFN0-xTB:
   * P. Pracht, E. Caldeweyher, S. Ehlert, S. Grimme, ChemRxiv, 2019, preprint.
     DOI: 10.26434/chemrxiv.8326202.v1
   for GFN-FF:
   * S. Spicher and S. Grimme, Angew. Chem. Int. Ed., 2020, 59, 15665-15673.
     DOI: 10.1002/anie.202004239
   
   for ALPB and GBSA implicit solvation:
   * S. Ehlert, M. Stahn, S. Spicher, S. Grimme, J. Chem. Theory Comput.,
     2021, 17, 4250-4261. DOI: 10.1021/acs.jctc.1c00471
   
   for ddCOSMO and CPCM-X implicit solvation:
   * M. Stahn, S. Ehlert, S. Grimme, J. Phys. Chem. A,
     2023, XX, XXXX-XXXX. DOI: 10.1021/acs.jpca.3c04382
   
   for DFT-D4:
   * E. Caldeweyher, C. Bannwarth and S. Grimme, J. Chem. Phys., 2017,
     147, 034112. DOI: 10.1063/1.4993215
   * E. Caldeweyher, S. Ehlert, A. Hansen, H. Neugebauer, S. Spicher,
     C. Bannwarth and S. Grimme, J. Chem. Phys., 2019, 150, 154122.
     DOI: 10.1063/1.5090222
   * E. Caldeweyher, J.-M. Mewes, S. Ehlert and S. Grimme, Phys. Chem. Chem. Phys.
     2020, 22, 8499-8512. DOI: 10.1039/D0CP00502A
   
   for sTDA-xTB:
   * S. Grimme and C. Bannwarth, J. Chem. Phys., 2016, 145, 054103.
     DOI: 10.1063/1.4959605
   
   in the mass-spec context:
   * V. Asgeirsson, C. Bauer and S. Grimme, Chem. Sci., 2017, 8, 4879.
     DOI: 10.1039/c7sc00601b
   * J. Koopman and S. Grimme, ACS Omega 2019, 4, 12, 15120-15133.
     DOI: 10.1021/acsomega.9b02011
   
   for metadynamics refer to:
   * S. Grimme, J. Chem. Theory Comput., 2019, 155, 2847-2862
     DOI: 10.1021/acs.jctc.9b00143
   
   for SPH calculations refer to:
   * S. Spicher and S. Grimme, J. Chem. Theory Comput., 2021, 17, 1701-1714
     DOI: 10.1021/acs.jctc.0c01306
   
   for ONIOM refer to:
   * C. Plett, A. Katbashev, S. Ehlert, S. Grimme, M. Bursch,
     Phys. Chem. Chem. Phys., 2023, 25, 17860-17868. DOI: 10.1039/D3CP02178E
   
   for DIPRO refer to:
   * J. Kohn, N. Gildemeister, S. Grimme, D. Fazzi, A. Hansen,
     J. Chem. Phys., 2023, just accepted.
   
   for PTB refer to:
   * S. Grimme, M. Mueller, A. Hansen, J. Chem. Phys., 2023, 158, 124111.
     DOI: 10.1063/5.0137838
   
   with help from (in alphabetical order)
   P. Atkinson, C. Bannwarth, F. Bohle, G. Brandenburg, E. Caldeweyher
   M. Checinski, S. Dohm, S. Ehlert, S. Ehrlich, I. Gerasimov, C. Hölzer
   A. Katbashev, J. Kohn, J. Koopman, C. Lavigne, S. Lehtola, F. März, M. Müller,
   F. Musil, H. Neugebauer, J. Pisarek, C. Plett, P. Pracht, F. Pultar,
   J. Seibert, P. Shushkov, S. Spicher, M. Stahn, M. Steiner, T. Strunk,
   J. Stückrath, T. Rose, and J. Unsleber
   
 * started run on 2026/08/31 at 20:20:29.234     
   ID    Z sym.   atoms
    1    8 O      1, 3, 23, 24, 26, 36
    2    6 C      2, 4-6, 9-16, 19-22, 25, 27-35
    3    7 N      7, 8, 17, 18
    4    1 H      37-54, 108-114
    5    5 B      55-107

           -------------------------------------------------
          |                Calculation Setup                |
           -------------------------------------------------

          program call               : "c:\Users\Andre\Proyectos doctorado\kras-pancreatic-gC3N4-ai\tools\xtb\xtb-6.7.1\bin\xtb.exe" "c:\Users\Andre\Proyectos doctorado\borophene-alzheimer-tau-ai\calculations\tau\Chrysamine_G\Chrysamine_G_B48H12_complex.xyz" --gfn 2 --sp --chrg 0 --uhf 0 --iterations 500 --norestart
          coordinate file            : c:\Users\Andre\Proyectos doctorado\borophene-alzheimer-tau-ai\calculations\tau\Chrysamine_G\Chrysamine_G_B48H12_complex.xyz
          omp threads                :                    16


molecular fragmentation (1/2 indicates fragments):
111111111111111111111111111111111111111111111111111111111111111111111111
111111111111111111111111111111111111121111
# atoms in fragment 1/2:   113     1
 fragment masses (1/2) :     1061.48        1.01
CMA distance (Bohr)    :  16.729
constraining FC (au)   :  0.0500

           -------------------------------------------------
          |                 G F N 2 - x T B                 |
           -------------------------------------------------

        Reference                      10.1021/acs.jctc.8b01176
      * Hamiltonian:
        H0-scaling (s, p, d)           1.850000    2.230000    2.230000
        zeta-weighting                 0.500000
      * Dispersion:
        s8                             2.700000
        a1                             0.520000
        a2                             5.000000
        s9                             5.000000
      * Repulsion:
        kExp                           1.500000    1.000000
        rExp                           1.000000
      * Coulomb:
        alpha                          2.000000
        third order                    shell-resolved
        anisotropic                    true
        a3                             3.000000
        a5                             4.000000
        cn-shift                       1.200000
        cn-exp                         4.000000
        max-rad                        5.000000


          ...................................................
          :                      SETUP                      :
          :.................................................:
          :  # basis functions                 381          :
          :  # atomic orbitals                 381          :
          :  # shells                          203          :
          :  # electrons                       344          :
          :  max. iterations                   500          :
          :  Hamiltonian                  GFN2-xTB          :
          :  restarted?                      false          :
          :  GBSA solvation                  false          :
          :  PC potential                    false          :
          :  electronic temp.          300.0000000     K    :
          :  accuracy                    1.0000000          :
          :  -> integral cutoff          0.2500000E+02      :
          :  -> integral neglect         0.1000000E-07      :
          :  -> SCF convergence          0.1000000E-05 Eh   :
          :  -> wf. convergence          0.1000000E-03 e    :
          :  Broyden damping             0.4000000          :
          :  net charge                          0          :
          :  unpaired electrons                  0          :
          ...................................................

 iter      E             dE          RMSdq      gap      omega  full diag
   1   -163.1885845 -0.163189E+03  0.155E+01    0.04       0.0  T
   2    159.4426798  0.322631E+03  0.186E+01    0.05       1.0  T
   3   1154.7248750  0.995282E+03  0.340E+01    0.10       1.0  T
   4    -73.5895129 -0.122831E+04  0.139E+01    0.10       1.0  T
   5    -44.8149312  0.287746E+02  0.127E+01    0.10       1.0  T
   6   -100.4614764 -0.556465E+02  0.118E+01    0.02       1.0  T
   7    -75.0594580  0.254020E+02  0.120E+01    0.29       1.0  T
   8   -156.2248220 -0.811654E+02  0.776E+00    0.05       1.0  T
   9   -160.9760548 -0.475123E+01  0.745E+00    0.03       1.0  T
  10   -162.7681936 -0.179214E+01  0.657E+00    0.12       1.0  T
  11   -165.9710187 -0.320283E+01  0.567E+00    0.06       1.0  T
  12   -167.9967090 -0.202569E+01  0.555E+00    0.03       1.0  T
  13   -167.8020299  0.194679E+00  0.522E+00    0.21       1.0  T
  14   -167.8515564 -0.495265E-01  0.516E+00    0.17       1.0  T
  15   -167.7721291  0.794273E-01  0.515E+00    0.20       1.0  T
  16   -168.2309611 -0.458832E+00  0.472E+00    0.16       1.0  T
  17   -168.2336371 -0.267599E-02  0.431E+00    0.07       1.0  T
  18   -168.9522273 -0.718590E+00  0.397E+00    0.09       1.0  T
  19   -168.1243109  0.827916E+00  0.365E+00    0.05       1.0  T
  20   -168.5386511 -0.414340E+00  0.356E+00    0.05       1.0  T
  21   -168.4767437  0.619074E-01  0.354E+00    0.04       1.0  T
  22   -168.5056125 -0.288688E-01  0.353E+00    0.05       1.0  T
  23   -168.7556957 -0.250083E+00  0.347E+00    0.07       1.0  T
  24   -168.2595289  0.496167E+00  0.348E+00    0.07       1.0  T
  25   -169.1395766 -0.880048E+00  0.304E+00    0.05       1.0  T
  26   -168.9765701  0.163006E+00  0.300E+00    0.08       1.0  T
  27   -169.0985913 -0.122021E+00  0.284E+00    0.07       1.0  T
  28   -169.0149016  0.836896E-01  0.285E+00    0.08       1.0  T
  29   -169.0060235  0.887814E-02  0.280E+00    0.12       1.0  T
  30   -169.0363542 -0.303307E-01  0.270E+00    0.12       1.0  T
  31   -169.1625397 -0.126185E+00  0.231E+00    0.11       1.0  T
  32   -168.6894959  0.473044E+00  0.244E+00    0.01       1.0  T
  33   -168.6819415  0.755446E-02  0.245E+00    0.01       1.0  T
  34   -168.9815467 -0.299605E+00  0.219E+00    0.01       1.0  T
  35   -169.4375510 -0.456004E+00  0.172E+00    0.05       1.0  T
  36   -169.4683725 -0.308215E-01  0.162E+00    0.04       1.0  T
  37   -169.4975537 -0.291813E-01  0.155E+00    0.04       1.0  T
  38   -169.6392033 -0.141650E+00  0.129E+00    0.05       1.0  T
  39   -169.6249057  0.142976E-01  0.121E+00    0.04       1.0  T
  40   -169.6726767 -0.477709E-01  0.110E+00    0.05       1.0  T
  41   -169.6911049 -0.184282E-01  0.102E+00    0.05       1.0  T
  42   -169.6849878  0.611705E-02  0.981E-01    0.05       1.0  T
  43   -169.7318264 -0.468385E-01  0.779E-01    0.05       1.0  T
  44   -169.7297914  0.203499E-02  0.784E-01    0.05       1.0  T
  45   -169.7285299  0.126148E-02  0.759E-01    0.05       1.0  T
  46   -169.7434682 -0.149383E-01  0.659E-01    0.05       1.0  T
  47   -169.7664404 -0.229722E-01  0.553E-01    0.04       1.0  T
  48   -169.7723228 -0.588232E-02  0.517E-01    0.04       1.0  T
  49   -169.7725794 -0.256679E-03  0.514E-01    0.04       1.0  T
  50   -169.7787887 -0.620922E-02  0.490E-01    0.03       1.0  T
  51   -169.7619194  0.168693E-01  0.564E-01    0.04       1.0  T
  52   -169.7881532 -0.262338E-01  0.435E-01    0.02       1.0  T
  53   -169.7859002  0.225296E-02  0.441E-01    0.02       1.0  T
  54   -169.7854827  0.417519E-03  0.443E-01    0.02       1.0  T
  55   -169.6891398  0.963430E-01  0.738E-01    0.06       1.0  T
  56   -169.6916978 -0.255801E-02  0.730E-01    0.06       1.0  T
  57   -169.6657039  0.259939E-01  0.786E-01    0.07       1.0  T
  58   -169.6810335 -0.153295E-01  0.730E-01    0.07       1.0  T
  59   -169.7435442 -0.625107E-01  0.532E-01    0.05       1.0  T
  60   -169.7604879 -0.169437E-01  0.435E-01    0.04       1.0  T
  61   -169.7916895 -0.312017E-01  0.278E-01    0.03       1.0  T
  62   -169.7983373 -0.664777E-02  0.256E-01    0.04       1.0  T
  63   -169.8035730 -0.523563E-02  0.225E-01    0.03       1.0  T
  64   -169.8016061  0.196685E-02  0.252E-01    0.03       1.0  T
  65   -169.7984374  0.316874E-02  0.288E-01    0.03       1.0  T
  66   -169.8027313 -0.429391E-02  0.229E-01    0.03       1.0  T
  67   -169.8017577  0.973582E-03  0.223E-01    0.02       1.0  T
  68   -169.8049878 -0.323013E-02  0.170E-01    0.02       1.0  T
  69   -169.8046494  0.338458E-03  0.157E-01    0.02       1.0  T
  70   -169.8085578 -0.390846E-02  0.101E-01    0.03       1.0  T
  71   -169.8090084 -0.450586E-03  0.856E-02    0.03       1.0  T
  72   -169.8094359 -0.427468E-03  0.648E-02    0.03       1.0  T
  73   -169.8095999 -0.164016E-03  0.536E-02    0.03       1.0  T
  74   -169.8095368  0.630543E-04  0.541E-02    0.03       1.0  T
  75   -169.8096995 -0.162671E-03  0.483E-02    0.03       1.0  T
  76   -169.8097416 -0.420619E-04  0.427E-02    0.03       1.0  T
  77   -169.8100669 -0.325360E-03  0.252E-02    0.03       1.0  T
  78   -169.8101107 -0.437957E-04  0.210E-02    0.03       1.0  T
  79   -169.8100926  0.181216E-04  0.228E-02    0.04       1.0  T
  80   -169.8100732  0.193950E-04  0.229E-02    0.03       1.0  T
  81   -169.8101053 -0.321277E-04  0.186E-02    0.04       1.0  T
  82   -169.8101153 -0.999963E-05  0.166E-02    0.04       1.0  T
  83   -169.8101175 -0.221114E-05  0.148E-02    0.04       1.0  T
  84   -169.8101299 -0.123388E-04  0.125E-02    0.04       1.0  T
  85   -169.8101394 -0.950866E-05  0.112E-02    0.03       1.0  T
  86   -169.8101492 -0.985193E-05  0.884E-03    0.03       1.1  T
  87   -169.8101593 -0.100784E-04  0.681E-03    0.03       1.4  T
  88   -169.8101640 -0.471253E-05  0.509E-03    0.03       1.8  T
  89   -169.8101665 -0.243143E-05  0.345E-03    0.03       2.7  T
  90   -169.8101645  0.198086E-05  0.449E-03    0.03       2.1  T
  91   -169.8101663 -0.178431E-05  0.339E-03    0.03       2.8  T
  92   -169.8101666 -0.307286E-06  0.270E-03    0.03       3.5  T
  93   -169.8101662  0.408745E-06  0.293E-03    0.03       3.2  T
  94   -169.8101675 -0.135995E-05  0.176E-03    0.03       5.3  T
  95   -169.8101678 -0.316445E-06  0.111E-03    0.03       8.5  T
  96   -169.8101678  0.158963E-07  0.109E-03    0.03       8.6  T
  97   -169.8101679 -0.925786E-07  0.774E-04    0.03      12.1  T
  98   -169.8101680 -0.406374E-07  0.616E-04    0.03      15.2  T

   *** convergence criteria satisfied after 98 iterations ***

         #    Occupation            Energy/Eh            Energy/eV
      -------------------------------------------------------------
         1        2.0000           -0.7014694             -19.0880
       ...           ...                  ...                  ...
       166        2.0000           -0.2499198              -6.8007
       167        2.0000           -0.2484143              -6.7597
       168        2.0000           -0.2473417              -6.7305
       169        2.0000           -0.2463248              -6.7028
       170        2.0000           -0.2439704              -6.6388
       171        2.0000           -0.2415528              -6.5730
       172        1.0407           -0.2313740              -6.2960 (HOMO)
       173        0.4514           -0.2301253              -6.2620 (LUMO)
       174        0.2616           -0.2294972              -6.2449
       175        0.1741           -0.2290640              -6.2331
       176        0.0624           -0.2280322              -6.2051
       177        0.0086           -0.2261221              -6.1531
       ...           ...                  ...                  ...
       381                          5.4972757             149.5885
      -------------------------------------------------------------
                  HL-Gap            0.0012488 Eh            0.0340 eV
             Fermi-level           -0.2312966 Eh           -6.2939 eV

 SCC (total)                   0 d,  0 h,  0 min,  2.827 sec
 SCC setup                      ...        0 min,  0.000 sec (  0.000%)
 Dispersion                     ...        0 min,  0.004 sec (  0.141%)
 classical contributions        ...        0 min,  0.000 sec (  0.000%)
 integral evaluation            ...        0 min,  0.011 sec (  0.389%)
 iterations                     ...        0 min,  2.782 sec ( 98.408%)
 molecular gradient             ...        0 min,  0.027 sec (  0.955%)
 printout                       ...        0 min,  0.003 sec (  0.106%)

         :::::::::::::::::::::::::::::::::::::::::::::::::::::
         ::                     SUMMARY                     ::
         :::::::::::::::::::::::::::::::::::::::::::::::::::::
         :: total energy            -166.299922416524 Eh    ::
         :: gradient norm              2.787591435924 Eh/a0 ::
         :: HOMO-LUMO gap              0.033980232767 eV    ::
         ::.................................................::
         :: SCC energy              -169.802786750114 Eh    ::
         :: -> isotropic ES            0.485815765701 Eh    ::
         :: -> anisotropic ES         -0.019750559563 Eh    ::
         :: -> anisotropic XC         -0.046934819347 Eh    ::
         :: -> dispersion             -0.193299674474 Eh    ::
         :: repulsion energy           3.502864333589 Eh    ::
         :: add. restraining           0.000000000000 Eh    ::
         :: total charge              -0.000000000001 e     ::
         :::::::::::::::::::::::::::::::::::::::::::::::::::::

           -------------------------------------------------
          |                Property Printout                |
           -------------------------------------------------

    * Orbital Energies and Occupations

         #    Occupation            Energy/Eh            Energy/eV
      -------------------------------------------------------------
         1        2.0000           -0.7014694             -19.0880
       ...           ...                  ...                  ...
       160        2.0000           -0.2692150              -7.3257
       161        2.0000           -0.2682261              -7.2988
       162        2.0000           -0.2637575              -7.1772
       163        2.0000           -0.2614111              -7.1134
       164        2.0000           -0.2589688              -7.0469
       165        2.0000           -0.2564651              -6.9788
       166        2.0000           -0.2499198              -6.8007
       167        2.0000           -0.2484143              -6.7597
       168        2.0000           -0.2473417              -6.7305
       169        2.0000           -0.2463248              -6.7028
       170        2.0000           -0.2439704              -6.6388
       171        2.0000           -0.2415528              -6.5730
       172        1.0407           -0.2313740              -6.2960 (HOMO)
       173        0.4514           -0.2301253              -6.2620 (LUMO)
       174        0.2616           -0.2294972              -6.2449
       175        0.1741           -0.2290640              -6.2331
       176        0.0624           -0.2280322              -6.2051
       177        0.0086           -0.2261221              -6.1531
       178        0.0009           -0.2240173              -6.0958
       179        0.0003           -0.2229087              -6.0657
       180        0.0000           -0.2203357              -5.9956
       181        0.0000           -0.2174158              -5.9162
       182                         -0.2151663              -5.8550
       183                         -0.2141242              -5.8266
       ...                                ...                  ...
       381                          5.4972757             149.5885
      -------------------------------------------------------------
                  HL-Gap            0.0012488 Eh            0.0340 eV
             Fermi-level           -0.2312966 Eh           -6.2939 eV

     #   Z          covCN         q      C6AA      α(0)
     1   8 O        0.856    -0.518    24.177     6.592
     2   6 C        2.696     0.325    21.482     7.586
     3   8 O        1.658    -0.412    21.090     6.200
     4   6 C        2.963    -0.104    30.613     9.075
     5   6 C        2.918    -0.078    29.950     8.974
     6   6 C        3.304    -0.017    26.548     8.240
     7   7 N        4.116    -0.016    21.562     6.897
     8   7 N        4.038    -0.092    23.034     7.128
     9   6 C        4.646     0.060    19.482     6.268
    10   6 C        5.189    -0.082    21.970     6.657
    11   6 C        4.718    -0.092    22.152     6.684
    12   6 C        2.987    -0.056    29.393     8.893
    13   6 C        2.965    -0.023    28.574     8.768
    14   6 C        2.915    -0.058    29.432     8.896
    15   6 C        2.915    -0.059    29.465     8.901
    16   6 C        2.978     0.065    26.546     8.451
    17   7 N        1.988    -0.168    25.400     7.474
    18   7 N        1.984    -0.159    25.187     7.443
    19   6 C        2.983     0.061    26.621     8.463
    20   6 C        2.919    -0.064    29.602     8.922
    21   6 C        2.963    -0.071    29.765     8.949
    22   6 C        2.696     0.329    21.411     7.573
    23   8 O        0.856    -0.496    23.697     6.527
    24   8 O        1.658    -0.384    20.541     6.118
    25   6 C        2.845     0.142    24.900     8.178
    26   8 O        1.657    -0.415    21.136     6.206
    27   6 C        2.910    -0.065    29.609     8.923
    28   6 C        2.916    -0.049    29.209     8.862
    29   6 C        2.913    -0.055    29.357     8.885
    30   6 C        2.915    -0.066    29.638     8.927
    31   6 C        2.915    -0.090    30.257     9.020
    32   6 C        2.914    -0.125    31.183     9.157
    33   6 C        3.915    -0.142    23.166     6.841
    34   6 C        2.910    -0.141    31.611     9.219
    35   6 C        2.845     0.132    25.102     8.211
    36   8 O        1.657    -0.432    21.474     6.256
    37   1 H        0.803     0.313     0.684     1.299
    38   1 H        0.925     0.018     2.758     2.597
    39   1 H        2.310     0.375     0.521     1.127
    40   1 H        2.155     0.406     0.462     1.062
    41   1 H        0.925     0.029     2.601     2.522
    42   1 H        0.925     0.026     2.651     2.546
    43   1 H        0.925     0.076     2.021     2.223
    44   1 H        0.803     0.320     0.665     1.281
    45   1 H        0.803     0.329     0.641     1.258
    46   1 H        0.925     0.044     2.402     2.423
    47   1 H        0.925     0.034     2.524     2.484
    48   1 H        0.925     0.026     2.643     2.542
    49   1 H        0.925     0.019     2.755     2.596
    50   1 H        0.925    -0.008     3.192     2.794
    51   1 H        0.925    -0.007     3.186     2.791
    52   1 H        1.720     0.279     0.770     1.370
    53   1 H        0.925     0.076     2.016     2.220
    54   1 H        0.803     0.326     0.647     1.264
    55   5 B        2.887    -0.015    21.691     7.773
    56   5 B        2.890     0.003    21.355     7.713
    57   5 B        2.890     0.028    20.925     7.635
    58   5 B        2.890     0.039    20.731     7.599
    59   5 B        2.890     0.039    20.732     7.599
    60   5 B        2.887     0.019    21.074     7.662
    61   5 B        2.930     0.029    20.902     7.628
    62   5 B        5.148     0.067    21.541     7.478
    63   5 B        3.868     0.002    22.696     7.678
    64   5 B        3.868     0.009    22.571     7.656
    65   5 B        3.868     0.009    22.576     7.657
    66   5 B        2.916     0.057    20.425     7.542
    67   5 B        4.241    -0.006    22.861     7.704
    68   5 B        5.406     0.146    20.221     7.245
    69   5 B        3.124     0.060    20.354     7.525
    70   5 B        1.958     0.031    42.996    13.789
    71   5 B        1.958     0.044    42.560    13.719
    72   5 B        2.911    -0.045    22.219     7.866
    73   5 B        3.565     0.044    21.032     7.563
    74   5 B        5.087    -0.185    26.571     8.306
    75   5 B        4.042    -0.225    27.529     8.454
    76   5 B        1.958    -0.057    46.264    14.304
    77   5 B        1.958    -0.029    45.185    14.136
    78   5 B        1.960     0.047    42.452    13.701
    79   5 B        3.876    -0.068    24.059     7.905
    80   5 B        2.556    -0.006    22.848     8.194
    81   5 B        2.227     0.008    37.649    12.454
    82   5 B        1.958     0.027    43.145    13.813
    83   5 B        1.958     0.050    42.349    13.685
    84   5 B        2.911    -0.034    22.012     7.829
    85   5 B        2.916     0.004    21.327     7.706
    86   5 B        3.868    -0.021    23.127     7.750
    87   5 B        3.868    -0.014    23.009     7.730
    88   5 B        3.868     0.005    22.651     7.670
    89   5 B        3.868     0.007    22.599     7.661
    90   5 B        2.914    -0.000    21.414     7.722
    91   5 B        2.887     0.003    21.369     7.716
    92   5 B        2.890     0.039    20.738     7.600
    93   5 B        2.890     0.042    20.693     7.592
    94   5 B        2.890     0.031    20.866     7.624
    95   5 B        2.890     0.033    20.845     7.620
    96   5 B        1.934     0.016    43.654    13.902
    97   5 B        3.996     0.042    21.969     7.552
    98   5 B        3.822     0.010    22.531     7.652
    99   5 B        3.822     0.043    21.943     7.551
   100   5 B        3.822     0.048    21.858     7.537
   101   5 B        3.822     0.054    21.741     7.516
   102   5 B        3.822     0.032    22.141     7.585
   103   5 B        3.822     0.037    22.045     7.569
   104   5 B        3.822     0.046    21.887     7.542
   105   5 B        3.822     0.047    21.872     7.539
   106   5 B        3.822     0.041    21.969     7.556
   107   5 B        5.658     0.191    19.513     7.118
   108   1 H        0.954    -0.058     4.275     3.232
   109   1 H        0.956     0.027     2.625     2.532
   110   1 H        0.956     0.056     2.240     2.339
   111   1 H        0.954    -0.062     4.395     3.277
   112   1 H        0.954    -0.067     4.514     3.321
   113   1 H        0.956     0.013     2.840     2.634
   114   1 H        0.956    -0.000     3.059     2.734

 Mol. C6AA /au·bohr⁶  :     232351.480438
 Mol. C8AA /au·bohr⁸  :    7467996.203859
 Mol. α(0) /au        :        801.659030


Wiberg/Mayer (AO) data.
largest (>0.10) Wiberg bond orders for each atom

 ---------------------------------------------------------------------------
     #   Z sym  total        # sym  WBO       # sym  WBO       # sym  WBO
 ---------------------------------------------------------------------------
     1   8 O    1.895 --     2 C    1.571     3 O    0.127
     2   6 C    3.825 --     1 O    1.571     4 C    1.113     3 O    1.074
     3   8 O    2.123 --     2 C    1.074    37 H    0.877     1 O    0.127
     4   6 C    3.930 --     5 C    1.273    35 C    1.245     2 C    1.113
     5   6 C    3.941 --     6 C    1.478     4 C    1.273    38 H    0.967
     6   6 C    3.937 --     5 C    1.478    33 C    1.210     7 N    0.947
     7   7 N    3.492 --     8 N    1.033     6 C    0.947    67 B    0.578
                           107 B    0.446    73 B    0.237
     8   7 N    3.286 --     7 N    1.033     9 C    0.887    68 B    0.665
                            62 B    0.165    97 B    0.100
     9   6 C    3.863 --    32 C    1.300    10 C    0.946     8 N    0.887
                            68 B    0.371    62 B    0.121
    10   6 C    3.837 --    11 C    1.089     9 C    0.946    74 B    0.564
                            68 B    0.413    39 H    0.376    69 B    0.127
    11   6 C    3.904 --    12 C    1.158    10 C    1.089    75 B    0.553
                            69 B    0.445    40 H    0.379
    12   6 C    3.879 --    31 C    1.372    11 C    1.158    13 C    1.067
    13   6 C    3.952 --    30 C    1.357    14 C    1.354    12 C    1.067
    14   6 C    3.971 --    15 C    1.473    13 C    1.354    41 H    0.968
    15   6 C    3.964 --    14 C    1.473    16 C    1.341    42 H    0.971
    16   6 C    3.945 --    29 C    1.342    15 C    1.341    17 N    1.108
    17   7 N    2.885 --    18 N    1.601    16 C    1.108
    18   7 N    2.879 --    17 N    1.601    19 C    1.091
    19   6 C    3.977 --    20 C    1.384    28 C    1.339    18 N    1.091
    20   6 C    3.921 --    19 C    1.384    21 C    1.347    43 H    0.959
    21   6 C    3.956 --    20 C    1.347    25 C    1.288    22 C    1.070
    22   6 C    3.840 --    23 O    1.597    24 O    1.099    21 C    1.070
    23   8 O    1.930 --    22 C    1.597    24 O    0.139
    24   8 O    2.166 --    22 C    1.099    44 H    0.869    23 O    0.139
    25   6 C    3.915 --    27 C    1.374    21 C    1.288    26 O    1.095
    26   8 O    2.110 --    25 C    1.095    45 H    0.831
    27   6 C    3.971 --    28 C    1.442    25 C    1.374    46 H    0.968
    28   6 C    3.927 --    27 C    1.442    19 C    1.339    47 H    0.970
    29   6 C    3.969 --    30 C    1.468    16 C    1.342    48 H    0.970
    30   6 C    3.963 --    29 C    1.468    13 C    1.357    49 H    0.970
    31   6 C    3.906 --    12 C    1.372    32 C    1.357    50 H    0.971
    32   6 C    3.893 --    31 C    1.357     9 C    1.300    51 H    0.968
    33   6 C    3.931 --    34 C    1.278     6 C    1.210    52 H    0.614
                            79 B    0.239    80 B    0.119   107 B    0.107
    34   6 C    3.937 --    35 C    1.420    33 C    1.278    53 H    0.919
    35   6 C    3.909 --    34 C    1.420     4 C    1.245    36 O    1.085
    36   8 O    2.097 --    35 C    1.085    54 H    0.831
    37   1 H    0.901 --     3 O    0.877
    38   1 H    0.999 --     5 C    0.967
    39   1 H    0.857 --    10 C    0.376    74 B    0.323
    40   1 H    0.831 --    11 C    0.379    75 B    0.298    81 B    0.117
    41   1 H    0.998 --    14 C    0.968
    42   1 H    0.999 --    15 C    0.971
    43   1 H    0.994 --    20 C    0.959
    44   1 H    0.897 --    24 O    0.869
    45   1 H    0.892 --    26 O    0.831
    46   1 H    0.997 --    27 C    0.968
    47   1 H    0.998 --    28 C    0.970
    48   1 H    0.999 --    29 C    0.970
    49   1 H    0.999 --    30 C    0.970
    50   1 H    0.998 --    31 C    0.971
    51   1 H    0.996 --    32 C    0.968
    52   1 H    0.918 --    33 C    0.614   107 B    0.118
    53   1 H    0.993 --    34 C    0.919
    54   1 H    0.893 --    36 O    0.831
    55   5 B    3.429 --    61 B    1.117    97 B    1.029   108 H    0.853
                            56 B    0.164
    56   5 B    3.418 --    98 B    0.996    97 B    0.940    62 B    0.921
                            55 B    0.164
    57   5 B    3.429 --    98 B    1.018    99 B    0.984    63 B    0.921
                            58 B    0.142
    58   5 B    3.465 --   100 B    1.022    99 B    0.979    64 B    0.918
                            57 B    0.142    59 B    0.140
    59   5 B    3.377 --   100 B    0.967   101 B    0.957    65 B    0.911
                            60 B    0.141    58 B    0.140
    60   5 B    3.326 --   101 B    1.068    66 B    1.000   112 H    0.859
                            59 B    0.141    72 B    0.113
    61   5 B    3.457 --    55 B    1.117    67 B    1.069    97 B    0.749
                           109 H    0.119   108 H    0.102
    62   5 B    3.584 --    56 B    0.921    68 B    0.846    98 B    0.676
                            97 B    0.611     8 N    0.165     9 C    0.121
    63   5 B    3.647 --    69 B    1.134    57 B    0.921    99 B    0.690
                            98 B    0.690
    64   5 B    3.627 --    70 B    1.155    58 B    0.918   100 B    0.666
                            99 B    0.661
    65   5 B    3.638 --    71 B    1.159    59 B    0.911   100 B    0.672
                           101 B    0.655
    66   5 B    3.455 --    72 B    1.241    60 B    1.000   101 B    0.695
                           113 H    0.153    78 B    0.106   112 H    0.101
    67   5 B    3.554 --    61 B    1.069    73 B    0.795   109 H    0.694
                             7 N    0.578   107 B    0.155
    68   5 B    3.278 --    62 B    0.846     8 N    0.665    74 B    0.426
                            10 C    0.413     9 C    0.371   107 B    0.195
    69   5 B    3.256 --    63 B    1.134    75 B    1.042    11 C    0.445
                            10 C    0.127
    70   5 B    3.302 --    76 B    1.440    64 B    1.155    82 B    0.225
    71   5 B    3.315 --    77 B    1.409    65 B    1.159    83 B    0.195
    72   5 B    3.522 --    66 B    1.241    78 B    1.222   113 H    0.656
                            60 B    0.113
    73   5 B    3.494 --   107 B    0.827    79 B    0.822    67 B    0.795
                             7 N    0.237   110 H    0.126   109 H    0.117
    74   5 B    3.576 --    80 B    1.093   107 B    0.862    10 C    0.564
                            68 B    0.426    39 H    0.323
    75   5 B    3.531 --    81 B    1.352    69 B    1.042    11 C    0.553
                            40 H    0.298
    76   5 B    3.443 --    82 B    1.448    70 B    1.440    77 B    0.167
    77   5 B    3.379 --    71 B    1.409    83 B    1.395    76 B    0.167
    78   5 B    3.275 --    84 B    1.302    72 B    1.222   114 H    0.163
                           113 H    0.135    66 B    0.106
    79   5 B    3.555 --    85 B    1.155    73 B    0.822   110 H    0.662
                            33 C    0.239   107 B    0.184    91 B    0.101
    80   5 B    3.334 --    86 B    1.176    74 B    1.093   107 B    0.181
                            33 C    0.119
    81   5 B    3.265 --    75 B    1.352    87 B    1.197    40 H    0.117
    82   5 B    3.303 --    76 B    1.448    88 B    1.153    70 B    0.225
    83   5 B    3.321 --    77 B    1.395    89 B    1.169    71 B    0.195
    84   5 B    3.457 --    78 B    1.302    90 B    1.056   114 H    0.684
    85   5 B    3.521 --    79 B    1.155    91 B    1.072   102 B    0.737
                           110 H    0.133
    86   5 B    3.690 --    80 B    1.176    92 B    0.939   103 B    0.704
                           102 B    0.634
    87   5 B    3.664 --    81 B    1.197    93 B    0.951   104 B    0.668
                           103 B    0.651
    88   5 B    3.633 --    82 B    1.153    94 B    0.917   104 B    0.679
                           105 B    0.662
    89   5 B    3.648 --    83 B    1.169    95 B    0.919   105 B    0.682
                           106 B    0.637
    90   5 B    3.623 --    96 B    1.572    84 B    1.056   106 B    0.682
    91   5 B    3.375 --    85 B    1.072   102 B    0.969   111 H    0.870
                            92 B    0.129    79 B    0.101
    92   5 B    3.461 --   103 B    0.991   102 B    0.989    86 B    0.939
                            93 B    0.141    91 B    0.129
    93   5 B    3.478 --   104 B    0.991   103 B    0.974    87 B    0.951
                            92 B    0.141    94 B    0.124
    94   5 B    3.449 --   105 B    1.035   104 B    0.971    88 B    0.917
                            95 B    0.138    93 B    0.124
    95   5 B    3.483 --   106 B    0.996   105 B    0.937    89 B    0.919
                            96 B    0.200    94 B    0.138
    96   5 B    3.160 --    90 B    1.572   106 B    1.118    95 B    0.200
    97   5 B    3.633 --    55 B    1.029    56 B    0.940    61 B    0.749
                            62 B    0.611     8 N    0.100
    98   5 B    3.646 --    57 B    1.018    56 B    0.996    63 B    0.690
                            62 B    0.676
    99   5 B    3.591 --    57 B    0.984    58 B    0.979    63 B    0.690
                            64 B    0.661
   100   5 B    3.605 --    58 B    1.022    59 B    0.967    65 B    0.672
                            64 B    0.666
   101   5 B    3.593 --    60 B    1.068    59 B    0.957    66 B    0.695
                            65 B    0.655
   102   5 B    3.613 --    92 B    0.989    91 B    0.969    85 B    0.737
                            86 B    0.634
   103   5 B    3.609 --    92 B    0.991    93 B    0.974    86 B    0.704
                            87 B    0.651
   104   5 B    3.589 --    93 B    0.991    94 B    0.971    88 B    0.679
                            87 B    0.668
   105   5 B    3.607 --    94 B    1.035    95 B    0.937    89 B    0.682
                            88 B    0.662
   106   5 B    3.619 --    96 B    1.118    95 B    0.996    90 B    0.682
                            89 B    0.637
   107   5 B    3.408 --    74 B    0.862    73 B    0.827     7 N    0.446
                            68 B    0.195    79 B    0.184    80 B    0.181
                            67 B    0.155    52 H    0.118    33 C    0.107
   108   1 H    0.982 --    55 B    0.853    61 B    0.102
   109   1 H    0.988 --    67 B    0.694    61 B    0.119    73 B    0.117
   110   1 H    0.980 --    79 B    0.662    85 B    0.133    73 B    0.126
   111   1 H    0.984 --    91 B    0.870
   112   1 H    0.988 --    60 B    0.859    66 B    0.101
   113   1 H    0.983 --    72 B    0.656    66 B    0.153    78 B    0.135
   114   1 H    0.971 --    84 B    0.684    78 B    0.163
 ---------------------------------------------------------------------------

Topologies differ in total number of bonds
Writing topology from bond orders to xtbtopo.mol

molecular dipole:
                 x           y           z       tot (Debye)
 q only:       -2.212      -0.850     -11.334
   full:       -1.727      -0.675      -6.831      17.992
molecular quadrupole (traceless):
                xx          xy          yy          xz          yz          zz
 q only:      -64.571      10.851     119.218       4.423     -18.042     -54.648
  q+dip:      -16.952       1.852     119.891     -44.533     -28.350    -102.939
   full:      -24.884       1.323      91.189     -46.436     -29.023     -66.305


           -------------------------------------------------
          | TOTAL ENERGY             -166.299922416524 Eh   |
          | GRADIENT NORM               2.787591435924 Eh/α |
          | HOMO-LUMO GAP               0.033980232767 eV   |
           -------------------------------------------------

------------------------------------------------------------------------
 * finished run on 2026/08/31 at 20:20:32.120     
------------------------------------------------------------------------
 total:
 * wall-time:     0 d,  0 h,  0 min,  2.884 sec
 *  cpu-time:     0 d,  0 h,  0 min, 24.312 sec
 * ratio c/w:     8.430 speedup
 SCF:
 * wall-time:     0 d,  0 h,  0 min,  2.828 sec
 *  cpu-time:     0 d,  0 h,  0 min, 23.938 sec
 * ratio c/w:     8.464 speedup

normal termination of xtb
