      -----------------------------------------------------------      
     |                   =====================                   |     
     |                           x T B                           |     
     |                   =====================                   |     
     |                         S. Grimme                         |     
     |          Mulliken Center for Theoretical Chemistry        |     
     |                    University of Bonn                     |     
      -----------------------------------------------------------      

   * xtb version 6.7.1pre (5071a88) compiled by 'Marcel@Raven' on 2024-07-23

   xtb is free software: you can redistribute it and/or modify it under
   the terms of the GNU Lesser General Public License as published by
   the Free Software Foundation, either version 3 of the License, or
   (at your option) any later version.
   
   xtb is distributed in the hope that it will be useful,
   but WITHOUT ANY WARRANTY; without even the implied warranty of
   MERCHANTABILITY or FITNESS FOR A PARTICULAR PURPOSE.  See the
   GNU Lesser General Public License for more details.
   
   Cite this work as:
   * C. Bannwarth, E. Caldeweyher, S. Ehlert, A. Hansen, P. Pracht,
     J. Seibert, S. Spicher, S. Grimme, WIREs Comput. Mol. Sci., 2020, 11,
     e01493. DOI: 10.1002/wcms.1493
   
   for GFN2-xTB:
   * C. Bannwarth, S. Ehlert and S. Grimme., J. Chem. Theory Comput., 2019,
     15, 1652-1671. DOI: 10.1021/acs.jctc.8b01176
   for GFN1-xTB:
   * S. Grimme, C. Bannwarth, P. Shushkov, J. Chem. Theory Comput., 2017,
     13, 1989-2009. DOI: 10.1021/acs.jctc.7b00118
   for GFN0-xTB:
   * P. Pracht, E. Caldeweyher, S. Ehlert, S. Grimme, ChemRxiv, 2019, preprint.
     DOI: 10.26434/chemrxiv.8326202.v1
   for GFN-FF:
   * S. Spicher and S. Grimme, Angew. Chem. Int. Ed., 2020, 59, 15665-15673.
     DOI: 10.1002/anie.202004239
   
   for ALPB and GBSA implicit solvation:
   * S. Ehlert, M. Stahn, S. Spicher, S. Grimme, J. Chem. Theory Comput.,
     2021, 17, 4250-4261. DOI: 10.1021/acs.jctc.1c00471
   
   for ddCOSMO and CPCM-X implicit solvation:
   * M. Stahn, S. Ehlert, S. Grimme, J. Phys. Chem. A,
     2023, XX, XXXX-XXXX. DOI: 10.1021/acs.jpca.3c04382
   
   for DFT-D4:
   * E. Caldeweyher, C. Bannwarth and S. Grimme, J. Chem. Phys., 2017,
     147, 034112. DOI: 10.1063/1.4993215
   * E. Caldeweyher, S. Ehlert, A. Hansen, H. Neugebauer, S. Spicher,
     C. Bannwarth and S. Grimme, J. Chem. Phys., 2019, 150, 154122.
     DOI: 10.1063/1.5090222
   * E. Caldeweyher, J.-M. Mewes, S. Ehlert and S. Grimme, Phys. Chem. Chem. Phys.
     2020, 22, 8499-8512. DOI: 10.1039/D0CP00502A
   
   for sTDA-xTB:
   * S. Grimme and C. Bannwarth, J. Chem. Phys., 2016, 145, 054103.
     DOI: 10.1063/1.4959605
   
   in the mass-spec context:
   * V. Asgeirsson, C. Bauer and S. Grimme, Chem. Sci., 2017, 8, 4879.
     DOI: 10.1039/c7sc00601b
   * J. Koopman and S. Grimme, ACS Omega 2019, 4, 12, 15120-15133.
     DOI: 10.1021/acsomega.9b02011
   
   for metadynamics refer to:
   * S. Grimme, J. Chem. Theory Comput., 2019, 155, 2847-2862
     DOI: 10.1021/acs.jctc.9b00143
   
   for SPH calculations refer to:
   * S. Spicher and S. Grimme, J. Chem. Theory Comput., 2021, 17, 1701-1714
     DOI: 10.1021/acs.jctc.0c01306
   
   for ONIOM refer to:
   * C. Plett, A. Katbashev, S. Ehlert, S. Grimme, M. Bursch,
     Phys. Chem. Chem. Phys., 2023, 25, 17860-17868. DOI: 10.1039/D3CP02178E
   
   for DIPRO refer to:
   * J. Kohn, N. Gildemeister, S. Grimme, D. Fazzi, A. Hansen,
     J. Chem. Phys., 2023, just accepted.
   
   for PTB refer to:
   * S. Grimme, M. Mueller, A. Hansen, J. Chem. Phys., 2023, 158, 124111.
     DOI: 10.1063/5.0137838
   
   with help from (in alphabetical order)
   P. Atkinson, C. Bannwarth, F. Bohle, G. Brandenburg, E. Caldeweyher
   M. Checinski, S. Dohm, S. Ehlert, S. Ehrlich, I. Gerasimov, C. Hölzer
   A. Katbashev, J. Kohn, J. Koopman, C. Lavigne, S. Lehtola, F. März, M. Müller,
   F. Musil, H. Neugebauer, J. Pisarek, C. Plett, P. Pracht, F. Pultar,
   J. Seibert, P. Shushkov, S. Spicher, M. Stahn, M. Steiner, T. Strunk,
   J. Stückrath, T. Rose, and J. Unsleber
   
 * started run on 2026/08/31 at 20:19:56.471     
   ID    Z sym.   atoms
    1    8 O      1, 3, 23, 24, 26, 36
    2    6 C      2, 4-6, 9-16, 19-22, 25, 27-35
    3    7 N      7, 8, 17, 18
    4    1 H      37-54

           -------------------------------------------------
          |                Calculation Setup                |
           -------------------------------------------------

          program call               : "c:\Users\Andre\Proyectos doctorado\kras-pancreatic-gC3N4-ai\tools\xtb\xtb-6.7.1\bin\xtb.exe" "c:\Users\Andre\Proyectos doctorado\borophene-alzheimer-tau-ai\calculations\tau\Chrysamine_G\Chrysamine_G_drug.xyz" --gfn 2 --sp --chrg 0 --uhf 0 --iterations 500 --norestart
          coordinate file            : c:\Users\Andre\Proyectos doctorado\borophene-alzheimer-tau-ai\calculations\tau\Chrysamine_G\Chrysamine_G_drug.xyz
          omp threads                :                    16


           -------------------------------------------------
          |                 G F N 2 - x T B                 |
           -------------------------------------------------

        Reference                      10.1021/acs.jctc.8b01176
      * Hamiltonian:
        H0-scaling (s, p, d)           1.850000    2.230000    2.230000
        zeta-weighting                 0.500000
      * Dispersion:
        s8                             2.700000
        a1                             0.520000
        a2                             5.000000
        s9                             5.000000
      * Repulsion:
        kExp                           1.500000    1.000000
        rExp                           1.000000
      * Coulomb:
        alpha                          2.000000
        third order                    shell-resolved
        anisotropic                    true
        a3                             3.000000
        a5                             4.000000
        cn-shift                       1.200000
        cn-exp                         4.000000
        max-rad                        5.000000


          ...................................................
          :                      SETUP                      :
          :.................................................:
          :  # basis functions                 162          :
          :  # atomic orbitals                 162          :
          :  # shells                           90          :
          :  # electrons                       178          :
          :  max. iterations                   500          :
          :  Hamiltonian                  GFN2-xTB          :
          :  restarted?                      false          :
          :  GBSA solvation                  false          :
          :  PC potential                    false          :
          :  electronic temp.          300.0000000     K    :
          :  accuracy                    1.0000000          :
          :  -> integral cutoff          0.2500000E+02      :
          :  -> integral neglect         0.1000000E-07      :
          :  -> SCF convergence          0.1000000E-05 Eh   :
          :  -> wf. convergence          0.1000000E-03 e    :
          :  Broyden damping             0.4000000          :
          :  net charge                          0          :
          :  unpaired electrons                  0          :
          ...................................................

 iter      E             dE          RMSdq      gap      omega  full diag
   1   -102.0752759 -0.102075E+03  0.480E+00    1.90       0.0  T
   2   -102.1692191 -0.939432E-01  0.278E+00    1.78       1.0  T
   3   -102.1615351  0.768396E-02  0.114E+00    1.36       1.0  T
   4   -102.1810848 -0.195497E-01  0.241E-01    1.15       1.0  T
   5   -102.1825935 -0.150875E-02  0.113E-01    1.16       1.0  T
   6   -102.1829751 -0.381540E-03  0.429E-02    1.17       1.0  T
   7   -102.1829968 -0.217708E-04  0.200E-02    1.17       1.0  T
   8   -102.1830100 -0.131782E-04  0.916E-03    1.18       1.5  T
   9   -102.1830119 -0.186182E-05  0.321E-03    1.18       4.2  T
  10   -102.1830120 -0.125876E-06  0.153E-03    1.18       8.9  T
  11   -102.1830121 -0.487519E-07  0.573E-04    1.18      23.8  T
  12   -102.1830121 -0.248789E-08  0.271E-04    1.18      50.2  T

   *** convergence criteria satisfied after 12 iterations ***

         #    Occupation            Energy/Eh            Energy/eV
      -------------------------------------------------------------
         1        2.0000           -0.7599101             -20.6782
       ...           ...                  ...                  ...
        83        2.0000           -0.4187876             -11.3958
        84        2.0000           -0.4159294             -11.3180
        85        2.0000           -0.4077633             -11.0958
        86        2.0000           -0.4015686             -10.9272
        87        2.0000           -0.3954934             -10.7619
        88        2.0000           -0.3765769             -10.2472
        89        2.0000           -0.3617423              -9.8435 (HOMO)
        90                         -0.3184573              -8.6657 (LUMO)
        91                         -0.3120909              -8.4924
        92                         -0.2934621              -7.9855
        93                         -0.2892135              -7.8699
        94                         -0.2515584              -6.8453
       ...                                ...                  ...
       162                          0.6411095              17.4455
      -------------------------------------------------------------
                  HL-Gap            0.0432850 Eh            1.1778 eV
             Fermi-level           -0.3401004 Eh           -9.2546 eV

 SCC (total)                   0 d,  0 h,  0 min,  0.057 sec
 SCC setup                      ...        0 min,  0.001 sec (  1.754%)
 Dispersion                     ...        0 min,  0.000 sec (  0.000%)
 classical contributions        ...        0 min,  0.000 sec (  0.000%)
 integral evaluation            ...        0 min,  0.002 sec (  3.509%)
 iterations                     ...        0 min,  0.048 sec ( 84.210%)
 molecular gradient             ...        0 min,  0.005 sec (  8.772%)
 printout                       ...        0 min,  0.001 sec (  1.754%)

         :::::::::::::::::::::::::::::::::::::::::::::::::::::
         ::                     SUMMARY                     ::
         :::::::::::::::::::::::::::::::::::::::::::::::::::::
         :: total energy            -100.847161315230 Eh    ::
         :: gradient norm              0.118454918390 Eh/a0 ::
         :: HOMO-LUMO gap              1.177843862973 eV    ::
         ::.................................................::
         :: SCC energy              -102.182581811955 Eh    ::
         :: -> isotropic ES            0.140874146312 Eh    ::
         :: -> anisotropic ES          0.002972193007 Eh    ::
         :: -> anisotropic XC          0.059497382985 Eh    ::
         :: -> dispersion             -0.063132845483 Eh    ::
         :: repulsion energy           1.335420496725 Eh    ::
         :: add. restraining           0.000000000000 Eh    ::
         :: total charge              -0.000000000000 e     ::
         :::::::::::::::::::::::::::::::::::::::::::::::::::::

           -------------------------------------------------
          |                Property Printout                |
           -------------------------------------------------

    * Orbital Energies and Occupations

         #    Occupation            Energy/Eh            Energy/eV
      -------------------------------------------------------------
         1        2.0000           -0.7599101             -20.6782
       ...           ...                  ...                  ...
        77        2.0000           -0.4370309             -11.8922
        78        2.0000           -0.4343233             -11.8185
        79        2.0000           -0.4310380             -11.7291
        80        2.0000           -0.4292773             -11.6812
        81        2.0000           -0.4264264             -11.6037
        82        2.0000           -0.4205105             -11.4427
        83        2.0000           -0.4187876             -11.3958
        84        2.0000           -0.4159294             -11.3180
        85        2.0000           -0.4077633             -11.0958
        86        2.0000           -0.4015686             -10.9272
        87        2.0000           -0.3954934             -10.7619
        88        2.0000           -0.3765769             -10.2472
        89        2.0000           -0.3617423              -9.8435 (HOMO)
        90                         -0.3184573              -8.6657 (LUMO)
        91                         -0.3120909              -8.4924
        92                         -0.2934621              -7.9855
        93                         -0.2892135              -7.8699
        94                         -0.2515584              -6.8453
        95                         -0.2443222              -6.6483
        96                         -0.2407723              -6.5517
        97                         -0.2403046              -6.5390
        98                         -0.2340561              -6.3690
        99                         -0.2163911              -5.8883
       100                         -0.2102687              -5.7217
       ...                                ...                  ...
       162                          0.6411095              17.4455
      -------------------------------------------------------------
                  HL-Gap            0.0432850 Eh            1.1778 eV
             Fermi-level           -0.3401004 Eh           -9.2546 eV

     #   Z          covCN         q      C6AA      α(0)
     1   8 O        0.856    -0.443    22.563     6.369
     2   6 C        2.696     0.354    20.982     7.497
     3   8 O        1.658    -0.372    20.306     6.083
     4   6 C        2.963    -0.056    29.377     8.890
     5   6 C        2.918    -0.033    28.833     8.805
     6   6 C        2.911     0.059    26.673     8.469
     7   7 N        1.916    -0.072    23.380     7.169
     8   7 N        1.916    -0.070    23.342     7.163
     9   6 C        2.912     0.064    26.563     8.451
    10   6 C        2.914    -0.040    28.991     8.829
    11   6 C        2.915    -0.033    28.824     8.804
    12   6 C        2.966     0.009    27.807     8.650
    13   6 C        2.965     0.012    27.751     8.641
    14   6 C        2.915    -0.033    28.822     8.804
    15   6 C        2.915    -0.037    28.917     8.818
    16   6 C        2.978     0.073    26.358     8.422
    17   7 N        1.988    -0.096    23.836     7.241
    18   7 N        1.984    -0.096    23.828     7.239
    19   6 C        2.983     0.068    26.481     8.441
    20   6 C        2.919    -0.031    28.785     8.798
    21   6 C        2.963    -0.054    29.348     8.886
    22   6 C        2.696     0.355    20.980     7.497
    23   8 O        0.856    -0.444    22.578     6.371
    24   8 O        1.658    -0.371    20.296     6.082
    25   6 C        2.845     0.158    24.573     8.124
    26   8 O        1.657    -0.387    20.601     6.127
    27   6 C        2.910    -0.049    29.222     8.864
    28   6 C        2.916    -0.029    28.720     8.788
    29   6 C        2.913    -0.035    28.873     8.811
    30   6 C        2.915    -0.033    28.827     8.804
    31   6 C        2.915    -0.033    28.832     8.805
    32   6 C        2.914    -0.040    28.986     8.828
    33   6 C        2.917    -0.031    28.781     8.797
    34   6 C        2.910    -0.050    29.229     8.865
    35   6 C        2.845     0.157    24.606     8.130
    36   8 O        1.657    -0.388    20.627     6.131
    37   1 H        0.803     0.336     0.621     1.238
    38   1 H        0.925     0.064     2.151     2.294
    39   1 H        0.925     0.037     2.489     2.467
    40   1 H        0.925     0.041     2.437     2.441
    41   1 H        0.925     0.040     2.449     2.447
    42   1 H        0.925     0.043     2.403     2.424
    43   1 H        0.925     0.069     2.097     2.265
    44   1 H        0.803     0.336     0.623     1.240
    45   1 H        0.803     0.338     0.617     1.234
    46   1 H        0.925     0.070     2.086     2.259
    47   1 H        0.925     0.054     2.273     2.357
    48   1 H        0.925     0.041     2.436     2.441
    49   1 H        0.925     0.039     2.465     2.455
    50   1 H        0.925     0.040     2.449     2.447
    51   1 H        0.925     0.039     2.466     2.456
    52   1 H        0.925     0.053     2.280     2.361
    53   1 H        0.925     0.070     2.081     2.256
    54   1 H        0.803     0.338     0.617     1.234

 Mol. C6AA /au·bohr⁶  :      43020.699879
 Mol. C8AA /au·bohr⁸  :    1064178.050397
 Mol. α(0) /au        :        327.809065


Wiberg/Mayer (AO) data.
largest (>0.10) Wiberg bond orders for each atom

 ---------------------------------------------------------------------------
     #   Z sym  total        # sym  WBO       # sym  WBO       # sym  WBO
 ---------------------------------------------------------------------------
     1   8 O    2.028 --     2 C    1.668     3 O    0.159
     2   6 C    3.914 --     1 O    1.668     3 O    1.135     4 C    1.045
     3   8 O    2.203 --     2 C    1.135    37 H    0.862     1 O    0.159
     4   6 C    3.980 --     5 C    1.366    35 C    1.304     2 C    1.045
     5   6 C    3.987 --     6 C    1.390     4 C    1.366    38 H    0.965
                            34 C    0.110
     6   6 C    3.979 --     5 C    1.390    33 C    1.337     7 N    1.073
     7   7 N    3.149 --     8 N    1.846     6 C    1.073
     8   7 N    3.147 --     7 N    1.846     9 C    1.075
     9   6 C    3.973 --    10 C    1.360    32 C    1.360     8 N    1.075
    10   6 C    3.987 --    11 C    1.449     9 C    1.360    39 H    0.970
                            31 C    0.107
    11   6 C    3.987 --    10 C    1.449    12 C    1.389    40 H    0.968
                            32 C    0.108
    12   6 C    3.988 --    11 C    1.389    31 C    1.388    13 C    1.039
    13   6 C    3.985 --    30 C    1.388    14 C    1.384    12 C    1.039
    14   6 C    3.988 --    15 C    1.456    13 C    1.384    41 H    0.968
                            29 C    0.104
    15   6 C    3.985 --    14 C    1.456    16 C    1.360    42 H    0.969
                            30 C    0.106
    16   6 C    3.972 --    15 C    1.360    29 C    1.358    17 N    1.086
    17   7 N    3.084 --    18 N    1.794    16 C    1.086
    18   7 N    3.090 --    17 N    1.794    19 C    1.079
    19   6 C    3.978 --    20 C    1.391    28 C    1.337    18 N    1.079
    20   6 C    3.985 --    19 C    1.391    21 C    1.372    43 H    0.965
                            27 C    0.109
    21   6 C    3.979 --    20 C    1.372    25 C    1.299    22 C    1.046
    22   6 C    3.914 --    23 O    1.668    24 O    1.135    21 C    1.046
    23   8 O    2.027 --    22 C    1.668    24 O    0.159
    24   8 O    2.204 --    22 C    1.135    44 H    0.863    23 O    0.159
    25   6 C    3.947 --    27 C    1.354    21 C    1.299    26 O    1.125
    26   8 O    2.152 --    25 C    1.125    45 H    0.826
    27   6 C    3.985 --    28 C    1.468    25 C    1.354    46 H    0.964
                            20 C    0.109
    28   6 C    3.984 --    27 C    1.468    19 C    1.337    47 H    0.968
    29   6 C    3.986 --    30 C    1.454    16 C    1.358    48 H    0.968
                            14 C    0.104
    30   6 C    3.988 --    29 C    1.454    13 C    1.388    49 H    0.968
                            15 C    0.106
    31   6 C    3.987 --    32 C    1.450    12 C    1.388    50 H    0.968
                            10 C    0.107
    32   6 C    3.987 --    31 C    1.450     9 C    1.360    51 H    0.970
                            11 C    0.108
    33   6 C    3.989 --    34 C    1.466     6 C    1.337    52 H    0.969
    34   6 C    3.986 --    33 C    1.466    35 C    1.354    53 H    0.963
                             5 C    0.110
    35   6 C    3.950 --    34 C    1.354     4 C    1.304    36 O    1.123
    36   8 O    2.152 --    35 C    1.123    54 H    0.826
    37   1 H    0.886 --     3 O    0.862
    38   1 H    0.996 --     5 C    0.965
    39   1 H    0.998 --    10 C    0.970
    40   1 H    0.998 --    11 C    0.968
    41   1 H    0.997 --    14 C    0.968
    42   1 H    0.997 --    15 C    0.969
    43   1 H    0.995 --    20 C    0.965
    44   1 H    0.887 --    24 O    0.863
    45   1 H    0.886 --    26 O    0.826
    46   1 H    0.994 --    27 C    0.964
    47   1 H    0.997 --    28 C    0.968
    48   1 H    0.998 --    29 C    0.968
    49   1 H    0.998 --    30 C    0.968
    50   1 H    0.996 --    31 C    0.968
    51   1 H    0.998 --    32 C    0.970
    52   1 H    0.997 --    33 C    0.969
    53   1 H    0.992 --    34 C    0.963
    54   1 H    0.886 --    36 O    0.826
 ---------------------------------------------------------------------------

Topologies differ in total number of bonds
Writing topology from bond orders to xtbtopo.mol

molecular dipole:
                 x           y           z       tot (Debye)
 q only:       -0.531      -0.641      -0.507
   full:       -0.188      -0.736      -0.200       1.996
molecular quadrupole (traceless):
                xx          xy          yy          xz          yz          zz
 q only:      -22.512      -0.173       9.465     -12.572      -7.292      13.047
  q+dip:      -21.454      -7.385       8.273     -29.193     -12.277      13.181
   full:      -21.488      -8.409       8.106     -31.345     -12.690      13.382


           -------------------------------------------------
          | TOTAL ENERGY             -100.847161315230 Eh   |
          | GRADIENT NORM               0.118454918390 Eh/α |
          | HOMO-LUMO GAP               1.177843862973 eV   |
           -------------------------------------------------

------------------------------------------------------------------------
 * finished run on 2026/08/31 at 20:19:56.560     
------------------------------------------------------------------------
 total:
 * wall-time:     0 d,  0 h,  0 min,  0.088 sec
 *  cpu-time:     0 d,  0 h,  0 min,  1.062 sec
 * ratio c/w:    12.074 speedup
 SCF:
 * wall-time:     0 d,  0 h,  0 min,  0.057 sec
 *  cpu-time:     0 d,  0 h,  0 min,  0.828 sec
 * ratio c/w:    14.529 speedup

normal termination of xtb
