      -----------------------------------------------------------      
     |                   =====================                   |     
     |                           x T B                           |     
     |                   =====================                   |     
     |                         S. Grimme                         |     
     |          Mulliken Center for Theoretical Chemistry        |     
     |                    University of Bonn                     |     
      -----------------------------------------------------------      

   * xtb version 6.7.1pre (5071a88) compiled by 'Marcel@Raven' on 2024-07-23

   xtb is free software: you can redistribute it and/or modify it under
   the terms of the GNU Lesser General Public License as published by
   the Free Software Foundation, either version 3 of the License, or
   (at your option) any later version.
   
   xtb is distributed in the hope that it will be useful,
   but WITHOUT ANY WARRANTY; without even the implied warranty of
   MERCHANTABILITY or FITNESS FOR A PARTICULAR PURPOSE.  See the
   GNU Lesser General Public License for more details.
   
   Cite this work as:
   * C. Bannwarth, E. Caldeweyher, S. Ehlert, A. Hansen, P. Pracht,
     J. Seibert, S. Spicher, S. Grimme, WIREs Comput. Mol. Sci., 2020, 11,
     e01493. DOI: 10.1002/wcms.1493
   
   for GFN2-xTB:
   * C. Bannwarth, S. Ehlert and S. Grimme., J. Chem. Theory Comput., 2019,
     15, 1652-1671. DOI: 10.1021/acs.jctc.8b01176
   for GFN1-xTB:
   * S. Grimme, C. Bannwarth, P. Shushkov, J. Chem. Theory Comput., 2017,
     13, 1989-2009. DOI: 10.1021/acs.jctc.7b00118
   for GFN0-xTB:
   * P. Pracht, E. Caldeweyher, S. Ehlert, S. Grimme, ChemRxiv, 2019, preprint.
     DOI: 10.26434/chemrxiv.8326202.v1
   for GFN-FF:
   * S. Spicher and S. Grimme, Angew. Chem. Int. Ed., 2020, 59, 15665-15673.
     DOI: 10.1002/anie.202004239
   
   for ALPB and GBSA implicit solvation:
   * S. Ehlert, M. Stahn, S. Spicher, S. Grimme, J. Chem. Theory Comput.,
     2021, 17, 4250-4261. DOI: 10.1021/acs.jctc.1c00471
   
   for ddCOSMO and CPCM-X implicit solvation:
   * M. Stahn, S. Ehlert, S. Grimme, J. Phys. Chem. A,
     2023, XX, XXXX-XXXX. DOI: 10.1021/acs.jpca.3c04382
   
   for DFT-D4:
   * E. Caldeweyher, C. Bannwarth and S. Grimme, J. Chem. Phys., 2017,
     147, 034112. DOI: 10.1063/1.4993215
   * E. Caldeweyher, S. Ehlert, A. Hansen, H. Neugebauer, S. Spicher,
     C. Bannwarth and S. Grimme, J. Chem. Phys., 2019, 150, 154122.
     DOI: 10.1063/1.5090222
   * E. Caldeweyher, J.-M. Mewes, S. Ehlert and S. Grimme, Phys. Chem. Chem. Phys.
     2020, 22, 8499-8512. DOI: 10.1039/D0CP00502A
   
   for sTDA-xTB:
   * S. Grimme and C. Bannwarth, J. Chem. Phys., 2016, 145, 054103.
     DOI: 10.1063/1.4959605
   
   in the mass-spec context:
   * V. Asgeirsson, C. Bauer and S. Grimme, Chem. Sci., 2017, 8, 4879.
     DOI: 10.1039/c7sc00601b
   * J. Koopman and S. Grimme, ACS Omega 2019, 4, 12, 15120-15133.
     DOI: 10.1021/acsomega.9b02011
   
   for metadynamics refer to:
   * S. Grimme, J. Chem. Theory Comput., 2019, 155, 2847-2862
     DOI: 10.1021/acs.jctc.9b00143
   
   for SPH calculations refer to:
   * S. Spicher and S. Grimme, J. Chem. Theory Comput., 2021, 17, 1701-1714
     DOI: 10.1021/acs.jctc.0c01306
   
   for ONIOM refer to:
   * C. Plett, A. Katbashev, S. Ehlert, S. Grimme, M. Bursch,
     Phys. Chem. Chem. Phys., 2023, 25, 17860-17868. DOI: 10.1039/D3CP02178E
   
   for DIPRO refer to:
   * J. Kohn, N. Gildemeister, S. Grimme, D. Fazzi, A. Hansen,
     J. Chem. Phys., 2023, just accepted.
   
   for PTB refer to:
   * S. Grimme, M. Mueller, A. Hansen, J. Chem. Phys., 2023, 158, 124111.
     DOI: 10.1063/5.0137838
   
   with help from (in alphabetical order)
   P. Atkinson, C. Bannwarth, F. Bohle, G. Brandenburg, E. Caldeweyher
   M. Checinski, S. Dohm, S. Ehlert, S. Ehrlich, I. Gerasimov, C. Hölzer
   A. Katbashev, J. Kohn, J. Koopman, C. Lavigne, S. Lehtola, F. März, M. Müller,
   F. Musil, H. Neugebauer, J. Pisarek, C. Plett, P. Pracht, F. Pultar,
   J. Seibert, P. Shushkov, S. Spicher, M. Stahn, M. Steiner, T. Strunk,
   J. Stückrath, T. Rose, and J. Unsleber
   
 * started run on 2026/09/01 at 20:28:46.312     
   ID    Z sym.   atoms
    1    6 C      1-7, 10-26
    2    8 O      8, 9
    3    1 H      27-54, 95-109
    4    5 B      55-94

           -------------------------------------------------
          |                Calculation Setup                |
           -------------------------------------------------

          program call               : "c:\Users\Andre\Proyectos doctorado\nano-qsar-ai-papers\kras-pancreatic-gC3N4-ai\tools\xtb\xtb-6.7.1\bin\xtb.exe" "c:\Users\Andre\Proyectos doctorado\borophene-alzheimer-tau-ai\calculations\tau\Bexarotene\Bexarotene_B40H15_clean_complex.xyz" --gfn 2 --sp --chrg 0 --uhf 0 --iterations 500 --norestart
          coordinate file            : c:\Users\Andre\Proyectos doctorado\borophene-alzheimer-tau-ai\calculations\tau\Bexarotene\Bexarotene_B40H15_clean_complex.xyz
          omp threads                :                    16


molecular fragmentation (1/2 indicates fragments):
111111111111111111111111111111111111111111111111111111222222222222222222
2222222222222222222222222222222222222
# atoms in fragment 1/2:    54    55
 fragment masses (1/2) :      348.48      447.56
CMA distance (Bohr)    :  17.390
constraining FC (au)   :  0.0500

           -------------------------------------------------
          |                 G F N 2 - x T B                 |
           -------------------------------------------------

        Reference                      10.1021/acs.jctc.8b01176
      * Hamiltonian:
        H0-scaling (s, p, d)           1.850000    2.230000    2.230000
        zeta-weighting                 0.500000
      * Dispersion:
        s8                             2.700000
        a1                             0.520000
        a2                             5.000000
        s9                             5.000000
      * Repulsion:
        kExp                           1.500000    1.000000
        rExp                           1.000000
      * Coulomb:
        alpha                          2.000000
        third order                    shell-resolved
        anisotropic                    true
        a3                             3.000000
        a5                             4.000000
        cn-shift                       1.200000
        cn-exp                         4.000000
        max-rad                        5.000000


          ...................................................
          :                      SETUP                      :
          :.................................................:
          :  # basis functions                 307          :
          :  # atomic orbitals                 307          :
          :  # shells                          175          :
          :  # electrons                       271          :
          :  max. iterations                   500          :
          :  Hamiltonian                  GFN2-xTB          :
          :  restarted?                      false          :
          :  GBSA solvation                  false          :
          :  PC potential                    false          :
          :  electronic temp.          300.0000000     K    :
          :  accuracy                    1.0000000          :
          :  -> integral cutoff          0.2500000E+02      :
          :  -> integral neglect         0.1000000E-07      :
          :  -> SCF convergence          0.1000000E-05 Eh   :
          :  -> wf. convergence          0.1000000E-03 e    :
          :  Broyden damping             0.4000000          :
          :  net charge                          0          :
          :  unpaired electrons                  0          :
          ...................................................

 iter      E             dE          RMSdq      gap      omega  full diag
   1   -131.0105906 -0.131011E+03  0.123E+01    0.28       0.0  T
   2   -129.7941389  0.121645E+01  0.822E+00    0.35       1.0  T
   3    -84.2969702  0.454972E+02  0.120E+01    0.20       1.0  T
   4    -79.7821048  0.451487E+01  0.102E+01    0.07       1.0  T
   5   -114.3071473 -0.345250E+02  0.581E+00    0.12       1.0  T
   6   -124.0074691 -0.970032E+01  0.494E+00    0.01       1.0  T
   7   -129.8853046 -0.587784E+01  0.283E+00    0.11       1.0  T
   8   -131.4624893 -0.157718E+01  0.197E+00    0.18       1.0  T
   9   -131.8513058 -0.388817E+00  0.155E+00    0.49       1.0  T
  10   -131.8873136 -0.360078E-01  0.135E+00    0.29       1.0  T
  11   -131.8593411  0.279725E-01  0.113E+00    0.19       1.0  T
  12   -131.6478883  0.211453E+00  0.107E+00    0.26       1.0  T
  13   -131.9016064 -0.253718E+00  0.508E-01    0.39       1.0  T
  14   -131.9161386 -0.145321E-01  0.505E-01    0.10       1.0  T
  15   -131.9035794  0.125592E-01  0.483E-01    0.02       1.0  T
  16   -131.9180558 -0.144764E-01  0.367E-01    0.08       1.0  T
  17   -131.9193429 -0.128716E-02  0.280E-01    0.06       1.0  T
  18   -131.9213175 -0.197460E-02  0.223E-01    0.08       1.0  T
  19   -131.9215095 -0.191942E-03  0.170E-01    0.08       1.0  T
  20   -131.9218186 -0.309124E-03  0.130E-01    0.09       1.0  T
  21   -131.9220214 -0.202805E-03  0.861E-02    0.09       1.0  T
  22   -131.9221774 -0.156009E-03  0.660E-02    0.09       1.0  T
  23   -131.9223629 -0.185547E-03  0.362E-02    0.09       1.0  T
  24   -131.9224239 -0.609843E-04  0.226E-02    0.09       1.0  T
  25   -131.9224401 -0.161824E-04  0.172E-02    0.09       1.0  T
  26   -131.9224481 -0.801506E-05  0.120E-02    0.08       1.0  T
  27   -131.9224650 -0.169253E-04  0.569E-03    0.09       1.7  T
  28   -131.9224691 -0.402216E-05  0.290E-03    0.09       3.3  T
  29   -131.9224700 -0.952160E-06  0.196E-03    0.09       4.9  T
  30   -131.9224704 -0.350927E-06  0.158E-03    0.09       6.1  T
  31   -131.9224708 -0.427839E-06  0.808E-04    0.09      11.9  T
  32   -131.9224709 -0.747388E-07  0.499E-04    0.09      19.2  T

   *** convergence criteria satisfied after 32 iterations ***

         #    Occupation            Energy/Eh            Energy/eV
      -------------------------------------------------------------
         1        2.0000           -0.7210518             -19.6208
       ...           ...                  ...                  ...
       130        2.0000           -0.2965360              -8.0692
       131        2.0000           -0.2905156              -7.9053
       132        2.0000           -0.2876315              -7.8269
       133        2.0000           -0.2844161              -7.7394
       134        2.0000           -0.2793316              -7.6010
       135        1.9992           -0.2761089              -7.5133
       136        0.8472           -0.2625916              -7.1455 (HOMO)
       137        0.1537           -0.2593497              -7.0573 (LUMO)
       138        0.0000           -0.2470322              -6.7221
       139                         -0.2296043              -6.2479
       140                         -0.2227289              -6.0608
       141                         -0.2205304              -6.0009
       ...                                ...                  ...
       307                          1.0664180              29.0187
      -------------------------------------------------------------
                  HL-Gap            0.0032419 Eh            0.0882 eV
             Fermi-level           -0.2651603 Eh           -7.2154 eV

 SCC (total)                   0 d,  0 h,  0 min,  0.479 sec
 SCC setup                      ...        0 min,  0.001 sec (  0.209%)
 Dispersion                     ...        0 min,  0.003 sec (  0.626%)
 classical contributions        ...        0 min,  0.000 sec (  0.000%)
 integral evaluation            ...        0 min,  0.005 sec (  1.044%)
 iterations                     ...        0 min,  0.446 sec ( 93.111%)
 molecular gradient             ...        0 min,  0.020 sec (  4.175%)
 printout                       ...        0 min,  0.004 sec (  0.835%)

         :::::::::::::::::::::::::::::::::::::::::::::::::::::
         ::                     SUMMARY                     ::
         :::::::::::::::::::::::::::::::::::::::::::::::::::::
         :: total energy            -130.020659030188 Eh    ::
         :: gradient norm              0.067038328544 Eh/a0 ::
         :: HOMO-LUMO gap              0.088216157133 eV    ::
         ::.................................................::
         :: SCC energy              -131.919769338292 Eh    ::
         :: -> isotropic ES            0.263951723941 Eh    ::
         :: -> anisotropic ES          0.019690251223 Eh    ::
         :: -> anisotropic XC          0.020439688498 Eh    ::
         :: -> dispersion             -0.132904748324 Eh    ::
         :: repulsion energy           1.899110308104 Eh    ::
         :: add. restraining           0.000000000000 Eh    ::
         :: total charge              -0.000000000001 e     ::
         :::::::::::::::::::::::::::::::::::::::::::::::::::::

           -------------------------------------------------
          |                Property Printout                |
           -------------------------------------------------

    * Orbital Energies and Occupations

         #    Occupation            Energy/Eh            Energy/eV
      -------------------------------------------------------------
         1        2.0000           -0.7210518             -19.6208
       ...           ...                  ...                  ...
       124        2.0000           -0.3134123              -8.5284
       125        2.0000           -0.3097335              -8.4283
       126        2.0000           -0.3079829              -8.3806
       127        2.0000           -0.3069943              -8.3537
       128        2.0000           -0.3014888              -8.2039
       129        2.0000           -0.2997027              -8.1553
       130        2.0000           -0.2965360              -8.0692
       131        2.0000           -0.2905156              -7.9053
       132        2.0000           -0.2876315              -7.8269
       133        2.0000           -0.2844161              -7.7394
       134        2.0000           -0.2793316              -7.6010
       135        1.9992           -0.2761089              -7.5133
       136        0.8472           -0.2625916              -7.1455 (HOMO)
       137        0.1537           -0.2593497              -7.0573 (LUMO)
       138        0.0000           -0.2470322              -6.7221
       139                         -0.2296043              -6.2479
       140                         -0.2227289              -6.0608
       141                         -0.2205304              -6.0009
       142                         -0.2185924              -5.9482
       143                         -0.2160966              -5.8803
       144                         -0.2130230              -5.7966
       145                         -0.2048047              -5.5730
       146                         -0.2002256              -5.4484
       147                         -0.1992268              -5.4212
       ...                                ...                  ...
       307                          1.0664180              29.0187
      -------------------------------------------------------------
                  HL-Gap            0.0032419 Eh            0.0882 eV
             Fermi-level           -0.2651603 Eh           -7.2154 eV

     #   Z          covCN         q      C6AA      α(0)
     1   6 C        2.854    -0.096    30.418     9.040
     2   6 C        2.950     0.011    27.775     8.644
     3   6 C        2.967     0.017    27.631     8.622
     4   6 C        2.914    -0.035    28.880     8.812
     5   6 C        2.914    -0.027    28.677     8.781
     6   6 C        2.964    -0.026    28.649     8.779
     7   6 C        2.697     0.339    21.238     7.543
     8   8 O        0.856    -0.446    22.633     6.378
     9   8 O        1.658    -0.395    20.747     6.149
    10   6 C        2.911    -0.031    28.767     8.795
    11   6 C        2.915    -0.038    28.942     8.822
    12   6 C        2.975     0.000    28.018     8.683
    13   6 C        2.916    -0.046    29.137     8.852
    14   6 C        2.960    -0.003    28.095     8.694
    15   6 C        2.960    -0.002    28.078     8.691
    16   6 C        2.916    -0.053    29.324     8.880
    17   6 C        2.959     0.006    27.883     8.661
    18   6 C        3.754    -0.106    22.584     6.776
    19   6 C        3.898     0.023    20.133     6.378
    20   6 C        3.754    -0.108    22.624     6.782
    21   6 C        3.755    -0.105    22.569     6.774
    22   6 C        3.808    -0.061    21.672     6.627
    23   6 C        3.808    -0.062    21.683     6.629
    24   6 C        3.898     0.023    20.130     6.378
    25   6 C        3.754    -0.101    22.479     6.761
    26   6 C        3.755    -0.105    22.560     6.773
    27   1 H        0.925     0.031     2.570     2.507
    28   1 H        0.925     0.030     2.580     2.512
    29   1 H        0.925     0.036     2.509     2.477
    30   1 H        0.925     0.053     2.279     2.361
    31   1 H        0.804     0.327     0.646     1.262
    32   1 H        0.925     0.048     2.348     2.396
    33   1 H        0.925     0.034     2.535     2.490
    34   1 H        0.925     0.031     2.571     2.508
    35   1 H        0.925     0.030     2.583     2.514
    36   1 H        0.924     0.042     2.423     2.434
    37   1 H        0.924     0.037     2.493     2.469
    38   1 H        0.924     0.044     2.392     2.419
    39   1 H        0.924     0.035     2.512     2.479
    40   1 H        0.924     0.037     2.485     2.465
    41   1 H        0.924     0.034     2.533     2.489
    42   1 H        0.924     0.031     2.570     2.507
    43   1 H        0.924     0.034     2.528     2.486
    44   1 H        0.924     0.034     2.530     2.487
    45   1 H        0.924     0.029     2.598     2.521
    46   1 H        0.924     0.033     2.543     2.494
    47   1 H        0.924     0.035     2.519     2.482
    48   1 H        0.924     0.029     2.604     2.524
    49   1 H        0.924     0.032     2.557     2.501
    50   1 H        0.924     0.033     2.542     2.493
    51   1 H        0.924     0.034     2.535     2.490
    52   1 H        0.924     0.035     2.519     2.482
    53   1 H        0.924     0.034     2.529     2.487
    54   1 H        0.924     0.031     2.572     2.508
    55   5 B        3.729     0.065    21.472     7.487
    56   5 B        4.543     0.068    21.515     7.474
    57   5 B        3.764     0.031    22.123     7.589
    58   5 B        3.812     0.040    21.986     7.559
    59   5 B        3.866     0.059    21.672     7.502
    60   5 B        4.607     0.025    22.291     7.607
    61   5 B        2.881     0.052    20.524     7.562
    62   5 B        2.866     0.087    19.954     7.457
    63   5 B        4.657     0.032    22.149     7.583
    64   5 B        2.924     0.070    20.203     7.500
    65   5 B        3.820     0.055    21.732     7.515
    66   5 B        3.871     0.022    22.326     7.615
    67   5 B        4.530    -0.004    22.816     7.696
    68   5 B        3.833     0.046    21.886     7.541
    69   5 B        4.711     0.060    21.659     7.499
    70   5 B        4.714     0.047    21.879     7.537
    71   5 B        3.891     0.047    21.878     7.537
    72   5 B        2.930     0.023    21.003     7.647
    73   5 B        4.652     0.018    22.410     7.627
    74   5 B        2.877     0.056    20.456     7.550
    75   5 B        3.828     0.064    21.566     7.486
    76   5 B        3.859     0.022    22.324     7.615
    77   5 B        3.858    -0.007    22.873     7.708
    78   5 B        3.841     0.050    21.821     7.529
    79   5 B        4.594     0.026    22.272     7.604
    80   5 B        5.681     0.106    20.878     7.362
    81   5 B        4.131     0.013    22.502     7.643
    82   5 B        2.924     0.031    20.864     7.622
    83   5 B        5.586     0.062    21.627     7.493
    84   5 B        3.637     0.066    21.103     7.489
    85   5 B        3.826     0.045    21.906     7.545
    86   5 B        3.877     0.031    22.171     7.588
    87   5 B        3.870     0.020    22.370     7.622
    88   5 B        2.915     0.090    19.887     7.442
    89   5 B        3.773     0.075    21.350     7.454
    90   5 B        5.329     0.099    20.989     7.382
    91   5 B        4.732     0.045    21.924     7.544
    92   5 B        3.808     0.014    22.466     7.642
    93   5 B        3.784     0.078    21.315     7.446
    94   5 B        2.896     0.052    20.519     7.560
    95   1 H        0.938    -0.122     6.408     3.958
    96   1 H        1.528     0.030     2.571     2.503
    97   1 H        0.935    -0.148     7.590     4.307
    98   1 H        0.931    -0.139     7.128     4.175
    99   1 H        0.935    -0.124     6.477     3.979
   100   1 H        0.934    -0.123     6.418     3.961
   101   1 H        0.938    -0.109     5.878     3.791
   102   1 H        0.936    -0.138     7.089     4.163
   103   1 H        0.938    -0.094     5.335     3.611
   104   1 H        0.933    -0.153     7.859     4.383
   105   1 H        0.938    -0.100     5.542     3.681
   106   1 H        0.940    -0.135     6.963     4.125
   107   1 H        0.939    -0.113     6.031     3.840
   108   1 H        0.938    -0.115     6.096     3.860
   109   1 H        0.940    -0.143     7.328     4.232

 Mol. C6AA /au·bohr⁶  :     157861.439215
 Mol. C8AA /au·bohr⁸  :    4614604.772334
 Mol. α(0) /au        :        631.374568


Wiberg/Mayer (AO) data.
largest (>0.10) Wiberg bond orders for each atom

 ---------------------------------------------------------------------------
     #   Z sym  total        # sym  WBO       # sym  WBO       # sym  WBO
 ---------------------------------------------------------------------------
     1   6 C    3.959 --     2 C    1.856    28 H    0.978    27 H    0.976
     2   6 C    3.977 --     1 C    1.856     3 C    1.042    12 C    1.008
     3   6 C    3.941 --    11 C    1.370     4 C    1.367     2 C    1.042
     4   6 C    3.981 --     5 C    1.472     3 C    1.367    29 H    0.969
     5   6 C    3.966 --     4 C    1.472     6 C    1.360    30 H    0.967
     6   6 C    3.954 --    10 C    1.362     5 C    1.360     7 C    1.032
     7   6 C    3.869 --     8 O    1.690     9 O    1.100     6 C    1.032
     8   8 O    1.964 --     7 C    1.690     9 O    0.156
     9   8 O    2.160 --     7 C    1.100    31 H    0.868     8 O    0.156
    10   6 C    3.965 --    11 C    1.470     6 C    1.362    32 H    0.968
    11   6 C    3.984 --    10 C    1.470     3 C    1.370    33 H    0.970
    12   6 C    3.985 --    13 C    1.408    17 C    1.369     2 C    1.008
                            15 C    0.100
    13   6 C    3.987 --    12 C    1.408    14 C    1.408    34 H    0.965
                            16 C    0.108
    14   6 C    3.984 --    13 C    1.408    15 C    1.394    24 C    0.983
    15   6 C    3.981 --    16 C    1.407    14 C    1.394    19 C    0.983
                            12 C    0.100
    16   6 C    3.987 --    17 C    1.422    15 C    1.407    35 H    0.964
                            13 C    0.108
    17   6 C    3.986 --    16 C    1.422    12 C    1.369    18 C    1.024
    18   6 C    3.996 --    17 C    1.024    37 H    0.985    36 H    0.977
                            38 H    0.970
    19   6 C    3.990 --    21 C    0.990    20 C    0.986    22 C    0.985
                            15 C    0.983
    20   6 C    3.995 --    19 C    0.986    41 H    0.985    40 H    0.984
                            39 H    0.984
    21   6 C    3.995 --    19 C    0.990    42 H    0.987    44 H    0.985
                            43 H    0.983
    22   6 C    3.996 --    23 C    1.011    19 C    0.985    45 H    0.974
                            46 H    0.973
    23   6 C    3.996 --    22 C    1.011    24 C    0.985    48 H    0.974
                            47 H    0.973
    24   6 C    3.989 --    26 C    0.990    25 C    0.985    23 C    0.985
                            14 C    0.983
    25   6 C    3.995 --    24 C    0.985    51 H    0.985    50 H    0.984
                            49 H    0.984
    26   6 C    3.995 --    24 C    0.990    54 H    0.987    53 H    0.985
                            52 H    0.983
    27   1 H    0.998 --     1 C    0.976
    28   1 H    0.998 --     1 C    0.978
    29   1 H    0.998 --     4 C    0.969
    30   1 H    0.997 --     5 C    0.967
    31   1 H    0.893 --     9 O    0.868
    32   1 H    0.997 --    10 C    0.968
    33   1 H    0.998 --    11 C    0.970
    34   1 H    0.998 --    13 C    0.965
    35   1 H    0.998 --    16 C    0.964
    36   1 H    0.998 --    18 C    0.977
    37   1 H    0.998 --    18 C    0.985
    38   1 H    0.998 --    18 C    0.970
    39   1 H    0.999 --    20 C    0.984
    40   1 H    0.998 --    20 C    0.984
    41   1 H    0.999 --    20 C    0.985
    42   1 H    0.999 --    21 C    0.987
    43   1 H    0.999 --    21 C    0.983
    44   1 H    0.998 --    21 C    0.985
    45   1 H    0.998 --    22 C    0.974
    46   1 H    0.999 --    22 C    0.973
    47   1 H    0.999 --    23 C    0.973
    48   1 H    0.998 --    23 C    0.974
    49   1 H    0.999 --    25 C    0.984
    50   1 H    0.998 --    25 C    0.984
    51   1 H    0.999 --    25 C    0.985
    52   1 H    0.999 --    26 C    0.983
    53   1 H    0.998 --    26 C    0.985
    54   1 H    0.999 --    26 C    0.987
    55   5 B    3.572 --    95 H    0.951    58 B    0.921    56 B    0.876
                            96 H    0.537
    56   5 B    3.538 --    55 B    0.876    57 B    0.754    58 B    0.607
                            60 B    0.546    96 H    0.426    59 B    0.133
    57   5 B    3.576 --    59 B    1.120    97 H    0.948    56 B    0.754
                            60 B    0.454
    58   5 B    3.561 --    55 B    0.921    65 B    0.843    66 B    0.813
                            56 B    0.607    68 B    0.108
    59   5 B    3.391 --    57 B    1.120    67 B    0.803    63 B    0.634
                            60 B    0.432    56 B    0.133
    60   5 B    3.599 --    61 B    1.082    63 B    0.763    56 B    0.546
                            57 B    0.454    59 B    0.432
    61   5 B    3.431 --    60 B    1.082    62 B    0.994    98 H    0.912
                            63 B    0.156
    62   5 B    3.249 --    64 B    1.017    61 B    0.994    99 H    0.939
                            72 B    0.107
    63   5 B    3.679 --    71 B    0.779    60 B    0.763    70 B    0.700
                            59 B    0.634    67 B    0.374    61 B    0.156
    64   5 B    3.410 --    62 B    1.017    72 B    0.986   100 H    0.924
                            71 B    0.192
    65   5 B    3.629 --   101 H    0.928    66 B    0.844    58 B    0.843
                            68 B    0.792
    66   5 B    3.612 --    68 B    0.858    65 B    0.844    58 B    0.813
                            67 B    0.811
    67   5 B    3.642 --    69 B    0.835    66 B    0.811    59 B    0.803
                            70 B    0.435    63 B    0.374
    68   5 B    3.584 --    66 B    0.858    65 B    0.792    75 B    0.779
                            76 B    0.719    58 B    0.108
    69   5 B    3.588 --    67 B    0.835    77 B    0.682    70 B    0.635
                            80 B    0.569    73 B    0.458
    70   5 B    3.601 --    73 B    0.951    63 B    0.700    69 B    0.635
                            71 B    0.594    67 B    0.435
    71   5 B    3.551 --    72 B    0.969    63 B    0.779    73 B    0.666
                            70 B    0.594    64 B    0.192
    72   5 B    3.449 --    64 B    0.986    71 B    0.969    74 B    0.961
                            82 B    0.181    62 B    0.107
    73   5 B    3.641 --    70 B    0.951    81 B    0.775    71 B    0.666
                            69 B    0.458    80 B    0.437
    74   5 B    3.416 --    82 B    1.139    72 B    0.961   102 H    0.952
                            84 B    0.113
    75   5 B    3.570 --   103 H    0.921    78 B    0.843    76 B    0.796
                            68 B    0.779
    76   5 B    3.594 --    77 B    1.011    75 B    0.796    68 B    0.719
                            78 B    0.702
    77   5 B    3.633 --    76 B    1.011    79 B    0.893    69 B    0.682
                            80 B    0.607
    78   5 B    3.589 --    75 B    0.843    86 B    0.842    85 B    0.757
                            76 B    0.702    88 B    0.144
    79   5 B    3.668 --    77 B    0.893    87 B    0.701    80 B    0.683
                            90 B    0.615    83 B    0.392
    80   5 B    3.670 --    79 B    0.683    77 B    0.607    83 B    0.586
                            69 B    0.569    81 B    0.522    73 B    0.437
    81   5 B    3.525 --    82 B    0.967    73 B    0.775    83 B    0.774
                            80 B    0.522    84 B    0.197
    82   5 B    3.405 --    74 B    1.139    81 B    0.967    84 B    0.780
                            72 B    0.181
    83   5 B    3.634 --    81 B    0.774    91 B    0.617    80 B    0.586
                            92 B    0.486    79 B    0.392    90 B    0.292
                            84 B    0.267
    84   5 B    3.506 --    92 B    0.972   104 H    0.939    82 B    0.780
                            83 B    0.267    81 B    0.197    74 B    0.113
    85   5 B    3.605 --    88 B    1.021   105 H    0.919    78 B    0.757
                            86 B    0.753
    86   5 B    3.600 --    88 B    0.927    87 B    0.892    78 B    0.842
                            85 B    0.753
    87   5 B    3.615 --    86 B    0.892    89 B    0.862    79 B    0.701
                            90 B    0.633    88 B    0.230
    88   5 B    3.458 --    85 B    1.021   106 H    0.972    86 B    0.927
                            87 B    0.230    78 B    0.144
    89   5 B    3.512 --   107 H    0.953    87 B    0.862    90 B    0.765
                            93 B    0.687
    90   5 B    3.652 --    89 B    0.765    93 B    0.764    87 B    0.633
                            79 B    0.615    91 B    0.441    83 B    0.292
    91   5 B    3.634 --    94 B    0.952    93 B    0.763    92 B    0.706
                            83 B    0.617    90 B    0.441
    92   5 B    3.570 --    94 B    1.167    84 B    0.972    91 B    0.706
                            83 B    0.486
    93   5 B    3.556 --   108 H    0.953    90 B    0.764    91 B    0.763
                            89 B    0.687    94 B    0.187
    94   5 B    3.511 --    92 B    1.167   109 H    0.968    91 B    0.952
                            93 B    0.187
    95   1 H    0.980 --    55 B    0.951
    96   1 H    0.995 --    55 B    0.537    56 B    0.426
    97   1 H    0.976 --    57 B    0.948
    98   1 H    0.978 --    61 B    0.912
    99   1 H    0.982 --    62 B    0.939
   100   1 H    0.981 --    64 B    0.924
   101   1 H    0.977 --    65 B    0.928
   102   1 H    0.978 --    74 B    0.952
   103   1 H    0.980 --    75 B    0.921
   104   1 H    0.975 --    84 B    0.939
   105   1 H    0.980 --    85 B    0.919
   106   1 H    0.981 --    88 B    0.972
   107   1 H    0.984 --    89 B    0.953
   108   1 H    0.983 --    93 B    0.953
   109   1 H    0.978 --    94 B    0.968
 ---------------------------------------------------------------------------

Topologies differ in total number of bonds
Writing topology from bond orders to xtbtopo.mol

molecular dipole:
                 x           y           z       tot (Debye)
 q only:       -1.462      -0.735      -2.781
   full:       -1.804      -1.343      -1.985       7.625
molecular quadrupole (traceless):
                xx          xy          yy          xz          yz          zz
 q only:      -35.613      12.911      32.617     -54.715      15.634       2.996
  q+dip:       -7.750      19.227      22.651     -54.183      13.949     -14.901
   full:      -19.229      16.934      20.843     -55.573      15.796      -1.613


           -------------------------------------------------
          | TOTAL ENERGY             -130.020659030188 Eh   |
          | GRADIENT NORM               0.067038328544 Eh/α |
          | HOMO-LUMO GAP               0.088216157133 eV   |
           -------------------------------------------------

------------------------------------------------------------------------
 * finished run on 2026/09/01 at 20:28:46.841     
------------------------------------------------------------------------
 total:
 * wall-time:     0 d,  0 h,  0 min,  0.527 sec
 *  cpu-time:     0 d,  0 h,  0 min,  6.859 sec
 * ratio c/w:    13.016 speedup
 SCF:
 * wall-time:     0 d,  0 h,  0 min,  0.479 sec
 *  cpu-time:     0 d,  0 h,  0 min,  6.406 sec
 * ratio c/w:    13.374 speedup

