54
Bexarotene - ETKDG+MMFF conformer
C      2.009107     -0.706409      2.822933
C      1.944339     -0.576630      1.484030
C      3.194272     -0.387799      0.703784
C      4.343317     -1.153348      0.955179
C      5.502180     -0.976906      0.191687
C      5.527367     -0.035401     -0.842538
C      6.776993      0.116378     -1.625987
O      7.805851     -0.511422     -1.456069
O      6.680989      1.050519     -2.588612
C      4.384374      0.724392     -1.110267
C      3.227113      0.544421     -0.344305
C      0.586698     -0.602545      0.881172
C     -0.267733      0.492474      1.093945
C     -1.562696      0.568648      0.534707
C     -2.025212     -0.521560     -0.234320
C     -1.148550     -1.607862     -0.459013
C      0.141600     -1.669364      0.092135
C      1.008583     -2.862090     -0.205101
C     -3.424460     -0.547567     -0.865618
C     -3.285703     -0.317749     -2.386921
C     -4.133299     -1.904739     -0.641238
C     -4.345408      0.530865     -0.252818
C     -3.646108      1.874117     -0.132016
C     -2.424848      1.807546      0.811592
C     -2.898124      1.762253      2.281406
C     -1.634459      3.120329      0.595340
H      2.948042     -0.668313      3.365765
H      1.114680     -0.845363      3.424578
H      4.343941     -1.906873      1.739724
H      6.381503     -1.581581      0.405224
H      7.563835      1.039535     -3.014019
H      4.378521      1.457797     -1.912824
H      2.348937      1.144972     -0.574145
H      0.098968      1.307427      1.715510
H     -1.472665     -2.435124     -1.087907
H      1.469010     -3.248880      0.709663
H      0.423779     -3.682579     -0.635021
H      1.788627     -2.593503     -0.924091
H     -2.745699      0.607789     -2.614538
H     -4.268165     -0.260757     -2.869297
H     -2.734566     -1.133885     -2.868935
H     -4.159815     -2.166360      0.423202
H     -3.642883     -2.727814     -1.171370
H     -5.167931     -1.870482     -1.003074
H     -5.249360      0.648343     -0.864517
H     -4.695437      0.214979      0.738076
H     -3.339112      2.212935     -1.129563
H     -4.362853      2.623074      0.229151
H     -3.426535      0.831206      2.513738
H     -3.572970      2.596297      2.505276
H     -2.054564      1.831383      2.978440
H     -0.829774      3.251765      1.326256
H     -2.291424      3.993093      0.691416
H     -1.182274      3.150367     -0.403077
