109
Bexarotene/B40H15 GFN2 opt
C       1.59920540     -2.23280701      9.37406735
C       1.58468162     -1.07941157      8.69925030
C       2.71576869     -0.57295590      7.92380316
C       4.03624206     -0.96359863      8.18189464
C       5.07744029     -0.47471838      7.42964565
C       4.84020478      0.43662268      6.39344157
C       5.96267692      0.94164679      5.60943771
O       7.11868027      0.58842052      5.72356428
O       5.60759326      1.87719284      4.69554182
C       3.52535427      0.83917275      6.13424776
C       2.48787275      0.33767246      6.88223706
C       0.34768552     -0.26580869      8.64748512
C      -0.78606278     -0.79777490      8.05848491
C      -1.95910088     -0.06954492      7.89204880
C      -1.97871546      1.26040628      8.31102368
C      -0.85802982      1.76516036      8.96624644
C       0.30260202      1.03636494      9.14878533
C       1.48187149      1.63459119      9.85482444
C      -3.16661886      2.17941703      8.09432869
C      -3.85603667      2.42981875      9.44290251
C      -2.70795579      3.52406674      7.50916734
C      -4.15303584      1.56165139      7.09572412
C      -4.40648502      0.09011039      7.37481691
C      -3.13463211     -0.75153702      7.22073838
C      -2.79819391     -0.94494333      5.73642806
C      -3.40446085     -2.12266274      7.85890313
H       2.45691636     -2.88182385      9.39699941
H       0.73516777     -2.55993584      9.92687518
H       4.24153222     -1.64112964      8.99647884
H       6.09600302     -0.77141195      7.62791376
H       6.39135495      2.12978585      4.18746790
H       3.33930302      1.54710969      5.34472990
H       1.47638853      0.64787138      6.66698495
H      -0.73035126     -1.81321532      7.69838209
H      -0.88090768      2.77595688      9.34489425
H       1.18024541      2.49739778     10.44421318
H       1.94673593      0.90192276     10.51175107
H       2.23377213      1.95669943      9.13422064
H      -3.16326692      2.88251532     10.14801480
H      -4.21112580      1.49830530      9.87624406
H      -4.70411924      3.09966348      9.31506883
H      -2.14693985      4.11037875      8.23100367
H      -2.08303386      3.36274623      6.63389467
H      -3.57720572      4.10590363      7.20961967
H      -5.09588257      2.11119002      7.14119093
H      -3.75651393      1.67566952      6.08600625
H      -5.16871462     -0.28615165      6.68970327
H      -4.79117427     -0.02650052      8.38984142
H      -1.90792718     -1.55594897      5.62424925
H      -2.61658221      0.01191673      5.25835438
H      -3.61954700     -1.43694379      5.22504735
H      -4.34112151     -2.52412702      7.47785405
H      -3.48295570     -2.03178253      8.94035701
H      -2.61811713     -2.83549998      7.63062910
B      -4.20733280     -2.99626860      2.96459182
B      -3.88570088     -1.74514995      1.99106578
B      -3.86527103     -0.70458207      0.67401657
B      -3.00334162     -3.17527090      1.93056309
B      -2.35735248     -0.35085059      0.85217365
B      -3.36030290     -0.09761416      2.33359913
B      -4.18138564      1.14602478      2.96366099
B      -3.63700478      2.51979809      2.32059391
B      -1.73472057     -0.05605377      2.37420064
B      -2.23354039      3.12179096      2.85817754
B      -1.88530250     -4.39253577      1.71198358
B      -1.50893498     -2.86457599      1.31509476
B      -1.03536211     -1.29193776      1.11875039
B      -0.32966479     -3.85431691      1.82533234
B       0.47565685     -0.80549195      0.94938786
B      -0.27878687     -0.78260113      2.61616890
B      -0.42236190      0.93332063      2.88909017
B      -0.93421145      2.33111661      2.37844187
B       1.04816449      0.15104672      2.92702334
B       0.31682372      2.65718470      1.37537644
B       0.52167596     -3.26015792      3.38141778
B       1.23008044     -3.64283813      1.90623991
B       2.17311350     -2.59676304      1.19769438
B       1.91791740     -2.47881359      2.90751111
B       3.34629719     -1.87709777      0.39020702
B       1.84456730     -1.20666607      0.29402363
B       1.68856983      0.40341634      1.10984304
B       1.03943148      1.71731633      0.31986072
B       3.06094283     -0.18711979     -0.01953322
B       1.66213772      1.42187788     -1.14070013
B       0.68443625     -1.51692630      3.77358640
B       2.49356967     -1.03309608      3.31118715
B       3.89717059     -0.45643315      2.86569192
B       2.60887742      0.60464846      2.57992777
B       5.22470659     -0.35914650      2.06856507
B       4.69330613     -1.09259329      0.57644351
B       4.60240252      0.59938744     -0.25226099
B       3.25806675      1.19478907     -0.97780541
B       5.94378616     -0.22643958      0.21346525
B       4.63849564      1.96395739     -1.00282997
H      -4.55422327     -3.46251146      3.98224899
H      -5.07963658     -2.16627666      2.49783109
H      -4.80299021     -0.54173660     -0.01734886
H      -5.01829154      1.03943188      3.79050089
H      -4.17531158      3.01417012      1.39484303
H      -2.21857135      4.03705705      3.60238694
H      -2.15553918     -5.52653680      1.57667916
H       0.94319588      3.54438280      1.84821699
H       0.13567369     -3.88911036      4.29788666
H       1.06782029      1.09822748     -2.10888946
H       0.53960782     -1.35198505      4.94184582
H       2.94566398      1.67961673      2.93524028
H       6.23180666      0.17097905      2.37114799
H       7.09094666     -0.15759628      0.00458642
H       5.24410155      2.89027587     -1.37046713
