109
Drug@beta12-B40H15 clean complex
C      2.009107     -0.706409     12.012626
C      1.944339     -0.576630     10.673723
C      3.194272     -0.387799      9.893477
C      4.343317     -1.153348     10.144872
C      5.502180     -0.976906      9.381380
C      5.527367     -0.035401      8.347155
C      6.776993      0.116378      7.563706
O      7.805851     -0.511422      7.733624
O      6.680989      1.050519      6.601081
C      4.384374      0.724392      8.079426
C      3.227113      0.544421      8.845388
C      0.586698     -0.602545     10.070865
C     -0.267733      0.492474     10.283638
C     -1.562696      0.568648      9.724400
C     -2.025212     -0.521560      8.955373
C     -1.148550     -1.607862      8.730680
C      0.141600     -1.669364      9.281828
C      1.008583     -2.862090      8.984592
C     -3.424460     -0.547567      8.324075
C     -3.285703     -0.317749      6.802772
C     -4.133299     -1.904739      8.548455
C     -4.345408      0.530865      8.936875
C     -3.646108      1.874117      9.057677
C     -2.424848      1.807546     10.001285
C     -2.898124      1.762253     11.471099
C     -1.634459      3.120329      9.785033
H      2.948042     -0.668313     12.555458
H      1.114680     -0.845363     12.614271
H      4.343941     -1.906873     10.929417
H      6.381503     -1.581581      9.594917
H      7.563835      1.039535      6.175674
H      4.378521      1.457797      7.276869
H      2.348937      1.144972      8.615548
H      0.098968      1.307427     10.905203
H     -1.472665     -2.435124      8.101786
H      1.469010     -3.248880      9.899356
H      0.423779     -3.682579      8.554672
H      1.788627     -2.593503      8.265602
H     -2.745699      0.607789      6.575155
H     -4.268165     -0.260757      6.320396
H     -2.734566     -1.133885      6.320758
H     -4.159815     -2.166360      9.612895
H     -3.642883     -2.727814      8.018323
H     -5.167931     -1.870482      8.186619
H     -5.249360      0.648343      8.325176
H     -4.695437      0.214979      9.927769
H     -3.339112      2.212935      8.060130
H     -4.362853      2.623074      9.418844
H     -3.426535      0.831206     11.703431
H     -3.572970      2.596297     11.694969
H     -2.054564      1.831383     12.168133
H     -0.829774      3.251765     10.515949
H     -2.291424      3.993093      9.881109
H     -1.182274      3.150367      8.786616
B     -4.780602     -2.604513      0.317266
B     -4.569465     -1.356683     -0.648004
B     -4.463861     -0.247381     -1.882945
B     -3.396531     -2.661979     -0.502827
B     -3.038009      0.177607     -1.404773
B     -4.390872      0.342644     -0.192397
B     -5.031012      1.403078      0.819222
B     -4.620094      2.986388      0.997562
B     -2.808851      0.512803      0.199513
B     -3.218551      3.227540      1.793236
B     -2.161133     -3.775821     -0.584343
B     -1.876928     -2.248084     -0.933414
B     -1.697164     -0.613334     -0.835751
B     -0.584443     -3.218984     -0.835049
B     -0.219751     -0.148448     -0.311803
B     -1.394985      0.035818      0.852087
B     -1.775686      1.662110      0.759224
B     -1.897502      3.236989      0.882584
B     -0.215292      1.037200      1.069695
B     -0.752118      4.348002      0.558417
B      0.826501     -4.112870     -0.740049
B      0.925144     -2.505404     -0.749723
B      1.214364     -0.948979     -0.586972
B      2.200665     -3.402586     -0.168167
B      2.622046     -0.195651     -0.292977
B      1.234081      0.551562      0.142600
B      1.124844      2.000923      1.042986
B      0.536600      3.437229      0.618007
B      2.458015      1.672646      0.087495
B      1.213646      3.017073     -0.852963
B      3.220244     -3.850820      1.104428
B      3.624046     -2.653486      0.063737
B      4.025027     -1.121930     -0.236552
B      4.417376     -2.835474      1.420329
B      5.363640     -0.241898     -0.689778
B      4.104119      0.531009     -0.013477
B      4.018093      2.321775     -0.033810
B      2.821838      3.096833     -0.912930
B      5.422007      1.458254     -0.185288
B      4.296118      3.550090     -1.013979
H     -5.168734     -3.094856      1.310677
H     -5.716063     -2.076392     -0.393509
H     -5.264034     -0.120717     -2.741690
H     -5.771097      1.007443      1.664604
H     -5.364514      3.843125      0.672044
H     -3.234300      3.224974      2.975674
H     -2.359297     -4.926237     -0.473225
H     -0.896482      5.475480      0.244253
H      0.822346     -5.249794     -1.023329
H      0.553695      2.694294     -1.783686
H      2.970323     -4.817556      1.717250
H      5.263074     -2.512454      2.156542
H      6.384778     -0.646686     -1.095590
H      6.503197      1.838169      0.065012
H      5.138890      4.252414     -1.415442
