114
Drug@B48H12 clean complex
C      2.009107     -0.706409     11.247337
C      1.944339     -0.576630      9.908434
C      3.194272     -0.387799      9.128188
C      4.343317     -1.153348      9.379583
C      5.502180     -0.976906      8.616091
C      5.527367     -0.035401      7.581866
C      6.776993      0.116378      6.798417
O      7.805851     -0.511422      6.968335
O      6.680989      1.050519      5.835792
C      4.384374      0.724392      7.314137
C      3.227113      0.544421      8.080099
C      0.586698     -0.602545      9.305576
C     -0.267733      0.492474      9.518349
C     -1.562696      0.568648      8.959111
C     -2.025212     -0.521560      8.190084
C     -1.148550     -1.607862      7.965391
C      0.141600     -1.669364      8.516539
C      1.008583     -2.862090      8.219303
C     -3.424460     -0.547567      7.558786
C     -3.285703     -0.317749      6.037483
C     -4.133299     -1.904739      7.783166
C     -4.345408      0.530865      8.171586
C     -3.646108      1.874117      8.292388
C     -2.424848      1.807546      9.235996
C     -2.898124      1.762253     10.705810
C     -1.634459      3.120329      9.019744
H      2.948042     -0.668313     11.790169
H      1.114680     -0.845363     11.848982
H      4.343941     -1.906873     10.164128
H      6.381503     -1.581581      8.829628
H      7.563835      1.039535      5.410385
H      4.378521      1.457797      6.511580
H      2.348937      1.144972      7.850259
H      0.098968      1.307427     10.139914
H     -1.472665     -2.435124      7.336497
H      1.469010     -3.248880      9.134067
H      0.423779     -3.682579      7.789383
H      1.788627     -2.593503      7.500313
H     -2.745699      0.607789      5.809866
H     -4.268165     -0.260757      5.555107
H     -2.734566     -1.133885      5.555469
H     -4.159815     -2.166360      8.847606
H     -3.642883     -2.727814      7.253034
H     -5.167931     -1.870482      7.421330
H     -5.249360      0.648343      7.559887
H     -4.695437      0.214979      9.162480
H     -3.339112      2.212935      7.294841
H     -4.362853      2.623074      8.653555
H     -3.426535      0.831206     10.938142
H     -3.572970      2.596297     10.929680
H     -2.054564      1.831383     11.402844
H     -0.829774      3.251765      9.750660
H     -2.291424      3.993093      9.115820
H     -1.182274      3.150367      8.021327
B     -6.351142     -2.854456     -0.339557
B     -3.863246     -3.427578      0.871248
B     -1.055185     -4.165135      1.979350
B      1.685312     -4.231770      1.354949
B      2.970257     -3.692274      0.621871
B      5.907588     -3.848572     -0.380027
B     -4.761208     -2.330720     -0.407809
B     -2.619857     -2.211059      0.844160
B     -1.232659     -2.391074      1.779162
B      0.281426     -3.144602      1.258585
B      3.128005     -2.135340      0.033717
B      5.282428     -2.580677     -1.142740
B     -4.382652     -1.054498     -1.346132
B     -3.192369     -1.268483     -0.239841
B     -0.766749     -0.915069      2.147107
B      0.434070     -1.509850      0.882523
B      4.260331     -1.271884     -0.605716
B      6.845204     -2.475577     -0.806482
B     -5.007204     -0.643659     -2.849649
B     -3.195209      0.154301     -0.925672
B     -0.946947      0.623306      2.210385
B      0.001581     -0.020442      0.908402
B      4.875444      0.224219     -0.547589
B      5.878568     -1.066378     -1.130575
B     -5.767164      0.853536     -2.917565
B     -2.897102      1.628167     -0.708344
B     -1.239865      2.133184      2.088909
B      0.188320      1.549872      1.054031
B      4.258123      1.584106      0.064663
B      6.307532      0.439704     -1.625845
B     -5.734132      1.755409     -1.493813
B     -3.346886      2.973961     -0.174554
B     -1.664632      3.616005      1.797280
B     -0.058970      3.164039      1.323482
B      2.965632      2.258875      0.684366
B      5.791920      1.672515     -0.698507
B     -6.638907      2.799988     -0.842193
B     -4.474576      3.887338      0.587924
B     -1.777076      5.175247      1.215356
B      1.175393      4.406638      1.328978
B      2.593810      3.922874      0.879575
B      5.350926      2.985997     -0.054101
B     -5.318955     -3.634817      0.416463
B     -2.487709     -3.632854      1.605545
B      0.359579     -4.721327      1.906320
B      1.721498     -2.416215      0.734504
B      4.338705     -3.479950     -0.072929
B     -5.095331      2.847233     -0.373491
B     -3.034495      4.318735      0.932612
B     -0.286930      4.895064      1.442591
B      1.461620      2.548192      0.992407
B      4.078380      3.619763      0.510634
B     -4.595730      0.591276     -1.841534
H     -7.368369     -2.502749     -0.810293
H     -4.959065     -1.376034     -3.773890
H     -6.324579      1.260780     -3.871541
H     -7.613398      3.401728     -0.597572
H      6.361232     -4.935383     -0.360239
H      8.016260     -2.468237     -0.906140
H      6.939156      0.614609     -2.612760
