114
Drug@B48H12 non-overlapping complex
C      2.009107     -0.706409      9.036952
C      1.944339     -0.576630      7.698049
C      3.194272     -0.387799      6.917803
C      4.343317     -1.153348      7.169198
C      5.502180     -0.976906      6.405706
C      5.527367     -0.035401      5.371481
C      6.776993      0.116378      4.588032
O      7.805851     -0.511422      4.757950
O      6.680989      1.050519      3.625407
C      4.384374      0.724392      5.103752
C      3.227113      0.544421      5.869714
C      0.586698     -0.602545      7.095191
C     -0.267733      0.492474      7.307964
C     -1.562696      0.568648      6.748726
C     -2.025212     -0.521560      5.979699
C     -1.148550     -1.607862      5.755006
C      0.141600     -1.669364      6.306154
C      1.008583     -2.862090      6.008918
C     -3.424460     -0.547567      5.348401
C     -3.285703     -0.317749      3.827098
C     -4.133299     -1.904739      5.572781
C     -4.345408      0.530865      5.961201
C     -3.646108      1.874117      6.082003
C     -2.424848      1.807546      7.025611
C     -2.898124      1.762253      8.495425
C     -1.634459      3.120329      6.809359
H      2.948042     -0.668313      9.579784
H      1.114680     -0.845363      9.638597
H      4.343941     -1.906873      7.953743
H      6.381503     -1.581581      6.619243
H      7.563835      1.039535      3.200000
H      4.378521      1.457797      4.301195
H      2.348937      1.144972      5.639874
H      0.098968      1.307427      7.929529
H     -1.472665     -2.435124      5.126112
H      1.469010     -3.248880      6.923682
H      0.423779     -3.682579      5.578998
H      1.788627     -2.593503      5.289928
H     -2.745699      0.607789      3.599481
H     -4.268165     -0.260757      3.344722
H     -2.734566     -1.133885      3.345084
H     -4.159815     -2.166360      6.637221
H     -3.642883     -2.727814      5.042649
H     -5.167931     -1.870482      5.210945
H     -5.249360      0.648343      5.349502
H     -4.695437      0.214979      6.952095
H     -3.339112      2.212935      5.084456
H     -4.362853      2.623074      6.443170
H     -3.426535      0.831206      8.727757
H     -3.572970      2.596297      8.719295
H     -2.054564      1.831383      9.192459
H     -0.829774      3.251765      7.540275
H     -2.291424      3.993093      6.905435
H     -1.182274      3.150367      5.810942
B     -6.351142     -2.854456     -0.339557
B     -3.863246     -3.427578      0.871248
B     -1.055185     -4.165135      1.979350
B      1.685312     -4.231770      1.354949
B      2.970257     -3.692274      0.621871
B      5.907588     -3.848572     -0.380027
B     -4.761208     -2.330720     -0.407809
B     -2.619857     -2.211059      0.844160
B     -1.232659     -2.391074      1.779162
B      0.281426     -3.144602      1.258585
B      3.128005     -2.135340      0.033717
B      5.282428     -2.580677     -1.142740
B     -4.382652     -1.054498     -1.346132
B     -3.192369     -1.268483     -0.239841
B     -0.766749     -0.915069      2.147107
B      0.434070     -1.509850      0.882523
B      4.260331     -1.271884     -0.605716
B      6.845204     -2.475577     -0.806482
B     -5.007204     -0.643659     -2.849649
B     -3.195209      0.154301     -0.925672
B     -0.946947      0.623306      2.210385
B      0.001581     -0.020442      0.908402
B      4.875444      0.224219     -0.547589
B      5.878568     -1.066378     -1.130575
B     -5.767164      0.853536     -2.917565
B     -2.897102      1.628167     -0.708344
B     -1.239865      2.133184      2.088909
B      0.188320      1.549872      1.054031
B      4.258123      1.584106      0.064663
B      6.307532      0.439704     -1.625845
B     -5.734132      1.755409     -1.493813
B     -3.346886      2.973961     -0.174554
B     -1.664632      3.616005      1.797280
B     -0.058970      3.164039      1.323482
B      2.965632      2.258875      0.684366
B      5.791920      1.672515     -0.698507
B     -6.638907      2.799988     -0.842193
B     -4.474576      3.887338      0.587924
B     -1.777076      5.175247      1.215356
B      1.175393      4.406638      1.328978
B      2.593810      3.922874      0.879575
B      5.350926      2.985997     -0.054101
B     -5.318955     -3.634817      0.416463
B     -2.487709     -3.632854      1.605545
B      0.359579     -4.721327      1.906320
B      1.721498     -2.416215      0.734504
B      4.338705     -3.479950     -0.072929
B     -5.095331      2.847233     -0.373491
B     -3.034495      4.318735      0.932612
B     -0.286930      4.895064      1.442591
B      1.461620      2.548192      0.992407
B      4.078380      3.619763      0.510634
B     -4.595730      0.591276     -1.841534
H     -7.368369     -2.502749     -0.810293
H     -4.959065     -1.376034     -3.773890
H     -6.324579      1.260780     -3.871541
H     -7.613398      3.401728     -0.597572
H      6.361232     -4.935383     -0.360239
H      8.016260     -2.468237     -0.906140
H      6.939156      0.614609     -2.612760
