      -----------------------------------------------------------      
     |                   =====================                   |     
     |                           x T B                           |     
     |                   =====================                   |     
     |                         S. Grimme                         |     
     |          Mulliken Center for Theoretical Chemistry        |     
     |                    University of Bonn                     |     
      -----------------------------------------------------------      

   * xtb version 6.7.1pre (5071a88) compiled by 'Marcel@Raven' on 2024-07-23

   xtb is free software: you can redistribute it and/or modify it under
   the terms of the GNU Lesser General Public License as published by
   the Free Software Foundation, either version 3 of the License, or
   (at your option) any later version.
   
   xtb is distributed in the hope that it will be useful,
   but WITHOUT ANY WARRANTY; without even the implied warranty of
   MERCHANTABILITY or FITNESS FOR A PARTICULAR PURPOSE.  See the
   GNU Lesser General Public License for more details.
   
   Cite this work as:
   * C. Bannwarth, E. Caldeweyher, S. Ehlert, A. Hansen, P. Pracht,
     J. Seibert, S. Spicher, S. Grimme, WIREs Comput. Mol. Sci., 2020, 11,
     e01493. DOI: 10.1002/wcms.1493
   
   for GFN2-xTB:
   * C. Bannwarth, S. Ehlert and S. Grimme., J. Chem. Theory Comput., 2019,
     15, 1652-1671. DOI: 10.1021/acs.jctc.8b01176
   for GFN1-xTB:
   * S. Grimme, C. Bannwarth, P. Shushkov, J. Chem. Theory Comput., 2017,
     13, 1989-2009. DOI: 10.1021/acs.jctc.7b00118
   for GFN0-xTB:
   * P. Pracht, E. Caldeweyher, S. Ehlert, S. Grimme, ChemRxiv, 2019, preprint.
     DOI: 10.26434/chemrxiv.8326202.v1
   for GFN-FF:
   * S. Spicher and S. Grimme, Angew. Chem. Int. Ed., 2020, 59, 15665-15673.
     DOI: 10.1002/anie.202004239
   
   for ALPB and GBSA implicit solvation:
   * S. Ehlert, M. Stahn, S. Spicher, S. Grimme, J. Chem. Theory Comput.,
     2021, 17, 4250-4261. DOI: 10.1021/acs.jctc.1c00471
   
   for ddCOSMO and CPCM-X implicit solvation:
   * M. Stahn, S. Ehlert, S. Grimme, J. Phys. Chem. A,
     2023, XX, XXXX-XXXX. DOI: 10.1021/acs.jpca.3c04382
   
   for DFT-D4:
   * E. Caldeweyher, C. Bannwarth and S. Grimme, J. Chem. Phys., 2017,
     147, 034112. DOI: 10.1063/1.4993215
   * E. Caldeweyher, S. Ehlert, A. Hansen, H. Neugebauer, S. Spicher,
     C. Bannwarth and S. Grimme, J. Chem. Phys., 2019, 150, 154122.
     DOI: 10.1063/1.5090222
   * E. Caldeweyher, J.-M. Mewes, S. Ehlert and S. Grimme, Phys. Chem. Chem. Phys.
     2020, 22, 8499-8512. DOI: 10.1039/D0CP00502A
   
   for sTDA-xTB:
   * S. Grimme and C. Bannwarth, J. Chem. Phys., 2016, 145, 054103.
     DOI: 10.1063/1.4959605
   
   in the mass-spec context:
   * V. Asgeirsson, C. Bauer and S. Grimme, Chem. Sci., 2017, 8, 4879.
     DOI: 10.1039/c7sc00601b
   * J. Koopman and S. Grimme, ACS Omega 2019, 4, 12, 15120-15133.
     DOI: 10.1021/acsomega.9b02011
   
   for metadynamics refer to:
   * S. Grimme, J. Chem. Theory Comput., 2019, 155, 2847-2862
     DOI: 10.1021/acs.jctc.9b00143
   
   for SPH calculations refer to:
   * S. Spicher and S. Grimme, J. Chem. Theory Comput., 2021, 17, 1701-1714
     DOI: 10.1021/acs.jctc.0c01306
   
   for ONIOM refer to:
   * C. Plett, A. Katbashev, S. Ehlert, S. Grimme, M. Bursch,
     Phys. Chem. Chem. Phys., 2023, 25, 17860-17868. DOI: 10.1039/D3CP02178E
   
   for DIPRO refer to:
   * J. Kohn, N. Gildemeister, S. Grimme, D. Fazzi, A. Hansen,
     J. Chem. Phys., 2023, just accepted.
   
   for PTB refer to:
   * S. Grimme, M. Mueller, A. Hansen, J. Chem. Phys., 2023, 158, 124111.
     DOI: 10.1063/5.0137838
   
   with help from (in alphabetical order)
   P. Atkinson, C. Bannwarth, F. Bohle, G. Brandenburg, E. Caldeweyher
   M. Checinski, S. Dohm, S. Ehlert, S. Ehrlich, I. Gerasimov, C. Hölzer
   A. Katbashev, J. Kohn, J. Koopman, C. Lavigne, S. Lehtola, F. März, M. Müller,
   F. Musil, H. Neugebauer, J. Pisarek, C. Plett, P. Pracht, F. Pultar,
   J. Seibert, P. Shushkov, S. Spicher, M. Stahn, M. Steiner, T. Strunk,
   J. Stückrath, T. Rose, and J. Unsleber
   
 * started run on 2026/08/31 at 21:15:49.985     
   ID    Z sym.   atoms
    1    6 C      1-7, 10-26
    2    8 O      8, 9
    3    1 H      27-54, 108-114
    4    5 B      55-107

           -------------------------------------------------
          |                Calculation Setup                |
           -------------------------------------------------

          program call               : "c:\Users\Andre\Proyectos doctorado\kras-pancreatic-gC3N4-ai\tools\xtb\xtb-6.7.1\bin\xtb.exe" "c:\Users\Andre\Proyectos doctorado\borophene-alzheimer-tau-ai\calculations\tau\Bexarotene\Bexarotene_B48H12_phys_complex.xyz" --gfn 2 --sp --chrg 0 --uhf 0 --etemp 300 --iterations 500 --norestart
          coordinate file            : c:\Users\Andre\Proyectos doctorado\borophene-alzheimer-tau-ai\calculations\tau\Bexarotene\Bexarotene_B48H12_phys_complex.xyz
          omp threads                :                    16


molecular fragmentation (1/2 indicates fragments):
111111111111111111111111111111111111111111111111111111222222222222222222
222222222222222222222222222222222222222222
# atoms in fragment 1/2:    54    60
 fragment masses (1/2) :      348.48      580.04
CMA distance (Bohr)    :  11.384
constraining FC (au)   :  0.0500

           -------------------------------------------------
          |                 G F N 2 - x T B                 |
           -------------------------------------------------

        Reference                      10.1021/acs.jctc.8b01176
      * Hamiltonian:
        H0-scaling (s, p, d)           1.850000    2.230000    2.230000
        zeta-weighting                 0.500000
      * Dispersion:
        s8                             2.700000
        a1                             0.520000
        a2                             5.000000
        s9                             5.000000
      * Repulsion:
        kExp                           1.500000    1.000000
        rExp                           1.000000
      * Coulomb:
        alpha                          2.000000
        third order                    shell-resolved
        anisotropic                    true
        a3                             3.000000
        a5                             4.000000
        cn-shift                       1.200000
        cn-exp                         4.000000
        max-rad                        5.000000


          ...................................................
          :                      SETUP                      :
          :.................................................:
          :  # basis functions                 351          :
          :  # atomic orbitals                 351          :
          :  # shells                          193          :
          :  # electrons                       302          :
          :  max. iterations                   500          :
          :  Hamiltonian                  GFN2-xTB          :
          :  restarted?                      false          :
          :  GBSA solvation                  false          :
          :  PC potential                    false          :
          :  electronic temp.          300.0000000     K    :
          :  accuracy                    1.0000000          :
          :  -> integral cutoff          0.2500000E+02      :
          :  -> integral neglect         0.1000000E-07      :
          :  -> SCF convergence          0.1000000E-05 Eh   :
          :  -> wf. convergence          0.1000000E-03 e    :
          :  Broyden damping             0.4000000          :
          :  net charge                          0          :
          :  unpaired electrons                  0          :
          ...................................................

 iter      E             dE          RMSdq      gap      omega  full diag
   1   -142.7991372 -0.142799E+03  0.141E+01    0.08       0.0  T
   2   -136.1717104  0.662743E+01  0.950E+00    0.21       1.0  T
   3     38.7493070  0.174921E+03  0.177E+01    0.02       1.0  T
   4     -2.5319451 -0.412813E+02  0.147E+01    0.05       1.0  T
   5   -109.8873369 -0.107355E+03  0.797E+00    0.12       1.0  T
   6    -74.5598970  0.353274E+02  0.107E+01    0.11       1.0  T
   7   -136.8460725 -0.622862E+02  0.483E+00    0.11       1.0  T
   8   -137.1783708 -0.332298E+00  0.402E+00    0.05       1.0  T
   9   -143.1451235 -0.596675E+01  0.255E+00    0.49       1.0  T
  10   -143.3285756 -0.183452E+00  0.213E+00    0.35       1.0  T
  11   -143.5513272 -0.222752E+00  0.187E+00    0.38       1.0  T
  12   -143.5280223  0.233049E-01  0.171E+00    0.41       1.0  T
  13   -143.4660087  0.620136E-01  0.142E+00    0.32       1.0  T
  14   -142.3895450  0.107646E+01  0.173E+00    0.15       1.0  T
  15   -143.4665746 -0.107703E+01  0.881E-01    0.18       1.0  T
  16   -142.9603333  0.506241E+00  0.143E+00    0.21       1.0  T
  17   -143.0242541 -0.639208E-01  0.132E+00    0.12       1.0  T
  18   -143.3593040 -0.335050E+00  0.962E-01    0.04       1.0  T
  19   -143.6514365 -0.292132E+00  0.536E-01    0.13       1.0  T
  20   -143.6546608 -0.322433E-02  0.478E-01    0.05       1.0  T
  21   -143.6425482  0.121127E-01  0.493E-01    0.03       1.0  T
  22   -143.6553760 -0.128278E-01  0.427E-01    0.04       1.0  T
  23   -143.6396155  0.157605E-01  0.443E-01    0.01       1.0  T
  24   -143.6945546 -0.549391E-01  0.182E-01    0.08       1.0  T
  25   -143.6662292  0.283254E-01  0.343E-01    0.02       1.0  T
  26   -143.6951695 -0.289403E-01  0.167E-01    0.06       1.0  T
  27   -143.6930965  0.207298E-02  0.177E-01    0.05       1.0  T
  28   -143.6968031 -0.370657E-02  0.125E-01    0.07       1.0  T
  29   -143.6996234 -0.282028E-02  0.759E-02    0.09       1.0  T
  30   -143.6997456 -0.122226E-03  0.689E-02    0.09       1.0  T
  31   -143.6997693 -0.236809E-04  0.599E-02    0.09       1.0  T
  32   -143.6998948 -0.125568E-03  0.498E-02    0.09       1.0  T
  33   -143.6998816  0.131929E-04  0.446E-02    0.08       1.0  T
  34   -143.6999835 -0.101833E-03  0.406E-02    0.09       1.0  T
  35   -143.6999417  0.417810E-04  0.410E-02    0.09       1.0  T
  36   -143.6999349  0.682768E-05  0.402E-02    0.09       1.0  T
  37   -143.6999477 -0.128760E-04  0.390E-02    0.09       1.0  T
  38   -143.6999429  0.487115E-05  0.371E-02    0.10       1.0  T
  39   -143.7000761 -0.133243E-03  0.286E-02    0.09       1.0  T
  40   -143.7001731 -0.969865E-04  0.210E-02    0.09       1.0  T
  41   -143.7002396 -0.665478E-04  0.129E-02    0.09       1.0  T
  42   -143.7002616 -0.219708E-04  0.705E-03    0.09       1.3  T
  43   -143.7002679 -0.627262E-05  0.361E-03    0.09       2.6  T
  44   -143.7002677  0.224500E-06  0.313E-03    0.09       3.0  T
  45   -143.7002690 -0.129077E-05  0.242E-03    0.09       3.9  T
  46   -143.7002700 -0.106939E-05  0.167E-03    0.09       5.6  T
  47   -143.7002703 -0.306221E-06  0.905E-04    0.09      10.4  T
  48   -143.7002705 -0.116917E-06  0.572E-04    0.09      16.4  T

   *** convergence criteria satisfied after 48 iterations ***

         #    Occupation            Energy/Eh            Energy/eV
      -------------------------------------------------------------
         1        2.0000           -0.7077139             -19.2579
       ...           ...                  ...                  ...
       145        2.0000           -0.2702155              -7.3529
       146        2.0000           -0.2650456              -7.2123
       147        2.0000           -0.2644224              -7.1953
       148        2.0000           -0.2602385              -7.0815
       149        1.9999           -0.2561497              -6.9702
       150        1.9995           -0.2544086              -6.9228
       151        1.6834           -0.2480640              -6.7502 (HOMO)
       152        0.3172           -0.2448911              -6.6638 (LUMO)
       153        0.0000           -0.2311644              -6.2903
       154                         -0.2274109              -6.1882
       155                         -0.2237296              -6.0880
       156                         -0.2145095              -5.8371
       ...                                ...                  ...
       351                          1.1908155              32.4037
      -------------------------------------------------------------
                  HL-Gap            0.0031729 Eh            0.0863 eV
             Fermi-level           -0.2464765 Eh           -6.7070 eV

 SCC (total)                   0 d,  0 h,  0 min,  1.078 sec
 SCC setup                      ...        0 min,  0.001 sec (  0.093%)
 Dispersion                     ...        0 min,  0.003 sec (  0.278%)
 classical contributions        ...        0 min,  0.000 sec (  0.000%)
 integral evaluation            ...        0 min,  0.009 sec (  0.835%)
 iterations                     ...        0 min,  1.037 sec ( 96.197%)
 molecular gradient             ...        0 min,  0.026 sec (  2.412%)
 printout                       ...        0 min,  0.002 sec (  0.186%)

         :::::::::::::::::::::::::::::::::::::::::::::::::::::
         ::                     SUMMARY                     ::
         :::::::::::::::::::::::::::::::::::::::::::::::::::::
         :: total energy            -141.501044936734 Eh    ::
         :: gradient norm              0.079328605108 Eh/a0 ::
         :: HOMO-LUMO gap              0.086338418764 eV    ::
         ::.................................................::
         :: SCC energy              -143.693255328078 Eh    ::
         :: -> isotropic ES            0.296825490846 Eh    ::
         :: -> anisotropic ES          0.013037471087 Eh    ::
         :: -> anisotropic XC         -0.016709736623 Eh    ::
         :: -> dispersion             -0.151270713162 Eh    ::
         :: repulsion energy           2.192210391344 Eh    ::
         :: add. restraining           0.000000000000 Eh    ::
         :: total charge               0.000000000276 e     ::
         :::::::::::::::::::::::::::::::::::::::::::::::::::::

           -------------------------------------------------
          |                Property Printout                |
           -------------------------------------------------

    * Orbital Energies and Occupations

         #    Occupation            Energy/Eh            Energy/eV
      -------------------------------------------------------------
         1        2.0000           -0.7077139             -19.2579
       ...           ...                  ...                  ...
       139        2.0000           -0.2855688              -7.7707
       140        2.0000           -0.2840743              -7.7301
       141        2.0000           -0.2793574              -7.6017
       142        2.0000           -0.2765619              -7.5256
       143        2.0000           -0.2751030              -7.4859
       144        2.0000           -0.2717529              -7.3948
       145        2.0000           -0.2702155              -7.3529
       146        2.0000           -0.2650456              -7.2123
       147        2.0000           -0.2644224              -7.1953
       148        2.0000           -0.2602385              -7.0815
       149        1.9999           -0.2561497              -6.9702
       150        1.9995           -0.2544086              -6.9228
       151        1.6834           -0.2480640              -6.7502 (HOMO)
       152        0.3172           -0.2448911              -6.6638 (LUMO)
       153        0.0000           -0.2311644              -6.2903
       154                         -0.2274109              -6.1882
       155                         -0.2237296              -6.0880
       156                         -0.2145095              -5.8371
       157                         -0.2131743              -5.8008
       158                         -0.2100122              -5.7147
       159                         -0.2097073              -5.7064
       160                         -0.2058745              -5.6021
       161                         -0.2048281              -5.5737
       162                         -0.2025249              -5.5110
       ...                                ...                  ...
       351                          1.1908155              32.4037
      -------------------------------------------------------------
                  HL-Gap            0.0031729 Eh            0.0863 eV
             Fermi-level           -0.2464765 Eh           -6.7070 eV

     #   Z          covCN         q      C6AA      α(0)
     1   6 C        2.854    -0.104    30.613     9.068
     2   6 C        2.950     0.005    27.904     8.664
     3   6 C        2.967     0.006    27.874     8.660
     4   6 C        2.914    -0.041    29.016     8.833
     5   6 C        2.914    -0.034    28.851     8.808
     6   6 C        2.964    -0.037    28.907     8.819
     7   6 C        2.697     0.326    21.458     7.582
     8   8 O        0.856    -0.468    23.083     6.442
     9   8 O        1.658    -0.410    21.049     6.194
    10   6 C        2.911    -0.045    29.121     8.849
    11   6 C        2.915    -0.049    29.218     8.864
    12   6 C        2.975    -0.003    28.084     8.693
    13   6 C        2.916    -0.051    29.271     8.872
    14   6 C        2.960    -0.007    28.194     8.709
    15   6 C        2.960    -0.004    28.116     8.697
    16   6 C        2.916    -0.067    29.658     8.930
    17   6 C        2.959     0.002    27.981     8.676
    18   6 C        3.754    -0.121    22.878     6.820
    19   6 C        3.898     0.020    20.181     6.386
    20   6 C        3.754    -0.185    24.188     7.013
    21   6 C        3.755    -0.120    22.858     6.817
    22   6 C        3.808    -0.069    21.812     6.648
    23   6 C        3.808    -0.074    21.905     6.662
    24   6 C        3.898     0.022    20.148     6.381
    25   6 C        3.754    -0.104    22.551     6.771
    26   6 C        3.755    -0.115    22.763     6.803
    27   1 H        0.925     0.026     2.639     2.540
    28   1 H        0.925     0.025     2.662     2.552
    29   1 H        0.925     0.030     2.584     2.514
    30   1 H        0.925     0.047     2.353     2.399
    31   1 H        0.804     0.324     0.653     1.269
    32   1 H        0.925     0.043     2.407     2.426
    33   1 H        0.925     0.029     2.598     2.521
    34   1 H        0.925     0.029     2.595     2.519
    35   1 H        0.925     0.048     2.348     2.396
    36   1 H        0.924     0.043     2.413     2.429
    37   1 H        0.924     0.046     2.371     2.408
    38   1 H        0.924     0.049     2.329     2.387
    39   1 H        0.924     0.071     2.077     2.254
    40   1 H        0.924     0.034     2.529     2.487
    41   1 H        0.924     0.081     1.968     2.194
    42   1 H        0.924     0.028     2.609     2.526
    43   1 H        0.924     0.043     2.409     2.427
    44   1 H        0.924     0.036     2.506     2.476
    45   1 H        0.924     0.031     2.574     2.509
    46   1 H        0.924     0.031     2.568     2.506
    47   1 H        0.924     0.046     2.373     2.409
    48   1 H        0.924     0.028     2.613     2.528
    49   1 H        0.924     0.033     2.538     2.491
    50   1 H        0.924     0.032     2.563     2.504
    51   1 H        0.924     0.033     2.544     2.494
    52   1 H        0.924     0.035     2.513     2.479
    53   1 H        0.924     0.034     2.528     2.487
    54   1 H        0.924     0.035     2.511     2.478
    55   5 B        2.872     0.040    20.724     7.599
    56   5 B        3.645     0.024    21.881     7.616
    57   5 B        3.704     0.006    22.455     7.667
    58   5 B        3.599     0.003    21.969     7.688
    59   5 B        3.804     0.012    22.489     7.646
    60   5 B        3.812     0.040    21.996     7.561
    61   5 B        4.425     0.058    21.685     7.503
    62   5 B        3.843     0.024    22.289     7.609
    63   5 B        5.059     0.047    21.881     7.537
    64   5 B        5.523     0.102    20.931     7.371
    65   5 B        3.792     0.003    22.663     7.677
    66   5 B        4.799     0.084    21.242     7.426
    67   5 B        4.746     0.060    21.653     7.498
    68   5 B        3.691     0.011    22.336     7.655
    69   5 B        3.741     0.017    22.348     7.634
    70   5 B        4.170    -0.018    23.084     7.741
    71   5 B        3.938     0.011    22.546     7.651
    72   5 B        3.779     0.078    21.310     7.446
    73   5 B        3.808     0.064    21.560     7.486
    74   5 B        3.812    -0.011    22.931     7.720
    75   5 B        3.702    -0.004    22.650     7.702
    76   5 B        3.825     0.014    22.472     7.641
    77   5 B        4.691     0.057    21.717     7.509
    78   5 B        4.735     0.046    21.912     7.542
    79   5 B        3.813     0.074    21.400     7.458
    80   5 B        2.071    -0.001    43.070    13.727
    81   5 B        3.706    -0.001    22.594     7.690
    82   5 B        4.547     0.019    22.386     7.623
    83   5 B        4.200     0.036    22.089     7.573
    84   5 B        3.748     0.072    21.368     7.462
    85   5 B        3.840    -0.007    22.859     7.706
    86   5 B        3.769     0.016    22.387     7.634
    87   5 B        4.530     0.062    21.615     7.491
    88   5 B        5.624     0.097    21.021     7.387
    89   5 B        3.805     0.023    22.288     7.612
    90   5 B        3.825     0.013    22.478     7.643
    91   5 B        2.886     0.068    20.253     7.511
    92   5 B        2.918     0.038    20.738     7.599
    93   5 B        2.913     0.015    21.142     7.673
    94   5 B        3.630     0.008    22.083     7.669
    95   5 B        3.792     0.003    22.661     7.677
    96   5 B        2.860    -0.001    21.449     7.732
    97   5 B        2.920    -0.037    22.070     7.839
    98   5 B        3.825     0.012    22.494     7.645
    99   5 B        2.901    -0.032    21.994     7.827
   100   5 B        4.532     0.042    21.983     7.555
   101   5 B        3.896     0.037    22.065     7.569
   102   5 B        3.818     0.014    22.467     7.641
   103   5 B        3.778    -0.039    23.447     7.811
   104   5 B        3.628    -0.023    22.649     7.768
   105   5 B        4.556     0.023    22.326     7.613
   106   5 B        3.280     0.021    21.006     7.643
   107   5 B        4.869     0.086    21.205     7.420
   108   1 H        0.937    -0.180     9.398     4.793
   109   1 H        0.935    -0.148     7.568     4.301
   110   1 H        0.936    -0.143     7.348     4.238
   111   1 H        0.939    -0.158     8.074     4.443
   112   1 H        0.936    -0.139     7.155     4.182
   113   1 H        0.937    -0.142     7.296     4.223
   114   1 H        0.934    -0.143     7.320     4.230

 Mol. C6AA /au·bohr⁶  :     196961.479844
 Mol. C8AA /au·bohr⁸  :    6216033.652540
 Mol. α(0) /au        :        711.005730


Wiberg/Mayer (AO) data.
largest (>0.10) Wiberg bond orders for each atom

 ---------------------------------------------------------------------------
     #   Z sym  total        # sym  WBO       # sym  WBO       # sym  WBO
 ---------------------------------------------------------------------------
     1   6 C    3.932 --     2 C    1.840    28 H    0.978    27 H    0.976
     2   6 C    3.968 --     1 C    1.840     3 C    1.047    12 C    1.009
     3   6 C    3.896 --    11 C    1.357     4 C    1.352     2 C    1.047
     4   6 C    3.972 --     5 C    1.484     3 C    1.352    29 H    0.969
     5   6 C    3.944 --     4 C    1.484     6 C    1.340    30 H    0.968
     6   6 C    3.919 --    10 C    1.342     5 C    1.340     7 C    1.047
     7   6 C    3.826 --     8 O    1.656     9 O    1.080     6 C    1.047
     8   8 O    1.911 --     7 C    1.656     9 O    0.146
     9   8 O    2.128 --     7 C    1.080    31 H    0.870     8 O    0.146
    10   6 C    3.942 --    11 C    1.481     6 C    1.342    32 H    0.968
    11   6 C    3.977 --    10 C    1.481     3 C    1.357    33 H    0.970
    12   6 C    3.984 --    13 C    1.408    17 C    1.369     2 C    1.009
                            15 C    0.100
    13   6 C    3.986 --    14 C    1.409    12 C    1.408    34 H    0.965
                            16 C    0.108
    14   6 C    3.984 --    13 C    1.409    15 C    1.393    24 C    0.983
    15   6 C    3.981 --    16 C    1.406    14 C    1.393    19 C    0.985
                            12 C    0.100
    16   6 C    3.985 --    17 C    1.422    15 C    1.406    35 H    0.961
                            13 C    0.108
    17   6 C    3.986 --    16 C    1.422    12 C    1.369    18 C    1.024
    18   6 C    3.994 --    17 C    1.024    37 H    0.984    36 H    0.977
                            38 H    0.969
    19   6 C    3.989 --    21 C    0.989    15 C    0.985    20 C    0.984
                            22 C    0.984
    20   6 C    3.974 --    19 C    0.984    40 H    0.983    39 H    0.955
                            41 H    0.951
    21   6 C    3.993 --    19 C    0.989    42 H    0.987    44 H    0.985
                            43 H    0.982
    22   6 C    3.995 --    23 C    1.011    19 C    0.984    45 H    0.974
                            46 H    0.973
    23   6 C    3.995 --    22 C    1.011    24 C    0.985    48 H    0.975
                            47 H    0.971
    24   6 C    3.989 --    26 C    0.990    25 C    0.986    23 C    0.985
                            14 C    0.983
    25   6 C    3.995 --    24 C    0.986    51 H    0.985    50 H    0.984
                            49 H    0.984
    26   6 C    3.995 --    24 C    0.990    54 H    0.987    53 H    0.985
                            52 H    0.983
    27   1 H    0.998 --     1 C    0.976
    28   1 H    0.998 --     1 C    0.978
    29   1 H    0.999 --     4 C    0.969
    30   1 H    0.997 --     5 C    0.968
    31   1 H    0.894 --     9 O    0.870
    32   1 H    0.997 --    10 C    0.968
    33   1 H    0.999 --    11 C    0.970
    34   1 H    0.998 --    13 C    0.965
    35   1 H    0.996 --    16 C    0.961
    36   1 H    0.998 --    18 C    0.977
    37   1 H    0.998 --    18 C    0.984
    38   1 H    0.997 --    18 C    0.969
    39   1 H    0.995 --    20 C    0.955
    40   1 H    0.998 --    20 C    0.983
    41   1 H    0.993 --    20 C    0.951
    42   1 H    0.999 --    21 C    0.987
    43   1 H    0.998 --    21 C    0.982
    44   1 H    0.998 --    21 C    0.985
    45   1 H    0.998 --    22 C    0.974
    46   1 H    0.999 --    22 C    0.973
    47   1 H    0.998 --    23 C    0.971
    48   1 H    0.998 --    23 C    0.975
    49   1 H    0.999 --    25 C    0.984
    50   1 H    0.998 --    25 C    0.984
    51   1 H    0.999 --    25 C    0.985
    52   1 H    0.998 --    26 C    0.983
    53   1 H    0.998 --    26 C    0.985
    54   1 H    0.999 --    26 C    0.987
    55   5 B    3.487 --    97 B    1.432   108 H    0.957    61 B    0.839
    56   5 B    3.505 --    97 B    1.122    98 B    0.992    62 B    0.559
                            61 B    0.507
    57   5 B    3.509 --    99 B    1.278    98 B    1.015    64 B    0.486
                            63 B    0.448
    58   5 B    3.471 --    99 B    1.288    59 B    1.016    64 B    0.561
                           100 B    0.359
    59   5 B    3.531 --   101 B    1.092    58 B    1.016    65 B    0.685
                           100 B    0.485
    60   5 B    3.592 --   112 H    0.941   101 B    0.854    72 B    0.806
                            66 B    0.802
    61   5 B    3.617 --    55 B    0.839    67 B    0.835    97 B    0.791
                            56 B    0.507    68 B    0.389
    62   5 B    3.573 --    68 B    1.108    98 B    0.771    63 B    0.686
                            56 B    0.559
    63   5 B    3.592 --    69 B    0.962    62 B    0.686    64 B    0.520
                            98 B    0.502    57 B    0.448    70 B    0.232
    64   5 B    3.598 --    70 B    0.626   100 B    0.616    99 B    0.592
                            58 B    0.561    63 B    0.520    57 B    0.486
    65   5 B    3.594 --    71 B    1.104   100 B    0.920    59 B    0.685
                           101 B    0.506
    66   5 B    3.597 --    72 B    0.845    60 B    0.802    78 B    0.686
                           101 B    0.594    71 B    0.515
    67   5 B    3.621 --    61 B    0.835    73 B    0.754    68 B    0.692
                            74 B    0.558   107 B    0.495
    68   5 B    3.549 --    62 B    1.108    74 B    0.931    67 B    0.692
                            61 B    0.389
    69   5 B    3.449 --    75 B    1.094    63 B    0.962    76 B    0.590
                            70 B    0.419
    70   5 B    3.604 --    76 B    1.115   100 B    0.908    64 B    0.626
                            69 B    0.419    63 B    0.232
    71   5 B    3.548 --    65 B    1.104    77 B    0.831    78 B    0.608
                            66 B    0.515   101 B    0.182
    72   5 B    3.508 --   113 H    0.953    66 B    0.845    60 B    0.806
                            78 B    0.676
    73   5 B    3.526 --   109 H    0.939    79 B    0.831    67 B    0.754
                           107 B    0.729
    74   5 B    3.625 --    80 B    1.267    68 B    0.931    67 B    0.558
                           107 B    0.544
    75   5 B    3.486 --    81 B    1.155    69 B    1.094    76 B    0.554
                            82 B    0.392
    76   5 B    3.566 --    70 B    1.115    82 B    0.968    69 B    0.590
                            75 B    0.554
    77   5 B    3.579 --    83 B    0.861    71 B    0.831    90 B    0.561
                            78 B    0.542    84 B    0.500
    78   5 B    3.604 --    84 B    0.869    66 B    0.686    72 B    0.676
                            71 B    0.608    77 B    0.542
    79   5 B    3.572 --   110 H    0.942    73 B    0.831   107 B    0.773
                            85 B    0.725
    80   5 B    3.414 --    86 B    1.330    74 B    1.267   107 B    0.204
                           102 B    0.158
    81   5 B    3.434 --    75 B    1.155    87 B    1.017    88 B    0.509
                            82 B    0.453
    82   5 B    3.579 --    76 B    0.968   105 B    0.786    88 B    0.660
                            81 B    0.453    75 B    0.392
    83   5 B    3.557 --    89 B    1.005    77 B    0.861    90 B    0.632
                            96 B    0.541   106 B    0.322
    84   5 B    3.415 --   114 H    0.925    90 B    0.890    78 B    0.869
                            77 B    0.500
    85   5 B    3.608 --    91 B    1.232    79 B    0.725   102 B    0.712
                           107 B    0.691
    86   5 B    3.572 --    80 B    1.330    92 B    0.687   102 B    0.606
                           103 B    0.576
    87   5 B    3.514 --    81 B    1.017    93 B    0.646   103 B    0.577
                            88 B    0.538   104 B    0.451
    88   5 B    3.612 --    82 B    0.660   105 B    0.632    87 B    0.538
                            94 B    0.522    81 B    0.509   104 B    0.505
    89   5 B    3.541 --   105 B    1.023    83 B    1.005    95 B    0.630
                           106 B    0.527
    90   5 B    3.503 --    96 B    1.231    84 B    0.890    83 B    0.632
                            77 B    0.561
    91   5 B    3.464 --    85 B    1.232   111 H    0.956   102 B    0.852
                            92 B    0.144
    92   5 B    3.404 --   103 B    1.165   102 B    1.106    86 B    0.687
                            91 B    0.144
    93   5 B    3.350 --   104 B    1.212   103 B    1.133    87 B    0.646
    94   5 B    3.386 --   104 B    1.130    95 B    1.082    88 B    0.522
                           105 B    0.392
    95   5 B    3.488 --    94 B    1.082   106 B    1.060    89 B    0.630
                           105 B    0.493
    96   5 B    3.336 --   106 B    1.262    90 B    1.231    83 B    0.541
    97   5 B    3.527 --    55 B    1.432    56 B    1.122    61 B    0.791
    98   5 B    3.532 --    57 B    1.015    56 B    0.992    62 B    0.771
                            63 B    0.502
    99   5 B    3.446 --    58 B    1.288    57 B    1.278    64 B    0.592
   100   5 B    3.560 --    65 B    0.920    70 B    0.908    64 B    0.616
                            59 B    0.485    58 B    0.359
   101   5 B    3.480 --    59 B    1.092    60 B    0.854    66 B    0.594
                            65 B    0.506    71 B    0.182
   102   5 B    3.630 --    92 B    1.106    91 B    0.852    85 B    0.712
                            86 B    0.606    80 B    0.158
   103   5 B    3.622 --    92 B    1.165    93 B    1.133    87 B    0.577
                            86 B    0.576
   104   5 B    3.503 --    93 B    1.212    94 B    1.130    88 B    0.505
                            87 B    0.451
   105   5 B    3.595 --    89 B    1.023    82 B    0.786    88 B    0.632
                            95 B    0.493    94 B    0.392
   106   5 B    3.386 --    96 B    1.262    95 B    1.060    89 B    0.527
                            83 B    0.322
   107   5 B    3.626 --    79 B    0.773    73 B    0.729    85 B    0.691
                            74 B    0.544    67 B    0.495    80 B    0.204
   108   1 H    0.966 --    55 B    0.957
   109   1 H    0.972 --    73 B    0.939
   110   1 H    0.974 --    79 B    0.942
   111   1 H    0.971 --    91 B    0.956
   112   1 H    0.970 --    60 B    0.941
   113   1 H    0.976 --    72 B    0.953
   114   1 H    0.973 --    84 B    0.925
 ---------------------------------------------------------------------------

Topologies differ in total number of bonds
Writing topology from bond orders to xtbtopo.mol

molecular dipole:
                 x           y           z       tot (Debye)
 q only:       -1.045       1.188      -1.535
   full:       -0.711       1.047      -2.615       7.385
molecular quadrupole (traceless):
                xx          xy          yy          xz          yz          zz
 q only:      -95.683      25.302      90.750     -71.967       4.269       4.934
  q+dip:      -55.909       2.523      53.461     -65.868      16.361       2.448
   full:      -70.173       9.088      45.147     -62.508      17.690      25.025


           -------------------------------------------------
          | TOTAL ENERGY             -141.501044936734 Eh   |
          | GRADIENT NORM               0.079328605108 Eh/α |
          | HOMO-LUMO GAP               0.086338418764 eV   |
           -------------------------------------------------

------------------------------------------------------------------------
 * finished run on 2026/08/31 at 21:15:51.136     
------------------------------------------------------------------------
 total:
 * wall-time:     0 d,  0 h,  0 min,  1.150 sec
 *  cpu-time:     0 d,  0 h,  0 min, 12.156 sec
 * ratio c/w:    10.571 speedup
 SCF:
 * wall-time:     0 d,  0 h,  0 min,  1.079 sec
 *  cpu-time:     0 d,  0 h,  0 min, 11.656 sec
 * ratio c/w:    10.803 speedup

normal termination of xtb
