60
carrier @complex
B      -6.14670712      2.12750258      0.06154643
B      -5.85929342      0.47086499     -0.26807168
B      -4.83536206      3.20202583     -0.18907879
B      -4.56393175      1.53736898     -0.11322764
B      -4.28411332     -0.13566216     -0.10819151
B      -5.31340995     -2.87540174      0.08142220
B      -5.02921992     -4.53428358     -0.23729405
B      -4.01110894     -1.79121311     -0.04531417
B      -3.73589267     -3.46446854      0.02038944
B      -3.45981268     -5.12736433      0.11263758
B      -3.25675352      2.61789732      0.02360156
B      -2.97803145      0.93905035     -0.00333641
B      -1.95866477      3.67603661      0.26609381
B      -1.67759613      2.01672222      0.10443684
B      -1.39517997      0.34821063     -0.02489582
B      -2.42356054     -2.38428497     -0.06323361
B      -2.14467346     -4.06350774      0.01436476
B      -1.11967915     -1.31217177     -0.01549662
B      -0.84207753     -2.98332203     -0.01351569
B      -0.56146827     -4.64570072     -0.12410403
B      -0.37113249      3.09673705      0.15504896
B      -0.08983348      1.41967785      0.08462825
B       0.93933219      4.16396263      0.05980840
B       1.21375246      2.49849839      0.15421789
B       1.49267014      0.82797871      0.11495075
B       0.46517079     -1.90367794      0.02442665
B       0.74293560     -3.58244263      0.06596513
B       1.77067002     -0.83102995      0.04798421
B       2.04660914     -2.50323689      0.12425985
B       2.31794899     -4.16721661      0.27023735
B       2.51476451      3.57723958      0.26438779
B       2.79900567      1.90048787      0.16608576
B       3.81797442      4.63594674      0.47726767
B       4.10120380      2.97663271      0.34018252
B       4.38080639      1.30552735      0.25285830
B       3.35193492     -1.42367466      0.15612913
B       3.63002390     -3.10286043      0.14984098
B       4.65835380     -0.34823382      0.17593333
B       4.93935814     -2.02044192      0.14738706
B       5.21703926     -3.68221273      0.03142560
B       5.40900609      4.05229887      0.20695348
B       5.67424531      2.38511248      0.49547925
B       6.24367137     -0.95122409      0.10040233
B       6.51038206     -2.61653496      0.40676558
H      -7.19133661      2.53425644      0.39584990
H      -6.71482564     -0.17550179     -0.73680244
H      -5.04914500      4.28812036     -0.57688145
H      -6.35041437     -2.54371098      0.51431889
H      -5.85044239     -5.25343344     -0.66229588
H      -3.33221064     -6.24355103      0.44986292
H      -2.16095017      4.81835987      0.43733178
H      -0.37146230     -5.78936913     -0.30627115
H       0.75733223      5.31324744     -0.09287323
H       2.50735545     -5.31397756      0.42300447
H       3.67129640      5.74183668      0.83625014
H       5.45918530     -4.75741768     -0.37050583
H       6.25221876      4.78510500     -0.14541027
H       6.67232729      2.02910300      0.99530205
H       7.12053968     -0.29183353     -0.30698450
H       7.52260267     -3.03520648      0.81890542
