32
drug @complex
O       1.41857776     -2.63909010      3.22165188
C       1.06495108     -1.40856876      3.31687590
C      -0.31424191     -1.07439117      3.28622647
O      -1.13732429     -2.15988813      3.14759812
C      -0.75596679      0.23251890      3.38868152
C      -2.11342345      0.69640389      3.39909228
C      -2.40393145      2.03814593      3.70336201
C      -3.70080614      2.50112653      3.71594566
C      -4.75652256      1.65334804      3.40679530
O      -6.04052472      2.11260801      3.38782632
C      -4.48037661      0.31740562      3.08366949
O      -5.55507508     -0.46934084      2.73527160
C      -3.18732713     -0.15426200      3.08277430
O       0.17761837      1.25276044      3.52145301
C       1.50057760      0.98806204      3.53763448
C       2.37578545      2.06109743      3.62165039
C       3.74831665      1.82496982      3.60111920
O       4.57703724      2.90741258      3.63933866
C       4.25397145      0.53536707      3.51177529
C       3.38348480     -0.54359753      3.43876149
O       3.84894227     -1.79825922      3.32574094
C       1.99348469     -0.31774542      3.44005888
H      -0.49324084     -2.90148855      3.12588839
H      -1.59580038      2.70836407      3.94213878
H      -3.92167688      3.52866866      3.95412501
H      -6.59534201      1.38176100      3.08124893
H      -5.25226751     -1.18274125      2.15274817
H      -2.99572550     -1.18065202      2.82953140
H       2.00553150      3.06811199      3.69629036
H       5.48575381      2.61483557      3.50450693
H       5.31694280      0.35499835      3.49116569
H       3.02717075     -2.37958053      3.27383010
