92
Quercetin on beta12_supported 270 deg
O       3.01085471      1.87716143      3.37296039
C       1.82112994      1.50277029      3.43794839
C       1.53109222      0.07892430      3.44579812
O       2.63565978     -0.70478182      3.37960130
C       0.24458126     -0.38345705      3.50167133
C      -0.17869448     -1.77941585      3.49999121
C      -1.52891355     -2.09595262      3.33374949
C      -1.95334004     -3.40839319      3.33211168
C      -1.04470869     -4.44384242      3.49996398
O      -1.46084847     -5.73013657      3.50116430
C       0.31350359     -4.13209279      3.66853849
O       1.17162764     -5.19116254      3.83247092
C       0.73833107     -2.82101116      3.66795387
O      -0.79535210      0.48885747      3.55902135
C      -0.60138571      1.82012097      3.56715917
C      -1.72095985      2.63808926      3.63905240
C      -1.55495532      4.01717985      3.65084979
O      -2.66435906      4.78317924      3.72416553
C      -0.28355590      4.58721878      3.58898322
C       0.84213210      3.78477889      3.51607056
O       2.05518867      4.33266470      3.45697864
C       0.68614212      2.37650075      3.50660962
H       3.37924871     -0.06568410      3.32472009
H      -2.24647356     -1.30359241      3.20000000
H      -2.99370666     -3.65680955      3.20016707
H      -0.68644280     -6.29616007      3.63071390
H       2.07087728     -4.85838096      3.92793460
H       1.78483959     -2.60274187      3.80250457
H      -2.70791050      2.21244302      3.68755311
H      -2.42341302      5.71830500      3.72518328
H      -0.15704882      5.65951785      3.59721753
H       2.71685988      3.59590319      3.41012868
B      -5.85857624      3.38040841      0.00000000
B      -5.85854689      1.69158049     -0.00000000
B      -4.39532834      4.22466855     -0.00000000
B      -4.39711400      2.53475765     -0.00000000
B      -4.39575475      0.84147203     -0.00000000
B      -5.85854686     -1.69158078      0.00000000
B      -5.85857617     -3.38040837     -0.00000000
B      -4.39575479     -0.84147232     -0.00000000
B      -4.39711414     -2.53475765      0.00000000
B      -4.39532857     -4.22466843      0.00000000
B      -2.92793521      3.38324044     -0.00000000
B      -2.92888517      1.68724694     -0.00000000
B      -1.46554580      4.22439782     -0.00000000
B      -1.46605622      2.53507234     -0.00000000
B      -1.46573170      0.84295491     -0.00000000
B      -2.92888518     -1.68724692      0.00000000
B      -2.92793508     -3.38324074      0.00000000
B      -1.46573174     -0.84295512     -0.00000000
B      -1.46605627     -2.53507234      0.00000000
B      -1.46554588     -4.22439779     -0.00000000
B       0.00067086      3.38275146      0.00000000
B       0.00067433      1.68721076      0.00000000
B       1.46420559      4.22439023     -0.00000000
B       1.46473580      2.53506444     -0.00000000
B       1.46438553      0.84295188     -0.00000000
B       0.00067433     -1.68721088      0.00000000
B       0.00067085     -3.38275170      0.00000000
B       1.46438555     -0.84295208     -0.00000000
B       1.46473583     -2.53506442     -0.00000000
B       1.46420568     -4.22439021     -0.00000000
B       2.92927005      3.38326104     -0.00000000
B       2.93022956      1.68726759      0.00000000
B       4.39401124      4.22463050     -0.00000000
B       4.39579743      2.53472819      0.00000000
B       4.39441416      0.84146678     -0.00000000
B       2.93022962     -1.68726763     -0.00000000
B       2.92927005     -3.38326139     -0.00000000
B       4.39441419     -0.84146703     -0.00000000
B       4.39579756     -2.53472819     -0.00000000
B       4.39401144     -4.22463033     -0.00000000
B       5.85997303      3.38040496      0.00000000
B       5.85993260      1.69164307     -0.00000000
B       5.85993251     -1.69164335      0.00000000
B       5.85997297     -3.38040486      0.00000000
H      -6.86866001      3.98474441      0.00000000
H      -6.88164909      1.12316321     -0.00000000
H      -4.39961690      5.40226943     -0.00000000
H      -6.88164986     -1.12316494      0.00000000
H      -6.86866148     -3.98474191     -0.00000000
H      -4.39961557     -5.40226922      0.00000000
H      -1.46579024      5.40011773     -0.00000000
H      -1.46578943     -5.40011766      0.00000000
H       1.46622796      5.40011192     -0.00000000
H       1.46622721     -5.40011186     -0.00000000
H       4.39986570      5.40225046     -0.00000000
H       4.39986407     -5.40225022     -0.00000000
H       6.86878772      3.98676429      0.00000000
H       6.88200886      1.12155941     -0.00000000
H       6.88200989     -1.12156160      0.00000000
H       6.86878944     -3.98676138      0.00000000
