92
 energy: -127.303084611681 gnorm: 0.001033984226 xtb: 6.7.1 (edcfbbe)
O           -1.63914496550591        2.49133335040120        3.01643095471839
C           -1.27772032587766        1.27258899779704        3.19967377984592
C            0.10503337064204        0.95208506292208        3.22097914941976
O            0.91966086967531        2.03420451554865        3.02601247451778
C            0.55711777235325       -0.33959112154169        3.42212055994496
C            1.91975899490644       -0.78246410754170        3.50526214330583
C            2.21908793771654       -2.09260750897906        3.91819530539550
C            3.52157435334051       -2.53076796516959        4.00916555924978
C            4.57517978491344       -1.68972539925494        3.67449019896505
O            5.86582168630409       -2.12536499477497        3.73633153343793
C            4.29072732069800       -0.38704554212855        3.24193339388771
O            5.36410513019079        0.39369833462254        2.87554090726171
C            2.99088968669207        0.05896941976673        3.15682771570359
O           -0.36854345340154       -1.35948944105458        3.59948616094580
C           -1.69470847481074       -1.10781673251063        3.57683361744483
C           -2.56079046819328       -2.18137075864458        3.72384423286626
C           -3.93512095840462       -1.95969337107217        3.67569519742427
O           -4.75461253839484       -3.04399005316220        3.78612449819301
C           -4.45096169905424       -0.68426150758944        3.49053367092776
C           -3.58984621055191        0.39471241814112        3.34412108080731
O           -4.06280171309756        1.63311511962421        3.13378083686766
C           -2.19773846152630        0.18342398709091        3.38072045950333
H            0.26745652414245        2.76323182217354        2.93476280777168
H            1.41332858191610       -2.75734018082695        4.17950320396365
H            3.74914745282395       -3.53377735998657        4.33090219631744
H            6.42117506755481       -1.40695020170246        3.40214810607405
H            5.08053995228774        1.02865963149605        2.19654333967694
H            2.79351117047608        1.05910579945018        2.81773229797932
H           -2.18262583367540       -3.17743565336328        3.87057769594934
H           -5.66843155939926       -2.76580027169083        3.65715205903595
H           -5.51530874771168       -0.51624856011523        3.44792198125825
H           -3.24363405177112        2.21441472542688        3.05254557790667
B           -6.33654076710049        2.86812339671042        0.04812845879769
B           -6.11198580118996        1.18041893151401       -0.15722636174564
B           -5.00405013243819        3.87242431208339       -0.34645023461761
B           -4.78027527801867        2.21287149899701       -0.12754016907492
B           -4.55115482232294        0.53758789270541        0.00276377529078
B           -5.65575621359082       -2.14176574802101        0.44701121680368
B           -5.43299941731535       -3.82997098161276        0.26654556555034
B           -4.32622862025645       -1.11595099957428        0.18526122892652
B           -4.10013533546953       -2.78672988375300        0.37384310841447
B           -3.87140371852310       -4.44200323592951        0.62064477236691
B           -3.43675536485486        3.25601723357854       -0.14523046439364
B           -3.21009034119432        1.57254405508529       -0.03755731272896
B           -2.09919491740534        4.28695584711479       -0.05042761836062
B           -1.87463180896935        2.61040758963831       -0.08876282917725
B           -1.64772022738422        0.92861224350555       -0.07101411804901
B           -2.75892071035223       -1.75981186456136        0.17997960073927
B           -2.52861233634927       -3.43511508478722        0.38602561790938
B           -1.42223944525659       -0.73080016400428        0.10140773040092
B           -1.19534830944263       -2.40295030376959        0.25219168015885
B           -0.96914276776513       -4.07829522622031        0.26411562805438
B           -0.53521104447723        3.64655212615814       -0.17478979594144
B           -0.30758660216472        1.96043946242205       -0.11827991134604
B            0.80297347938577        4.65796909611433       -0.39418389991821
B            1.02994578452703        2.99781081051849       -0.17739458432746
B            1.25654499924544        1.32239510662893       -0.07115140299642
B            0.14435151035875       -1.36787991877128        0.15528927849498
B            0.37246653505109       -3.04497740629586        0.33430968714398
B            1.48163366119213       -0.34306151429527        0.02146672912057
B            1.70953026962880       -2.00858114385949        0.25437956041017
B            1.93540906727161       -3.66216632190248        0.52683972724416
B            2.36600154990133        4.03995463761793       -0.18105346268233
B            2.59576899262817        2.35242362718612       -0.14015657018081
B            3.70722693283671        5.06922265997351       -0.10900737314457
B            3.93505747091633        3.39670823204737       -0.09056648679668
B            4.16091031527309        1.71577879555240       -0.04039244362500
B            3.04714943333029       -0.97604893792788        0.12958042182883
B            3.27385229442011       -2.65782481194202        0.26050393903242
B            4.38518059048963        0.05232935409569        0.00100574474171
B            4.61407482805258       -1.62569060544414        0.09883347085042
B            4.83685821093050       -3.29878617315182        0.13104904566188
B            5.26947591714716        4.41162939448145       -0.37520982102027
B            5.49420974737028        2.76795555775131        0.05222149296799
B            5.94766239084575       -0.60762125834994       -0.07856978330750
B            6.17529770755822       -2.24887075592939        0.35675382625777
H           -7.34985170152611        3.33514398628515        0.40121826735489
H           -6.99628176919588        0.52771862379226       -0.55872672376412
H           -5.19819707922782        4.92887213458883       -0.81849769081439
H           -6.66106975839393       -1.72896755248657        0.88277949892551
H           -6.29105828279853       -4.55566450674988       -0.06461066393051
H           -3.76678445801323       -5.52783990045677        1.04790511985143
H           -2.25584641760249        5.44629488294751        0.03175287943895
H           -0.81577778098458       -5.23922738440713        0.18913049653440
H            0.65360624634876        5.79431731867491       -0.64741099110666
H            2.09992178035413       -4.79749506619024        0.76890679655196
H            3.60452823468219        6.20889619189716        0.14975795159522
H            5.03005055145402       -4.41321515539264       -0.17912867555481
H            6.11971917566470        5.08026853625028       -0.82507562781039
H            6.50400435258178        2.42994053948681        0.53932365930029
H            6.83197031308089       -0.01311939341683       -0.56200774945119
H            7.19334270184365       -2.66595517939965        0.75454067257375
