92
 energy: -127.294534056919 gnorm: 0.000651984995 xtb: 6.7.1 (edcfbbe)
O            2.59113169544848        1.77167583497503        3.07072319754771
C            1.37329781839607        1.40593560417954        3.24976646852655
C            1.04948885438347        0.02452676496818        3.24649522853923
O            2.12854499518938       -0.79127111013377        3.03412986482514
C           -0.24794045759222       -0.42790247405539        3.42457850191401
C           -0.70823845308543       -1.78381037567200        3.47874204811297
C           -2.07119907793499       -2.05970608356390        3.69675974122390
C           -2.54001236885483       -3.35306650302851        3.73630373135369
C           -1.67831262879553       -4.42508883156340        3.53975693460004
O           -2.14471580432191       -5.70592034493863        3.54362102221659
C           -0.32012798800199       -4.16584203860840        3.31246276162748
O            0.48758492443769       -5.25785710153248        3.08239249322764
C            0.16004130310359       -2.87575155864586        3.29592782464071
O           -1.26958439534802        0.49956587756510        3.57345420420452
C           -1.01841932524618        1.82333216409892        3.54936307889843
C           -2.09993538142180        2.68776832910144        3.63024598720052
C           -1.87963808505951        4.06263910696338        3.58788930112611
O           -2.97314965785587        4.87487596435027        3.62850232300496
C           -0.59557856383748        4.58028530417963        3.48837373251285
C            0.49281067867129        3.72079106564981        3.40388058619726
O            1.74106189046474        4.19677380548556        3.27933922968614
C            0.28054223434964        2.32760471410633        3.41736529063191
H            2.85129775404896       -0.14103847476718        2.89366778742542
H           -2.75317461307202       -1.23919987750132        3.83675020406289
H           -3.58375817506916       -3.56133861599606        3.90678334631941
H           -1.39585076009474       -6.27658854278948        3.32447758728232
H            1.29922975103302       -4.96273095681881        2.65150874625795
H            1.20993099423133       -2.69957945771493        3.14213026556141
H           -3.10082174343312        2.30580211341360        3.72430345397183
H           -2.69032237808509        5.79174720504705        3.53904384960365
H           -0.42408472756135        5.64480831754942        3.45950702591382
H            2.32567568021761        3.38319173970488        3.18434868000651
B           -5.73517462008469        3.11623973282104        0.47277906123131
B           -5.67078735277482        1.43234498055534        0.13943914349315
B           -4.33157039856214        4.02210247637804        0.08107245416065
B           -4.25071718019407        2.33920831548954        0.19266253828201
B           -4.16943746010874        0.64597681056803        0.23041369292476
B           -5.49877378088237       -1.95073451890999        0.51363393902146
B           -5.43595837204770       -3.63415500538588        0.18985738157847
B           -4.08945745399610       -1.02974134198191        0.29217144086702
B           -4.01112724496556       -2.72339202212827        0.33633951742139
B           -3.92738711067257       -4.40705846210058        0.42731118708119
B           -2.82211816133105        3.25808541219235        0.13402313330742
B           -2.73951181452939        1.55884195846070        0.27137014869794
B           -1.39953355020919        4.16235316963990        0.13349356414360
B           -1.32244456887314        2.47555379657550        0.12846772239227
B           -1.24372745578815        0.78368629475565        0.13692387834285
B           -2.58737441851884       -1.80723051432021        0.19654336194158
B           -2.50629708283810       -3.50749217240098        0.21187345289040
B           -1.16484959931799       -0.89724466028515        0.16444187493695
B           -1.08963624794791       -2.58957197740123        0.10668685932717
B           -1.01633000092720       -4.27326806042031       -0.02817585249332
B            0.10522472426900        3.39238790834017        0.14012634694709
B            0.17828716257435        1.69296116591441       -0.00338253012085
B            1.52965664459980        4.29610914116470        0.12604987667858
B            1.60314953029571        2.61059392345148        0.01597399804771
B            1.67738484720246        0.91826002793256       -0.08477695364477
B            0.33561202424425       -1.67245409013075        0.04812227452620
B            0.41561368788526       -3.37185884850520        0.09319632396850
B            1.75488780831337       -0.76333078295524       -0.08735970736737
B            1.83877653935376       -2.45384663149294        0.05984762737396
B            1.92116399690097       -4.13644107200090        0.21160088572455
B            3.02307611630725        3.52814987555138       -0.08685568314730
B            3.10719226701816        1.82847582864297        0.02965960669705
B            4.44497757256613        4.42691718547345       -0.25741710232055
B            4.52975062044374        2.74503752815454       -0.10113230458863
B            4.60886334046731        1.05179690028319       -0.02316442309113
B            3.26188340271345       -1.53671368829154        0.00798227741804
B            3.33715492690375       -3.23793691523447       -0.02907683691663
B            4.68635698462203       -0.62462927936664       -0.01633430630378
B            4.76475270797675       -2.31863559483513       -0.07264188166879
B            4.83590112844032       -4.00372886330539       -0.19519949475634
B            5.95457131848104        3.65610924646105        0.03555699225355
B            6.02199221409788        1.97357140061308       -0.26740290886686
B            6.17918623233659       -1.41402625884052       -0.24773254098643
B            6.26737177813683       -3.09276083545879        0.05512733202265
H           -6.69311604712824        3.63493484217607        0.90225401287500
H           -6.62323688769514        0.89297708012715       -0.27563805636840
H           -4.44980849218901        5.12025823103916       -0.31587693098084
H           -6.45521905215762       -1.48838825837149        1.00193118093043
H           -6.36542067093103       -4.24259857975344       -0.18106555291584
H           -3.90156630546522       -5.52806226585625        0.76431964259708
H           -1.45337322008447        5.33332458659035        0.07150378011367
H           -0.97091477704126       -5.42530900740437       -0.24701249496878
H            1.48923037040090        5.45849231605663        0.26726058649017
H            1.99747399783748       -5.28842220288953        0.43431033782814
H            4.43464625271720        5.52453388631605       -0.66957548273103
H            4.92152129624684       -5.12946195051076       -0.51514781056211
H            6.88233195063810        4.27219774342721        0.39749730355687
H            6.98327262441100        1.51356376677168       -0.74638854325550
H            7.09122805057797       -0.86284355919414       -0.72554549512411
H            7.24660327939761       -3.62833963561073        0.41142023677565
