92
 energy: -127.294547080586 gnorm: 0.000715322218 xtb: 6.7.1 (edcfbbe)
O           -2.59516938327397       -1.76608687709986        3.07278517248833
C           -1.37703312450887       -1.40112953146864        3.25099586185014
C           -1.05235988028580       -0.01991910106613        3.24848277912766
O           -2.13095545015535        0.79681778749862        3.03737920837545
C            0.24548456170215        0.43155663087851        3.42587843298927
C            0.70677517889890        1.78712415776307        3.48051313643773
C            2.06991538107611        2.06185518244904        3.69889292040699
C            2.53991478211864        3.35479275793730        3.73812183344687
C            1.67926384699366        4.42752766053872        3.54086361113142
O            2.14691563170560        5.70789166602428        3.54386768523598
C            0.32083341452066        4.16944634447559        3.31375959697313
O           -0.48586014057675        5.26211619088423        3.08332349784873
C           -0.16052641168721        2.87978758612375        3.29754630957355
O            1.26659016342562       -0.49658838348454        3.57383714044248
C            1.01471021257995       -1.82015442342632        3.54830986536329
C            2.09587200384397       -2.68523546123466        3.62715027728473
C            1.87480295952860       -4.05994443404369        3.58369391759683
O            2.96791790389433       -4.87281879055057        3.62266961555956
C            0.59038221760910       -4.57679055287760        3.48461159712182
C           -0.49759186900371       -3.71661476056626        3.40157793915803
O           -1.74611059548774       -4.19178005534812        3.27661961642937
C           -0.28462228798735       -2.32355206971859        3.41678140412234
H           -2.85444461187084        0.14731917232674        2.89751811571082
H            2.75109586697276        1.24078432373492        3.83946322478364
H            3.58380554092593        3.56214540019629        3.90885443915521
H            1.39865017174282        6.27912384606680        3.32401513792477
H           -1.29784440078787        4.96751598807064        2.65269044335140
H           -1.21060132409263        2.70456089952645        3.14388540131970
H            3.09704356000841       -2.30382378270602        3.72040826074017
H            2.68473319734241       -5.78926392525114        3.53016134888204
H            0.41829366996523       -5.64117988778133        3.45460172352705
H           -2.33038384311756       -3.37768867467913        3.18345509013890
B           -6.26330953698473        3.09344886299763        0.05638567066914
B           -6.17578465027698        1.41464664940834       -0.24797213417425
B           -4.83405721388044        4.00381483281863       -0.19452355270458
B           -4.76360757678107        2.31866185480667       -0.07246665899830
B           -4.68598132033157        0.62457137474114       -0.01630789353597
B           -6.01998851819361       -1.97276780165859       -0.26925051397196
B           -5.95330744158291       -3.65555332406862        0.03515797386099
B           -4.60917084827171       -1.05192736186741       -0.02388655674326
B           -4.53069758279749       -2.74518900579184       -0.10247833439799
B           -4.44667016909535       -4.42705070247647       -0.25876802127321
B           -3.33308637309628        3.23738389156716       -0.02950642736616
B           -3.25861937050817        1.53611008030639        0.00993643641706
B           -1.91936394531116        4.13515488223562        0.21296220299255
B           -1.83761634078039        2.45258385978903        0.06097640261038
B           -1.75447060327158        0.76207761061218       -0.08657455326411
B           -3.10531276300602       -1.82907430990007        0.03012328116651
B           -3.02180624013269       -3.52868786128154       -0.08977599341960
B           -1.67766516271830       -0.91956190004469       -0.08449314658326
B           -1.60408646855279       -2.61196116256709        0.01543681836492
B           -1.53124898041838       -4.29758188914915        0.12290777194523
B           -0.41160655205567        3.37007669222696        0.09628081439617
B           -0.33222194360161        1.67068565301664        0.04846199900880
B            1.01821280235409        4.27082137443744       -0.02629079064075
B            1.09083881542093        2.58705167886230        0.10834669928384
B            1.16530689525490        0.89467916352994        0.16538643200622
B           -0.17628317149334       -1.69477897784910       -0.00430074949358
B           -0.10398196108312       -3.39428527699825        0.13957192415632
B            1.24351243361796       -0.78626129188790        0.13679763371611
B            1.32155488860504       -2.47814656667707        0.12812453632380
B            1.39785934653957       -4.16497464585223        0.13452008317339
B            2.51043057627146        3.50451918373106        0.21274969307349
B            2.59072592732851        1.80421870523401        0.19880780675841
B            3.92927280230758        4.40320059053068        0.42995895119337
B            4.01233473143891        2.71953721193838        0.33862660672273
B            4.08997048577405        1.02590679998504        0.29318343056409
B            2.74154193361068       -1.56201463875986        0.27098812818756
B            2.82341307844533       -3.26124816926562        0.13352301179340
B            4.16925804827807       -0.64978279695722        0.23103790633093
B            4.24994544342640       -2.34296397939502        0.19075428026912
B            4.33010407636143       -4.02579461245156        0.07775860228991
B            5.44018154088613        3.62994423721597        0.19366996144644
B            5.50228663715942        1.94646339862127        0.51522179292339
B            5.67294255501582       -1.43670174230259        0.13977480667415
B            5.73675552882315       -3.12071648298757        0.47031809038513
H           -7.24444431346466        3.62667158988307        0.41108222874864
H           -7.09042764489840        0.86547838339492       -0.72323111246578
H           -4.91781530101134        5.12928611300525       -0.51584712711190
H           -6.98287856536597       -1.51446771210068       -0.74675466493536
H           -6.88328938725601       -4.26848998502043        0.39686070810651
H           -4.43546386843941       -5.52424042215436       -0.67201245940999
H           -1.99405531781158        5.28720961827690        0.43586983395407
H           -1.48983028227176       -5.46002105587758        0.26350672309092
H            0.97468317780148        5.42296137944162       -0.24498715613749
H            1.45288519561921       -5.33603362555204        0.07492730024451
H            3.90520994253063        5.52466873110504        0.76555168132247
H            4.44958817954225       -5.12318557335816       -0.32116974791884
H            6.36772629205910        4.24099210246774       -0.17765006512200
H            6.45600858279384        1.48146528377155        1.00621592005247
H            6.62351520138207       -0.89562012105407       -0.27728428744016
H            6.69258735345733       -3.64300367785249        0.89998977836904
