38
drug @complex
C       4.69321550      2.06033052      4.15958618
C       4.14075971      0.68681469      3.88723307
C       5.08099042     -0.34693647      3.75898606
C       4.86598124     -1.71160821      3.58359956
N       4.79163663     -2.85762148      3.43699619
C       6.45714313     -0.08961428      3.82081542
N       7.59539595      0.09130817      3.87008126
C       2.72820703      0.52706309      3.82581476
C       2.11293703     -0.73417897      3.58036273
C       0.76522280     -0.89610161      3.56091180
C      -0.11329380      0.19243481      3.78814839
C      -1.50006426      0.04040923      3.81746399
C      -2.34410882      1.10694241      4.09901303
N      -3.72060753      0.90257504      4.16961108
C      -4.62072205      2.02363938      4.30351663
C      -4.20056809     -0.32461297      4.76584081
C      -4.93896998     -1.21382713      3.76189459
F      -6.26516636     -0.84360985      3.68049124
C      -1.76633027      2.38095126      4.27458101
C      -0.41050236      2.55692777      4.21956505
C       0.47044386      1.47041041      4.00724432
C       1.85811447      1.61649505      4.01888253
H       4.40815574      2.38954188      5.16102918
H       4.31742167      2.79207229      3.44453973
H       5.77896900      2.05816060      4.10392633
H       2.74138976     -1.59095053      3.41962698
H       0.33927871     -1.87382147      3.39207261
H      -1.90622371     -0.93958755      3.62336086
H      -4.62543385      2.44479690      5.31869529
H      -4.35275139      2.80401202      3.59375745
H      -5.62729674      1.68344441      4.06406595
H      -3.36159215     -0.88467102      5.18311567
H      -4.88961374     -0.09468352      5.58786946
H      -4.93836440     -2.26042229      4.08063400
H      -4.53063871     -1.10204866      2.74914330
H      -2.39253741      3.23395678      4.47860952
H       0.00712300      3.54189535      4.36755399
H       2.24829194      2.60254289      4.21126515
