98
FDDNP on beta12_supported 0 deg
C      -4.75403322     -1.44047185      5.03334135
C      -4.16130501     -0.12169975      4.64951715
C      -4.97567266      0.87428204      4.19652394
C      -4.53734712      2.11043518      3.67121977
N      -4.24776010      3.11588322      3.20000000
C      -6.38018236      0.72626194      4.14007134
N      -7.52194540      0.62112210      4.10076293
C      -2.72058668      0.04020577      4.75065738
C      -2.15071406      1.29122457      5.09510568
C      -0.80125148      1.44813948      5.18723633
C       0.08088580      0.37238737      4.93314541
C       1.47171830      0.52179224      4.99722385
C       2.33275458     -0.53957826      4.75443525
N       3.69518483     -0.42348762      4.83890993
C       4.56082038     -1.44291930      4.28765117
C       4.32162286      0.80279967      5.26033692
C       4.52144763      1.80927851      4.12026550
F       5.56492287      1.41141149      3.31878820
C       1.75232421     -1.79775988      4.43330764
C       0.40315781     -1.96106767      4.35752199
C      -0.48279873     -0.88879407      4.60200920
C      -1.87370210     -1.03159337      4.53126148
H      -4.23428101     -1.85884117      5.89328474
H      -4.65956938     -2.14462998      4.20463525
H      -5.81322198     -1.34173867      5.26266111
H      -2.80141378      2.12133695      5.32321222
H      -0.38662619      2.40688601      5.46303944
H       1.84669378      1.50581240      5.23103248
H       4.60716892     -2.31972776      4.94146165
H       4.22152438     -1.75462595      3.29766224
H       5.56490710     -1.04042549      4.18070857
H       3.72552872      1.27082979      6.04626194
H       5.30196551      0.56406899      5.68239158
H       4.78417670      2.79843139      4.50728867
H       3.63741093      1.87033587      3.47908293
H       2.38977804     -2.64824996      4.25757492
H      -0.00860899     -2.92967435      4.11177685
H      -2.27297312     -1.99763984      4.25825822
B      -5.85857624      3.38040841      0.00000000
B      -5.85854689      1.69158049     -0.00000000
B      -4.39532834      4.22466855     -0.00000000
B      -4.39711400      2.53475765     -0.00000000
B      -4.39575475      0.84147203     -0.00000000
B      -5.85854686     -1.69158078      0.00000000
B      -5.85857617     -3.38040837     -0.00000000
B      -4.39575479     -0.84147232     -0.00000000
B      -4.39711414     -2.53475765      0.00000000
B      -4.39532857     -4.22466843      0.00000000
B      -2.92793521      3.38324044     -0.00000000
B      -2.92888517      1.68724694     -0.00000000
B      -1.46554580      4.22439782     -0.00000000
B      -1.46605622      2.53507234     -0.00000000
B      -1.46573170      0.84295491     -0.00000000
B      -2.92888518     -1.68724692      0.00000000
B      -2.92793508     -3.38324074      0.00000000
B      -1.46573174     -0.84295512     -0.00000000
B      -1.46605627     -2.53507234      0.00000000
B      -1.46554588     -4.22439779     -0.00000000
B       0.00067086      3.38275146      0.00000000
B       0.00067433      1.68721076      0.00000000
B       1.46420559      4.22439023     -0.00000000
B       1.46473580      2.53506444     -0.00000000
B       1.46438553      0.84295188     -0.00000000
B       0.00067433     -1.68721088      0.00000000
B       0.00067085     -3.38275170      0.00000000
B       1.46438555     -0.84295208     -0.00000000
B       1.46473583     -2.53506442     -0.00000000
B       1.46420568     -4.22439021     -0.00000000
B       2.92927005      3.38326104     -0.00000000
B       2.93022956      1.68726759      0.00000000
B       4.39401124      4.22463050     -0.00000000
B       4.39579743      2.53472819      0.00000000
B       4.39441416      0.84146678     -0.00000000
B       2.93022962     -1.68726763     -0.00000000
B       2.92927005     -3.38326139     -0.00000000
B       4.39441419     -0.84146703     -0.00000000
B       4.39579756     -2.53472819     -0.00000000
B       4.39401144     -4.22463033     -0.00000000
B       5.85997303      3.38040496      0.00000000
B       5.85993260      1.69164307     -0.00000000
B       5.85993251     -1.69164335      0.00000000
B       5.85997297     -3.38040486      0.00000000
H      -6.86866001      3.98474441      0.00000000
H      -6.88164909      1.12316321     -0.00000000
H      -4.39961690      5.40226943     -0.00000000
H      -6.88164986     -1.12316494      0.00000000
H      -6.86866148     -3.98474191     -0.00000000
H      -4.39961557     -5.40226922      0.00000000
H      -1.46579024      5.40011773     -0.00000000
H      -1.46578943     -5.40011766      0.00000000
H       1.46622796      5.40011192     -0.00000000
H       1.46622721     -5.40011186     -0.00000000
H       4.39986570      5.40225046     -0.00000000
H       4.39986407     -5.40225022     -0.00000000
H       6.86878772      3.98676429      0.00000000
H       6.88200886      1.12155941     -0.00000000
H       6.88200989     -1.12156160      0.00000000
H       6.86878944     -3.98676138      0.00000000
