98
 energy: -121.685509156831 gnorm: 0.000991612436 xtb: 6.7.1 (edcfbbe)
C           -4.72007866632135       -2.05024130971124        4.17177829946205
C           -4.16693931409098       -0.67740240855343        3.89768302822732
C           -5.10590222700700        0.35787027751139        3.77510597979369
C           -4.88928969589598        1.72220741400435        3.59843246945380
N           -4.81343953425031        2.86782274424726        3.44989191932501
C           -6.48214840135221        0.10331079244287        3.84697060368958
N           -7.62042852479582       -0.07607721630686        3.90068088460126
C           -2.75421899585327       -0.51991928352678        3.83022073693268
C           -2.13782178614399        0.74070810801044        3.58509014959707
C           -0.78987295137150        0.90053347625287        3.56157474699867
C            0.08758723703535       -0.18965951360545        3.78485107900667
C            1.47459285458100       -0.03956531319074        3.81143118053436
C            2.31780560474994       -1.10765573736896        4.08970925246479
N            3.69476485375640       -0.90483481292744        4.15829817074588
C            4.59357534070485       -2.02711793204033        4.29125554883616
C            4.17647754048851        0.32089050089491        4.75633719724482
C            4.91511622805359        1.21082786297259        3.75325446147752
F            6.24099711918705        0.83985605849968        3.67092733201113
C            1.73875386873361       -2.38120430573071        4.26382066539237
C            0.38252696064045       -2.55534341822116        4.21094116440934
C           -0.49741648985482       -1.46719959093846        4.00294454055123
C           -1.88530350711785       -1.61121870099724        4.01784723850365
H           -4.42604597347348       -2.38300759648023        5.16943118945824
H           -4.35329415569634       -2.78077756293834        3.45075573339570
H           -5.80630391592670       -2.04524000502843        4.12663274238828
H           -2.76537612485973        1.59879781417508        3.42788090141970
H           -0.36292655847245        1.87793077526911        3.39338119351078
H            1.88159173576746        0.94022147097170        3.61809035353060
H            4.59845184951286       -2.44849316661583        5.30633331750134
H            4.32415198930919       -2.80703170870921        3.58159069746778
H            5.60044106642029       -1.68810291236789        4.05125311805385
H            3.33845264112428        0.88118757978694        5.17514752402135
H            4.86583853146579        0.08886873986749        5.57749865316407
H            4.91515795067803        2.25703125299714        4.07324783443407
H            4.50659171021366        1.10042879921626        2.74038671130425
H            2.36409852336534       -3.23556033772897        4.46482665543459
H           -0.03603718928689       -3.54008789667274        4.35771931542658
H           -2.27653092942227       -2.59711994263216        4.20887059145142
B           -5.97829819557500        3.47803586258037       -0.15781115897269
B           -5.91779322963381        1.83534298225457        0.32433386197688
B           -4.55343036655128        4.40248919408699        0.09295683064856
B           -4.49204306206880        2.71445428405547        0.13594356509382
B           -4.42700572897918        1.02370753015769        0.25561364135746
B           -5.78792718461233       -1.57013155110310        0.31494904509619
B           -5.72998429052875       -3.20856888953930        0.82196485957386
B           -4.36385094405373       -0.64981027209745        0.37349448227522
B           -4.30241519066118       -2.33700504637302        0.53044976943489
B           -4.23619878643376       -4.02229823606686        0.61476229178287
B           -3.05387157474799        3.61376469296724        0.01930057069935
B           -2.99191664624454        1.91685913209631        0.14473182898635
B           -1.62277360868688        4.48132146178980       -0.22839187830999
B           -1.56183747749069        2.81882936448030        0.07495951926326
B           -1.49864965312131        1.13430691451062        0.24369068795731
B           -2.86677115469557       -1.42892250457151        0.52418532734928
B           -2.80195998934932       -3.12053792949546        0.70326076237119
B           -1.43546376534334       -0.54287265376319        0.37409674479094
B           -1.37394613631354       -2.21530413302211        0.65331861229967
B           -1.31213767161164       -3.87484245970619        0.97086864457175
B           -0.12821079204821        3.72380740120552        0.03008742986579
B           -0.06456477765877        2.02887170771304        0.16898934778582
B            1.30226009874581        4.62362069562616        0.09739257185971
B            1.36662064614490        2.93542802811606        0.14564309977795
B            1.42995708063808        1.24427822151343        0.24625056083956
B            0.06062658234535       -1.32005180595977        0.52170182072128
B            0.12359808308522       -3.00725099743339        0.73316168460130
B            1.49217488991631       -0.42456817799069        0.45687442714891
B            1.55556011076593       -2.10975309529959        0.61772400157556
B            1.61864610590557       -3.79867011072440        0.66906940352312
B            2.79768207263756        3.83187824171639        0.00926468377634
B            2.86241472365186        2.14375816706134        0.22234454929580
B            4.23259154916143        4.69831646264856       -0.23213448972036
B            4.29698540556951        3.03398140099651        0.04566989204528
B            4.35810900555760        1.35283856984937        0.26257807477754
B            2.98806700730166       -1.20949450909406        0.53077097865679
B            3.04901577683138       -2.89597292344929        0.75833971455452
B            4.42004832501622       -0.30928511415419        0.48749715151410
B            4.48438470122881       -1.98934292233011        0.71053215221030
B            4.54331833588229       -3.65117725111373        1.00877025416862
B            5.72347172688824        3.94947467804129        0.17071490851314
B            5.78749212029348        2.24279372585210        0.02916276119558
B            5.91108992933533       -1.08911484738328        0.72667736261741
B            5.97661790799456       -2.79486127133770        0.60358933305742
H           -6.91732172636602        3.96031004979323       -0.66194012030095
H           -6.85486642219649        1.33412082576588        0.80580822354955
H           -4.64227007517278        5.54372201625987        0.33754342320787
H           -6.74270005925701       -1.17191645449539       -0.22831570417284
H           -6.65510010447154       -3.76418421040040        1.27129845879491
H           -4.23223964802308       -5.16663929256998        0.35595101119214
H           -1.66401894197438        5.61604307616252       -0.52349668883815
H           -1.27438108312765       -5.01214754168759        1.25740598576034
H            1.26644584485963        5.79553582033323        0.14692742697830
H            1.66961404231365       -4.97038977975667        0.61992307669597
H            4.24042803031707        5.76712819707823       -0.71623568964123
H            4.63013479063087       -4.72007600752061        1.48729626945919
H            6.63851705404706        4.59837162901302        0.50587524781121
H            6.75250319296661        1.73320399947302       -0.39093425071024
H            6.84359049529327       -0.50028678614330        1.10991653349025
H            6.93438399711674       -3.37675049299770        0.26315915292407
