98
 energy: -121.685658283310 gnorm: 0.001026817351 xtb: 6.7.1 (edcfbbe)
C            4.69321550134156        2.06033051680301        4.15958618387656
C            4.14075971442899        0.68681468725503        3.88723307105097
C            5.08099042267448       -0.34693646715411        3.75898605602612
C            4.86598123780017       -1.71160820840201        3.58359956097746
N            4.79163663153815       -2.85762148279050        3.43699618531135
C            6.45714312973373       -0.08961427513829        3.82081542154901
N            7.59539594668950        0.09130816992751        3.87008125535945
C            2.72820703060108        0.52706309188793        3.82581476142256
C            2.11293702966179       -0.73417897163733        3.58036273245090
C            0.76522279814929       -0.89610160970809        3.56091179823202
C           -0.11329379573823        0.19243481156798        3.78814839233961
C           -1.50006426176375        0.04040922970827        3.81746399332511
C           -2.34410881843880        1.10694241476995        4.09901302592817
N           -3.72060753420811        0.90257504282732        4.16961108463352
C           -4.62072204591631        2.02363938406331        4.30351662630996
C           -4.20056809489644       -0.32461297278769        4.76584080811681
C           -4.93896997913132       -1.21382713170842        3.76189458894288
F           -6.26516635734920       -0.84360985369323        3.68049123810126
C           -1.76633027249905        2.38095126122841        4.27458100636360
C           -0.41050235862609        2.55692776687729        4.21956505053425
C            0.47044386485196        1.47041041172959        4.00724431886334
C            1.85811447468589        1.61649505393961        4.01888253173689
H            4.40815574490320        2.38954187927845        5.16102918461121
H            4.31742167193019        2.79207228715068        3.44453973249753
H            5.77896899561537        2.05816059840387        4.10392633286019
H            2.74138975860416       -1.59095053113673        3.41962698166654
H            0.33927870821296       -1.87382146558179        3.39207260570534
H           -1.90622371014307       -0.93958755164908        3.62336086335592
H           -4.62543384710120        2.44479689639898        5.31869529266661
H           -4.35275138552178        2.80401201763996        3.59375744564219
H           -5.62729673602933        1.68344440562288        4.06406595492821
H           -3.36159214972868       -0.88467101687379        5.18311567082452
H           -4.88961374241104       -0.09468352411768        5.58786946062791
H           -4.93836440058976       -2.26042229303307        4.08063400054969
H           -4.53063870976400       -1.10204866122107        2.74914329662824
H           -2.39253740712487        3.23395678181339        4.47860952235663
H            0.00712300166170        3.54189534723189        4.36755398660365
H            2.24829194392220        2.60254288900919        4.21126514571739
B           -5.95608823261710        2.79659135415226        0.61982433197970
B           -5.89139682268821        1.09049642319451        0.74226447537960
B           -4.52392101787571        3.65156583436420        1.02277599194651
B           -4.46676497606886        1.98991188574984        0.72321136289467
B           -4.40407831311860        0.30987189169816        0.49933084405790
B           -5.77166422380441       -2.24073980520795        0.04187371090199
B           -5.70823402959642       -3.94779972565189        0.18336925571603
B           -4.34376280663912       -1.35211894988581        0.27272328246364
B           -4.28420947403014       -3.03317347912771        0.05453043372607
B           -4.22159213018999       -4.69727060128935       -0.22523380394001
B           -3.02815876257277        2.89540150974999        0.76972711115934
B           -2.96887906340421        1.20929304865783        0.53880882831378
B           -1.60003545006215        3.79739983951266        0.67621487079483
B           -1.53811765590177        2.10857750145290        0.62249282204313
B           -1.47623365462191        0.42345730170362        0.46027980190540
B           -2.84610806912794       -2.14382566071820        0.22839564567044
B           -2.78299838379207       -3.83158479173851        0.01170008991769
B           -1.41560083562317       -1.24525500047335        0.24800358834528
B           -1.35354088978742       -2.93642327741947        0.14642117478017
B           -1.29040857449694       -4.62464650516721        0.09740475469820
B           -0.10277887367876        3.00523357394075        0.73444636186427
B           -0.04138212825789        1.31797350868816        0.52314656553993
B            1.33155627813136        3.87141971197330        0.97092017318162
B            1.39155981519782        2.21202458042344        0.65258327881522
B            1.45125872062794        0.53996113802637        0.37041533931498
B            0.08078558626923       -2.03058407642239        0.16592172114044
B            0.14304542967485       -3.72574580380180        0.02855189295517
B            1.51305930384608       -1.13713141441895        0.23827631820825
B            1.57480361301391       -2.82158504454909        0.06853290561089
B            1.63390051290248       -4.48399620509699       -0.23537146303466
B            2.82278267063078        3.11646938445456        0.69974362566929
B            2.88605195336265        1.42518643249173        0.51695843022121
B            4.25480698071080        4.01737256871982        0.60690603704260
B            4.31975637656847        2.33214955474759        0.52063115872123
B            4.37970038387580        0.64503514497121        0.36249845393524
B            3.00814776001611       -1.92055575291372        0.13559766182342
B            3.06870207546453       -3.61736666750075        0.00835317380899
B            4.44150019772538       -1.02837105951067        0.24291195868977
B            4.50521363978678       -2.71918822965840        0.12346242912257
B            4.56540332000536       -4.40723594878382        0.07959010504013
B            5.75126821887878        3.20278954799453        0.80866199382280
B            5.80685788982858        1.56469856734686        0.30133379960306
B            5.93461137114286       -1.84106634827101        0.30789977567075
B            5.99293671401358       -3.48354030418994       -0.17387469899854
H           -6.91668947963435        3.37658965806367        0.28403102573350
H           -6.82621363261949        0.50418431046631        1.12379599216045
H           -4.60735402176724        4.72038129982173        1.50217930917318
H           -6.73967195181345       -1.73242652761824       -0.37285634849931
H           -6.62473029898437       -4.59354538375721        0.52087085323650
H           -4.23025628349063       -5.76490528630866       -0.71185308946378
H           -1.64893674455197        4.96922477043023        0.62779900325357
H           -1.25386334255631       -5.79655694560705        0.14699108635420
H            1.29675215193447        5.00840835041937        1.25909084157013
H            1.67511868204277       -5.61826835864259       -0.53223795753884
H            4.25220409059673        5.16218698851264        0.35019426636096
H            4.65550201307112       -5.54870230215934        0.32284245587733
H            6.67566088022828        3.75999955742804        1.25730913937323
H            6.75714325433008        1.16505138603622       -0.24865257311922
H            6.87013431724747       -1.33887843419703        0.79120497104060
H            6.92755397229762       -3.96884768388317       -0.68320449484399
