98
 energy: -121.680903777955 gnorm: 0.000970192235 xtb: 6.7.1 (edcfbbe)
C           -2.57043169537675        4.50904870418976        4.05118956474220
C           -1.16226884984277        4.05032448339522        3.78256477946552
C           -0.20072194604159        5.05631239998502        3.61132538508482
C            1.14286966246422        4.92060677977023        3.27076363313096
N            2.25638245588719        4.89158124870830        2.95634409215736
C           -0.53206120534770        6.41299985461485        3.73175208005555
N           -0.76752563785640        7.53762436550293        3.83211472245417
C           -0.90123848165409        2.65016528455806        3.75300328969514
C            0.41949211651583        2.12484537785903        3.66023180141762
C            0.67865234430649        0.79204335364947        3.68386581637836
C           -0.36173278690438       -0.15932634042338        3.82905606337443
C           -0.10972388762171       -1.52793068300045        3.92800573619002
C           -1.13372001037922       -2.44549698223995        4.13137625158371
N           -0.84669581617790       -3.80022551517673        4.25307822550758
C           -1.90685540074459       -4.77979348715155        4.24293763801505
C            0.35135270034338       -4.20735392040330        4.94915451119470
C            1.34973552711196       -4.92532963659134        4.03579333325137
F            1.00952152286589       -6.25433523238650        3.90453809082441
C           -2.45668757447514       -1.96025071283811        4.16595453123505
C           -2.72767083788893       -0.62381208691292        4.03945119266879
C           -1.69444691465241        0.33104603090961        3.89709354652109
C           -1.94046543070975        1.70471633138506        3.84159640220965
H           -2.95723547753310        4.05037053174747        4.96207805066056
H           -3.23242818946926        4.24359965902545        3.22494934734384
H           -2.60564696733180        5.58888054674184        4.17282178990875
H            1.24604190036779        2.80973043445704        3.59749537033397
H            1.69765294308198        0.43970942025415        3.62298960904192
H            0.91517387445437       -1.85906550222507        3.85570224513494
H           -2.47574067973859       -4.80012532808000        5.18273871178301
H           -2.58555912979345       -4.58485813796927        3.41309215442945
H           -1.46289771995665       -5.76078610598652        4.08607741268856
H            0.84040783517978       -3.33375044675983        5.38385608682218
H            0.09224813194204       -4.88814134546592        5.76999566530614
H            2.35714198226500       -4.91206647074465        4.46252106135758
H            1.34365215212104       -4.50541419152018        3.02432028713894
H           -3.27567505810343       -2.64520518094230        4.31512379736645
H           -3.75045476012827       -0.28053782667882        4.08285019318069
H           -2.96690418899479        2.02749793486753        3.90586398711339
B           -5.62013886516623        2.92085798909691        0.95934858489827
B           -5.49159604774787        1.23092435478226        0.73331706881816
B           -4.28230853857829        3.86950445105659        0.45326141970985
B           -4.11444821457307        2.20070735182877        0.66948642903298
B           -3.94902044479711        0.51764048740599        0.80605500300953
B           -5.17633895920472       -2.14262865094102        0.87468171114817
B           -4.99056301782380       -3.79876509664723        1.26523338724063
B           -3.79331566135404       -1.15192889374924        0.87537393760145
B           -3.64315139818428       -2.84219933772337        0.88289094791956
B           -3.49534266822526       -4.52497138374079        0.83702475337385
B           -2.73668480509951        3.17754667960746        0.47286159877697
B           -2.57278256691764        1.48837488696149        0.62445365779978
B           -1.35058059218083        4.14627924130746        0.45935144018098
B           -1.20536969123966        2.46234206899939        0.41356542467083
B           -1.05668591312163        0.77180968510785        0.38395048907094
B           -2.25844275047178       -1.86199571011568        0.78266396627639
B           -2.10697869042921       -3.56044994398007        0.75803986219774
B           -0.89930621715915       -0.90213610981830        0.46528515294767
B           -0.73044162849326       -2.57929935605445        0.66685698790765
B           -0.56440530067037       -4.25123419331767        0.84357405579704
B            0.16786382866564        3.43718394508327        0.21314263246233
B            0.32722480146052        1.74584318440449        0.30265962230878
B            1.52350371893314        4.38376144260533       -0.16283899191293
B            1.69755726828750        2.72001742002751        0.09742773838445
B            1.86310148760758        1.04018215611784        0.26647806324144
B            0.63594543721554       -1.60898355237270        0.39399437083178
B            0.80854561641068       -3.29110551976178        0.62865133125975
B            2.01761858304036       -0.63518688087489        0.31341964667096
B            2.17622674619448       -2.31947530191413        0.39361684772233
B            2.33669709291583       -3.99636409431054        0.50770159918103
B            3.07153429167681        3.69829652827981       -0.05053244187961
B            3.23323475276060        2.00627612969608        0.04016681339209
B            4.46090356005772        4.66592892130240       -0.07498832437202
B            4.61307969664659        2.98452350339290       -0.08297537139953
B            4.76621441058438        1.29559164709231       -0.04376344579557
B            3.55309526575676       -1.34156599089237        0.25389922236459
B            3.69867254413056       -3.04121189354857        0.20691132084399
B            4.91701939199842       -0.37644594159698       -0.02957441134354
B            5.07268210764783       -2.06464453500003        0.00531400228618
B            5.21911460639291       -3.74636303467596       -0.01647459443805
B            5.96428350985216        3.94099489785505       -0.46779788991021
B            6.14899562248639        2.28490812762200       -0.06334716488475
B            6.43170939912516       -1.10578932351051       -0.27941757508360
B            6.61972627113904       -2.76279608004106        0.12655567867716
H           -6.55925361483410        3.43045320402246        1.43829782357590
H           -6.43569464344026        0.61749620884839        0.42326792530693
H           -4.46927467921665        4.95453906158817        0.05233572124854
H           -6.21902839718477       -1.75700001466090        0.51431348653328
H           -5.83246998145644       -4.42434483520332        1.78810392352345
H           -3.47571627544908       -5.65819786395046        0.53373496463669
H           -1.44941513914343        5.30774015400862        0.57280738692452
H           -0.45246478087977       -5.39383723663908        1.08163647964290
H            1.39383691213860        5.49680248420715       -0.50253823741875
H            2.45716002846003       -5.16086872775404        0.60152447867979
H            4.42718898470937        5.80177536777937        0.19918756294759
H            5.33636987108908       -4.86484228437693       -0.35271113670229
H            6.79941999664911        4.56359428087887       -1.00139967882907
H            7.17798384884438        1.88792919924885        0.32444364238821
H            7.29212452953998       -0.55240512455530       -0.84821480100906
H            7.64704886958317       -3.22008571650323        0.45566466475178
