98
 energy: -121.680850302765 gnorm: 0.001058044743 xtb: 6.7.1 (edcfbbe)
C            2.58597754347626       -4.49385252265723        4.08216346092246
C            1.17692079648186       -4.03974131703112        3.81054540251309
C            0.21777682043113       -5.04886463781487        3.64446515810460
C           -1.12572691798194       -4.91826941230414        3.30146700982061
N           -2.23934259461224       -4.89347176888540        2.98722249552192
C            0.55200859977982       -6.40408252278827        3.77340762724743
N            0.78982969357748       -7.52751161165726        3.88124439353396
C            0.91286475262998       -2.64034948656106        3.77211313880724
C           -0.40888841598334       -2.11852502779830        3.67444666806342
C           -0.67097830361224       -0.78616308115780        3.68886938743739
C            0.36716036740203        0.16840732638023        3.82890016722445
C            0.11201180276929        1.53708364898077        3.91827547119161
C            1.13372971054215        2.45826622744571        4.11661243139614
N            0.84376871932691        3.81310917327061        4.22924262116750
C            1.90174126175393        4.79499836898132        4.21276501017388
C           -0.35603472963777        4.22278620098890        4.92063743839615
C           -1.35295577989068        4.93537467716193        4.00149307214817
F           -1.01406930788390        6.26419367449305        3.86501475007483
C            2.45776044225662        1.97615626100411        4.15564009912642
C            2.73183115842703        0.63950130766361        4.03844660340054
C            1.70084265578109       -0.31860770755759        3.90172463169442
C            1.94990671703691       -1.69207497635454        3.85580204215944
H            2.97186455629992       -4.02880016800547        4.99018830540588
H            3.24746498779052       -4.23213571097309        3.25430958307225
H            2.62348575981646       -5.57280075357245        4.21042168002255
H           -1.23382864533158       -2.80561416194396        3.61516145272716
H           -1.69062512434601       -0.43641591369582        3.62431987755836
H           -0.91356356720259        1.86536016765739        3.84249545906474
H            2.47058290931734        4.82272320085832        5.15245445822130
H            2.58094876855488        4.59618343218669        3.38418248132744
H            1.45565142096552        5.77400540207626        4.04956128668589
H           -0.84529261816262        3.35096681589526        5.35858283167960
H           -0.09933397503240        4.90786479594693        5.73870336895682
H           -2.36143399129587        4.92285558951355        4.42563620692307
H           -1.34370774196668        4.51085164696100        2.99196250720747
H            3.27511130606370        2.66394013291479        4.30071529876511
H            3.75535325753086        0.29879340228442        4.08501313332728
H            2.97696543079261       -2.01215172869644        3.92351961609458
B           -6.61809599108501        2.76154934041339        0.10598254770678
B           -6.43185622276578        1.10161772782710       -0.29023941522441
B           -5.21890699497290        3.74224999743849       -0.04247718923747
B           -5.07456824539895        2.06048956835015       -0.00945643320354
B           -4.92088444482835        0.37190891411640       -0.03469586323495
B           -6.15366503619870       -2.28777983072761       -0.05014163117192
B           -5.97069959464300       -3.94678842802976       -0.44467682754497
B           -4.77222065504271       -1.30042721647606       -0.03715639804235
B           -4.62116957593542       -2.98980890054904       -0.06478168515994
B           -4.47109088441635       -4.67133400590002       -0.04596167427639
B           -3.69668367667193        3.03684573833426        0.18421719274295
B           -3.55336388960335        1.33733607716667        0.24349710432760
B           -2.33618887360017        3.99211815609076        0.47899986496296
B           -2.17790040185357        2.31421906008257        0.37783010924211
B           -2.02144538202041        0.62920061643687        0.30939554442844
B           -3.23755667716309       -2.01213601831718        0.05136112064259
B           -3.07810562225280       -3.70500470067172       -0.02621994775521
B           -1.86900623445848       -1.04665172561646        0.27357466954796
B           -1.70525147885597       -2.72763240164159        0.11325958692141
B           -1.53327818628635       -4.39324536505803       -0.13570640367354
B           -0.80646683865194        3.28597701085879        0.60575975215167
B           -0.63603543831094        1.60201560265411        0.38426280972049
B            0.56495026033093        4.24546478137029        0.81590618838460
B            0.72901994834052        2.57219445644026        0.65025341251972
B            0.89585249415255        0.89356323207288        0.45948022883673
B           -0.33158488354575       -1.75378473310669        0.31640790507522
B           -0.17386090124822       -3.44560984240073        0.23290054118480
B            1.05115236241947       -0.78106538982386        0.38935103757110
B            1.19777035695893       -2.47153850467317        0.42997530194264
B            1.34122711833896       -4.15527973587043        0.48243891319697
B            2.10908332356413        3.55241924004699        0.73751373453115
B            2.25863753881079        1.85407213534189        0.77086507070561
B            3.49625806823862        4.51547134411545        0.80893654591234
B            3.64195943471346        2.83283404769405        0.86595429048263
B            3.78993683209654        1.14237236041973        0.86987970116851
B            2.56888186981432       -1.49772067136189        0.63459260241025
B            2.73066204281143       -3.18807663784610        0.49487133759755
B            3.94358355017868       -0.52776676894322        0.81150666200992
B            4.10702960362626       -2.21184522281581        0.68583354551974
B            4.27303043215542       -3.88211309778677        0.47911860990672
B            4.99308320756440        3.79052063836713        1.24228882990077
B            5.17676807391806        2.13167102312213        0.86432098577504
B            5.48792001761128       -1.24334117760911        0.74496858590338
B            5.61445041769594       -2.93178741702748        0.98011044919881
H           -7.64706164311478        3.21974490285754        0.42870516619210
H           -7.29505468673646        0.54702156905915       -0.85355649958189
H           -5.33306569721303        4.85955424166055       -0.38350268559287
H           -7.18415711328991       -1.88893377076316        0.33182106028182
H           -6.80964397223767       -4.56949774169659       -0.97213969221425
H           -4.43783756716833       -5.80453084959396        0.23907100400797
H           -2.45378597816216        5.15706547772218        0.56601505670248
H           -1.40362378838261       -5.50809702341494       -0.46905392300324
H            0.45571082462968        5.39016287394835        1.04491678467896
H            1.44058116777182       -5.31658821558088        0.59658132772374
H            3.47941681631011        5.64683326909356        0.49857881496169
H            4.45992846684603       -4.97013995652899        0.08665570647852
H            5.83309047154462        4.42093556450946        1.76200172952497
H            6.21763180180979        1.74018610935972        0.50534732082871
H            6.43110975935774       -0.63074026740402        0.43095790670044
H            6.54961257743214       -3.44233840314477        1.46539820160698
