99
Hydromethylthionine/beta12_supported GFN2 opt
C       5.16895281     -2.31301116      4.10027540
N       5.00842526     -0.94485700      3.67085324
C       6.18848068     -0.12192819      3.57055530
C       3.76719637     -0.35504080      3.73346644
C       3.59393969      1.02785819      3.60713989
C       2.32959286      1.58730484      3.59962040
C       1.18020528      0.81513744      3.72571094
C       1.34806687     -0.55955543      3.88709914
C       2.60965960     -1.12810159      3.89103688
S      -0.01774329     -1.66917207      4.10341905
C      -1.41545111     -0.59836632      3.89841162
C      -2.65990309     -1.20270423      3.90338810
C      -3.84094324     -0.45752133      3.78845540
N      -5.06873252     -1.06577445      3.79314354
C      -5.22348198     -2.43835132      4.20414874
C      -6.25626931     -0.35103866      3.39575189
C      -3.70779015      0.93101596      3.66969384
C      -2.45947560      1.52430241      3.63994506
C      -1.28829593      0.78178319      3.74499884
N      -0.06229523      1.42131088      3.69405562
H       6.22330991     -2.57521250      4.07569514
H       4.64282698     -2.99361800      3.42637057
H       4.79925308     -2.46961153      5.12076412
H       6.09685150      0.54755593      2.71502712
H       7.05228749     -0.75968358      3.39976017
H       6.36590451      0.46951425      4.47843607
H       4.43999446      1.68386265      3.51313397
H       2.22772177      2.65784353      3.50121348
H       2.66708318     -2.19557797      4.01513768
H      -2.68845437     -2.27535109      3.99269047
H      -5.03908532     -3.13655775      3.37821610
H      -6.24105641     -2.59175126      4.56074798
H      -4.54547576     -2.67103558      5.02634182
H      -6.04452169      0.28276978      2.53217262
H      -6.65740341      0.26371081      4.21134142
H      -7.01629788     -1.06942076      3.09696907
H      -4.57809672      1.56060323      3.61123874
H      -2.38648348      2.59770416      3.54414001
H      -0.07694013      2.41510226      3.53760772
B      -6.10263040      3.11152410      0.38042007
B      -5.95556731      1.42309519      0.17027152
B      -4.72316383      4.06306209      0.02449340
B      -4.57720047      2.39084403      0.22011988
B      -4.42623788      0.70602612      0.35095829
B      -5.65682706     -1.95211252      0.31664813
B      -5.50898394     -3.60956189      0.71637301
B      -4.27877457     -0.96356111      0.43041137
B      -4.13139443     -2.65294507      0.46880849
B      -3.98132255     -4.33574851      0.44150840
B      -3.18619853      3.36774781      0.16707321
B      -3.03861272      1.67586743      0.29535993
B      -1.80407425      4.33444244      0.32716868
B      -1.65662992      2.65089266      0.25972342
B      -1.50748570      0.96024876      0.22293999
B      -2.74247364     -1.67369059      0.50247191
B      -2.59058011     -3.37252941      0.48605996
B      -1.35950304     -0.71405418      0.32017817
B      -1.21086605     -2.39183604      0.52876005
B      -1.06288650     -4.06357123      0.72247630
B      -0.27041246      3.62612850      0.20321305
B      -0.12092049      1.93063369      0.23190725
B       1.11406979      4.57909317      0.00857736
B       1.26322692      2.90599466      0.19523891
B       1.41163049      1.22159936      0.29567373
B       0.17526933     -1.42448461      0.35007252
B       0.32488545     -3.10538533      0.62187665
B       1.55955806     -0.45362268      0.36312462
B       1.70872474     -2.13571790      0.49976134
B       1.85709193     -3.80922858      0.67448044
B       2.64590302      3.88405963      0.19441991
B       2.79732424      2.18717488      0.20370026
B       4.03307452      4.84849933      0.30288883
B       4.18347657      3.16679881      0.27423660
B       4.33097781      1.47634513      0.28138035
B       3.09360653     -1.16065495      0.45474437
B       3.24116990     -2.85813800      0.46701588
B       4.47803782     -0.19565688      0.30713946
B       4.62861221     -1.88354084      0.36789460
B       4.77483511     -3.56493253      0.38407409
B       5.56404973      4.12575202      0.02619539
B       5.71143758      2.46368152      0.40417877
B       6.00860963     -0.92519523      0.21590938
B       6.15817510     -2.58323437      0.63021803
H      -7.09393226      3.62540974      0.74569176
H      -6.88187870      0.81020324     -0.20008446
H      -4.86879357      5.17193403     -0.33885141
H      -6.67269078     -1.56010037     -0.11475676
H      -6.40951648     -4.23930213      1.13544185
H      -3.92869372     -5.47702952      0.16256269
H      -1.91448964      5.48877399      0.52586487
H      -0.97418755     -5.20036010      1.00941037
H       1.01302174      5.73158783     -0.20520496
H       1.96765729     -4.96874611      0.83888960
H       3.98170359      5.98061520      0.61764687
H       4.91608998     -4.69583158      0.09042295
H       6.45832931      4.77548195     -0.36906826
H       6.70538291      2.06991781      0.88916924
H       6.93250600     -0.36381645     -0.23936557
H       7.16293560     -3.04298336      1.03164532
