39
drug @complex
C       5.16895281     -2.31301116      4.10027540
N       5.00842526     -0.94485700      3.67085324
C       6.18848068     -0.12192819      3.57055530
C       3.76719637     -0.35504080      3.73346644
C       3.59393969      1.02785819      3.60713989
C       2.32959286      1.58730484      3.59962040
C       1.18020528      0.81513744      3.72571094
C       1.34806687     -0.55955543      3.88709914
C       2.60965960     -1.12810159      3.89103688
S      -0.01774329     -1.66917207      4.10341905
C      -1.41545111     -0.59836632      3.89841162
C      -2.65990309     -1.20270423      3.90338810
C      -3.84094324     -0.45752133      3.78845540
N      -5.06873252     -1.06577445      3.79314354
C      -5.22348198     -2.43835132      4.20414874
C      -6.25626931     -0.35103866      3.39575189
C      -3.70779015      0.93101596      3.66969384
C      -2.45947560      1.52430241      3.63994506
C      -1.28829593      0.78178319      3.74499884
N      -0.06229523      1.42131088      3.69405562
H       6.22330991     -2.57521250      4.07569514
H       4.64282698     -2.99361800      3.42637057
H       4.79925308     -2.46961153      5.12076412
H       6.09685150      0.54755593      2.71502712
H       7.05228749     -0.75968358      3.39976017
H       6.36590451      0.46951425      4.47843607
H       4.43999446      1.68386265      3.51313397
H       2.22772177      2.65784353      3.50121348
H       2.66708318     -2.19557797      4.01513768
H      -2.68845437     -2.27535109      3.99269047
H      -5.03908532     -3.13655775      3.37821610
H      -6.24105641     -2.59175126      4.56074798
H      -4.54547576     -2.67103558      5.02634182
H      -6.04452169      0.28276978      2.53217262
H      -6.65740341      0.26371081      4.21134142
H      -7.01629788     -1.06942076      3.09696907
H      -4.57809672      1.56060323      3.61123874
H      -2.38648348      2.59770416      3.54414001
H      -0.07694013      2.41510226      3.53760772
