99
 energy: -117.525142495920 gnorm: 0.000807073196 xtb: 6.7.1 (edcfbbe)
C           -5.17429320593600        2.30005300411369        4.09697109053133
N           -5.01285534076130        0.93486830656736        3.65782942572999
C           -6.19429153316617        0.11566407339202        3.54512047615906
C           -3.77316957022040        0.34268503738986        3.72654125114302
C           -3.60112138696722       -1.04110989512115        3.60937343614865
C           -2.33723547390134       -1.60186221735734        3.60852217185345
C           -1.18747315630124       -0.83020581712568        3.73377011587409
C           -1.35436397722077        0.54568052521371        3.88608363390309
C           -2.61520835625430        1.11554590796646        3.88160981994948
S            0.01166758694883        1.65471196123448        4.10188283155415
C            1.40840305109206        0.58247640379466        3.89949223527219
C            2.65296504606314        1.18652839375099        3.90091026468975
C            3.83345638394875        0.44117424833887        3.78234821111856
N            5.05937569671689        1.05402451225882        3.77565360813820
C            5.19436711522935        2.43393555984372        4.16959209227327
C            6.25213105219522        0.31757117769188        3.43957851493296
C            3.70024727664101       -0.94759370289322        3.66841799879707
C            2.45166013862865       -1.54111434483423        3.64741184241673
C            1.28084877793909       -0.79831579063292        3.75289837817294
N            0.05453679382031       -1.43812657751118        3.71130591929979
H           -6.23012560698212        2.55727973377409        4.08799850526917
H           -4.65982958720002        2.98776743180060        3.42101458867487
H           -4.79242370205081        2.45178511367125        5.11358529313449
H           -6.08972927529508       -0.56196110138688        2.69789544340190
H           -7.05203266842563        0.75553885082001        3.35209400338180
H           -6.39057265405184       -0.46621327784504        4.45545791171393
H           -4.44774429398727       -1.69697988117070        3.51873715609946
H           -2.23605551154527       -2.67314050069862        3.51695432134942
H           -2.67234690567543        2.18397892344652        3.99757250436680
H            2.68190990552607        2.25877059412910        3.99165495665145
H            4.89840159481600        3.11767465712063        3.36499483001303
H            6.23362644585409        2.63593768955621        4.41992965121376
H            4.59021516979515        2.64424094087176        5.05536687054153
H            6.07695675000345       -0.29954317681242        2.55511536661775
H            6.58923539624304       -0.31892599348709        4.26757980715309
H            7.04611703128542        1.02025210224787        3.19887086207036
H            4.56949470805611       -1.57787800480398        3.60523585030389
H            2.37841510934282       -2.61490338115301        3.55628906653616
H            0.06816664730231       -2.43253765734781        3.55821374780234
B           -6.12201070849401        2.65618807922531        0.61024427401545
B           -5.98859727077259        0.99517191236311        0.20036614620489
B           -4.73100397658895        3.62273346978672        0.35934111722530
B           -4.60183181819951        1.93988486413691        0.35200797588372
B           -4.46834235884613        0.25034215344970        0.29730349122197
B           -5.72646282920907       -2.39548741332806        0.39764574681844
B           -5.59493712155775       -4.06047973243276        0.02575549613254
B           -4.33825411651131       -1.42313714483065        0.27745606001846
B           -4.20796677200539       -3.11499372148555        0.27447051026280
B           -4.07486252889355       -4.79804088231731        0.31096839910226
B           -3.20223587210425        2.90089562063406        0.44747889290877
B           -3.07192642652508        1.20183203089994        0.44567010644433
B           -1.81147759078660        3.83873235636899        0.65224883152366
B           -1.67976822763135        2.16308992233918        0.48392247174470
B           -1.54752756441398        0.47871322764305        0.35956414683462
B           -2.80920911853604       -2.14960317792910        0.20565176736499
B           -2.67510115352466       -3.84801748760583        0.20515011065055
B           -1.41653014789051       -1.19812963642795        0.29815307561751
B           -1.28503829892530       -2.88442815167092        0.20663397091183
B           -1.15254099404876       -4.55969255104241        0.02590516238903
B           -0.28389867586880        3.11911387677820        0.60838729650621
B           -0.15082984687958        1.43557103998925        0.34509335495757
B            1.11080135772707        4.06344459585226        0.70630506939391
B            1.24218151598216        2.38936477685024        0.52160816099809
B            1.37412420683678        0.70931634699744        0.31980458749754
B            0.11140868754895       -1.92280047603049        0.24093659077019
B            0.24369001531174       -3.61975563744728        0.21779018927955
B            1.50525152325563       -0.96678481729133        0.22986199678044
B            1.63710809480438       -2.65870570761198        0.27515441932794
B            1.76715331641242       -4.34337508079028        0.35036348691242
B            2.63442565103829        3.35600817389846        0.47829016683203
B            2.76896160296455        1.65585142923833        0.50115875015539
B            4.03243404170780        4.30462879436916        0.42941281784811
B            4.16532830564439        2.62059908806279        0.46260713624639
B            4.29554571319561        0.92953572083349        0.43622897431986
B            3.03139276422481       -1.69745613189341        0.30819760910278
B            3.16200331407863       -3.39143556571137        0.19068130777041
B            4.42613232279564       -0.74182475638110        0.36546875671199
B            4.56023895903989       -2.42859325948750        0.24184723131306
B            4.68959461431394       -4.10312615918577        0.05464583920789
B            5.55475950016733        3.56455774057878        0.70959806332822
B            5.68647037285053        1.90378333290840        0.32017369964665
B            5.95118349420926       -1.47523677877507        0.19340748884808
B            6.08051456111545       -3.16389473645196        0.40876137392306
H           -7.12319220088136        3.12469086476186        1.01051553536055
H           -6.91895001535952        0.44405474713996       -0.25438069163043
H           -4.85940891608735        4.75285054912697        0.05709495436465
H           -6.72231696467561       -1.99204357171524        0.87094661887865
H           -6.49624774202463       -4.69930023356696       -0.37153756196577
H           -4.03437785034827       -5.92998352892783        0.62789985965651
H           -1.90868980347632        5.00102167856505        0.80507411604148
H           -1.06127451722811       -5.71458826785950       -0.17938304800200
H            1.03436500211186        5.20362544450983        0.98352993380848
H            1.86661270811162       -5.49781020255143        0.55443722186675
H            3.99308368645448        5.44499441877088        0.14428616425495
H            4.82623314259429       -5.21576442400110       -0.30070998326135
H            6.45858516452058        4.18926536700607        1.12833045571652
H            6.69698563790594        1.49773544756212       -0.11057982945143
H            6.88297812369962       -0.87120115734489       -0.17780082443509
H            7.06393857615329       -3.68964047761428        0.77841456358206
