99
 energy: -117.525235091352 gnorm: 0.000750207586 xtb: 6.7.1 (edcfbbe)
C            5.16895281006748       -2.31301116330560        4.10027540151899
N            5.00842525998894       -0.94485699923374        3.67085323993174
C            6.18848067633845       -0.12192818568500        3.57055529726867
C            3.76719636815667       -0.35504080319594        3.73346644183428
C            3.59393969342512        1.02785818911965        3.60713988928463
C            2.32959285657911        1.58730483829786        3.59962039781890
C            1.18020527715814        0.81513744180850        3.72571094261018
C            1.34806687411640       -0.55955543398110        3.88709913879770
C            2.60965959862150       -1.12810158687379        3.89103688470837
S           -0.01774328863970       -1.66917206649923        4.10341905328394
C           -1.41545111290479       -0.59836631563911        3.89841161571512
C           -2.65990308556486       -1.20270422572133        3.90338810067904
C           -3.84094324276584       -0.45752133412402        3.78845540274957
N           -5.06873252395454       -1.06577444618331        3.79314353802917
C           -5.22348198201011       -2.43835132041185        4.20414874418564
C           -6.25626931019803       -0.35103866468092        3.39575188719309
C           -3.70779015433038        0.93101596207131        3.66969384305874
C           -2.45947559615315        1.52430241372149        3.63994506109114
C           -1.28829593016575        0.78178318704869        3.74499884061044
N           -0.06229522791756        1.42131087981529        3.69405561823303
H            6.22330990878713       -2.57521249595628        4.07569514286177
H            4.64282698182310       -2.99361800381757        3.42637057268816
H            4.79925307784990       -2.46961153441479        5.12076411737890
H            6.09685149509084        0.54755593182954        2.71502711888770
H            7.05228748753631       -0.75968357773207        3.39976016816773
H            6.36590450727065        0.46951425154272        4.47843606590969
H            4.43999445903757        1.68386265025830        3.51313396672060
H            2.22772177175951        2.65784352873424        3.50121347747420
H            2.66708317932398       -2.19557796896943        4.01513768227639
H           -2.68845437193262       -2.27535109053237        3.99269047109427
H           -5.03908532024800       -3.13655775131594        3.37821610347662
H           -6.24105640706575       -2.59175126194922        4.56074797517730
H           -4.54547575802679       -2.67103557985273        5.02634181914050
H           -6.04452168788324        0.28276978460700        2.53217262479844
H           -6.65740340701038        0.26371081426776        4.21134142191108
H           -7.01629787748583       -1.06942075648538        3.09696906991088
H           -4.57809672174742        1.56060323308734        3.61123873898395
H           -2.38648348173136        2.59770416082538        3.54414000689329
H           -0.07694013136078        2.41510225821108        3.53760772348823
B           -6.10263040256281        3.11152409912784        0.38042007089043
B           -5.95556731188745        1.42309519257135        0.17027151680799
B           -4.72316382738894        4.06306209493864        0.02449339505899
B           -4.57720046844821        2.39084402948666        0.22011988441464
B           -4.42623788382511        0.70602612276191        0.35095828761378
B           -5.65682706255676       -1.95211251660470        0.31664812652047
B           -5.50898393607926       -3.60956189481471        0.71637300511696
B           -4.27877456661689       -0.96356110795319        0.43041137126536
B           -4.13139443060049       -2.65294506517455        0.46880849470312
B           -3.98132254758514       -4.33574851284552        0.44150839948100
B           -3.18619852684000        3.36774781486723        0.16707320506457
B           -3.03861272301937        1.67586742766470        0.29535992864442
B           -1.80407425226066        4.33444243606172        0.32716867949987
B           -1.65662991783042        2.65089265624762        0.25972342385132
B           -1.50748570162139        0.96024875993108        0.22293998659527
B           -2.74247363759778       -1.67369059139398        0.50247191239755
B           -2.59058011458856       -3.37252940578683        0.48605995935829
B           -1.35950303913132       -0.71405418070962        0.32017816799734
B           -1.21086604873322       -2.39183603783214        0.52876004683532
B           -1.06288650402707       -4.06357122687865        0.72247629882005
B           -0.27041245768532        3.62612849910139        0.20321305012307
B           -0.12092048632371        1.93063368577658        0.23190724787263
B            1.11406978814411        4.57909316586003        0.00857735577304
B            1.26322691957734        2.90599465992603        0.19523890784853
B            1.41163049266658        1.22159935927926        0.29567373134515
B            0.17526933314042       -1.42448461174706        0.35007252181892
B            0.32488544696531       -3.10538532923408        0.62187664971057
B            1.55955805637792       -0.45362268158531        0.36312461524738
B            1.70872474175285       -2.13571789795664        0.49976133703043
B            1.85709193435176       -3.80922858041485        0.67448043798063
B            2.64590302490859        3.88405963113660        0.19441990520918
B            2.79732424439810        2.18717487754822        0.20370026365150
B            4.03307451996426        4.84849932742732        0.30288883208256
B            4.18347657238880        3.16679880916753        0.27423660284718
B            4.33097780828874        1.47634513415978        0.28138035468180
B            3.09360653179008       -1.16065494780768        0.45474437188720
B            3.24116989990656       -2.85813799668982        0.46701588019687
B            4.47803781683313       -0.19565687574374        0.30713945749663
B            4.62861220601087       -1.88354084458383        0.36789460150043
B            4.77483511049803       -3.56493253271027        0.38407409208614
B            5.56404973438995        4.12575202003012        0.02619539386712
B            5.71143758250537        2.46368151928806        0.40417877074550
B            6.00860962592265       -0.92519522927666        0.21590938196487
B            6.15817510477487       -2.58323436913948        0.63021803064546
H           -7.09393226148420        3.62540974288195        0.74569175681851
H           -6.88187870424885        0.81020324278001       -0.20008446474727
H           -4.86879356946453        5.17193402665938       -0.33885140820090
H           -6.67269077939623       -1.56010037370646       -0.11475676342058
H           -6.40951647501690       -4.23930213076314        1.13544185043831
H           -3.92869371517966       -5.47702952475017        0.16256269009494
H           -1.91448963681957        5.48877399245617        0.52586487121928
H           -0.97418754656526       -5.20036009612598        1.00941036924254
H            1.01302174461516        5.73158783045248       -0.20520495593116
H            1.96765728981033       -4.96874611421319        0.83888959545959
H            3.98170358975799        5.98061520176584        0.61764687141479
H            4.91608998247558       -4.69583157678029        0.09042295475527
H            6.45832930991372        4.77548194949907       -0.36906825807663
H            6.70538290713681        2.06991780678006        0.88916923871357
H            6.93250599656803       -0.36381644743183       -0.23936556737813
H            7.16293559576770       -3.04298336341006        1.03164531921542
