99
 energy: -117.518648341780 gnorm: 0.000926988156 xtb: 6.7.1 (edcfbbe)
C            2.04039579652917        5.18989018075883        3.91764736302764
N            0.60362633198465        5.05692383644236        3.93080449484296
C           -0.17288498290898        6.19812995124266        3.49974170730467
C            0.02921766281451        3.80811356955755        3.87406785579253
C           -1.36070390019290        3.64929200525510        3.80594757482392
C           -1.93240660896294        2.39144066696862        3.76597630750850
C           -1.16358929984938        1.23234809400967        3.78850005787907
C            0.21972049614377        1.38225319487771        3.87904303727981
C            0.79922981910128        2.63887526102617        3.91684787315248
S            1.32940410118671        0.00182786952939        3.93043108300889
C            0.22166735510728       -1.38022705813256        3.87913613655799
C            0.80295320923327       -2.63597820862635        3.91837553190467
C            0.03505836060617       -3.80656441313836        3.87453079651147
N            0.61176101211867       -5.05473968975844        3.93725545990572
C            2.04903008765938       -5.18333409723449        3.91025228919549
C           -0.16243643747667       -6.19738689595248        3.50531393353717
C           -1.35474148277929       -3.64958974125244        3.80077991844386
C           -1.92842244747310       -2.39263121278872        3.76077809389729
C           -1.16169497719062       -1.23223547946385        3.78686331298306
N           -1.78182777781916       -0.00043574979880        3.70462190621415
H            2.30023409086792        6.22862494069612        4.11093237985225
H            2.47852826601464        4.89247350349137        2.95676419064272
H            2.47790013645802        4.58720591221454        4.71454170296831
H           -0.65370528962920        6.01167829503918        2.53569163366955
H            0.48053762903625        7.06037403163442        3.39808569701767
H           -0.94041728717862        6.44206838401241        4.23944588114884
H           -2.01097878436489        4.50542088197141        3.78468983746430
H           -3.00691767386666        2.29982006404686        3.70965071675786
H            1.87329586442036        2.68089677118669        3.96864185239789
H            1.87694885780578       -2.67593809634718        3.97274263460614
H            2.47726458653883       -4.88500324247528        2.94523351341071
H            2.31371704854262       -6.22124999701937        4.10141972595291
H            2.49206984357849       -4.57930867909293        4.70296648753315
H           -0.61892372050216       -6.02483834119276        2.52671199913903
H           -0.94874045360970       -6.42297397489240        4.23038931256459
H            0.48697964233448       -7.06584892469108        3.43573306277034
H           -2.00396828184439       -4.50633272437292        3.77456137882554
H           -3.00289286470459       -2.30281320402842        3.70114252491763
H           -2.77680845291296       -0.00111863756443        3.55531216582198
B           -5.87412961058551        3.36931329117244        0.61247976709739
B           -5.87539278119631        1.68611881595942        0.31088899158178
B           -4.42034575097958        4.21265237527899        0.26846719196092
B           -4.41786800905447        2.52764656957038        0.39884306145966
B           -4.41273453520380        0.83240881384343        0.49296735139712
B           -5.87055868724424       -1.70397537175586        0.30815353626530
B           -5.86450948394670       -3.38760562035363        0.60774431467007
B           -4.41036221682200       -0.84640593945684        0.49164020203128
B           -4.41068105966038       -2.54149143854580        0.39411689789594
B           -4.40835176555633       -4.22626343448672        0.26171359246097
B           -2.94870261049129        3.38066747933690        0.31314747516924
B           -2.94617633299081        1.67961267189626        0.49888805958384
B           -1.48823191838278        4.22078209770978        0.40018140565535
B           -1.48626754170012        2.53229850768451        0.37896010449922
B           -1.48395519882875        0.83888955410355        0.35437713674742
B           -2.94138407984702       -1.68944052126797        0.49635944623822
B           -2.93909389587716       -3.39021546400677        0.30801969805284
B           -1.48156911164318       -0.84434971684706        0.35310756706806
B           -1.47907211049466       -2.53778984862013        0.37423972234538
B           -1.47623123568709       -4.22628966151991        0.39365862964980
B           -0.02026858482511        3.38444151909388        0.45464914194785
B           -0.01856446594937        1.68391898234203        0.31426179579494
B            1.44270928873006        4.22429433520283        0.44908545226492
B            1.44495552262075        2.53632024505696        0.40004492455988
B            1.44689683353566        0.84318539897508        0.32891427635869
B           -0.01378358576263       -1.68515127333857        0.31202015693208
B           -0.01066058164303       -3.38587023708410        0.45009866612913
B            1.44928444028029       -0.84027802005671        0.32771284244663
B            1.45215243891843       -2.53351418721068        0.39677012086671
B            1.45471145727224       -4.22156856015764        0.44337037710401
B            2.90634071631338        3.38981837920645        0.30163400238370
B            2.91122816687590        1.68773198137989        0.45264024003826
B            4.37202727890481        4.22551346579541        0.21568042422883
B            4.37645964966961        2.54006034495959        0.33698046933239
B            4.37747537371351        0.84488082626353        0.42044777069298
B            2.91601449993544       -1.68085655741106        0.44984819334998
B            2.91595934544227       -3.38271718193248        0.29608679808912
B            4.37986866126624       -0.83380530068744        0.41932599127309
B            4.38363414618267       -2.52883217560920        0.33201759164544
B            4.38398540726184       -4.21409287302058        0.20839105745134
B            5.83607021684919        3.38562005721582        0.52712755928463
B            5.83708741162295        1.70309941347314        0.21783306016438
B            5.84192539015569       -1.68754311307157        0.21511753824679
B            5.84565434237193       -3.37055783133451        0.52128804197181
H           -6.81793139469039        3.94134014596740        1.01546491542150
H           -6.84474502024948        1.18053576872210       -0.10723779124430
H           -4.47826109333069        5.34033685495006       -0.06060916977569
H           -6.84103385904860       -1.20090647890957       -0.11042860789648
H           -6.80638627045378       -3.96286518597135        1.01061196285606
H           -4.46348021750673       -5.35312771667958       -0.07070524542282
H           -1.49769768068165        5.39908478344322        0.41057739540500
H           -1.48219289229635       -5.40472208403639        0.40131028125285
H            1.44885621952997        5.39775002914749        0.54722911920446
H            1.46437984128473       -5.39507801835804        0.54086251812966
H            4.41908132175278        5.35402954656121       -0.11279122101320
H            4.43429213646277       -5.34189750671333       -0.12203259791671
H            6.78433525482399        3.96200545622373        0.91210766173566
H            6.79437406685055        1.20483881584687       -0.23489670769389
H            6.79770439409532       -1.18572688356211       -0.23688088831270
H            6.79568032501012       -3.94536734052522        0.90427995966412
