29
Tacrine GFN2 opt
N       0.56714808     -1.93226936     -1.60302219
C       0.49405639     -0.89002544     -0.71222348
C       1.67185355     -0.16317515     -0.36463964
C       2.96540351     -0.47536360     -0.82653915
C       4.04698122      0.27311574     -0.44878607
C       3.88824144      1.37030981      0.40868935
C       2.64809438      1.70395777      0.87370676
C       1.51411793      0.95285744      0.49973398
N       0.31660229      1.33812585      0.97111166
C      -0.75378114      0.65821936      0.63834541
C      -0.72888414     -0.47778148     -0.19128788
C      -1.99185660     -1.21499906     -0.56024790
C      -3.19832255     -0.80503558      0.27954164
C      -3.25228986      0.71032243      0.41337373
C      -2.04359137      1.17204273      1.21451526
H       1.46684912     -2.36036779     -1.73593835
H      -0.21369233     -2.56471400     -1.63826595
H       3.11908994     -1.31062288     -1.49616894
H       5.03203681      0.02065087     -0.81386832
H       4.75430618      1.94936855      0.69482280
H       2.49453573      2.54472862      1.53182626
H      -2.20638524     -1.02412488     -1.61811663
H      -1.83900406     -2.29485271     -0.44774321
H      -3.12140912     -1.24779382      1.27552577
H      -4.10993684     -1.18562030     -0.18670386
H      -3.23741603      1.16720561     -0.57857341
H      -4.17219279      1.01729923      0.91457610
H      -1.98512165      2.26013615      1.26276823
H      -2.12543283      0.80840589      2.24358806
