54
RDKit ETKDG+MMFF
O     -10.39997187     -4.08897905      0.74400442
C      -9.21764549     -3.79282287      0.79181366
O      -8.26940983     -4.70144939      1.07009159
C      -8.69103205     -2.43163523      0.55602313
C      -7.31669149     -2.16430465      0.62781256
C      -6.83045586     -0.87316973      0.39504390
N      -5.45043064     -0.62679493      0.50066963
N      -4.97461915     -0.33625144     -0.61927498
C      -3.59120110     -0.09994931     -0.52402234
C      -2.70887939     -0.89836584     -1.25498405
C      -1.32884692     -0.67018027     -1.20359931
C      -0.79608936      0.37122840     -0.42664441
C       0.65502961      0.61175396     -0.37251837
C       1.19047914      1.87697577     -0.66342001
C       2.57045237      2.10527599     -0.61191508
C       3.44973741      1.07955610     -0.25848734
N       4.83346895      1.33120620     -0.24344074
N       5.29661601      1.17250206      0.90785617
C       6.67757974      1.43709763      0.92190767
C       7.16192982      2.50079895      1.69090359
C       8.52979223      2.77347469      1.74710935
C       9.42467478      1.97505572      1.03928413
O      10.74743850      2.31225396      1.14908057
C       8.96102547      0.89635857      0.27346938
C       9.92943036      0.05792714     -0.46465163
O      11.13516544      0.24276903     -0.46663539
O       9.36519852     -0.94999140     -1.14870361
C       7.58579662      0.62980066      0.22310495
C       2.92666786     -0.18762288      0.02068149
C       1.54714597     -0.41760356     -0.03149844
C      -1.69094052      1.17812093      0.29431643
C      -3.07051035      0.94808597      0.24283255
C      -7.73581709      0.15771506      0.10988921
C      -9.10573031     -0.09920648      0.03688177
C      -9.58028083     -1.38957775      0.25789969
O     -10.93678804     -1.55461437      0.16769043
H      -8.75734296     -5.54169304      1.20098079
H      -6.60782567     -2.95489035      0.86151495
H      -3.09898144     -1.70544115     -1.86974883
H      -0.67023501     -1.30781316     -1.79028349
H       0.53408242      2.69723345     -0.94786905
H       2.96283714      3.09093766     -0.84861489
H       6.46479399      3.12307058      2.24694028
H       8.89691102      3.60556649      2.34245262
H      11.28222005      1.68859211      0.61100679
H      10.11469417     -1.40980964     -1.58227318
H       7.20339346     -0.20444044     -0.35986483
H       3.59782804     -1.00068831      0.28482195
H       1.17203376     -1.41066934      0.20847297
H      -1.31813425      1.99115422      0.91440859
H      -3.74355486      1.58800659      0.80751825
H      -7.36709306      1.16659614     -0.05858957
H      -9.80108572      0.70475623     -0.19029648
H     -11.15682960     -2.49590570      0.34083790
