93
Methylene Blue/B40H15 GFN2 opt
C       5.71204176      0.59023631      8.12858988
N       4.58642337     -0.29360753      8.30645334
C       4.59929002     -1.18923836      9.43889652
C       3.40482127     -0.03864740      7.65789312
C       3.27139152      1.01492790      6.74109857
C       2.09980054      1.21152429      6.04043097
C       1.00213299      0.36653439      6.19759477
N      -0.14488516      0.53200025      5.41085207
C      -1.37372979      0.36282529      6.05917273
C      -2.46355713      1.17691578      5.75842778
C      -3.68593396      1.01602644      6.37695820
C      -3.88464424      0.03062123      7.35471290
N      -5.10366168     -0.16166811      7.95671254
C      -5.18813391     -0.99179900      9.13524230
C      -6.17870090      0.76786026      7.70869769
C      -2.78380864     -0.77559833      7.67280145
C      -1.56913116     -0.61589862      7.03495439
S      -0.25547812     -1.73428048      7.45333690
C       1.11162455     -0.64233219      7.15344937
C       2.27682060     -0.84261545      7.86859320
H       5.94810005      0.68913942      7.06774991
H       6.58212091      0.16591221      8.62388270
H       5.53050152      1.58862646      8.54453065
H       4.38869327     -2.21411014      9.12246487
H       5.58330111     -1.17661912      9.89977069
H       3.86348342     -0.89833223     10.19608657
H       4.08026257      1.70568716      6.57837858
H       2.01901537      2.04794115      5.36567034
H      -2.34039932      1.97158911      5.04014198
H      -4.48328375      1.68548296      6.10347572
H      -4.49331295     -0.66472111      9.91654243
H      -6.19691938     -0.94857521      9.53689432
H      -4.97018709     -2.03313395      8.88689689
H      -7.07276624      0.42892976      8.22632478
H      -6.40697130      0.80554552      6.64177471
H      -5.94268852      1.78153630      8.05490387
H      -2.85781547     -1.55279865      8.41377137
H       2.29077451     -1.64807494      8.58231962
B      -3.32618663      0.59903344     -2.59178325
B      -2.05285315      1.63638442     -2.64755046
B      -0.55207951      2.14733480     -1.95903780
B      -2.69259536     -0.80796917     -2.23407557
B      -0.90345219      1.20541770     -0.81800308
B      -2.18358367      2.41662350     -1.12190273
B      -2.79693026      3.88265080     -0.88724625
B      -1.86066227      4.84160190      0.02424277
B      -2.09478974      1.56390313      0.28886231
B      -1.88650108      4.71289955      1.63927860
B      -1.94420788     -2.25639403     -2.33789893
B      -1.89918638     -1.38958358     -0.97782338
B      -1.50589081     -0.12421396     -0.00662170
B      -0.97823951     -2.70985456     -1.00839843
B      -0.91544181     -0.57227232      1.44893180
B      -2.24231663      0.42311555      1.50843842
B      -1.69234818      1.97472719      1.83878316
B      -1.19247102      3.42988425      2.28408457
B      -1.26458505      0.48779685      2.77519518
B       0.42223741      3.47328864      2.89128236
B       0.22129215     -3.85972912     -0.95710835
B      -0.01556915     -2.95799046      0.33208768
B       0.07726243     -1.87495598      1.52481046
B       1.00432536     -4.27535693      0.46945801
B       1.34507697     -1.67469305      2.55214469
B       0.09757206     -0.65739055      2.73501707
B      -0.05355333      0.77758621      3.96082808
B      -0.48709210      2.14113013      3.04669576
B       1.35581242      0.34750099      3.07405134
B       1.42140772      2.56809574      1.85572014
B       1.68316431     -5.63960097      1.00925681
B       2.14301767     -4.22158366      1.68426241
B       2.58246673     -2.77561813      2.24317807
B       2.71537919     -5.56187151      2.26302705
B       4.16509897     -2.13647966      2.39676529
B       2.89035909     -1.49478345      3.17040709
B       2.98972724      0.21853510      3.25681474
B       2.40059470      1.36351639      2.19240375
B       4.35508012     -0.71549410      3.33786204
B       3.92393154      0.94337929      2.13318449
H      -4.44463585      0.86281723     -2.82991864
H      -1.77479239      1.74121984     -3.78626273
H       0.21707315      2.83681827     -2.49877586
H      -3.84321532      4.22453614     -1.29863903
H      -1.11809561      5.58407554     -0.50330278
H      -2.51255881      5.46840810      2.28948034
H      -2.20643128     -3.03829934     -3.16196503
H       0.84023791      4.42653770      3.42886674
H       0.53683840     -4.45079651     -1.91366547
H       1.34365999      2.96349039      0.74674268
H       1.40071549     -6.73215503      0.72275213
H       3.35395076     -6.18063601      3.00835250
H       5.08215015     -2.74180767      2.00975651
H       5.25205142     -0.58433383      4.08037067
H       4.93932166      1.17828111      1.62083911
