      -----------------------------------------------------------      
     |                   =====================                   |     
     |                           x T B                           |     
     |                   =====================                   |     
     |                         S. Grimme                         |     
     |          Mulliken Center for Theoretical Chemistry        |     
     |                    University of Bonn                     |     
      -----------------------------------------------------------      

   * xtb version 6.7.1pre (5071a88) compiled by 'Marcel@Raven' on 2024-07-23

   xtb is free software: you can redistribute it and/or modify it under
   the terms of the GNU Lesser General Public License as published by
   the Free Software Foundation, either version 3 of the License, or
   (at your option) any later version.
   
   xtb is distributed in the hope that it will be useful,
   but WITHOUT ANY WARRANTY; without even the implied warranty of
   MERCHANTABILITY or FITNESS FOR A PARTICULAR PURPOSE.  See the
   GNU Lesser General Public License for more details.
   
   Cite this work as:
   * C. Bannwarth, E. Caldeweyher, S. Ehlert, A. Hansen, P. Pracht,
     J. Seibert, S. Spicher, S. Grimme, WIREs Comput. Mol. Sci., 2020, 11,
     e01493. DOI: 10.1002/wcms.1493
   
   for GFN2-xTB:
   * C. Bannwarth, S. Ehlert and S. Grimme., J. Chem. Theory Comput., 2019,
     15, 1652-1671. DOI: 10.1021/acs.jctc.8b01176
   for GFN1-xTB:
   * S. Grimme, C. Bannwarth, P. Shushkov, J. Chem. Theory Comput., 2017,
     13, 1989-2009. DOI: 10.1021/acs.jctc.7b00118
   for GFN0-xTB:
   * P. Pracht, E. Caldeweyher, S. Ehlert, S. Grimme, ChemRxiv, 2019, preprint.
     DOI: 10.26434/chemrxiv.8326202.v1
   for GFN-FF:
   * S. Spicher and S. Grimme, Angew. Chem. Int. Ed., 2020, 59, 15665-15673.
     DOI: 10.1002/anie.202004239
   
   for ALPB and GBSA implicit solvation:
   * S. Ehlert, M. Stahn, S. Spicher, S. Grimme, J. Chem. Theory Comput.,
     2021, 17, 4250-4261. DOI: 10.1021/acs.jctc.1c00471
   
   for ddCOSMO and CPCM-X implicit solvation:
   * M. Stahn, S. Ehlert, S. Grimme, J. Phys. Chem. A,
     2023, XX, XXXX-XXXX. DOI: 10.1021/acs.jpca.3c04382
   
   for DFT-D4:
   * E. Caldeweyher, C. Bannwarth and S. Grimme, J. Chem. Phys., 2017,
     147, 034112. DOI: 10.1063/1.4993215
   * E. Caldeweyher, S. Ehlert, A. Hansen, H. Neugebauer, S. Spicher,
     C. Bannwarth and S. Grimme, J. Chem. Phys., 2019, 150, 154122.
     DOI: 10.1063/1.5090222
   * E. Caldeweyher, J.-M. Mewes, S. Ehlert and S. Grimme, Phys. Chem. Chem. Phys.
     2020, 22, 8499-8512. DOI: 10.1039/D0CP00502A
   
   for sTDA-xTB:
   * S. Grimme and C. Bannwarth, J. Chem. Phys., 2016, 145, 054103.
     DOI: 10.1063/1.4959605
   
   in the mass-spec context:
   * V. Asgeirsson, C. Bauer and S. Grimme, Chem. Sci., 2017, 8, 4879.
     DOI: 10.1039/c7sc00601b
   * J. Koopman and S. Grimme, ACS Omega 2019, 4, 12, 15120-15133.
     DOI: 10.1021/acsomega.9b02011
   
   for metadynamics refer to:
   * S. Grimme, J. Chem. Theory Comput., 2019, 155, 2847-2862
     DOI: 10.1021/acs.jctc.9b00143
   
   for SPH calculations refer to:
   * S. Spicher and S. Grimme, J. Chem. Theory Comput., 2021, 17, 1701-1714
     DOI: 10.1021/acs.jctc.0c01306
   
   for ONIOM refer to:
   * C. Plett, A. Katbashev, S. Ehlert, S. Grimme, M. Bursch,
     Phys. Chem. Chem. Phys., 2023, 25, 17860-17868. DOI: 10.1039/D3CP02178E
   
   for DIPRO refer to:
   * J. Kohn, N. Gildemeister, S. Grimme, D. Fazzi, A. Hansen,
     J. Chem. Phys., 2023, just accepted.
   
   for PTB refer to:
   * S. Grimme, M. Mueller, A. Hansen, J. Chem. Phys., 2023, 158, 124111.
     DOI: 10.1063/5.0137838
   
   with help from (in alphabetical order)
   P. Atkinson, C. Bannwarth, F. Bohle, G. Brandenburg, E. Caldeweyher
   M. Checinski, S. Dohm, S. Ehlert, S. Ehrlich, I. Gerasimov, C. Hölzer
   A. Katbashev, J. Kohn, J. Koopman, C. Lavigne, S. Lehtola, F. März, M. Müller,
   F. Musil, H. Neugebauer, J. Pisarek, C. Plett, P. Pracht, F. Pultar,
   J. Seibert, P. Shushkov, S. Spicher, M. Stahn, M. Steiner, T. Strunk,
   J. Stückrath, T. Rose, and J. Unsleber
   
 * started run on 2026/08/31 at 21:15:15.571     
   ID    Z sym.   atoms
    1    6 C      1, 3-7, 9-12, 14-17, 19, 20
    2    7 N      2, 8, 13
    3   16 S      18
    4    1 H      21-38, 92-98
    5    5 B      39-91

           -------------------------------------------------
          |                Calculation Setup                |
           -------------------------------------------------

          program call               : "c:\Users\Andre\Proyectos doctorado\kras-pancreatic-gC3N4-ai\tools\xtb\xtb-6.7.1\bin\xtb.exe" "c:\Users\Andre\Proyectos doctorado\borophene-alzheimer-tau-ai\calculations\tau\Methylene_Blue\Methylene_Blue_B48H12_phys_complex.xyz" --gfn 2 --sp --chrg 1 --uhf 0 --etemp 300 --iterations 500 --norestart
          coordinate file            : c:\Users\Andre\Proyectos doctorado\borophene-alzheimer-tau-ai\calculations\tau\Methylene_Blue\Methylene_Blue_B48H12_phys_complex.xyz
          omp threads                :                    16


molecular fragmentation (1/2 indicates fragments):
111111111111111111111111111111111111112222222222222222222222222222222222
22222222222222222222222222
# atoms in fragment 1/2:    38    60
 fragment masses (1/2) :      284.40      580.04
CMA distance (Bohr)    :   9.910
constraining FC (au)   :  0.0500

           -------------------------------------------------
          |                 G F N 2 - x T B                 |
           -------------------------------------------------

        Reference                      10.1021/acs.jctc.8b01176
      * Hamiltonian:
        H0-scaling (s, p, d)           1.850000    2.230000    2.230000
        zeta-weighting                 0.500000
      * Dispersion:
        s8                             2.700000
        a1                             0.520000
        a2                             5.000000
        s9                             5.000000
      * Repulsion:
        kExp                           1.500000    1.000000
        rExp                           1.000000
      * Coulomb:
        alpha                          2.000000
        third order                    shell-resolved
        anisotropic                    true
        a3                             3.000000
        a5                             4.000000
        cn-shift                       1.200000
        cn-exp                         4.000000
        max-rad                        5.000000


          ...................................................
          :                      SETUP                      :
          :.................................................:
          :  # basis functions                 323          :
          :  # atomic orbitals                 322          :
          :  # shells                          172          :
          :  # electrons                       268          :
          :  max. iterations                   500          :
          :  Hamiltonian                  GFN2-xTB          :
          :  restarted?                      false          :
          :  GBSA solvation                  false          :
          :  PC potential                    false          :
          :  electronic temp.          300.0000000     K    :
          :  accuracy                    1.0000000          :
          :  -> integral cutoff          0.2500000E+02      :
          :  -> integral neglect         0.1000000E-07      :
          :  -> SCF convergence          0.1000000E-05 Eh   :
          :  -> wf. convergence          0.1000000E-03 e    :
          :  Broyden damping             0.4000000          :
          :  net charge                          1          :
          :  unpaired electrons                  0          :
          ...................................................

 iter      E             dE          RMSdq      gap      omega  full diag
   1   -123.6806722 -0.123681E+03  0.151E+01    0.16       0.0  T
   2   -113.5435818  0.101371E+02  0.108E+01    0.16       1.0  T
   3    114.5744339  0.228118E+03  0.193E+01    0.08       1.0  T
   4    110.9777895 -0.359664E+01  0.185E+01    0.16       1.0  T
   5    -97.0765424 -0.208054E+03  0.900E+00    0.03       1.0  T
   6    -27.9485401  0.691280E+02  0.116E+01    0.05       1.0  T
   7    -95.0399081 -0.670914E+02  0.799E+00    0.23       1.0  T
   8   -101.8143819 -0.677447E+01  0.700E+00    0.08       1.0  T
   9   -122.7021310 -0.208877E+02  0.381E+00    0.01       1.0  T
  10   -123.6391419 -0.937011E+00  0.328E+00    0.14       1.0  T
  11   -124.3768504 -0.737709E+00  0.281E+00    0.29       1.0  T
  12   -124.4710587 -0.942083E-01  0.269E+00    0.11       1.0  T
  13   -124.3786344  0.924243E-01  0.255E+00    0.42       1.0  T
  14   -124.5026231 -0.123989E+00  0.231E+00    0.16       1.0  T
  15   -124.4368038  0.658193E-01  0.231E+00    0.07       1.0  T
  16   -124.5528053 -0.116002E+00  0.198E+00    0.10       1.0  T
  17   -124.4048442  0.147961E+00  0.180E+00    0.14       1.0  T
  18   -124.4743038 -0.694595E-01  0.122E+00    0.13       1.0  T
  19   -124.4853863 -0.110825E-01  0.116E+00    0.14       1.0  T
  20   -124.6426970 -0.157311E+00  0.954E-01    0.11       1.0  T
  21   -124.6705739 -0.278769E-01  0.868E-01    0.08       1.0  T
  22   -124.6888129 -0.182390E-01  0.841E-01    0.09       1.0  T
  23   -124.7096620 -0.208492E-01  0.723E-01    0.07       1.0  T
  24   -124.7336041 -0.239420E-01  0.498E-01    0.07       1.0  T
  25   -124.7340232 -0.419056E-03  0.391E-01    0.06       1.0  T
  26   -124.7399610 -0.593781E-02  0.278E-01    0.07       1.0  T
  27   -124.7405764 -0.615423E-03  0.222E-01    0.07       1.0  T
  28   -124.7443517 -0.377529E-02  0.155E-01    0.07       1.0  T
  29   -124.7427623  0.158935E-02  0.172E-01    0.06       1.0  T
  30   -124.7438187 -0.105638E-02  0.145E-01    0.07       1.0  T
  31   -124.7422952  0.152347E-02  0.111E-01    0.07       1.0  T
  32   -124.7423527 -0.574831E-04  0.109E-01    0.07       1.0  T
  33   -124.7427012 -0.348473E-03  0.104E-01    0.07       1.0  T
  34   -124.7444946 -0.179339E-02  0.654E-02    0.07       1.0  T
  35   -124.7450705 -0.575882E-03  0.464E-02    0.07       1.0  T
  36   -124.7451223 -0.518249E-04  0.433E-02    0.07       1.0  T
  37   -124.7454594 -0.337064E-03  0.268E-02    0.07       1.0  T
  38   -124.7455461 -0.867371E-04  0.193E-02    0.07       1.0  T
  39   -124.7455936 -0.475064E-04  0.134E-02    0.07       1.0  T
  40   -124.7455926  0.951349E-06  0.102E-02    0.07       1.0  T
  41   -124.7456151 -0.224545E-04  0.556E-03    0.07       1.8  T
  42   -124.7456183 -0.319381E-05  0.448E-03    0.07       2.3  T
  43   -124.7456188 -0.541113E-06  0.363E-03    0.07       2.8  T
  44   -124.7456194 -0.594723E-06  0.182E-03    0.07       5.5  T
  45   -124.7456193  0.793664E-07  0.128E-03    0.07       7.9  T
  46   -124.7456191  0.221478E-06  0.137E-03    0.07       7.4  T
  47   -124.7456192 -0.105940E-06  0.121E-03    0.07       8.3  T
  48   -124.7456196 -0.334869E-06  0.630E-04    0.07      16.0  T
  49   -124.7456197 -0.944815E-07  0.440E-04    0.07      23.0  T

   *** convergence criteria satisfied after 49 iterations ***

         #    Occupation            Energy/Eh            Energy/eV
      -------------------------------------------------------------
         1        2.0000           -0.7574000             -20.6099
       ...           ...                  ...                  ...
       128        2.0000           -0.3627796              -9.8717
       129        2.0000           -0.3585073              -9.7555
       130        2.0000           -0.3581307              -9.7452
       131        2.0000           -0.3535964              -9.6218
       132        1.9984           -0.3490727              -9.4988
       133        1.9957           -0.3481355              -9.4732
       134        1.5938           -0.3436103              -9.3501 (HOMO)
       135        0.4122           -0.3410302              -9.2799 (LUMO)
       136                         -0.3248136              -8.8386
       137                         -0.3206373              -8.7250
       138                         -0.3178519              -8.6492
       139                         -0.3079146              -8.3788
       ...                                ...                  ...
       322                          1.0959421              29.8221
      -------------------------------------------------------------
                  HL-Gap            0.0025801 Eh            0.0702 eV
             Fermi-level           -0.3423115 Eh           -9.3148 eV

 SCC (total)                   0 d,  0 h,  0 min,  0.972 sec
 SCC setup                      ...        0 min,  0.001 sec (  0.103%)
 Dispersion                     ...        0 min,  0.002 sec (  0.206%)
 classical contributions        ...        0 min,  0.000 sec (  0.000%)
 integral evaluation            ...        0 min,  0.008 sec (  0.823%)
 iterations                     ...        0 min,  0.936 sec ( 96.296%)
 molecular gradient             ...        0 min,  0.022 sec (  2.263%)
 printout                       ...        0 min,  0.002 sec (  0.206%)

         :::::::::::::::::::::::::::::::::::::::::::::::::::::
         ::                     SUMMARY                     ::
         :::::::::::::::::::::::::::::::::::::::::::::::::::::
         :: total energy            -122.832725807024 Eh    ::
         :: gradient norm              0.104441654560 Eh/a0 ::
         :: HOMO-LUMO gap              0.070207060987 eV    ::
         ::.................................................::
         :: SCC energy              -124.739666900811 Eh    ::
         :: -> isotropic ES            0.246742295928 Eh    ::
         :: -> anisotropic ES          0.000273065052 Eh    ::
         :: -> anisotropic XC         -0.019734121931 Eh    ::
         :: -> dispersion             -0.132206304335 Eh    ::
         :: repulsion energy           1.906941093787 Eh    ::
         :: add. restraining           0.000000000000 Eh    ::
         :: total charge               0.999999999999 e     ::
         :::::::::::::::::::::::::::::::::::::::::::::::::::::

           -------------------------------------------------
          |                Property Printout                |
           -------------------------------------------------

    * Orbital Energies and Occupations

         #    Occupation            Energy/Eh            Energy/eV
      -------------------------------------------------------------
         1        2.0000           -0.7574000             -20.6099
       ...           ...                  ...                  ...
       122        2.0000           -0.3766937             -10.2504
       123        2.0000           -0.3762126             -10.2373
       124        2.0000           -0.3726404             -10.1401
       125        2.0000           -0.3696189             -10.0578
       126        2.0000           -0.3690151             -10.0414
       127        2.0000           -0.3652664              -9.9394
       128        2.0000           -0.3627796              -9.8717
       129        2.0000           -0.3585073              -9.7555
       130        2.0000           -0.3581307              -9.7452
       131        2.0000           -0.3535964              -9.6218
       132        1.9984           -0.3490727              -9.4988
       133        1.9957           -0.3481355              -9.4732
       134        1.5938           -0.3436103              -9.3501 (HOMO)
       135        0.4122           -0.3410302              -9.2799 (LUMO)
       136                         -0.3248136              -8.8386
       137                         -0.3206373              -8.7250
       138                         -0.3178519              -8.6492
       139                         -0.3079146              -8.3788
       140                         -0.3067865              -8.3481
       141                         -0.3035742              -8.2607
       142                         -0.2959415              -8.0530
       143                         -0.2918654              -7.9421
       144                         -0.2872041              -7.8152
       145                         -0.2794747              -7.6049
       ...                                ...                  ...
       322                          1.0959421              29.8221
      -------------------------------------------------------------
                  HL-Gap            0.0025801 Eh            0.0702 eV
             Fermi-level           -0.3423115 Eh           -9.3148 eV

     #   Z          covCN         q      C6AA      α(0)
     1   6 C        3.691    -0.057    21.801     6.682
     2   7 N        2.728    -0.101    23.217     7.156
     3   6 C        3.690    -0.069    22.025     6.716
     4   6 C        2.897     0.049    26.907     8.505
     5   6 C        2.922    -0.072    29.807     8.953
     6   6 C        2.937    -0.061    29.512     8.910
     7   6 C        2.939     0.081    26.204     8.395
     8   7 N        1.861    -0.331    29.453     8.044
     9   6 C        2.939     0.080    26.217     8.397
    10   6 C        2.937    -0.062    29.532     8.912
    11   6 C        2.922    -0.072    29.804     8.953
    12   6 C        2.897     0.047    26.943     8.511
    13   7 N        2.728    -0.113    23.460     7.194
    14   6 C        3.690    -0.053    21.723     6.670
    15   6 C        3.691    -0.050    21.658     6.660
    16   6 C        2.960    -0.093    30.331     9.033
    17   6 C        2.966    -0.018    28.461     8.751
    18  16 S        2.084    -0.056   143.386    20.154
    19   6 C        2.966    -0.013    28.337     8.732
    20   6 C        2.960    -0.096    30.405     9.044
    21   1 H        0.924     0.039     2.463     2.454
    22   1 H        0.924     0.057     2.231     2.336
    23   1 H        0.924     0.050     2.318     2.381
    24   1 H        0.924     0.053     2.283     2.363
    25   1 H        0.924     0.059     2.216     2.328
    26   1 H        0.924     0.043     2.406     2.426
    27   1 H        0.925     0.030     2.586     2.515
    28   1 H        0.925     0.049     2.334     2.389
    29   1 H        0.925     0.048     2.349     2.397
    30   1 H        0.925     0.027     2.629     2.536
    31   1 H        0.924     0.045     2.382     2.414
    32   1 H        0.924     0.047     2.352     2.399
    33   1 H        0.924     0.042     2.417     2.431
    34   1 H        0.924     0.050     2.317     2.381
    35   1 H        0.924     0.046     2.365     2.405
    36   1 H        0.924     0.043     2.410     2.428
    37   1 H        0.925     0.019     2.749     2.593
    38   1 H        0.925     0.037     2.488     2.467
    39   5 B        2.872     0.056    20.457     7.550
    40   5 B        3.645     0.039    21.628     7.572
    41   5 B        3.704     0.030    22.026     7.594
    42   5 B        3.599     0.021    21.648     7.632
    43   5 B        3.804     0.029    22.176     7.593
    44   5 B        3.812     0.047    21.857     7.537
    45   5 B        4.425     0.065    21.567     7.483
    46   5 B        3.843     0.029    22.204     7.595
    47   5 B        5.059     0.059    21.677     7.502
    48   5 B        5.523     0.108    20.829     7.354
    49   5 B        3.792     0.010    22.521     7.653
    50   5 B        4.799     0.093    21.085     7.399
    51   5 B        4.746     0.066    21.548     7.479
    52   5 B        3.691     0.020    22.167     7.626
    53   5 B        3.741     0.041    21.901     7.557
    54   5 B        4.170    -0.007    22.883     7.708
    55   5 B        3.938     0.018    22.410     7.628
    56   5 B        3.779     0.086    21.163     7.420
    57   5 B        3.808     0.076    21.359     7.451
    58   5 B        3.812    -0.006    22.828     7.703
    59   5 B        3.711     0.028    22.088     7.601
    60   5 B        3.825     0.016    22.430     7.634
    61   5 B        4.691     0.065    21.572     7.484
    62   5 B        4.735     0.056    21.731     7.511
    63   5 B        3.813     0.085    21.203     7.424
    64   5 B        2.071     0.005    42.843    13.691
    65   5 B        3.706     0.021    22.197     7.622
    66   5 B        4.547     0.028    22.221     7.595
    67   5 B        4.200     0.039    22.033     7.563
    68   5 B        3.748     0.080    21.238     7.440
    69   5 B        3.840     0.004    22.653     7.671
    70   5 B        3.769     0.023    22.270     7.614
    71   5 B        4.530     0.072    21.447     7.462
    72   5 B        5.624     0.100    20.968     7.378
    73   5 B        3.805     0.030    22.161     7.590
    74   5 B        3.825     0.028    22.208     7.597
    75   5 B        2.886     0.086    19.954     7.456
    76   5 B        2.918     0.058    20.409     7.538
    77   5 B        2.913     0.039    20.737     7.599
    78   5 B        3.630     0.027    21.741     7.610
    79   5 B        3.792     0.018    22.376     7.628
    80   5 B        2.860     0.019    21.094     7.668
    81   5 B        2.920    -0.009    21.561     7.748
    82   5 B        3.825     0.035    22.085     7.575
    83   5 B        2.901     0.002    21.372     7.715
    84   5 B        4.532     0.052    21.801     7.523
    85   5 B        3.896     0.051    21.819     7.527
    86   5 B        3.818     0.024    22.273     7.608
    87   5 B        3.778    -0.024    23.147     7.761
    88   5 B        3.628     0.001    22.201     7.691
    89   5 B        4.556     0.041    22.002     7.558
    90   5 B        3.280     0.043    20.642     7.577
    91   5 B        4.869     0.091    21.121     7.405
    92   1 H        0.937    -0.150     7.683     4.334
    93   1 H        0.935    -0.118     6.222     3.900
    94   1 H        0.936    -0.111     5.975     3.822
    95   1 H        0.939    -0.125     6.531     3.995
    96   1 H        0.936    -0.109     5.873     3.789
    97   1 H        0.937    -0.115     6.099     3.861
    98   1 H        0.934    -0.111     5.950     3.814

 Mol. C6AA /au·bohr⁶  :     163119.385882
 Mol. C8AA /au·bohr⁸  :    5416240.434804
 Mol. α(0) /au        :        652.624709


Wiberg/Mayer (AO) data.
largest (>0.10) Wiberg bond orders for each atom

 ---------------------------------------------------------------------------
     #   Z sym  total        # sym  WBO       # sym  WBO       # sym  WBO
 ---------------------------------------------------------------------------
     1   6 C    3.977 --     2 N    1.007    23 H    0.981    22 H    0.977
                            21 H    0.977
     2   7 N    3.321 --     4 C    1.132     3 C    1.008     1 C    1.007
     3   6 C    3.977 --     2 N    1.008    24 H    0.981    25 H    0.976
                            26 H    0.976
     4   6 C    3.918 --    20 C    1.333     5 C    1.320     2 N    1.132
     5   6 C    3.967 --     6 C    1.482     4 C    1.320    27 H    0.968
     6   6 C    3.925 --     5 C    1.482     7 C    1.292    28 H    0.966
     7   6 C    3.973 --     6 C    1.292     8 N    1.276    19 C    1.248
     8   7 N    2.794 --     9 C    1.285     7 C    1.276
     9   6 C    3.974 --    10 C    1.290     8 N    1.285    17 C    1.242
    10   6 C    3.923 --    11 C    1.484     9 C    1.290    29 H    0.966
    11   6 C    3.965 --    10 C    1.484    12 C    1.319    30 H    0.968
    12   6 C    3.912 --    16 C    1.339    11 C    1.319    13 N    1.123
    13   7 N    3.308 --    12 C    1.123    14 C    1.008    15 C    1.006
    14   6 C    3.980 --    13 N    1.008    32 H    0.981    31 H    0.978
                            33 H    0.976
    15   6 C    3.977 --    13 N    1.006    35 H    0.981    34 H    0.978
                            36 H    0.977
    16   6 C    3.972 --    17 C    1.418    12 C    1.339    37 H    0.965
    17   6 C    3.901 --    16 C    1.418     9 C    1.242    18 S    1.037
    18  16 S    2.400 --    17 C    1.037    19 C    1.028
    19   6 C    3.899 --    20 C    1.427     7 C    1.248    18 S    1.028
    20   6 C    3.973 --    19 C    1.427     4 C    1.333    38 H    0.962
    21   1 H    0.995 --     1 C    0.977
    22   1 H    0.995 --     1 C    0.977
    23   1 H    0.997 --     1 C    0.981
    24   1 H    0.997 --     3 C    0.981
    25   1 H    0.995 --     3 C    0.976
    26   1 H    0.996 --     3 C    0.976
    27   1 H    0.998 --     5 C    0.968
    28   1 H    0.997 --     6 C    0.966
    29   1 H    0.997 --    10 C    0.966
    30   1 H    0.998 --    11 C    0.968
    31   1 H    0.997 --    14 C    0.978
    32   1 H    0.997 --    14 C    0.981
    33   1 H    0.996 --    14 C    0.976
    34   1 H    0.996 --    15 C    0.978
    35   1 H    0.997 --    15 C    0.981
    36   1 H    0.995 --    15 C    0.977
    37   1 H    1.000 --    16 C    0.965
    38   1 H    0.999 --    20 C    0.962
    39   5 B    3.437 --    81 B    1.402    92 H    0.966    45 B    0.821
    40   5 B    3.495 --    81 B    1.119    82 B    0.986    46 B    0.555
                            45 B    0.507
    41   5 B    3.486 --    83 B    1.263    82 B    1.005    48 B    0.488
                            47 B    0.450
    42   5 B    3.455 --    83 B    1.268    43 B    1.019    48 B    0.559
                            84 B    0.364
    43   5 B    3.513 --    85 B    1.078    42 B    1.019    49 B    0.682
                            84 B    0.484
    44   5 B    3.576 --    96 H    0.944    85 B    0.852    50 B    0.800
                            56 B    0.792
    45   5 B    3.594 --    51 B    0.834    39 B    0.821    81 B    0.779
                            40 B    0.507    52 B    0.397
    46   5 B    3.552 --    52 B    1.097    82 B    0.760    47 B    0.699
                            40 B    0.555
    47   5 B    3.594 --    53 B    0.958    46 B    0.699    48 B    0.515
                            82 B    0.505    41 B    0.450    54 B    0.233
    48   5 B    3.587 --    84 B    0.620    54 B    0.620    83 B    0.590
                            42 B    0.559    47 B    0.515    41 B    0.488
    49   5 B    3.585 --    55 B    1.109    84 B    0.918    43 B    0.682
                            85 B    0.502
    50   5 B    3.596 --    56 B    0.845    44 B    0.800    62 B    0.685
                            85 B    0.599    55 B    0.511
    51   5 B    3.618 --    45 B    0.834    57 B    0.756    52 B    0.692
                            58 B    0.552    91 B    0.497
    52   5 B    3.532 --    46 B    1.097    58 B    0.925    51 B    0.692
                            45 B    0.397
    53   5 B    3.413 --    59 B    1.069    47 B    0.958    60 B    0.583
                            54 B    0.427
    54   5 B    3.584 --    60 B    1.121    84 B    0.892    48 B    0.620
                            53 B    0.427    47 B    0.233
    55   5 B    3.545 --    49 B    1.109    61 B    0.829    62 B    0.606
                            50 B    0.511    85 B    0.186
    56   5 B    3.491 --    97 H    0.958    50 B    0.845    44 B    0.792
                            62 B    0.664
    57   5 B    3.494 --    93 H    0.944    63 B    0.801    51 B    0.756
                            91 B    0.717
    58   5 B    3.619 --    64 B    1.268    52 B    0.925    51 B    0.552
                            91 B    0.547
    59   5 B    3.479 --    65 B    1.128    53 B    1.069    60 B    0.531
                            66 B    0.405
    60   5 B    3.557 --    54 B    1.121    66 B    0.978    53 B    0.583
                            59 B    0.531
    61   5 B    3.569 --    67 B    0.855    55 B    0.829    74 B    0.562
                            62 B    0.549    68 B    0.500
    62   5 B    3.594 --    68 B    0.866    50 B    0.685    56 B    0.664
                            55 B    0.606    61 B    0.549
    63   5 B    3.553 --    94 H    0.946    57 B    0.801    91 B    0.760
                            69 B    0.737
    64   5 B    3.409 --    70 B    1.329    58 B    1.268    91 B    0.204
                            86 B    0.155
    65   5 B    3.413 --    59 B    1.128    71 B    1.011    72 B    0.515
                            66 B    0.466
    66   5 B    3.565 --    60 B    0.978    89 B    0.763    72 B    0.650
                            65 B    0.466    59 B    0.405
    67   5 B    3.561 --    73 B    1.003    61 B    0.855    74 B    0.630
                            80 B    0.553    90 B    0.335
    68   5 B    3.401 --    98 H    0.927    74 B    0.877    62 B    0.866
                            61 B    0.500
    69   5 B    3.595 --    75 B    1.205    63 B    0.737    91 B    0.701
                            86 B    0.700
    70   5 B    3.565 --    64 B    1.329    76 B    0.684    86 B    0.611
                            87 B    0.564
    71   5 B    3.507 --    65 B    1.011    77 B    0.645    87 B    0.582
                            72 B    0.539    88 B    0.447
    72   5 B    3.609 --    66 B    0.650    89 B    0.621    71 B    0.539
                            78 B    0.522    88 B    0.516    65 B    0.515
    73   5 B    3.534 --    89 B    1.006    67 B    1.003    79 B    0.638
                            90 B    0.549
    74   5 B    3.491 --    80 B    1.229    68 B    0.877    67 B    0.630
                            61 B    0.562
    75   5 B    3.426 --    69 B    1.205    95 H    0.964    86 B    0.827
                            76 B    0.145
    76   5 B    3.400 --    87 B    1.147    86 B    1.116    70 B    0.684
                            75 B    0.145
    77   5 B    3.332 --    88 B    1.197    87 B    1.136    71 B    0.645
    78   5 B    3.365 --    88 B    1.106    79 B    1.077    72 B    0.522
                            89 B    0.406
    79   5 B    3.476 --    78 B    1.077    90 B    1.034    73 B    0.638
                            89 B    0.514
    80   5 B    3.328 --    90 B    1.247    74 B    1.229    67 B    0.553
    81   5 B    3.478 --    39 B    1.402    40 B    1.119    45 B    0.779
    82   5 B    3.506 --    41 B    1.005    40 B    0.986    46 B    0.760
                            47 B    0.505
    83   5 B    3.409 --    42 B    1.268    41 B    1.263    48 B    0.590
    84   5 B    3.544 --    49 B    0.918    54 B    0.892    48 B    0.620
                            43 B    0.484    42 B    0.364
    85   5 B    3.471 --    43 B    1.078    44 B    0.852    50 B    0.599
                            49 B    0.502    55 B    0.186
    86   5 B    3.607 --    76 B    1.116    75 B    0.827    69 B    0.700
                            70 B    0.611    64 B    0.155
    87   5 B    3.600 --    76 B    1.147    77 B    1.136    71 B    0.582
                            70 B    0.564
    88   5 B    3.463 --    77 B    1.197    78 B    1.106    72 B    0.516
                            71 B    0.447
    89   5 B    3.559 --    73 B    1.006    66 B    0.763    72 B    0.621
                            79 B    0.514    78 B    0.406
    90   5 B    3.358 --    80 B    1.247    79 B    1.034    73 B    0.549
                            67 B    0.335
    91   5 B    3.616 --    63 B    0.760    57 B    0.717    69 B    0.701
                            58 B    0.547    51 B    0.497    64 B    0.204
    92   1 H    0.976 --    39 B    0.966
    93   1 H    0.979 --    57 B    0.944
    94   1 H    0.982 --    63 B    0.946
    95   1 H    0.980 --    75 B    0.964
    96   1 H    0.975 --    44 B    0.944
    97   1 H    0.983 --    56 B    0.958
    98   1 H    0.980 --    68 B    0.927
 ---------------------------------------------------------------------------

Topologies differ in total number of bonds
Writing topology from bond orders to xtbtopo.mol

molecular dipole:
                 x           y           z       tot (Debye)
 q only:        1.530       1.582      -0.635
   full:        1.784       1.440      -1.135       6.503
molecular quadrupole (traceless):
                xx          xy          yy          xz          yz          zz
 q only:       26.006       7.472      38.507     -10.319      13.468     -64.514
  q+dip:       59.420     -10.220       6.476      -1.695      24.746     -65.896
   full:       45.764      -5.420      -4.295       2.409      27.265     -41.469


           -------------------------------------------------
          | TOTAL ENERGY             -122.832725807024 Eh   |
          | GRADIENT NORM               0.104441654560 Eh/α |
          | HOMO-LUMO GAP               0.070207060987 eV   |
           -------------------------------------------------

------------------------------------------------------------------------
 * finished run on 2026/08/31 at 21:15:16.592     
------------------------------------------------------------------------
 total:
 * wall-time:     0 d,  0 h,  0 min,  1.019 sec
 *  cpu-time:     0 d,  0 h,  0 min, 10.250 sec
 * ratio c/w:    10.059 speedup
 SCF:
 * wall-time:     0 d,  0 h,  0 min,  0.973 sec
 *  cpu-time:     0 d,  0 h,  0 min,  9.859 sec
 * ratio c/w:    10.133 speedup

normal termination of xtb
