38
Methylene Blue GFN2 opt
C      -6.18217770     -0.10748553     -0.36404802
N      -5.01679979      0.36559454      0.34784011
C      -5.21699254      1.16381080      1.53495994
C      -3.77859973      0.06986877     -0.07811031
C      -3.56786283     -0.71408477     -1.25306521
C      -2.31876100     -1.01359688     -1.68818688
C      -1.15414974     -0.56820760     -1.00348649
N       0.01624899     -0.91069035     -1.50920674
C       1.17548960     -0.56891723     -0.97793754
C       2.35458349     -1.01163116     -1.63917367
C       3.59399211     -0.71706992     -1.17399749
C       3.77931161      0.05677419      0.01188801
N       5.00799698      0.34430239      0.46980197
C       5.18245886      1.12356878      1.67344350
C       6.18853679     -0.11251316     -0.22755342
C       2.62058987      0.50406830      0.67836779
C       1.36274872      0.20780281      0.20688121
S      -0.01183287      0.81064991      1.09950363
C      -1.36684087      0.21360447      0.17367247
C      -2.63448281      0.51806374      0.61256402
H      -6.20132036      0.27795133     -1.38587572
H      -7.08106355      0.23332156      0.14144052
H      -6.20516863     -1.19908780     -0.39664474
H      -4.76486228      2.15213912      1.42153464
H      -6.28011723      1.29681363      1.71246153
H      -4.78434263      0.67597085      2.41177703
H      -4.41258803     -1.07822904     -1.81190828
H      -2.16085823     -1.60458562     -2.57592334
H       2.21587043     -1.59680791     -2.53393854
H       4.45056384     -1.07920763     -1.71585190
H       4.72235125      0.62597510      2.53060632
H       6.24143055      1.24495463      1.88146444
H       4.74153314      2.11724185      1.56332387
H       7.07633068      0.22702939      0.29798472
H       6.22279589      0.28709682     -1.24355551
H       6.21918186     -1.20330707     -0.27467297
H       2.69488974      1.09316058      1.57716945
H      -2.72808363      1.11186427      1.50645159
