      -----------------------------------------------------------      
     |                   =====================                   |     
     |                           x T B                           |     
     |                   =====================                   |     
     |                         S. Grimme                         |     
     |          Mulliken Center for Theoretical Chemistry        |     
     |                    University of Bonn                     |     
      -----------------------------------------------------------      

   * xtb version 6.7.1pre (5071a88) compiled by 'Marcel@Raven' on 2024-07-23

   xtb is free software: you can redistribute it and/or modify it under
   the terms of the GNU Lesser General Public License as published by
   the Free Software Foundation, either version 3 of the License, or
   (at your option) any later version.
   
   xtb is distributed in the hope that it will be useful,
   but WITHOUT ANY WARRANTY; without even the implied warranty of
   MERCHANTABILITY or FITNESS FOR A PARTICULAR PURPOSE.  See the
   GNU Lesser General Public License for more details.
   
   Cite this work as:
   * C. Bannwarth, E. Caldeweyher, S. Ehlert, A. Hansen, P. Pracht,
     J. Seibert, S. Spicher, S. Grimme, WIREs Comput. Mol. Sci., 2020, 11,
     e01493. DOI: 10.1002/wcms.1493
   
   for GFN2-xTB:
   * C. Bannwarth, S. Ehlert and S. Grimme., J. Chem. Theory Comput., 2019,
     15, 1652-1671. DOI: 10.1021/acs.jctc.8b01176
   for GFN1-xTB:
   * S. Grimme, C. Bannwarth, P. Shushkov, J. Chem. Theory Comput., 2017,
     13, 1989-2009. DOI: 10.1021/acs.jctc.7b00118
   for GFN0-xTB:
   * P. Pracht, E. Caldeweyher, S. Ehlert, S. Grimme, ChemRxiv, 2019, preprint.
     DOI: 10.26434/chemrxiv.8326202.v1
   for GFN-FF:
   * S. Spicher and S. Grimme, Angew. Chem. Int. Ed., 2020, 59, 15665-15673.
     DOI: 10.1002/anie.202004239
   
   for ALPB and GBSA implicit solvation:
   * S. Ehlert, M. Stahn, S. Spicher, S. Grimme, J. Chem. Theory Comput.,
     2021, 17, 4250-4261. DOI: 10.1021/acs.jctc.1c00471
   
   for ddCOSMO and CPCM-X implicit solvation:
   * M. Stahn, S. Ehlert, S. Grimme, J. Phys. Chem. A,
     2023, XX, XXXX-XXXX. DOI: 10.1021/acs.jpca.3c04382
   
   for DFT-D4:
   * E. Caldeweyher, C. Bannwarth and S. Grimme, J. Chem. Phys., 2017,
     147, 034112. DOI: 10.1063/1.4993215
   * E. Caldeweyher, S. Ehlert, A. Hansen, H. Neugebauer, S. Spicher,
     C. Bannwarth and S. Grimme, J. Chem. Phys., 2019, 150, 154122.
     DOI: 10.1063/1.5090222
   * E. Caldeweyher, J.-M. Mewes, S. Ehlert and S. Grimme, Phys. Chem. Chem. Phys.
     2020, 22, 8499-8512. DOI: 10.1039/D0CP00502A
   
   for sTDA-xTB:
   * S. Grimme and C. Bannwarth, J. Chem. Phys., 2016, 145, 054103.
     DOI: 10.1063/1.4959605
   
   in the mass-spec context:
   * V. Asgeirsson, C. Bauer and S. Grimme, Chem. Sci., 2017, 8, 4879.
     DOI: 10.1039/c7sc00601b
   * J. Koopman and S. Grimme, ACS Omega 2019, 4, 12, 15120-15133.
     DOI: 10.1021/acsomega.9b02011
   
   for metadynamics refer to:
   * S. Grimme, J. Chem. Theory Comput., 2019, 155, 2847-2862
     DOI: 10.1021/acs.jctc.9b00143
   
   for SPH calculations refer to:
   * S. Spicher and S. Grimme, J. Chem. Theory Comput., 2021, 17, 1701-1714
     DOI: 10.1021/acs.jctc.0c01306
   
   for ONIOM refer to:
   * C. Plett, A. Katbashev, S. Ehlert, S. Grimme, M. Bursch,
     Phys. Chem. Chem. Phys., 2023, 25, 17860-17868. DOI: 10.1039/D3CP02178E
   
   for DIPRO refer to:
   * J. Kohn, N. Gildemeister, S. Grimme, D. Fazzi, A. Hansen,
     J. Chem. Phys., 2023, just accepted.
   
   for PTB refer to:
   * S. Grimme, M. Mueller, A. Hansen, J. Chem. Phys., 2023, 158, 124111.
     DOI: 10.1063/5.0137838
   
   with help from (in alphabetical order)
   P. Atkinson, C. Bannwarth, F. Bohle, G. Brandenburg, E. Caldeweyher
   M. Checinski, S. Dohm, S. Ehlert, S. Ehrlich, I. Gerasimov, C. Hölzer
   A. Katbashev, J. Kohn, J. Koopman, C. Lavigne, S. Lehtola, F. März, M. Müller,
   F. Musil, H. Neugebauer, J. Pisarek, C. Plett, P. Pracht, F. Pultar,
   J. Seibert, P. Shushkov, S. Spicher, M. Stahn, M. Steiner, T. Strunk,
   J. Stückrath, T. Rose, and J. Unsleber
   
 * started run on 2026/08/31 at 22:05:15.823     
   ID    Z sym.   atoms
    1    6 C      1, 3-7, 9-12, 14-17, 19, 20
    2    7 N      2, 8, 13
    3   16 S      18
    4    1 H      21-38, 92-98
    5    5 B      39-91

           -------------------------------------------------
          |                Calculation Setup                |
           -------------------------------------------------

          program call               : "c:\Users\Andre\Proyectos doctorado\kras-pancreatic-gC3N4-ai\tools\xtb\xtb-6.7.1\bin\xtb.exe" "c:\Users\Andre\Proyectos doctorado\borophene-alzheimer-tau-ai\calculations\tau\Methylene_Blue\Methylene_Blue_opt_orient_90deg.xyz" --opt vloose --gfn 2 --chrg 1 --uhf 0 --etemp 300 --iterations 500 --cycles 25 --norestart
          coordinate file            : c:\Users\Andre\Proyectos doctorado\borophene-alzheimer-tau-ai\calculations\tau\Methylene_Blue\Methylene_Blue_opt_orient_90deg.xyz
          omp threads                :                    16


molecular fragmentation (1/2 indicates fragments):
111111111111111111111111111111111111112222222222222222222222222222222222
22222222222222222222222222
# atoms in fragment 1/2:    38    60
 fragment masses (1/2) :      284.40      580.04
CMA distance (Bohr)    :  14.088
constraining FC (au)   :  0.0500

           -------------------------------------------------
          |                 G F N 2 - x T B                 |
           -------------------------------------------------

        Reference                      10.1021/acs.jctc.8b01176
      * Hamiltonian:
        H0-scaling (s, p, d)           1.850000    2.230000    2.230000
        zeta-weighting                 0.500000
      * Dispersion:
        s8                             2.700000
        a1                             0.520000
        a2                             5.000000
        s9                             5.000000
      * Repulsion:
        kExp                           1.500000    1.000000
        rExp                           1.000000
      * Coulomb:
        alpha                          2.000000
        third order                    shell-resolved
        anisotropic                    true
        a3                             3.000000
        a5                             4.000000
        cn-shift                       1.200000
        cn-exp                         4.000000
        max-rad                        5.000000


          ...................................................
          :                      SETUP                      :
          :.................................................:
          :  # basis functions                 323          :
          :  # atomic orbitals                 322          :
          :  # shells                          172          :
          :  # electrons                       268          :
          :  max. iterations                   500          :
          :  Hamiltonian                  GFN2-xTB          :
          :  restarted?                      false          :
          :  GBSA solvation                  false          :
          :  PC potential                    false          :
          :  electronic temp.          300.0000000     K    :
          :  accuracy                    1.0000000          :
          :  -> integral cutoff          0.2500000E+02      :
          :  -> integral neglect         0.1000000E-07      :
          :  -> SCF convergence          0.1000000E-05 Eh   :
          :  -> wf. convergence          0.1000000E-03 e    :
          :  Broyden damping             0.4000000          :
          :  net charge                          1          :
          :  unpaired electrons                  0          :
          ...................................................

 iter      E             dE          RMSdq      gap      omega  full diag
   1   -123.6403907 -0.123640E+03  0.151E+01    0.15       0.0  T
   2   -112.8576355  0.107828E+02  0.109E+01    0.00       1.0  T
   3    115.1075809  0.227965E+03  0.192E+01    0.19       1.0  T
   4    111.3809068 -0.372667E+01  0.186E+01    0.02       1.0  T
   5    -81.3795077 -0.192760E+03  0.103E+01    0.09       1.0  T
   6    -16.7300028  0.646495E+02  0.111E+01    0.03       1.0  T
   7   -102.1714669 -0.854415E+02  0.722E+00    0.10       1.0  T
   8   -103.9999243 -0.182846E+01  0.660E+00    0.06       1.0  T
   9   -114.9785533 -0.109786E+02  0.478E+00    0.17       1.0  T
  10   -117.3192631 -0.234071E+01  0.468E+00    0.10       1.0  T
  11   -123.3839636 -0.606470E+01  0.328E+00    0.03       1.0  T
  12   -123.6941785 -0.310215E+00  0.288E+00    0.34       1.0  T
  13   -124.3090591 -0.614881E+00  0.269E+00    0.28       1.0  T
  14   -124.2703581  0.387010E-01  0.250E+00    0.36       1.0  T
  15   -124.3861759 -0.115818E+00  0.229E+00    0.38       1.0  T
  16   -124.3557707  0.304052E-01  0.183E+00    0.37       1.0  T
  17   -124.4633198 -0.107549E+00  0.149E+00    0.09       1.0  T
  18   -124.4737338 -0.104140E-01  0.138E+00    0.09       1.0  T
  19   -124.5413180 -0.675842E-01  0.118E+00    0.00       1.0  T
  20   -124.5283063  0.130117E-01  0.114E+00    0.13       1.0  T
  21   -124.5641032 -0.357969E-01  0.104E+00    0.09       1.0  T
  22   -124.6367244 -0.726212E-01  0.702E-01    0.04       1.0  T
  23   -124.6874123 -0.506879E-01  0.538E-01    0.04       1.0  T
  24   -124.6993432 -0.119309E-01  0.421E-01    0.01       1.0  T
  25   -124.7087051 -0.936193E-02  0.393E-01    0.02       1.0  T
  26   -124.7213276 -0.126225E-01  0.312E-01    0.00       1.0  T
  27   -124.7151098  0.621788E-02  0.343E-01    0.04       1.0  T
  28   -124.7227450 -0.763526E-02  0.243E-01    0.02       1.0  T
  29   -124.7235132 -0.768175E-03  0.176E-01    0.00       1.0  T
  30   -124.7266251 -0.311188E-02  0.152E-01    0.02       1.0  T
  31   -124.7269846 -0.359556E-03  0.160E-01    0.02       1.0  T
  32   -124.7290101 -0.202543E-02  0.127E-01    0.01       1.0  T
  33   -124.7305018 -0.149171E-02  0.779E-02    0.02       1.0  T
  34   -124.7308074 -0.305659E-03  0.703E-02    0.01       1.0  T
  35   -124.7309162 -0.108743E-03  0.683E-02    0.01       1.0  T
  36   -124.7306758  0.240357E-03  0.733E-02    0.01       1.0  T
  37   -124.7309583 -0.282514E-03  0.502E-02    0.01       1.0  T
  38   -124.7305248  0.433526E-03  0.572E-02    0.01       1.0  T
  39   -124.7312161 -0.691268E-03  0.262E-02    0.01       1.0  T
  40   -124.7313770 -0.160937E-03  0.147E-02    0.01       1.0  T
  41   -124.7312798  0.972202E-04  0.282E-02    0.02       1.0  T
  42   -124.7312927 -0.129470E-04  0.257E-02    0.02       1.0  T
  43   -124.7313384 -0.457174E-04  0.184E-02    0.02       1.0  T
  44   -124.7313851 -0.466950E-04  0.972E-03    0.02       1.0  T
  45   -124.7313852 -0.733640E-07  0.921E-03    0.02       1.1  T
  46   -124.7313960 -0.107516E-04  0.493E-03    0.02       2.0  T
  47   -124.7313977 -0.173152E-05  0.332E-03    0.02       3.0  T
  48   -124.7313978 -0.104308E-06  0.261E-03    0.02       3.9  T
  49   -124.7313983 -0.487344E-06  0.174E-03    0.02       5.8  T
  50   -124.7313983 -0.770990E-08  0.142E-03    0.02       7.1  T
  51   -124.7313983  0.185197E-08  0.126E-03    0.02       8.0  T
  52   -124.7313985 -0.187472E-06  0.704E-04    0.02      14.4  T
  53   -124.7313985  0.116985E-07  0.594E-04    0.02      17.0  T

   *** convergence criteria satisfied after 53 iterations ***

         #    Occupation            Energy/Eh            Energy/eV
      -------------------------------------------------------------
         1        2.0000           -0.7493338             -20.3904
       ...           ...                  ...                  ...
       128        2.0000           -0.3617278              -9.8431
       129        2.0000           -0.3571041              -9.7173
       130        2.0000           -0.3564530              -9.6996
       131        2.0000           -0.3521085              -9.5814
       132        1.9988           -0.3480498              -9.4709
       133        1.9943           -0.3466072              -9.4317
       134        1.1498           -0.3413276              -9.2880 (HOMO)
       135        0.8571           -0.3407674              -9.2728 (LUMO)
       136                         -0.3233609              -8.7991
       137                         -0.3189109              -8.6780
       138                         -0.3159110              -8.5964
       139                         -0.3067396              -8.3468
       ...                                ...                  ...
       322                          1.0977315              29.8708
      -------------------------------------------------------------
                  HL-Gap            0.0005601 Eh            0.0152 eV
             Fermi-level           -0.3410407 Eh           -9.2802 eV

 SCC (total)                   0 d,  0 h,  0 min,  1.482 sec
 SCC setup                      ...        0 min,  0.001 sec (  0.067%)
 Dispersion                     ...        0 min,  0.003 sec (  0.202%)
 classical contributions        ...        0 min,  0.000 sec (  0.000%)
 integral evaluation            ...        0 min,  0.032 sec (  2.159%)
 iterations                     ...        0 min,  1.421 sec ( 95.884%)
 molecular gradient             ...        0 min,  0.023 sec (  1.552%)
 printout                       ...        0 min,  0.002 sec (  0.135%)

         :::::::::::::::::::::::::::::::::::::::::::::::::::::
         ::                     SUMMARY                     ::
         :::::::::::::::::::::::::::::::::::::::::::::::::::::
         :: total energy            -122.821848362742 Eh    ::
         :: gradient norm              0.105306318659 Eh/a0 ::
         :: HOMO-LUMO gap              0.015242230115 eV    ::
         ::.................................................::
         :: SCC energy              -124.728788119945 Eh    ::
         :: -> isotropic ES            0.247938022657 Eh    ::
         :: -> anisotropic ES          0.001245046328 Eh    ::
         :: -> anisotropic XC         -0.019420891072 Eh    ::
         :: -> dispersion             -0.120489807367 Eh    ::
         :: repulsion energy           1.906939757202 Eh    ::
         :: add. restraining           0.000000000000 Eh    ::
         :: total charge               1.000000000001 e     ::
         :::::::::::::::::::::::::::::::::::::::::::::::::::::

      ----------------------------------------------------------- 
     |                   =====================                   |
     |                        A N C O P T                        |
     |                   =====================                   |
     |               Approximate Normal Coordinate               |
     |                Rational Function Optimizer                |
      ----------------------------------------------------------- 
      ----------------------------------------------------------- 
     |                   =====================                   |
     |                        A N C O P T                        |
     |                   =====================                   |
     |               Approximate Normal Coordinate               |
     |                Rational Function Optimizer                |
      ----------------------------------------------------------- 

          ...................................................
          :                      SETUP                      :
          :.................................................:
          :   optimization level            normal          :
          :   max. optcycles                    25          :
          :   ANC micro-cycles                  20          :
          :   degrees of freedom               288          :
          :.................................................:
          :   RF solver                   davidson          :
          :   write xtbopt.log                true          :
          :   linear?                        false          :
          :   energy convergence         0.5000000E-05 Eh   :
          :   grad. convergence          0.1000000E-02 Eh/α :
          :   maxmium RF displ.          1.0000000          :
          :   Hlow (freq-cutoff)         0.1000000E-01      :
          :   Hmax (freq-cutoff)         5.0000000          :
          :   S6 in model hess.         20.0000000          :
          ...................................................

generating ANC from exact Hessian ...
Using Lindh-Hessian (1995)
 Shifting diagonal of input Hessian by   1.026194820223041E-002
 Lowest  eigenvalues of input Hessian
    0.010000    0.010032    0.010109    0.010117    0.010172    0.000000
    0.000000    0.000000    0.000000    0.000000    0.000000    0.010281
    0.010300    0.010340    0.010473    0.010646    0.010691    0.010757
 Highest eigenvalues
    1.866971    1.935635    1.946253    2.009446    2.062075    2.201331
 

........................................................................
.............................. CYCLE    1 ..............................
........................................................................

 iter      E             dE          RMSdq      gap      omega  full diag
   1   -124.7313985 -0.124731E+03  0.422E-04    0.02       0.0  T
   2   -124.7313980  0.511815E-06  0.152E-03    0.02       6.7  T
   3   -124.7313985 -0.442829E-06  0.603E-04    0.02      16.8  T
   4   -124.7313969  0.155865E-05  0.270E-03    0.02       3.7  T
   5   -124.7313980 -0.114204E-05  0.150E-03    0.02       6.7  T
   6   -124.7313983 -0.310563E-06  0.908E-04    0.02      11.1  T
     SCC iter.                  ...        0 min,  0.132 sec
     gradient                   ...        0 min,  0.024 sec
 * total energy  :  -122.8218482 Eh     change        0.1250624E-06 Eh
   gradient norm :     0.1052667 Eh/α   predicted     0.0000000E+00 (-100.00%)
   displ. norm   :     0.3400748 α      lambda       -0.1402511E-01
   maximum displ.:     0.1448115 α      in ANC's #33, #63, #85, ...

........................................................................
.............................. CYCLE    2 ..............................
........................................................................

 iter      E             dE          RMSdq      gap      omega  full diag
   1   -124.7580898 -0.124758E+03  0.191E-01    0.00       0.0  T
   2   -124.6678520  0.902378E-01  0.660E-01    0.21       1.0  T
   3   -124.7397282 -0.718761E-01  0.336E-01    0.07       1.0  T
   4   -124.7336561  0.607211E-02  0.329E-01    0.03       1.0  T
   5   -124.6848706  0.487854E-01  0.548E-01    0.08       1.0  T
   6   -124.7576401 -0.727694E-01  0.107E-01    0.01       1.0  T
   7   -124.7592596 -0.161958E-02  0.766E-02    0.02       1.0  T
   8   -124.7605717 -0.131208E-02  0.351E-02    0.02       1.0  T
   9   -124.7601188  0.452931E-03  0.591E-02    0.01       1.0  T
  10   -124.7606999 -0.581141E-03  0.307E-02    0.01       1.0  T
  11   -124.7608872 -0.187315E-03  0.125E-02    0.02       1.0  T
  12   -124.7609189 -0.316378E-04  0.506E-03    0.01       2.0  T
  13   -124.7609223 -0.346888E-05  0.298E-03    0.02       3.4  T
  14   -124.7609228 -0.420316E-06  0.275E-03    0.02       3.7  T
  15   -124.7609245 -0.173537E-05  0.670E-04    0.02      15.1  T
  16   -124.7609245  0.112443E-08  0.711E-04    0.02      14.2  T
  17   -124.7609246 -0.712873E-07  0.426E-04    0.02      23.7  T
     SCC iter.                  ...        0 min,  0.375 sec
     gradient                   ...        0 min,  0.024 sec
 * total energy  :  -122.8317673 Eh     change       -0.9919028E-02 Eh
   gradient norm :     0.0422640 Eh/α   predicted    -0.7832239E-02 ( -21.04%)
   displ. norm   :     0.3448161 α      lambda       -0.5100394E-02
   maximum displ.:     0.2063266 α      in ANC's #33, #63, #17, ...

........................................................................
.............................. CYCLE    3 ..............................
........................................................................

 iter      E             dE          RMSdq      gap      omega  full diag
   1   -124.7787089 -0.124779E+03  0.169E-01    0.00       0.0  T
   2   -124.6935812  0.851277E-01  0.639E-01    0.25       1.0  T
   3   -124.7581710 -0.645898E-01  0.341E-01    0.07       1.0  T
   4   -124.7438340  0.143370E-01  0.383E-01    0.04       1.0  T
   5   -124.7086135  0.352205E-01  0.540E-01    0.08       1.0  T
   6   -124.7764473 -0.678338E-01  0.126E-01    0.00       1.0  T
   7   -124.7802598 -0.381247E-02  0.382E-02    0.02       1.0  T
   8   -124.7804701 -0.210351E-03  0.269E-02    0.01       1.0  T
   9   -124.7802460  0.224176E-03  0.438E-02    0.01       1.0  T
  10   -124.7805173 -0.271353E-03  0.263E-02    0.01       1.0  T
  11   -124.7806626 -0.145264E-03  0.866E-03    0.02       1.2  T
  12   -124.7806738 -0.111939E-04  0.561E-03    0.01       1.8  T
  13   -124.7806796 -0.585894E-05  0.217E-03    0.02       4.7  T
  14   -124.7806806 -0.914344E-06  0.133E-03    0.02       7.6  T
  15   -124.7806808 -0.280992E-06  0.782E-04    0.02      12.9  T
  16   -124.7806809 -0.279587E-07  0.752E-04    0.02      13.4  T
     SCC iter.                  ...        0 min,  0.511 sec
     gradient                   ...        0 min,  0.022 sec
 * total energy  :  -122.8349030 Eh     change       -0.3135747E-02 Eh
   gradient norm :     0.0134951 Eh/α   predicted    -0.2854639E-02 (  -8.96%)
   displ. norm   :     0.2508164 α      lambda       -0.1166812E-02
   maximum displ.:     0.1423031 α      in ANC's #33, #17, #35, ...

........................................................................
.............................. CYCLE    4 ..............................
........................................................................

 iter      E             dE          RMSdq      gap      omega  full diag
   1   -124.7847073 -0.124785E+03  0.126E-01    0.02       0.0  T
   2   -124.6938917  0.908156E-01  0.618E-01    0.11       1.0  T
   3   -124.7493360 -0.554443E-01  0.403E-01    0.09       1.0  T
   4   -124.7780530 -0.287170E-01  0.177E-01    0.04       1.0  T
   5   -124.7827918 -0.473885E-02  0.947E-02    0.03       1.0  T
   6   -124.7847549 -0.196311E-02  0.353E-02    0.02       1.0  T
   7   -124.7850414 -0.286429E-03  0.157E-02    0.02       1.0  T
   8   -124.7850761 -0.347311E-04  0.126E-02    0.01       1.0  T
   9   -124.7850826 -0.648200E-05  0.105E-02    0.01       1.0  T
  10   -124.7851011 -0.185018E-04  0.609E-03    0.02       1.7  T
  11   -124.7851035 -0.241660E-05  0.601E-03    0.02       1.7  T
  12   -124.7851085 -0.499678E-05  0.366E-03    0.02       2.8  T
  13   -124.7851115 -0.303814E-05  0.819E-04    0.02      12.3  T
  14   -124.7851117 -0.137324E-06  0.378E-04    0.02      26.8  T
  15   -124.7851117 -0.710592E-08  0.339E-04    0.02      29.8  T
     SCC iter.                  ...        0 min,  1.031 sec
     gradient                   ...        0 min,  0.179 sec
 * total energy  :  -122.8357730 Eh     change       -0.8700142E-03 Eh
   gradient norm :     0.0134502 Eh/α   predicted    -0.6201103E-03 ( -28.72%)
   displ. norm   :     0.3336570 α      lambda       -0.1016657E-02
   maximum displ.:     0.1674036 α      in ANC's #17, #33, #12, ...

........................................................................
.............................. CYCLE    5 ..............................
........................................................................

 iter      E             dE          RMSdq      gap      omega  full diag
   1   -124.7839422 -0.124784E+03  0.200E-01    0.04       0.0  T
   2   -124.6287884  0.155154E+00  0.833E-01    0.33       1.0  T
   3   -124.7695118 -0.140723E+00  0.289E-01    0.06       1.0  T
   4   -124.7568527  0.126591E-01  0.340E-01    0.03       1.0  T
   5   -124.7848785 -0.280258E-01  0.974E-02    0.00       1.0  T
   6   -124.7868821 -0.200359E-02  0.318E-02    0.02       1.0  T
   7   -124.7870360 -0.153991E-03  0.222E-02    0.02       1.0  T
   8   -124.7870894 -0.533501E-04  0.196E-02    0.01       1.0  T
   9   -124.7871531 -0.636704E-04  0.967E-03    0.02       1.0  T
  10   -124.7871620 -0.895731E-05  0.834E-03    0.02       1.2  T
  11   -124.7871770 -0.149633E-04  0.422E-03    0.02       2.4  T
  12   -124.7871786 -0.162904E-05  0.353E-03    0.02       2.9  T
  13   -124.7871813 -0.269312E-05  0.105E-03    0.02       9.6  T
  14   -124.7871815 -0.218770E-06  0.510E-04    0.02      19.8  T
  15   -124.7871815 -0.185811E-07  0.395E-04    0.02      25.6  T
     SCC iter.                  ...        0 min,  0.443 sec
     gradient                   ...        0 min,  0.056 sec
 * total energy  :  -122.8364890 Eh     change       -0.7159634E-03 Eh
   gradient norm :     0.0102437 Eh/α   predicted    -0.5649256E-03 ( -21.10%)
   displ. norm   :     0.3246707 α      lambda       -0.6330459E-03
   maximum displ.:     0.1656071 α      in ANC's #17, #12, #8, ...

........................................................................
.............................. CYCLE    6 ..............................
........................................................................

 iter      E             dE          RMSdq      gap      omega  full diag
   1   -124.7816728 -0.124782E+03  0.217E-01    0.04       0.0  T
   2   -124.6166651  0.165008E+00  0.875E-01    0.31       1.0  T
   3   -124.7859864 -0.169321E+00  0.102E-01    0.01       1.0  T
   4   -124.7733843  0.126021E-01  0.230E-01    0.04       1.0  T
   5   -124.7754944 -0.211004E-02  0.214E-01    0.05       1.0  T
   6   -124.7868506 -0.113563E-01  0.480E-02    0.02       1.0  T
   7   -124.7865079  0.342727E-03  0.631E-02    0.01       1.0  T
   8   -124.7874366 -0.928749E-03  0.121E-02    0.02       1.0  T
   9   -124.7874358  0.805428E-06  0.128E-02    0.02       1.0  T
  10   -124.7874689 -0.330483E-04  0.482E-03    0.02       2.1  T
  11   -124.7874680  0.876219E-06  0.510E-03    0.02       2.0  T
  12   -124.7874732 -0.514939E-05  0.196E-03    0.02       5.2  T
  13   -124.7874736 -0.468960E-06  0.149E-03    0.02       6.8  T
  14   -124.7874739 -0.301444E-06  0.942E-04    0.02      10.7  T
  15   -124.7874740 -0.549203E-07  0.837E-04    0.02      12.1  T
     SCC iter.                  ...        0 min,  0.380 sec
     gradient                   ...        0 min,  0.027 sec
 * total energy  :  -122.8369621 Eh     change       -0.4730860E-03 Eh
   gradient norm :     0.0073424 Eh/α   predicted    -0.3498899E-03 ( -26.04%)
   displ. norm   :     0.4058886 α      lambda       -0.6332091E-03
   maximum displ.:     0.1805933 α      in ANC's #17, #12, #8, ...

........................................................................
.............................. CYCLE    7 ..............................
........................................................................

 iter      E             dE          RMSdq      gap      omega  full diag
   1   -124.7783440 -0.124778E+03  0.259E-01    0.05       0.0  T
   2   -124.6042139  0.174130E+00  0.914E-01    0.29       1.0  T
   3   -124.7750967 -0.170883E+00  0.239E-01    0.02       1.0  T
   4   -124.7613319  0.137648E-01  0.331E-01    0.07       1.0  T
   5   -124.7414439  0.198880E-01  0.424E-01    0.10       1.0  T
   6   -124.7834268 -0.419829E-01  0.119E-01    0.03       1.0  T
   7   -124.7844074 -0.980582E-03  0.101E-01    0.00       1.0  T
   8   -124.7867810 -0.237364E-02  0.258E-02    0.01       1.0  T
   9   -124.7868810 -0.100007E-03  0.157E-02    0.02       1.0  T
  10   -124.7869354 -0.543262E-04  0.416E-03    0.02       2.4  T
  11   -124.7869335  0.191947E-05  0.456E-03    0.02       2.2  T
  12   -124.7869369 -0.349679E-05  0.244E-03    0.02       4.1  T
  13   -124.7869366  0.303811E-06  0.282E-03    0.02       3.6  T
  14   -124.7869378 -0.112532E-05  0.172E-03    0.02       5.9  T
  15   -124.7869384 -0.645306E-06  0.611E-04    0.02      16.5  T
  16   -124.7869384 -0.153229E-07  0.559E-04    0.02      18.1  T
     SCC iter.                  ...        0 min,  0.679 sec
     gradient                   ...        0 min,  0.074 sec
 * total energy  :  -122.8374325 Eh     change       -0.4704020E-03 Eh
   gradient norm :     0.0082376 Eh/α   predicted    -0.3687890E-03 ( -21.60%)
   displ. norm   :     0.4513565 α      lambda       -0.6176040E-03
   maximum displ.:     0.1898895 α      in ANC's #12, #8, #17, ...

........................................................................
.............................. CYCLE    8 ..............................
........................................................................

 iter      E             dE          RMSdq      gap      omega  full diag
   1   -124.7770584 -0.124777E+03  0.263E-01    0.05       0.0  T
   2   -124.5990958  0.177963E+00  0.921E-01    0.27       1.0  T
   3   -124.7729776 -0.173882E+00  0.251E-01    0.02       1.0  T
   4   -124.7576889  0.152887E-01  0.346E-01    0.08       1.0  T
   5   -124.7372680  0.204210E-01  0.437E-01    0.11       1.0  T
   6   -124.7819771 -0.447091E-01  0.122E-01    0.04       1.0  T
   7   -124.7840019 -0.202479E-02  0.810E-02    0.01       1.0  T
   8   -124.7855128 -0.151097E-02  0.242E-02    0.02       1.0  T
   9   -124.7856179 -0.105094E-03  0.129E-02    0.02       1.0  T
  10   -124.7856516 -0.337263E-04  0.461E-03    0.02       2.2  T
  11   -124.7856496  0.202577E-05  0.513E-03    0.02       2.0  T
  12   -124.7856538 -0.416047E-05  0.274E-03    0.02       3.7  T
  13   -124.7856550 -0.119529E-05  0.178E-03    0.02       5.7  T
  14   -124.7856552 -0.232269E-06  0.146E-03    0.02       6.9  T
  15   -124.7856557 -0.459608E-06  0.525E-04    0.02      19.2  T
  16   -124.7856557 -0.246675E-08  0.519E-04    0.02      19.5  T
     SCC iter.                  ...        0 min,  0.585 sec
     gradient                   ...        0 min,  0.022 sec
 * total energy  :  -122.8378828 Eh     change       -0.4503013E-03 Eh
   gradient norm :     0.0101656 Eh/α   predicted    -0.3717154E-03 ( -17.45%)
   displ. norm   :     0.4506160 α      lambda       -0.5626955E-03
   maximum displ.:     0.1995597 α      in ANC's #12, #8, #7, ...

........................................................................
.............................. CYCLE    9 ..............................
........................................................................

 iter      E             dE          RMSdq      gap      omega  full diag
   1   -124.7801013 -0.124780E+03  0.222E-01    0.04       0.0  T
   2   -124.6108832  0.169218E+00  0.878E-01    0.26       1.0  T
   3   -124.7838677 -0.172984E+00  0.111E-01    0.02       1.0  T
   4   -124.7671644  0.167033E-01  0.246E-01    0.04       1.0  T
   5   -124.7784833 -0.113189E-01  0.152E-01    0.04       1.0  T
   6   -124.7842484 -0.576515E-02  0.423E-02    0.02       1.0  T
   7   -124.7844815 -0.233022E-03  0.335E-02    0.01       1.0  T
   8   -124.7847225 -0.241060E-03  0.119E-02    0.02       1.0  T
   9   -124.7847482 -0.256441E-04  0.760E-03    0.02       1.3  T
  10   -124.7847579 -0.968481E-05  0.392E-03    0.02       2.6  T
  11   -124.7847596 -0.176265E-05  0.272E-03    0.02       3.7  T
  12   -124.7847611 -0.146952E-05  0.107E-03    0.02       9.4  T
  13   -124.7847612 -0.901656E-07  0.865E-04    0.02      11.7  T
  14   -124.7847613 -0.138086E-06  0.433E-04    0.02      23.3  T
     SCC iter.                  ...        0 min,  0.296 sec
     gradient                   ...        0 min,  0.021 sec
 * total energy  :  -122.8383068 Eh     change       -0.4240385E-03 Eh
   gradient norm :     0.0092233 Eh/α   predicted    -0.3384774E-03 ( -20.18%)
   displ. norm   :     0.4498723 α      lambda       -0.5151597E-03
   maximum displ.:     0.2129654 α      in ANC's #8, #12, #7, ...

........................................................................
.............................. CYCLE   10 ..............................
........................................................................

 iter      E             dE          RMSdq      gap      omega  full diag
   1   -124.7831723 -0.124783E+03  0.182E-01    0.03       0.0  T
   2   -124.6319990  0.151173E+00  0.807E-01    0.22       1.0  T
   3   -124.7728065 -0.140808E+00  0.244E-01    0.06       1.0  T
   4   -124.7697640  0.304245E-02  0.252E-01    0.00       1.0  T
   5   -124.7790039 -0.923981E-02  0.145E-01    0.00       1.0  T
   6   -124.7840900 -0.508617E-02  0.464E-02    0.01       1.0  T
   7   -124.7845453 -0.455282E-03  0.157E-02    0.02       1.0  T
   8   -124.7845760 -0.306547E-04  0.108E-02    0.02       1.0  T
   9   -124.7846023 -0.263341E-04  0.488E-03    0.02       2.1  T
  10   -124.7846003  0.193973E-05  0.542E-03    0.02       1.9  T
  11   -124.7846059 -0.558232E-05  0.330E-03    0.02       3.1  T
  12   -124.7846078 -0.186998E-05  0.168E-03    0.02       6.0  T
  13   -124.7846084 -0.624243E-06  0.596E-04    0.02      17.0  T
  14   -124.7846085 -0.735616E-07  0.304E-04    0.02      33.2  T
     SCC iter.                  ...        0 min,  0.406 sec
     gradient                   ...        0 min,  0.022 sec
 * total energy  :  -122.8387193 Eh     change       -0.4124751E-03 Eh
   gradient norm :     0.0063882 Eh/α   predicted    -0.3097139E-03 ( -24.91%)
   displ. norm   :     0.4967379 α      lambda       -0.5488892E-03
   maximum displ.:     0.2475782 α      in ANC's #8, #12, #7, ...

........................................................................
.............................. CYCLE   11 ..............................
........................................................................

 iter      E             dE          RMSdq      gap      omega  full diag
   1   -124.7844785 -0.124784E+03  0.174E-01    0.03       0.0  T
   2   -124.6793516  0.105127E+00  0.667E-01    0.11       1.0  T
   3   -124.7601990 -0.808473E-01  0.342E-01    0.08       1.0  T
   4   -124.7694949 -0.929594E-02  0.240E-01    0.02       1.0  T
   5   -124.7833096 -0.138147E-01  0.798E-02    0.02       1.0  T
   6   -124.7846804 -0.137073E-02  0.369E-02    0.02       1.0  T
   7   -124.7849287 -0.248365E-03  0.179E-02    0.02       1.0  T
   8   -124.7849959 -0.671675E-04  0.103E-02    0.02       1.0  T
   9   -124.7850130 -0.171374E-04  0.669E-03    0.02       1.5  T
  10   -124.7850059  0.713982E-05  0.721E-03    0.02       1.4  T
  11   -124.7850134 -0.751844E-05  0.478E-03    0.02       2.1  T
  12   -124.7850172 -0.378880E-05  0.295E-03    0.02       3.4  T
  13   -124.7850186 -0.137159E-05  0.159E-03    0.02       6.4  T
  14   -124.7850192 -0.599971E-06  0.474E-04    0.02      21.3  T
  15   -124.7850192 -0.435925E-07  0.210E-04    0.02      48.0  T
     SCC iter.                  ...        0 min,  0.341 sec
     gradient                   ...        0 min,  0.019 sec
 * total energy  :  -122.8391708 Eh     change       -0.4515260E-03 Eh
   gradient norm :     0.0071077 Eh/α   predicted    -0.3421636E-03 ( -24.22%)
   displ. norm   :     0.5656923 α      lambda       -0.5956849E-03
   maximum displ.:     0.2904775 α      in ANC's #8, #12, #7, ...

........................................................................
.............................. CYCLE   12 ..............................
........................................................................

 iter      E             dE          RMSdq      gap      omega  full diag
   1   -124.7850785 -0.124785E+03  0.187E-01    0.03       0.0  T
   2   -124.6928488  0.922298E-01  0.627E-01    0.10       1.0  T
   3   -124.7536089 -0.607602E-01  0.387E-01    0.10       1.0  T
   4   -124.7668050 -0.131960E-01  0.258E-01    0.04       1.0  T
   5   -124.7836622 -0.168572E-01  0.883E-02    0.03       1.0  T
   6   -124.7848180 -0.115585E-02  0.548E-02    0.03       1.0  T
   7   -124.7852991 -0.481027E-03  0.304E-02    0.02       1.0  T
   8   -124.7855192 -0.220173E-03  0.103E-02    0.02       1.0  T
   9   -124.7855370 -0.178117E-04  0.579E-03    0.02       1.7  T
  10   -124.7855263  0.107145E-04  0.729E-03    0.02       1.4  T
  11   -124.7855235  0.282743E-05  0.802E-03    0.02       1.3  T
  12   -124.7855323 -0.881779E-05  0.531E-03    0.02       1.9  T
  13   -124.7855379 -0.558154E-05  0.203E-03    0.02       5.0  T
  14   -124.7855388 -0.933822E-06  0.562E-04    0.02      18.0  T
  15   -124.7855389 -0.671699E-07  0.256E-04    0.02      39.4  T
     SCC iter.                  ...        0 min,  0.376 sec
     gradient                   ...        0 min,  0.028 sec
 * total energy  :  -122.8396754 Eh     change       -0.5045546E-03 Eh
   gradient norm :     0.0102922 Eh/α   predicted    -0.3931551E-03 ( -22.08%)
   displ. norm   :     0.6364923 α      lambda       -0.6746801E-03
   maximum displ.:     0.3392672 α      in ANC's #8, #12, #7, ...

........................................................................
.............................. CYCLE   13 ..............................
........................................................................

 iter      E             dE          RMSdq      gap      omega  full diag
   1   -124.7844316 -0.124784E+03  0.209E-01    0.03       0.0  T
   2   -124.6304241  0.154008E+00  0.817E-01    0.23       1.0  T
   3   -124.7668906 -0.136466E+00  0.309E-01    0.07       1.0  T
   4   -124.7645781  0.231245E-02  0.301E-01    0.01       1.0  T
   5   -124.7775827 -0.130045E-01  0.181E-01    0.01       1.0  T
   6   -124.7849662 -0.738352E-02  0.695E-02    0.01       1.0  T
   7   -124.7860176 -0.105137E-02  0.190E-02    0.02       1.0  T
   8   -124.7860389 -0.212992E-04  0.147E-02    0.02       1.0  T
   9   -124.7860807 -0.418082E-04  0.928E-03    0.02       1.1  T
  10   -124.7860736  0.710072E-05  0.985E-03    0.02       1.0  T
  11   -124.7860923 -0.187676E-04  0.467E-03    0.02       2.2  T
  12   -124.7860971 -0.476556E-05  0.140E-03    0.02       7.2  T
  13   -124.7860974 -0.278391E-06  0.781E-04    0.02      12.9  T
  14   -124.7860975 -0.108373E-06  0.432E-04    0.02      23.4  T
     SCC iter.                  ...        0 min,  0.299 sec
     gradient                   ...        0 min,  0.022 sec
 * total energy  :  -122.8402695 Eh     change       -0.5941041E-03 Eh
   gradient norm :     0.0116186 Eh/α   predicted    -0.4740091E-03 ( -20.21%)
   displ. norm   :     0.7121506 α      lambda       -0.8311017E-03
   maximum displ.:     0.3931030 α      in ANC's #8, #12, #7, ...

........................................................................
.............................. CYCLE   14 ..............................
........................................................................

 iter      E             dE          RMSdq      gap      omega  full diag
   1   -124.7822740 -0.124782E+03  0.256E-01    0.04       0.0  T
   2   -124.6121169  0.170157E+00  0.880E-01    0.24       1.0  T
   3   -124.7791740 -0.167057E+00  0.214E-01    0.05       1.0  T
   4   -124.7589808  0.201932E-01  0.327E-01    0.01       1.0  T
   5   -124.7851717 -0.261909E-01  0.748E-02    0.02       1.0  T
   6   -124.7860088 -0.837140E-03  0.454E-02    0.03       1.0  T
   7   -124.7864411 -0.432219E-03  0.220E-02    0.02       1.0  T
   8   -124.7865071 -0.660846E-04  0.155E-02    0.02       1.0  T
   9   -124.7865610 -0.538312E-04  0.517E-03    0.02       2.0  T
