98
 energy: -122.867513892061 gnorm: 0.008891140545 xtb: 6.7.1pre (5071a88)
C           -6.09787274044008       -0.10510908023969        6.95115602456330
N           -4.94459569750731        0.39502872696372        6.23563724727856
C           -4.99573883436009        1.78952566529486        5.86203141791726
C           -3.70406523626583       -0.16459246524528        6.51320844731112
C           -3.58305382764089       -1.39374587617315        7.18340908698937
C           -2.35674679187264       -1.94958469075829        7.43771476872508
C           -1.14764863721496       -1.32525048310748        7.06342957748352
N           -0.00653225261118       -1.92744836365819        7.42690048316798
C            1.17696859088741       -1.31364877259771        7.29071861347680
C            2.29810036279847       -1.92891277901102        7.88699431778616
C            3.54411890722405       -1.35799801765367        7.87899037886161
C            3.77668075553684       -0.12053450144821        7.25594716307953
N            5.03613054870894        0.46415186547773        7.22607566798347
C            5.11665690548650        1.88834463189394        6.99153439308440
C            6.07827773815820       -0.09770804584398        8.05466136887134
C            2.68801805433323        0.48796650440169        6.62406390294918
C            1.43178621882001       -0.08648353058097        6.63731332818158
S            0.14053429711082        0.76459708871797        5.78432688418031
C           -1.28425200531954       -0.10478902642899        6.36531565340640
C           -2.51985438092932        0.45355114136988        6.10033981474442
H           -6.24765470512768       -1.16086657788859        6.72783890947178
H           -6.00443025377145        0.01636966327412        8.03699301401108
H           -6.98371098906286        0.43146893818974        6.61925735254335
H           -6.03368580192839        2.08269400375887        5.72220283013879
H           -4.55006256008721        2.44403990298801        6.62138230521602
H           -4.47279044285780        1.94011782572981        4.91695385777120
H           -4.45757233048995       -1.91997206008854        7.52660026418051
H           -2.27614369083398       -2.88195616440745        7.97246567014947
H            2.12633022373437       -2.86657989459360        8.39005635461787
H            4.34130502019675       -1.87627993439630        8.38451956662795
H            4.84079663843885        2.11746213908584        5.96066120412883
H            6.13995924825876        2.22063233745758        7.14486274388700
H            4.46398319744312        2.45832888104820        7.66306874739811
H            6.23694365130883       -1.14305576074282        7.79233667176051
H            7.00741428428782        0.43654094275740        7.86629860163132
H            5.85060907224444       -0.03298602891799        9.12628729278177
H            2.79742573116052        1.43129564392182        6.11333750515710
H           -2.53238122323893        1.39170366344970        5.57148807547884
B           -6.30689492089220       -2.66781175394037       -0.20351289143241
B           -3.86663065957869       -3.45072453873107        0.90163004841911
B           -1.10064518422732       -4.27547074876977        2.13638136325249
B            1.69981756063282       -4.27640447377722        1.80835699356226
B            3.02350569301764       -3.66786051532784        1.20802158462473
B            5.89599147054305       -3.81900423852590        0.01861656790716
B           -4.66076258172421       -2.38153973079945       -0.36425335485845
B           -2.49354599500401       -2.38539279553396        0.74339986287863
B           -1.27287054630118       -2.50576202739132        1.89753305134471
B            0.30129849977971       -3.22405409217864        1.60693548413385
B            3.20043605475096       -2.05913424711600        0.77387920339531
B            5.24952911825200       -2.49852633701116       -0.61562296331239
B           -4.30614880546758       -1.12008410543981       -1.34247373970243
B           -3.02552573752152       -1.42914241316180       -0.35673125991655
B           -1.02587809046677       -1.00519059004366        2.38352808806698
B            0.41938779427042       -1.57608230488638        1.35853832608448
B            4.31131410056913       -1.19813584857043        0.10038063524254
B            6.83093692465793       -2.44217676673574       -0.42108945181393
B           -5.13153476706754       -0.46408384943621       -2.66624703268547
B           -3.25193254026111        0.11019446885219       -0.67114468932139
B           -1.18187417371831        0.52681868576097        2.48655642488492
B           -0.01136263424198       -0.08520486736856        1.35837611993709
B            4.97843035939387        0.29822594511383        0.07294151229719
B            5.84586808937783       -0.99406231413735       -0.62105377374183
B           -6.05343612209223        0.96488892533291       -2.18611756721606
B           -3.18609466855896        1.56324191999493       -0.16024935239244
B           -1.41241514266830        2.05651660921146        2.29257189370433
B            0.14396013917290        1.46203055934145        1.63841181061033
B            4.28088860017529        1.66663461814486        0.69080824566699
B            6.29619954125044        0.52388395295989       -1.07344821709456
B           -5.60881459041643        1.82950522313847       -0.83745820192285
B           -3.02151124555617        2.95240007787713        0.50528203476581
B           -1.99847738001250        3.43239069225403        1.75021925162002
B           -0.17459564141618        3.09079508292104        1.72274839540935
B            2.94510386131432        2.21114786645481        1.33790439338539
B            5.78701257210556        1.76990189668451       -0.16325339031093
B           -5.90048058882044        3.27572962241641       -0.12925796140345
B           -4.55243881816213        3.96192477569844        0.54925628256386
B           -1.88626528934908        5.14993259029760        1.49492622973155
B            1.03946961312068        4.25811116116279        1.82115436204179
B            2.52061888939024        3.83164815380480        1.51724939212928
B            5.33787873806866        3.06475599842068        0.49959932371082
B           -5.35046103530945       -3.57188596473740        0.52258234662407
B           -2.49109227929077       -3.75637677323532        1.61559556327162
B            0.32556539877005       -4.82143022508869        2.17311602077695
B            1.77198568369609       -2.42211302244387        1.39333016171071
B            4.36745453671290       -3.41587151805553        0.47025260099647
B           -4.63318213700305        2.33993915773581        0.34877229908814
B           -3.24544343233626        4.65235791713280        1.01762646951974
B           -0.40809460790602        4.80056567712334        1.68050976200077
B            1.42294428852423        2.49119319600559        1.68138061902445
B            4.02397974655660        3.52551528259564        1.14643979301993
B           -4.74620281467104        0.49644064245739       -1.42396554135407
H           -7.28349943684897       -2.16889788265157       -0.60629994569481
H           -5.28455114906316       -0.93119003693253       -3.72984222512983
H           -7.00488888944433        1.19257317133242       -2.82036376856680
H           -6.95294791756218        3.79624287969565       -0.07820189478675
H            6.32061269347129       -4.90703142574286       -0.03066781914283
H            7.98729767573368       -2.41882448574308       -0.57428423358439
H            7.00976813508724        0.68764263163439       -1.99183974896596
