      -----------------------------------------------------------      
     |                   =====================                   |     
     |                           x T B                           |     
     |                   =====================                   |     
     |                         S. Grimme                         |     
     |          Mulliken Center for Theoretical Chemistry        |     
     |                    University of Bonn                     |     
      -----------------------------------------------------------      

   * xtb version 6.7.1pre (5071a88) compiled by 'Marcel@Raven' on 2024-07-23

   xtb is free software: you can redistribute it and/or modify it under
   the terms of the GNU Lesser General Public License as published by
   the Free Software Foundation, either version 3 of the License, or
   (at your option) any later version.
   
   xtb is distributed in the hope that it will be useful,
   but WITHOUT ANY WARRANTY; without even the implied warranty of
   MERCHANTABILITY or FITNESS FOR A PARTICULAR PURPOSE.  See the
   GNU Lesser General Public License for more details.
   
   Cite this work as:
   * C. Bannwarth, E. Caldeweyher, S. Ehlert, A. Hansen, P. Pracht,
     J. Seibert, S. Spicher, S. Grimme, WIREs Comput. Mol. Sci., 2020, 11,
     e01493. DOI: 10.1002/wcms.1493
   
   for GFN2-xTB:
   * C. Bannwarth, S. Ehlert and S. Grimme., J. Chem. Theory Comput., 2019,
     15, 1652-1671. DOI: 10.1021/acs.jctc.8b01176
   for GFN1-xTB:
   * S. Grimme, C. Bannwarth, P. Shushkov, J. Chem. Theory Comput., 2017,
     13, 1989-2009. DOI: 10.1021/acs.jctc.7b00118
   for GFN0-xTB:
   * P. Pracht, E. Caldeweyher, S. Ehlert, S. Grimme, ChemRxiv, 2019, preprint.
     DOI: 10.26434/chemrxiv.8326202.v1
   for GFN-FF:
   * S. Spicher and S. Grimme, Angew. Chem. Int. Ed., 2020, 59, 15665-15673.
     DOI: 10.1002/anie.202004239
   
   for ALPB and GBSA implicit solvation:
   * S. Ehlert, M. Stahn, S. Spicher, S. Grimme, J. Chem. Theory Comput.,
     2021, 17, 4250-4261. DOI: 10.1021/acs.jctc.1c00471
   
   for ddCOSMO and CPCM-X implicit solvation:
   * M. Stahn, S. Ehlert, S. Grimme, J. Phys. Chem. A,
     2023, XX, XXXX-XXXX. DOI: 10.1021/acs.jpca.3c04382
   
   for DFT-D4:
   * E. Caldeweyher, C. Bannwarth and S. Grimme, J. Chem. Phys., 2017,
     147, 034112. DOI: 10.1063/1.4993215
   * E. Caldeweyher, S. Ehlert, A. Hansen, H. Neugebauer, S. Spicher,
     C. Bannwarth and S. Grimme, J. Chem. Phys., 2019, 150, 154122.
     DOI: 10.1063/1.5090222
   * E. Caldeweyher, J.-M. Mewes, S. Ehlert and S. Grimme, Phys. Chem. Chem. Phys.
     2020, 22, 8499-8512. DOI: 10.1039/D0CP00502A
   
   for sTDA-xTB:
   * S. Grimme and C. Bannwarth, J. Chem. Phys., 2016, 145, 054103.
     DOI: 10.1063/1.4959605
   
   in the mass-spec context:
   * V. Asgeirsson, C. Bauer and S. Grimme, Chem. Sci., 2017, 8, 4879.
     DOI: 10.1039/c7sc00601b
   * J. Koopman and S. Grimme, ACS Omega 2019, 4, 12, 15120-15133.
     DOI: 10.1021/acsomega.9b02011
   
   for metadynamics refer to:
   * S. Grimme, J. Chem. Theory Comput., 2019, 155, 2847-2862
     DOI: 10.1021/acs.jctc.9b00143
   
   for SPH calculations refer to:
   * S. Spicher and S. Grimme, J. Chem. Theory Comput., 2021, 17, 1701-1714
     DOI: 10.1021/acs.jctc.0c01306
   
   for ONIOM refer to:
   * C. Plett, A. Katbashev, S. Ehlert, S. Grimme, M. Bursch,
     Phys. Chem. Chem. Phys., 2023, 25, 17860-17868. DOI: 10.1039/D3CP02178E
   
   for DIPRO refer to:
   * J. Kohn, N. Gildemeister, S. Grimme, D. Fazzi, A. Hansen,
     J. Chem. Phys., 2023, just accepted.
   
   for PTB refer to:
   * S. Grimme, M. Mueller, A. Hansen, J. Chem. Phys., 2023, 158, 124111.
     DOI: 10.1063/5.0137838
   
   with help from (in alphabetical order)
   P. Atkinson, C. Bannwarth, F. Bohle, G. Brandenburg, E. Caldeweyher
   M. Checinski, S. Dohm, S. Ehlert, S. Ehrlich, I. Gerasimov, C. Hölzer
   A. Katbashev, J. Kohn, J. Koopman, C. Lavigne, S. Lehtola, F. März, M. Müller,
   F. Musil, H. Neugebauer, J. Pisarek, C. Plett, P. Pracht, F. Pultar,
   J. Seibert, P. Shushkov, S. Spicher, M. Stahn, M. Steiner, T. Strunk,
   J. Stückrath, T. Rose, and J. Unsleber
   
 * started run on 2026/08/31 at 20:24:07.545     
   ID    Z sym.   atoms
    1    6 C      1, 2, 4, 6-10, 12, 14-16, 21
    2    7 N      3, 5, 11, 20
    3    9 F      13, 17-19
    4    1 H      22-31, 85-91
    5    5 B      32-84

           -------------------------------------------------
          |                Calculation Setup                |
           -------------------------------------------------

          program call               : "c:\Users\Andre\Proyectos doctorado\kras-pancreatic-gC3N4-ai\tools\xtb\xtb-6.7.1\bin\xtb.exe" "c:\Users\Andre\Proyectos doctorado\borophene-alzheimer-tau-ai\calculations\tau\AZD1080\AZD1080_B48H12_complex.xyz" --gfn 2 --sp --chrg 0 --uhf 0 --iterations 500 --norestart
          coordinate file            : c:\Users\Andre\Proyectos doctorado\borophene-alzheimer-tau-ai\calculations\tau\AZD1080\AZD1080_B48H12_complex.xyz
          omp threads                :                    16


molecular fragmentation (1/2 indicates fragments):
111111111111111111111111111111122222222222222222222222222222222222222222
2222222222222222222
# atoms in fragment 1/2:    31    60
 fragment masses (1/2) :      298.24      580.04
CMA distance (Bohr)    :   6.427
constraining FC (au)   :  0.0500

           -------------------------------------------------
          |                 G F N 2 - x T B                 |
           -------------------------------------------------

        Reference                      10.1021/acs.jctc.8b01176
      * Hamiltonian:
        H0-scaling (s, p, d)           1.850000    2.230000    2.230000
        zeta-weighting                 0.500000
      * Dispersion:
        s8                             2.700000
        a1                             0.520000
        a2                             5.000000
        s9                             5.000000
      * Repulsion:
        kExp                           1.500000    1.000000
        rExp                           1.000000
      * Coulomb:
        alpha                          2.000000
        third order                    shell-resolved
        anisotropic                    true
        a3                             3.000000
        a5                             4.000000
        cn-shift                       1.200000
        cn-exp                         4.000000
        max-rad                        5.000000


          ...................................................
          :                      SETUP                      :
          :.................................................:
          :  # basis functions                 313          :
          :  # atomic orbitals                 313          :
          :  # shells                          165          :
          :  # electrons                       276          :
          :  max. iterations                   500          :
          :  Hamiltonian                  GFN2-xTB          :
          :  restarted?                      false          :
          :  GBSA solvation                  false          :
          :  PC potential                    false          :
          :  electronic temp.          300.0000000     K    :
          :  accuracy                    1.0000000          :
          :  -> integral cutoff          0.2500000E+02      :
          :  -> integral neglect         0.1000000E-07      :
          :  -> SCF convergence          0.1000000E-05 Eh   :
          :  -> wf. convergence          0.1000000E-03 e    :
          :  Broyden damping             0.4000000          :
          :  net charge                          0          :
          :  unpaired electrons                  0          :
          ...................................................

 iter      E             dE          RMSdq      gap      omega  full diag
   1   -128.9424800 -0.128942E+03  0.181E+01    0.31       0.0  T
   2     -1.9663120  0.126976E+03  0.181E+01    0.17       1.0  T
   3    309.5184831  0.311485E+03  0.260E+01    0.03       1.0  T
   4     75.8322056 -0.233686E+03  0.185E+01    0.04       1.0  T
   5     19.3337905 -0.564984E+02  0.170E+01    0.04       1.0  T
   6    -89.7981616 -0.109132E+03  0.123E+01    0.17       1.0  T
   7    -76.6315785  0.131666E+02  0.124E+01    0.07       1.0  T
   8    -97.2329569 -0.206014E+02  0.101E+01    0.06       1.0  T
   9   -111.6791518 -0.144462E+02  0.888E+00    0.04       1.0  T
  10   -125.7793826 -0.141002E+02  0.745E+00    0.11       1.0  T
  11   -127.6798175 -0.190043E+01  0.726E+00    0.20       1.0  T
  12   -129.4674710 -0.178765E+01  0.706E+00    0.16       1.0  T
  13   -129.9658780 -0.498407E+00  0.651E+00    0.10       1.0  T
  14   -130.9469213 -0.981043E+00  0.617E+00    0.06       1.0  T
  15   -129.3027688  0.164415E+01  0.646E+00    0.20       1.0  T
  16   -129.4403659 -0.137597E+00  0.630E+00    0.13       1.0  T
  17   -129.2581845  0.182181E+00  0.608E+00    0.21       1.0  T
  18   -129.2776177 -0.194332E-01  0.543E+00    0.23       1.0  T
  19   -130.1134835 -0.835866E+00  0.407E+00    0.20       1.0  T
  20   -130.2205840 -0.107101E+00  0.396E+00    0.14       1.0  T
  21   -130.2575317 -0.369477E-01  0.392E+00    0.11       1.0  T
  22   -131.0343544 -0.776823E+00  0.326E+00    0.01       1.0  T
  23   -131.5952835 -0.560929E+00  0.302E+00    0.05       1.0  T
  24   -131.7768199 -0.181536E+00  0.294E+00    0.16       1.0  T
  25   -131.7904524 -0.136325E-01  0.288E+00    0.15       1.0  T
  26   -131.8471857 -0.567333E-01  0.278E+00    0.23       1.0  T
  27   -132.1348316 -0.287646E+00  0.229E+00    0.22       1.0  T
  28   -132.1489122 -0.140806E-01  0.218E+00    0.22       1.0  T
  29   -132.2066217 -0.577095E-01  0.201E+00    0.16       1.0  T
  30   -132.2097851 -0.316338E-02  0.200E+00    0.13       1.0  T
  31   -132.2176863 -0.790121E-02  0.198E+00    0.14       1.0  T
  32   -132.2263298 -0.864352E-02  0.197E+00    0.12       1.0  T
  33   -132.2223279  0.400192E-02  0.198E+00    0.12       1.0  T
  34   -132.1195306  0.102797E+00  0.211E+00    0.02       1.0  T
  35   -132.1803522 -0.608215E-01  0.189E+00    0.00       1.0  T
  36   -132.2554020 -0.750498E-01  0.170E+00    0.04       1.0  T
  37   -132.2609668 -0.556482E-02  0.157E+00    0.02       1.0  T
  38   -132.3167898 -0.558230E-01  0.137E+00    0.10       1.0  T
  39   -132.3135492  0.324065E-02  0.116E+00    0.04       1.0  T
  40   -132.3284945 -0.149453E-01  0.973E-01    0.07       1.0  T
  41   -132.3342705 -0.577609E-02  0.829E-01    0.05       1.0  T
  42   -132.3321518  0.211871E-02  0.801E-01    0.04       1.0  T
  43   -132.3081377  0.240142E-01  0.830E-01    0.02       1.0  T
  44   -132.2962278  0.119099E-01  0.871E-01    0.01       1.0  T
  45   -132.2556751  0.405526E-01  0.975E-01    0.01       1.0  T
  46   -132.2659080 -0.102329E-01  0.936E-01    0.01       1.0  T
  47   -132.3236591 -0.577511E-01  0.712E-01    0.02       1.0  T
  48   -132.3572990 -0.336399E-01  0.570E-01    0.04       1.0  T
  49   -132.3583085 -0.100952E-02  0.566E-01    0.04       1.0  T
  50   -132.3641862 -0.587765E-02  0.546E-01    0.04       1.0  T
  51   -132.3240741  0.401120E-01  0.826E-01    0.06       1.0  T
  52   -132.3006313  0.234428E-01  0.906E-01    0.05       1.0  T
  53   -132.3015813 -0.950016E-03  0.903E-01    0.05       1.0  T
  54   -132.3830297 -0.814484E-01  0.459E-01    0.08       1.0  T
  55   -132.3893537 -0.632395E-02  0.424E-01    0.08       1.0  T
  56   -132.3932895 -0.393585E-02  0.389E-01    0.08       1.0  T
  57   -132.4033364 -0.100469E-01  0.308E-01    0.10       1.0  T
  58   -132.3958855  0.745085E-02  0.343E-01    0.07       1.0  T
  59   -132.4052109 -0.932534E-02  0.262E-01    0.09       1.0  T
  60   -132.4008130  0.439788E-02  0.307E-01    0.10       1.0  T
  61   -132.3989799  0.183310E-02  0.324E-01    0.10       1.0  T
  62   -132.3990167 -0.368093E-04  0.320E-01    0.09       1.0  T
  63   -132.4001560 -0.113925E-02  0.306E-01    0.09       1.0  T
  64   -132.4003732 -0.217242E-03  0.298E-01    0.09       1.0  T
  65   -132.4016955 -0.132231E-02  0.282E-01    0.09       1.0  T
  66   -132.4022722 -0.576664E-03  0.276E-01    0.09       1.0  T
  67   -132.4039587 -0.168653E-02  0.253E-01    0.08       1.0  T
  68   -132.4042319 -0.273149E-03  0.249E-01    0.08       1.0  T
  69   -132.4084584 -0.422653E-02  0.188E-01    0.09       1.0  T
  70   -132.4098426 -0.138418E-02  0.164E-01    0.09       1.0  T
  71   -132.4117638 -0.192127E-02  0.122E-01    0.09       1.0  T
  72   -132.4123171 -0.553254E-03  0.104E-01    0.09       1.0  T
  73   -132.4116639  0.653221E-03  0.117E-01    0.09       1.0  T
  74   -132.4123379 -0.674062E-03  0.978E-02    0.09       1.0  T
  75   -132.4123368  0.115341E-05  0.914E-02    0.09       1.0  T
  76   -132.4129182 -0.581470E-03  0.676E-02    0.09       1.0  T
  77   -132.4131999 -0.281649E-03  0.496E-02    0.09       1.0  T
  78   -132.4130703  0.129558E-03  0.540E-02    0.09       1.0  T
  79   -132.4131636 -0.932114E-04  0.461E-02    0.09       1.0  T
  80   -132.4133641 -0.200557E-03  0.250E-02    0.10       1.0  T
  81   -132.4133948 -0.307393E-04  0.182E-02    0.10       1.0  T
  82   -132.4133912  0.363295E-05  0.181E-02    0.10       1.0  T
  83   -132.4134117 -0.205170E-04  0.119E-02    0.10       1.0  T
  84   -132.4134260 -0.142793E-04  0.643E-03    0.10       1.6  T
  85   -132.4134225  0.350803E-05  0.790E-03    0.10       1.3  T
  86   -132.4134151  0.741854E-05  0.101E-02    0.10       1.0  T
  87   -132.4134198 -0.471201E-05  0.849E-03    0.10       1.2  T
  88   -132.4134259 -0.606238E-05  0.594E-03    0.10       1.8  T
  89   -132.4134266 -0.784156E-06  0.548E-03    0.10       1.9  T
  90   -132.4134309 -0.424840E-05  0.202E-03    0.10       5.2  T
  91   -132.4134312 -0.307884E-06  0.144E-03    0.10       7.3  T
  92   -132.4134312  0.937047E-08  0.143E-03    0.10       7.3  T
  93   -132.4134313 -0.139809E-06  0.107E-03    0.10       9.8  T
  94   -132.4134315 -0.141256E-06  0.490E-04    0.10      21.4  T
  95   -132.4134315  0.125426E-07  0.552E-04    0.10      19.0  T

   *** convergence criteria satisfied after 95 iterations ***

         #    Occupation            Energy/Eh            Energy/eV
      -------------------------------------------------------------
         1        2.0000           -0.8516668             -23.1750
       ...           ...                  ...                  ...
       132        2.0000           -0.2287814              -6.2255
       133        2.0000           -0.2286413              -6.2216
       134        2.0000           -0.2228053              -6.0628
       135        2.0000           -0.2225173              -6.0550
       136        1.9999           -0.2187679              -5.9530
       137        1.8939           -0.2123689              -5.7789
       138        1.6732           -0.2111828              -5.7466 (HOMO)
       139        0.2070           -0.2075799              -5.6485 (LUMO)
       140        0.1645           -0.2073394              -5.6420
       141        0.0616           -0.2063538              -5.6152
       142        0.0000           -0.1993734              -5.4252
       143        0.0000           -0.1984022              -5.3988
       ...           ...                  ...                  ...
       313                          1.6439196              44.7333
      -------------------------------------------------------------
                  HL-Gap            0.0036030 Eh            0.0980 eV
             Fermi-level           -0.2096312 Eh           -5.7044 eV

 SCC (total)                   0 d,  0 h,  0 min,  1.376 sec
 SCC setup                      ...        0 min,  0.001 sec (  0.073%)
 Dispersion                     ...        0 min,  0.001 sec (  0.073%)
 classical contributions        ...        0 min,  0.000 sec (  0.000%)
 integral evaluation            ...        0 min,  0.007 sec (  0.509%)
 iterations                     ...        0 min,  1.347 sec ( 97.892%)
 molecular gradient             ...        0 min,  0.018 sec (  1.308%)
 printout                       ...        0 min,  0.002 sec (  0.145%)

         :::::::::::::::::::::::::::::::::::::::::::::::::::::
         ::                     SUMMARY                     ::
         :::::::::::::::::::::::::::::::::::::::::::::::::::::
         :: total energy            -130.264127133776 Eh    ::
         :: gradient norm              0.442499609134 Eh/a0 ::
         :: HOMO-LUMO gap              0.098041325488 eV    ::
         ::.................................................::
         :: SCC energy              -132.407615387651 Eh    ::
         :: -> isotropic ES            0.424956872215 Eh    ::
         :: -> anisotropic ES          0.000620031421 Eh    ::
         :: -> anisotropic XC         -0.063787534543 Eh    ::
         :: -> dispersion             -0.145745514324 Eh    ::
         :: repulsion energy           2.143488253875 Eh    ::
         :: add. restraining           0.000000000000 Eh    ::
         :: total charge              -0.000000000000 e     ::
         :::::::::::::::::::::::::::::::::::::::::::::::::::::

           -------------------------------------------------
          |                Property Printout                |
           -------------------------------------------------

    * Orbital Energies and Occupations

         #    Occupation            Energy/Eh            Energy/eV
      -------------------------------------------------------------
         1        2.0000           -0.8516668             -23.1750
       ...           ...                  ...                  ...
       126        2.0000           -0.2477711              -6.7422
       127        2.0000           -0.2462516              -6.7008
       128        2.0000           -0.2435814              -6.6282
       129        2.0000           -0.2425799              -6.6009
       130        2.0000           -0.2360216              -6.4225
       131        2.0000           -0.2328061              -6.3350
       132        2.0000           -0.2287814              -6.2255
       133        2.0000           -0.2286413              -6.2216
       134        2.0000           -0.2228053              -6.0628
       135        2.0000           -0.2225173              -6.0550
       136        1.9999           -0.2187679              -5.9530
       137        1.8939           -0.2123689              -5.7789
       138        1.6732           -0.2111828              -5.7466 (HOMO)
       139        0.2070           -0.2075799              -5.6485 (LUMO)
       140        0.1645           -0.2073394              -5.6420
       141        0.0616           -0.2063538              -5.6152
       142        0.0000           -0.1993734              -5.4252
       143        0.0000           -0.1984022              -5.3988
       144        0.0000           -0.1982194              -5.3938
       145                         -0.1936464              -5.2694
       146                         -0.1909437              -5.1958
       147                         -0.1884973              -5.1293
       148                         -0.1871629              -5.0930
       149                         -0.1842295              -5.0131
       ...                                ...                  ...
       313                          1.6439196              44.7333
      -------------------------------------------------------------
                  HL-Gap            0.0036030 Eh            0.0980 eV
             Fermi-level           -0.2096312 Eh           -5.7044 eV

     #   Z          covCN         q      C6AA      α(0)
     1   6 C        3.752    -0.153    23.513     6.915
     2   6 C        3.131     0.114    25.304     8.235
     3   7 N        1.906    -0.299    28.606     7.930
     4   6 C        3.107     0.123    25.180     8.222
     5   7 N        2.691    -0.151    24.266     7.316
     6   6 C        2.891     0.058    26.696     8.471
     7   6 C        2.918    -0.079    29.975     8.978
     8   6 C        2.918    -0.044    29.085     8.844
     9   6 C        2.966    -0.027    28.665     8.782
    10   6 C        1.907     0.096    28.709     8.653
    11   7 N        0.911    -0.291    27.502     7.585
    12   6 C        2.780     0.162    24.484     8.105
    13   9 F        0.787    -0.238    11.631     4.029
    14   6 C        2.917    -0.088    30.204     9.012
    15   6 C        3.045    -0.085    30.077     8.995
    16   6 C        3.331     0.483    17.395     6.617
    17   9 F        0.789    -0.201    11.248     3.962
    18   9 F        0.788    -0.225    11.493     4.005
    19   9 F        0.789    -0.235    11.602     4.023
    20   7 N        2.857    -0.029    21.793     6.934
    21   6 C        3.686    -0.114    22.901     6.851
    22   1 H        0.924     0.077     2.013     2.219
    23   1 H        0.924     0.047     2.361     2.403
    24   1 H        0.924     0.091     1.874     2.141
    25   1 H        0.860     0.189     1.166     1.691
    26   1 H        0.925     0.037     2.493     2.469
    27   1 H        0.925     0.047     2.356     2.400
    28   1 H        0.925     0.086     1.913     2.163
    29   1 H        0.924     0.119     1.620     1.990
    30   1 H        0.924     0.060     2.201     2.320
    31   1 H        0.924     0.057     2.234     2.337
    32   5 B        2.887    -0.007    21.540     7.746
    33   5 B        2.890     0.021    21.043     7.656
    34   5 B        2.890     0.026    20.963     7.642
    35   5 B        2.890     0.021    21.049     7.657
    36   5 B        2.890     0.027    20.939     7.637
    37   5 B        2.887     0.010    21.247     7.693
    38   5 B        2.916     0.005    21.317     7.704
    39   5 B        3.868    -0.006    22.854     7.704
    40   5 B        3.868     0.008    22.584     7.659
    41   5 B        3.868     0.003    22.671     7.673
    42   5 B        3.868     0.005    22.637     7.667
    43   5 B        2.916     0.053    20.490     7.554
    44   5 B        3.266    -0.015    21.649     7.760
    45   5 B        2.314     0.069    30.802    10.813
    46   5 B        1.958     0.013    43.655    13.895
    47   5 B        1.958     0.023    43.278    13.835
    48   5 B        1.958     0.026    43.172    13.818
    49   5 B        2.911    -0.058    22.468     7.910
    50   5 B        2.939    -0.007    21.531     7.742
    51   5 B        2.936    -0.108    23.437     8.078
    52   5 B        1.958    -0.070    46.754    14.380
    53   5 B        1.958    -0.056    46.236    14.300
    54   5 B        1.958    -0.046    45.829    14.237
    55   5 B        1.960     0.032    42.960    13.783
    56   5 B        3.266    -0.016    21.663     7.762
    57   5 B        2.314     0.056    31.129    10.870
    58   5 B        1.958     0.017    43.511    13.872
    59   5 B        1.958     0.033    42.949    13.782
    60   5 B        1.958     0.036    42.821    13.761
    61   5 B        2.911    -0.032    21.985     7.825
    62   5 B        2.916     0.004    21.338     7.708
    63   5 B        3.868    -0.020    23.114     7.748
    64   5 B        3.868     0.005    22.645     7.669
    65   5 B        3.868     0.007    22.605     7.662
    66   5 B        3.868     0.007    22.598     7.661
    67   5 B        2.914    -0.002    21.446     7.728
    68   5 B        2.887    -0.011    21.605     7.758
    69   5 B        2.890     0.017    21.108     7.668
    70   5 B        2.890     0.022    21.029     7.654
    71   5 B        2.890     0.024    20.989     7.646
    72   5 B        2.890     0.025    20.978     7.644
    73   5 B        1.934     0.001    44.198    13.988
    74   5 B        3.822     0.041    21.972     7.556
    75   5 B        3.823     0.051    21.800     7.526
    76   5 B        3.822     0.038    22.036     7.567
    77   5 B        3.822     0.036    22.064     7.572
    78   5 B        3.822     0.047    21.875     7.540
    79   5 B        3.822     0.038    22.031     7.566
    80   5 B        3.822     0.031    22.153     7.587
    81   5 B        3.822     0.040    21.989     7.559
    82   5 B        3.822     0.039    22.010     7.563
    83   5 B        3.822     0.040    22.000     7.561
    84   5 B        3.381     0.108    19.587     7.378
    85   1 H        0.954    -0.084     5.023     3.503
    86   1 H        0.956     0.008     2.913     2.668
    87   1 H        0.956     0.007     2.935     2.678
    88   1 H        0.954    -0.087     5.102     3.531
    89   1 H        0.954    -0.079     4.858     3.445
    90   1 H        0.956    -0.000     3.059     2.734
    91   1 H        0.956    -0.004     3.126     2.764

 Mol. C6AA /au·bohr⁶  :     157425.864894
 Mol. C8AA /au·bohr⁸  :    5306779.636499
 Mol. α(0) /au        :        677.842356


Wiberg/Mayer (AO) data.
largest (>0.10) Wiberg bond orders for each atom

 ---------------------------------------------------------------------------
     #   Z sym  total        # sym  WBO       # sym  WBO       # sym  WBO
 ---------------------------------------------------------------------------
     1   6 C    3.987 --     2 C    1.034    22 H    0.978    23 H    0.967
                            24 H    0.951
     2   6 C    3.950 --     3 N    1.465    20 N    1.242     1 C    1.034
     3   7 N    2.998 --     2 C    1.465     4 C    1.255
     4   6 C    3.955 --    15 C    1.375     3 N    1.255     5 N    1.166
     5   7 N    3.451 --     4 C    1.166     6 C    1.092    25 H    0.926
     6   6 C    3.878 --    14 C    1.327     7 C    1.319     5 N    1.092
     7   6 C    3.974 --     8 C    1.492     6 C    1.319    26 H    0.966
     8   6 C    3.940 --     7 C    1.492     9 C    1.298    27 H    0.970
     9   6 C    3.907 --     8 C    1.298    12 C    1.281    10 C    1.120
    10   6 C    3.903 --    11 N    2.727     9 C    1.120
    11   7 N    2.897 --    10 C    2.727
    12   6 C    3.839 --    14 C    1.439     9 C    1.281    13 F    0.951
    13   9 F    1.076 --    12 C    0.951
    14   6 C    3.965 --    12 C    1.439     6 C    1.327    28 H    0.956
    15   6 C    3.827 --     4 C    1.375    20 N    1.126    16 C    0.986
    16   6 C    3.813 --    15 C    0.986    17 F    0.936    18 F    0.931
                            19 F    0.918
    17   9 F    1.081 --    16 C    0.936
    18   9 F    1.057 --    16 C    0.931
    19   9 F    1.047 --    16 C    0.918
    20   7 N    3.593 --     2 C    1.242    15 C    1.126    21 C    0.999
    21   6 C    3.943 --    20 N    0.999    30 H    0.979    31 H    0.978
                            29 H    0.906
    22   1 H    0.994 --     1 C    0.978
    23   1 H    0.996 --     1 C    0.967
    24   1 H    0.991 --     1 C    0.951
    25   1 H    0.963 --     5 N    0.926
    26   1 H    0.998 --     7 C    0.966
    27   1 H    0.997 --     8 C    0.970
    28   1 H    0.991 --    14 C    0.956
    29   1 H    0.985 --    21 C    0.906
    30   1 H    0.996 --    21 C    0.979
    31   1 H    0.996 --    21 C    0.978
    32   5 B    3.271 --    38 B    1.089    74 B    0.947    85 H    0.866
                            33 B    0.109    44 B    0.108
    33   5 B    3.424 --    75 B    0.992    74 B    0.977    39 B    0.941
                            34 B    0.144    32 B    0.109
    34   5 B    3.489 --    76 B    1.038    75 B    0.982    40 B    0.923
                            35 B    0.145    33 B    0.144
    35   5 B    3.433 --    77 B    0.995    76 B    0.973    41 B    0.923
                            34 B    0.145    36 B    0.134
    36   5 B    3.450 --    77 B    1.006    78 B    0.949    42 B    0.918
                            37 B    0.178    35 B    0.134
    37   5 B    3.404 --    78 B    1.085    43 B    1.005    89 H    0.862
                            36 B    0.178    49 B    0.107
    38   5 B    3.416 --    44 B    1.184    32 B    1.089    74 B    0.726
                            86 H    0.108
    39   5 B    3.656 --    45 B    1.161    33 B    0.941    74 B    0.681
                            75 B    0.670
    40   5 B    3.621 --    46 B    1.146    34 B    0.923    76 B    0.667
                            75 B    0.655
    41   5 B    3.639 --    47 B    1.151    35 B    0.923    76 B    0.665
                            77 B    0.663
    42   5 B    3.636 --    48 B    1.152    36 B    0.918    77 B    0.671
                            78 B    0.650
    43   5 B    3.483 --    49 B    1.247    37 B    1.005    78 B    0.695
                            90 H    0.156    55 B    0.109
    44   5 B    3.589 --    38 B    1.184    50 B    0.966    86 H    0.695
                            84 B    0.379    32 B    0.108
    45   5 B    3.360 --    51 B    1.266    39 B    1.161    84 B    0.358
                            57 B    0.165
    46   5 B    3.265 --    52 B    1.470    40 B    1.146    58 B    0.261
    47   5 B    3.322 --    53 B    1.445    41 B    1.151    59 B    0.227
    48   5 B    3.287 --    54 B    1.433    42 B    1.152    60 B    0.217
    49   5 B    3.540 --    55 B    1.253    43 B    1.247    90 H    0.658
                            61 B    0.108    37 B    0.107
    50   5 B    3.597 --    84 B    1.017    56 B    0.969    44 B    0.966
                            87 H    0.144    86 H    0.143
    51   5 B    3.677 --    57 B    1.276    45 B    1.266    84 B    0.896
    52   5 B    3.340 --    46 B    1.470    58 B    1.467    53 B    0.105
    53   5 B    3.435 --    47 B    1.445    59 B    1.431    54 B    0.109
                            52 B    0.105
    54   5 B    3.311 --    48 B    1.433    60 B    1.414    53 B    0.109
    55   5 B    3.282 --    61 B    1.313    49 B    1.253    91 H    0.163
                            90 H    0.139    43 B    0.109
    56   5 B    3.586 --    62 B    1.179    50 B    0.969    87 H    0.695
                            84 B    0.381    68 B    0.104
    57   5 B    3.376 --    51 B    1.276    63 B    1.172    84 B    0.358
                            45 B    0.165
    58   5 B    3.261 --    52 B    1.467    64 B    1.149    46 B    0.261
    59   5 B    3.311 --    53 B    1.431    65 B    1.157    47 B    0.227
    60   5 B    3.290 --    54 B    1.414    66 B    1.169    48 B    0.217
    61   5 B    3.444 --    55 B    1.313    67 B    1.046    91 H    0.682
                            49 B    0.108
    62   5 B    3.424 --    56 B    1.179    68 B    1.093    79 B    0.736
                            87 H    0.107
    63   5 B    3.668 --    57 B    1.172    69 B    0.933    80 B    0.681
                            79 B    0.676
    64   5 B    3.628 --    58 B    1.149    70 B    0.925    81 B    0.662
                            80 B    0.661
    65   5 B    3.637 --    59 B    1.157    71 B    0.921    81 B    0.667
                            82 B    0.660
    66   5 B    3.642 --    60 B    1.169    72 B    0.914    82 B    0.682
                            83 B    0.633
    67   5 B    3.621 --    73 B    1.578    61 B    1.046    83 B    0.688
    68   5 B    3.266 --    62 B    1.093    79 B    0.946    88 H    0.866
                            56 B    0.104    69 B    0.103
    69   5 B    3.413 --    80 B    0.995    79 B    0.974    63 B    0.933
                            70 B    0.138    68 B    0.103
    70   5 B    3.497 --    81 B    1.043    80 B    0.975    64 B    0.925
                            71 B    0.153    69 B    0.138
    71   5 B    3.449 --    82 B    1.024    81 B    0.961    65 B    0.921
                            70 B    0.153    72 B    0.127
    72   5 B    3.466 --    83 B    0.986    82 B    0.957    66 B    0.914
                            73 B    0.202    71 B    0.127
    73   5 B    3.163 --    67 B    1.578    83 B    1.126    72 B    0.202
    74   5 B    3.595 --    33 B    0.977    32 B    0.947    38 B    0.726
                            39 B    0.681
    75   5 B    3.584 --    33 B    0.992    34 B    0.982    39 B    0.670
                            40 B    0.655
    76   5 B    3.604 --    34 B    1.038    35 B    0.973    40 B    0.667
                            41 B    0.665
    77   5 B    3.610 --    36 B    1.006    35 B    0.995    42 B    0.671
                            41 B    0.663
    78   5 B    3.599 --    37 B    1.085    36 B    0.949    43 B    0.695
                            42 B    0.650
    79   5 B    3.597 --    69 B    0.974    68 B    0.946    62 B    0.736
                            63 B    0.676
    80   5 B    3.604 --    69 B    0.995    70 B    0.975    63 B    0.681
                            64 B    0.661
    81   5 B    3.599 --    70 B    1.043    71 B    0.961    65 B    0.667
                            64 B    0.662
    82   5 B    3.605 --    71 B    1.024    72 B    0.957    66 B    0.682
                            65 B    0.660
    83   5 B    3.615 --    73 B    1.126    72 B    0.986    67 B    0.688
                            66 B    0.633
    84   5 B    3.607 --    50 B    1.017    51 B    0.896    56 B    0.381
                            44 B    0.379    57 B    0.358    45 B    0.358
    85   1 H    0.979 --    32 B    0.866
    86   1 H    0.992 --    44 B    0.695    50 B    0.143    38 B    0.108
    87   1 H    0.992 --    56 B    0.695    50 B    0.144    62 B    0.107
    88   1 H    0.979 --    68 B    0.866
    89   1 H    0.988 --    37 B    0.862
    90   1 H    0.988 --    49 B    0.658    43 B    0.156    55 B    0.139
    91   1 H    0.970 --    61 B    0.682    55 B    0.163
 ---------------------------------------------------------------------------

Topologies differ in total number of bonds
Writing topology from bond orders to xtbtopo.mol

molecular dipole:
                 x           y           z       tot (Debye)
 q only:       -2.740       0.122      -3.052
   full:       -4.008      -0.373      -2.559      12.123
molecular quadrupole (traceless):
                xx          xy          yy          xz          yz          zz
 q only:      -59.271     -17.598      54.951     -39.260      -0.881       4.320
  q+dip:      -10.078     -23.161      81.321     -45.616      -5.818     -71.243
   full:      -17.821     -24.130      45.077     -45.766      -6.141     -27.256


           -------------------------------------------------
          | TOTAL ENERGY             -130.264127133776 Eh   |
          | GRADIENT NORM               0.442499609134 Eh/α |
          | HOMO-LUMO GAP               0.098041325488 eV   |
           -------------------------------------------------

------------------------------------------------------------------------
 * finished run on 2026/08/31 at 20:24:08.963     
------------------------------------------------------------------------
 total:
 * wall-time:     0 d,  0 h,  0 min,  1.417 sec
 *  cpu-time:     0 d,  0 h,  0 min, 17.688 sec
 * ratio c/w:    12.482 speedup
 SCF:
 * wall-time:     0 d,  0 h,  0 min,  1.377 sec
 *  cpu-time:     0 d,  0 h,  0 min, 17.234 sec
 * ratio c/w:    12.516 speedup

normal termination of xtb
