91
Drug@B48H12 canonical clean complex
C     -2.580380      2.715858      6.188798
C     -2.014326      1.343244      6.165309
N     -0.731694      1.047686      6.191977
C     -0.644544     -0.310818      6.136692
N      0.519890     -0.994664      6.128969
C      1.861545     -0.558061      6.208846
C      2.885481     -1.519857      6.119942
C      4.236650     -1.157424      6.186467
C      4.590166      0.183479      6.343431
C      5.965411      0.567428      6.412962
N      7.092754      0.839736      6.465517
C      3.585493      1.140225      6.431167
F      3.897829      2.435998      6.583114
C      2.238800      0.779549      6.364705
C     -1.897521     -0.873059      6.076683
C     -2.327079     -2.272833      5.995881
F     -3.163608     -2.483786      4.948458
F     -1.282357     -3.128436      5.845732
F     -2.994513     -2.659639      7.111652
N     -2.767421      0.194173      6.106349
C     -4.210318      0.120097      6.058140
H     -1.779814      3.460099      6.130559
H     -3.134869      2.888441      7.116141
H     -3.250938      2.875976      5.339007
H      0.462710     -2.006891      6.048940
H      2.639151     -2.572701      5.995028
H      5.002202     -1.927674      6.114112
H      1.502541      1.572289      6.441063
H     -4.509083      0.015263      5.012319
H     -4.644259      1.025806      6.486911
H     -4.547899     -0.739501      6.641476
B     -6.925574     -4.651113      0.258651
B     -5.109772     -2.249293      0.322202
B     -3.591500     -2.181365      0.212799
B      0.999259     -2.875448      0.063787
B      2.475853     -3.012223     -0.270859
B      5.299353     -3.831373     -0.667177
B      6.318286     -4.835948     -1.155795
B     -6.434811     -3.158276      0.286374
B     -6.751986     -1.633834      0.316446
B     -2.052572     -2.317325      0.334938
B     -0.484105     -2.461901      0.257444
B      4.018432     -2.901059     -0.287234
B      5.753195     -2.281523     -0.302825
B      6.830072     -3.228788     -1.092903
B     -7.656446     -0.254969      0.343088
B     -6.037404     -0.139472      0.191282
B     -4.431555     -0.535693      0.223935
B     -2.737864     -0.660395      0.328987
B     -1.051797     -0.915695      0.641867
B      0.517067     -1.172154      0.725732
B      3.123140     -1.483076     -0.063477
B      4.700072     -1.133969      0.340157
B      6.266701     -0.787165      0.251702
B      7.671979     -0.351666      1.032714
B     -6.918082      1.212094      0.191543
B     -3.418449      0.780084      0.080928
B     -1.654248      0.532626      0.123936
B      1.862187     -0.403738      0.324587
B      3.584717     -0.150377      0.785151
B      6.990973      0.611062     -0.106825
B      8.307368      1.062865      0.631577
B     -7.619446      2.804022      0.298592
B     -6.123847      2.518506     -0.176534
B     -3.588598      2.327656     -0.236793
B     -0.906130      1.819502     -0.419754
B      1.623430      1.019912     -0.410817
B      3.010841      1.309010      0.529678
B      6.372866      1.858188     -0.915986
B     -6.527660      4.045620     -0.160807
B     -4.873588      3.494810     -0.388449
B     -3.415521      3.880123     -0.606384
B     -2.023468      3.220559     -0.676715
B     -0.497363      3.279553     -0.896985
B      0.710715      2.332441     -0.745678
B      2.335338      2.478091     -0.475438
B      3.816082      2.619470     -0.094099
B      5.369811      2.864588     -0.148865
B      6.055136      4.080007      0.631212
H      6.204101      5.147675      0.146336
H      8.218389     -1.121032      1.726840
H      6.622436      1.981791     -2.067388
H     -7.089961     -5.250634     -0.753775
H     -6.791161      5.181470     -0.285186
H      9.156919      1.846573      0.789984
H     -8.827690     -0.375757      0.328558
H      6.783879     -5.868988     -1.446538
H     -8.724710      3.001220      0.638842
H      7.891803     -2.883539     -1.473727
H      6.428164      3.999644      1.748458
H     -7.224878     -5.282314      1.218688
