      -----------------------------------------------------------      
     |                   =====================                   |     
     |                           x T B                           |     
     |                   =====================                   |     
     |                         S. Grimme                         |     
     |          Mulliken Center for Theoretical Chemistry        |     
     |                    University of Bonn                     |     
      -----------------------------------------------------------      

   * xtb version 6.7.1pre (5071a88) compiled by 'Marcel@Raven' on 2024-07-23

   xtb is free software: you can redistribute it and/or modify it under
   the terms of the GNU Lesser General Public License as published by
   the Free Software Foundation, either version 3 of the License, or
   (at your option) any later version.
   
   xtb is distributed in the hope that it will be useful,
   but WITHOUT ANY WARRANTY; without even the implied warranty of
   MERCHANTABILITY or FITNESS FOR A PARTICULAR PURPOSE.  See the
   GNU Lesser General Public License for more details.
   
   Cite this work as:
   * C. Bannwarth, E. Caldeweyher, S. Ehlert, A. Hansen, P. Pracht,
     J. Seibert, S. Spicher, S. Grimme, WIREs Comput. Mol. Sci., 2020, 11,
     e01493. DOI: 10.1002/wcms.1493
   
   for GFN2-xTB:
   * C. Bannwarth, S. Ehlert and S. Grimme., J. Chem. Theory Comput., 2019,
     15, 1652-1671. DOI: 10.1021/acs.jctc.8b01176
   for GFN1-xTB:
   * S. Grimme, C. Bannwarth, P. Shushkov, J. Chem. Theory Comput., 2017,
     13, 1989-2009. DOI: 10.1021/acs.jctc.7b00118
   for GFN0-xTB:
   * P. Pracht, E. Caldeweyher, S. Ehlert, S. Grimme, ChemRxiv, 2019, preprint.
     DOI: 10.26434/chemrxiv.8326202.v1
   for GFN-FF:
   * S. Spicher and S. Grimme, Angew. Chem. Int. Ed., 2020, 59, 15665-15673.
     DOI: 10.1002/anie.202004239
   
   for ALPB and GBSA implicit solvation:
   * S. Ehlert, M. Stahn, S. Spicher, S. Grimme, J. Chem. Theory Comput.,
     2021, 17, 4250-4261. DOI: 10.1021/acs.jctc.1c00471
   
   for ddCOSMO and CPCM-X implicit solvation:
   * M. Stahn, S. Ehlert, S. Grimme, J. Phys. Chem. A,
     2023, XX, XXXX-XXXX. DOI: 10.1021/acs.jpca.3c04382
   
   for DFT-D4:
   * E. Caldeweyher, C. Bannwarth and S. Grimme, J. Chem. Phys., 2017,
     147, 034112. DOI: 10.1063/1.4993215
   * E. Caldeweyher, S. Ehlert, A. Hansen, H. Neugebauer, S. Spicher,
     C. Bannwarth and S. Grimme, J. Chem. Phys., 2019, 150, 154122.
     DOI: 10.1063/1.5090222
   * E. Caldeweyher, J.-M. Mewes, S. Ehlert and S. Grimme, Phys. Chem. Chem. Phys.
     2020, 22, 8499-8512. DOI: 10.1039/D0CP00502A
   
   for sTDA-xTB:
   * S. Grimme and C. Bannwarth, J. Chem. Phys., 2016, 145, 054103.
     DOI: 10.1063/1.4959605
   
   in the mass-spec context:
   * V. Asgeirsson, C. Bauer and S. Grimme, Chem. Sci., 2017, 8, 4879.
     DOI: 10.1039/c7sc00601b
   * J. Koopman and S. Grimme, ACS Omega 2019, 4, 12, 15120-15133.
     DOI: 10.1021/acsomega.9b02011
   
   for metadynamics refer to:
   * S. Grimme, J. Chem. Theory Comput., 2019, 155, 2847-2862
     DOI: 10.1021/acs.jctc.9b00143
   
   for SPH calculations refer to:
   * S. Spicher and S. Grimme, J. Chem. Theory Comput., 2021, 17, 1701-1714
     DOI: 10.1021/acs.jctc.0c01306
   
   for ONIOM refer to:
   * C. Plett, A. Katbashev, S. Ehlert, S. Grimme, M. Bursch,
     Phys. Chem. Chem. Phys., 2023, 25, 17860-17868. DOI: 10.1039/D3CP02178E
   
   for DIPRO refer to:
   * J. Kohn, N. Gildemeister, S. Grimme, D. Fazzi, A. Hansen,
     J. Chem. Phys., 2023, just accepted.
   
   for PTB refer to:
   * S. Grimme, M. Mueller, A. Hansen, J. Chem. Phys., 2023, 158, 124111.
     DOI: 10.1063/5.0137838
   
   with help from (in alphabetical order)
   P. Atkinson, C. Bannwarth, F. Bohle, G. Brandenburg, E. Caldeweyher
   M. Checinski, S. Dohm, S. Ehlert, S. Ehrlich, I. Gerasimov, C. Hölzer
   A. Katbashev, J. Kohn, J. Koopman, C. Lavigne, S. Lehtola, F. März, M. Müller,
   F. Musil, H. Neugebauer, J. Pisarek, C. Plett, P. Pracht, F. Pultar,
   J. Seibert, P. Shushkov, S. Spicher, M. Stahn, M. Steiner, T. Strunk,
   J. Stückrath, T. Rose, and J. Unsleber
   
 * started run on 2026/09/01 at 16:34:45.110     
   ID    Z sym.   atoms
    1    6 C      1, 2, 4, 6-10, 12, 14-16, 21
    2    7 N      3, 5, 11, 20
    3    9 F      13, 17-19
    4    1 H      22-31, 80-91
    5    5 B      32-79

           -------------------------------------------------
          |                Calculation Setup                |
           -------------------------------------------------

          program call               : "c:\Users\Andre\Proyectos doctorado\kras-pancreatic-gC3N4-ai\tools\xtb\xtb-6.7.1\bin\xtb.exe" "c:\Users\Andre\Proyectos doctorado\borophene-alzheimer-tau-ai\calculations\tau\AZD1080\AZD1080_B48H12_clean_complex.xyz" --gfn 2 --sp --chrg 0 --uhf 0 --etemp 300 --iterations 500 --norestart
          coordinate file            : c:\Users\Andre\Proyectos doctorado\borophene-alzheimer-tau-ai\calculations\tau\AZD1080\AZD1080_B48H12_clean_complex.xyz
          omp threads                :                    16


molecular fragmentation (1/2 indicates fragments):
111111111111111111111111111111122222222222222222222222222222222222222222
2222222222222222222
# atoms in fragment 1/2:    31    60
 fragment masses (1/2) :      298.24      531.02
CMA distance (Bohr)    :  11.739
constraining FC (au)   :  0.0500

           -------------------------------------------------
          |                 G F N 2 - x T B                 |
           -------------------------------------------------

        Reference                      10.1021/acs.jctc.8b01176
      * Hamiltonian:
        H0-scaling (s, p, d)           1.850000    2.230000    2.230000
        zeta-weighting                 0.500000
      * Dispersion:
        s8                             2.700000
        a1                             0.520000
        a2                             5.000000
        s9                             5.000000
      * Repulsion:
        kExp                           1.500000    1.000000
        rExp                           1.000000
      * Coulomb:
        alpha                          2.000000
        third order                    shell-resolved
        anisotropic                    true
        a3                             3.000000
        a5                             4.000000
        cn-shift                       1.200000
        cn-exp                         4.000000
        max-rad                        5.000000


          ...................................................
          :                      SETUP                      :
          :.................................................:
          :  # basis functions                 298          :
          :  # atomic orbitals                 298          :
          :  # shells                          160          :
          :  # electrons                       266          :
          :  max. iterations                   500          :
          :  Hamiltonian                  GFN2-xTB          :
          :  restarted?                      false          :
          :  GBSA solvation                  false          :
          :  PC potential                    false          :
          :  electronic temp.          300.0000000     K    :
          :  accuracy                    1.0000000          :
          :  -> integral cutoff          0.2500000E+02      :
          :  -> integral neglect         0.1000000E-07      :
          :  -> SCF convergence          0.1000000E-05 Eh   :
          :  -> wf. convergence          0.1000000E-03 e    :
          :  Broyden damping             0.4000000          :
          :  net charge                          0          :
          :  unpaired electrons                  0          :
          ...................................................

 iter      E             dE          RMSdq      gap      omega  full diag
   1   -128.7725166 -0.128773E+03  0.155E+01    0.42       0.0  T
   2   -125.5846230  0.318789E+01  0.101E+01    0.12       1.0  T
   3    -29.7363603  0.958483E+02  0.169E+01    0.04       1.0  T
   4    -54.6267185 -0.248904E+02  0.133E+01    0.26       1.0  T
   5    -97.9678802 -0.433412E+02  0.855E+00    0.04       1.0  T
   6    -79.7572424  0.182106E+02  0.970E+00    0.05       1.0  T
   7   -118.6176556 -0.388604E+02  0.557E+00    0.10       1.0  T
   8   -123.2151471 -0.459749E+01  0.465E+00    0.12       1.0  T
   9   -128.8982827 -0.568314E+01  0.259E+00    0.07       1.0  T
  10   -129.4143479 -0.516065E+00  0.226E+00    0.29       1.0  T
  11   -129.5037169 -0.893690E-01  0.194E+00    0.41       1.0  T
  12   -129.5376663 -0.339494E-01  0.179E+00    0.39       1.0  T
  13   -129.4267761  0.110890E+00  0.125E+00    0.47       1.0  T
  14   -129.5561228 -0.129347E+00  0.692E-01    0.37       1.0  T
  15   -129.5719286 -0.158058E-01  0.676E-01    0.25       1.0  T
  16   -129.5832798 -0.113511E-01  0.606E-01    0.17       1.0  T
  17   -129.5829887  0.291037E-03  0.558E-01    0.18       1.0  T
  18   -129.5869003 -0.391162E-02  0.434E-01    0.11       1.0  T
  19   -129.5870750 -0.174655E-03  0.367E-01    0.15       1.0  T
  20   -129.4512817  0.135793E+00  0.893E-01    0.03       1.0  T
  21   -129.5735412 -0.122259E+00  0.370E-01    0.05       1.0  T
  22   -129.5863660 -0.128248E-01  0.243E-01    0.06       1.0  T
  23   -129.5806042  0.576186E-02  0.288E-01    0.05       1.0  T
  24   -129.5800799  0.524242E-03  0.287E-01    0.05       1.0  T
  25   -129.5849354 -0.485548E-02  0.235E-01    0.06       1.0  T
  26   -129.5918048 -0.686942E-02  0.137E-01    0.08       1.0  T
  27   -129.5928908 -0.108593E-02  0.112E-01    0.08       1.0  T
  28   -129.5930396 -0.148881E-03  0.108E-01    0.08       1.0  T
  29   -129.5933500 -0.310328E-03  0.993E-02    0.08       1.0  T
  30   -129.5943363 -0.986359E-03  0.641E-02    0.09       1.0  T
  31   -129.5947586 -0.422226E-03  0.383E-02    0.10       1.0  T
  32   -129.5949170 -0.158485E-03  0.269E-02    0.10       1.0  T
  33   -129.5950069 -0.898766E-04  0.163E-02    0.10       1.0  T
  34   -129.5950229 -0.160058E-04  0.131E-02    0.10       1.0  T
  35   -129.5950341 -0.111755E-04  0.105E-02    0.11       1.0  T
  36   -129.5950474 -0.133094E-04  0.663E-03    0.11       1.6  T
  37   -129.5950543 -0.683930E-05  0.286E-03    0.11       3.7  T
  38   -129.5950551 -0.851871E-06  0.173E-03    0.11       6.1  T
  39   -129.5950552 -0.611119E-07  0.155E-03    0.11       6.8  T
  40   -129.5950553 -0.102592E-06  0.131E-03    0.11       8.0  T
  41   -129.5950555 -0.278608E-06  0.556E-04    0.11      18.9  T
  42   -129.5950556 -0.159875E-07  0.452E-04    0.11      23.2  T

   *** convergence criteria satisfied after 42 iterations ***

         #    Occupation            Energy/Eh            Energy/eV
      -------------------------------------------------------------
         1        2.0000           -0.8891522             -24.1951
       ...           ...                  ...                  ...
       127        2.0000           -0.2836165              -7.7176
       128        2.0000           -0.2803250              -7.6280
       129        2.0000           -0.2788483              -7.5878
       130        2.0000           -0.2752407              -7.4897
       131        2.0000           -0.2729713              -7.4279
       132        2.0000           -0.2694901              -7.3332
       133        1.7820           -0.2579852              -7.0201 (HOMO)
       134        0.2179           -0.2539929              -6.9115 (LUMO)
       135        0.0001           -0.2463267              -6.7029
       136                         -0.2339165              -6.3652
       137                         -0.2335945              -6.3564
       138                         -0.2313346              -6.2949
       ...                                ...                  ...
       298                          1.2130861              33.0098
      -------------------------------------------------------------
                  HL-Gap            0.0039923 Eh            0.1086 eV
             Fermi-level           -0.2559892 Eh           -6.9658 eV

 SCC (total)                   0 d,  0 h,  0 min,  0.771 sec
 SCC setup                      ...        0 min,  0.001 sec (  0.130%)
 Dispersion                     ...        0 min,  0.002 sec (  0.259%)
 classical contributions        ...        0 min,  0.000 sec (  0.000%)
 integral evaluation            ...        0 min,  0.009 sec (  1.167%)
 iterations                     ...        0 min,  0.733 sec ( 95.071%)
 molecular gradient             ...        0 min,  0.024 sec (  3.113%)
 printout                       ...        0 min,  0.002 sec (  0.259%)

         :::::::::::::::::::::::::::::::::::::::::::::::::::::
         ::                     SUMMARY                     ::
         :::::::::::::::::::::::::::::::::::::::::::::::::::::
         :: total energy            -127.844417014153 Eh    ::
         :: gradient norm              0.086012761378 Eh/a0 ::
         :: HOMO-LUMO gap              0.108636184345 eV    ::
         ::.................................................::
         :: SCC energy              -129.592204968674 Eh    ::
         :: -> isotropic ES            0.357763196352 Eh    ::
         :: -> anisotropic ES          0.004413932842 Eh    ::
         :: -> anisotropic XC         -0.024591232327 Eh    ::
         :: -> dispersion             -0.103227197566 Eh    ::
         :: repulsion energy           1.747787954521 Eh    ::
         :: add. restraining           0.000000000000 Eh    ::
         :: total charge              -0.000000000002 e     ::
         :::::::::::::::::::::::::::::::::::::::::::::::::::::

           -------------------------------------------------
          |                Property Printout                |
           -------------------------------------------------

    * Orbital Energies and Occupations

         #    Occupation            Energy/Eh            Energy/eV
      -------------------------------------------------------------
         1        2.0000           -0.8891522             -24.1951
       ...           ...                  ...                  ...
       121        2.0000           -0.3018366              -8.2134
       122        2.0000           -0.2991077              -8.1391
       123        2.0000           -0.2962550              -8.0615
       124        2.0000           -0.2945144              -8.0141
       125        2.0000           -0.2913691              -7.9286
       126        2.0000           -0.2884775              -7.8499
       127        2.0000           -0.2836165              -7.7176
       128        2.0000           -0.2803250              -7.6280
       129        2.0000           -0.2788483              -7.5878
       130        2.0000           -0.2752407              -7.4897
       131        2.0000           -0.2729713              -7.4279
       132        2.0000           -0.2694901              -7.3332
       133        1.7820           -0.2579852              -7.0201 (HOMO)
       134        0.2179           -0.2539929              -6.9115 (LUMO)
       135        0.0001           -0.2463267              -6.7029
       136                         -0.2339165              -6.3652
       137                         -0.2335945              -6.3564
       138                         -0.2313346              -6.2949
       139                         -0.2272766              -6.1845
       140                         -0.2244906              -6.1087
       141                         -0.2186431              -5.9496
       142                         -0.2049653              -5.5774
       143                         -0.2012346              -5.4759
       144                         -0.1992773              -5.4226
       ...                                ...                  ...
       298                          1.2130861              33.0098
      -------------------------------------------------------------
                  HL-Gap            0.0039923 Eh            0.1086 eV
             Fermi-level           -0.2559892 Eh           -6.9658 eV

     #   Z          covCN         q      C6AA      α(0)
     1   6 C        3.752    -0.129    23.038     6.845
     2   6 C        3.131     0.123    25.104     8.202
     3   7 N        1.906    -0.297    28.545     7.921
     4   6 C        3.107     0.128    25.066     8.203
     5   7 N        2.691    -0.152    24.288     7.320
     6   6 C        2.891     0.064    26.562     8.450
     7   6 C        2.918    -0.070    29.752     8.945
     8   6 C        2.918    -0.035    28.873     8.812
     9   6 C        2.966    -0.017    28.428     8.746
    10   6 C        1.907     0.104    28.522     8.625
    11   7 N        0.911    -0.253    26.576     7.456
    12   6 C        2.780     0.170    24.331     8.079
    13   9 F        0.787    -0.218    11.426     3.993
    14   6 C        2.917    -0.080    29.992     8.980
    15   6 C        3.045    -0.078    29.893     8.967
    16   6 C        3.331     0.487    17.346     6.607
    17   9 F        0.789    -0.218    11.423     3.992
    18   9 F        0.788    -0.217    11.412     3.990
    19   9 F        0.789    -0.217    11.417     3.991
    20   7 N        2.857    -0.039    21.992     6.965
    21   6 C        3.686    -0.066    21.969     6.710
    22   1 H        0.924     0.083     1.950     2.184
    23   1 H        0.924     0.064     2.149     2.292
    24   1 H        0.924     0.062     2.174     2.306
    25   1 H        0.860     0.188     1.167     1.693
    26   1 H        0.925     0.037     2.484     2.465
    27   1 H        0.925     0.049     2.326     2.385
    28   1 H        0.925     0.086     1.923     2.168
    29   1 H        0.924     0.071     2.077     2.254
    30   1 H        0.924     0.074     2.047     2.237
    31   1 H        0.924     0.077     2.007     2.215
    32   5 B        2.839     0.116    19.508     7.376
    33   5 B        3.803     0.031    22.154     7.589
    34   5 B        3.718    -0.016    22.917     7.739
    35   5 B        2.746     0.015    21.279     7.722
    36   5 B        2.911    -0.045    22.219     7.866
    37   5 B        3.855     0.015    22.464     7.639
    38   5 B        2.869     0.062    20.367     7.534
    39   5 B        2.921     0.001    21.386     7.717
    40   5 B        3.823     0.058    21.682     7.506
    41   5 B        3.767     0.023    22.260     7.612
    42   5 B        3.849     0.004    22.656     7.671
    43   5 B        4.346     0.054    21.757     7.516
    44   5 B        4.682     0.089    21.156     7.411
    45   5 B        3.801     0.068    21.496     7.476
    46   5 B        3.829     0.060    21.646     7.500
    47   5 B        3.950     0.047    21.894     7.539
    48   5 B        4.552     0.057    21.705     7.507
    49   5 B        5.635     0.109    20.826     7.353
    50   5 B        4.742     0.032    22.158     7.585
    51   5 B        3.678     0.039    21.769     7.566
    52   5 B        4.781     0.081    21.287     7.434
    53   5 B        4.465     0.029    22.212     7.594
    54   5 B        3.855     0.047    21.886     7.540
    55   5 B        3.833     0.045    21.912     7.545
    56   5 B        3.834     0.007    22.591     7.661
    57   5 B        3.803    -0.022    23.137     7.756
    58   5 B        3.806     0.006    22.597     7.664
    59   5 B        4.226    -0.012    22.978     7.724
    60   5 B        3.802     0.018    22.380     7.628
    61   5 B        3.878     0.031    22.160     7.586
    62   5 B        2.888     0.109    19.600     7.389
    63   5 B        3.778     0.077    21.317     7.447
    64   5 B        3.898     0.053    21.774     7.519
    65   5 B        3.709     0.037    21.920     7.573
    66   5 B        3.761     0.029    22.143     7.593
    67   5 B        3.854     0.043    21.954     7.551
    68   5 B        4.286     0.047    21.883     7.537
    69   5 B        2.876     0.087    19.947     7.455
    70   5 B        3.771     0.078    21.289     7.444
    71   5 B        3.795     0.006    22.596     7.665
    72   5 B        2.925     0.010    21.234     7.689
    73   5 B        3.663     0.005    22.320     7.674
    74   5 B        2.926     0.024    20.981     7.643
    75   5 B        3.840    -0.000    22.731     7.685
    76   5 B        3.860     0.016    22.446     7.635
    77   5 B        2.912     0.007    21.275     7.697
    78   5 B        2.915     0.010    21.230     7.689
    79   5 B        2.842     0.139    19.145     7.307
    80   1 H        0.935    -0.135     6.947     4.121
    81   1 H        0.939    -0.098     5.475     3.658
    82   1 H        0.934    -0.132     6.814     4.082
    83   1 H        0.932    -0.151     7.743     4.351
    84   1 H        0.938    -0.133     6.851     4.092
    85   1 H        0.940    -0.137     7.038     4.148
    86   1 H        0.936    -0.119     6.284     3.919
    87   1 H        0.939    -0.150     7.681     4.333
    88   1 H        0.938    -0.132     6.842     4.090
    89   1 H        0.936    -0.139     7.151     4.181
    90   1 H        0.935    -0.131     6.779     4.071
    91   1 H        0.933    -0.151     7.746     4.352

 Mol. C6AA /au·bohr⁶  :     135695.179892
 Mol. C8AA /au·bohr⁸  :    4298079.427208
 Mol. α(0) /au        :        587.141886


Wiberg/Mayer (AO) data.
largest (>0.10) Wiberg bond orders for each atom

 ---------------------------------------------------------------------------
     #   Z sym  total        # sym  WBO       # sym  WBO       # sym  WBO
 ---------------------------------------------------------------------------
     1   6 C    3.990 --     2 C    1.034    22 H    0.977    24 H    0.969
                            23 H    0.964
     2   6 C    3.950 --     3 N    1.481    20 N    1.243     1 C    1.034
                            15 C    0.105
     3   7 N    3.006 --     2 C    1.481     4 C    1.249
     4   6 C    3.955 --    15 C    1.387     3 N    1.249     5 N    1.166
     5   7 N    3.453 --     4 C    1.166     6 C    1.090    25 H    0.926
     6   6 C    3.875 --    14 C    1.339     7 C    1.329     5 N    1.090
     7   6 C    3.977 --     8 C    1.486     6 C    1.329    26 H    0.966
     8   6 C    3.946 --     7 C    1.486     9 C    1.317    27 H    0.970
     9   6 C    3.915 --     8 C    1.317    12 C    1.296    10 C    1.105
    10   6 C    3.914 --    11 N    2.765     9 C    1.105
    11   7 N    2.920 --    10 C    2.765
    12   6 C    3.858 --    14 C    1.427     9 C    1.296    13 F    0.967
    13   9 F    1.101 --    12 C    0.967
    14   6 C    3.965 --    12 C    1.427     6 C    1.339    28 H    0.956
    15   6 C    3.832 --     4 C    1.387    20 N    1.126    16 C    0.985
                             2 C    0.105
    16   6 C    3.821 --    15 C    0.985    18 F    0.936    17 F    0.931
                            19 F    0.930
    17   9 F    1.059 --    16 C    0.931
    18   9 F    1.065 --    16 C    0.936
    19   9 F    1.062 --    16 C    0.930
    20   7 N    3.589 --     2 C    1.243    15 C    1.126    21 C    0.999
    21   6 C    3.963 --    20 N    0.999    30 H    0.977    31 H    0.976
                            29 H    0.971
    22   1 H    0.993 --     1 C    0.977
    23   1 H    0.995 --     1 C    0.964
    24   1 H    0.995 --     1 C    0.969
    25   1 H    0.964 --     5 N    0.926
    26   1 H    0.998 --     7 C    0.966
    27   1 H    0.997 --     8 C    0.970
    28   1 H    0.992 --    14 C    0.956
    29   1 H    0.994 --    21 C    0.971
    30   1 H    0.994 --    21 C    0.977
    31   1 H    0.994 --    21 C    0.976
    32   5 B    3.283 --    39 B    1.206    91 H    0.944    83 H    0.940
    33   5 B    3.549 --    34 B    1.200    39 B    0.853    40 B    0.533
                            48 B    0.485    47 B    0.139
    34   5 B    3.576 --    33 B    1.200    41 B    1.120    49 B    0.466
                            48 B    0.453
    35   5 B    3.382 --    36 B    1.383    42 B    1.080    51 B    0.428
                            52 B    0.105
    36   5 B    3.542 --    35 B    1.383    43 B    1.115    52 B    0.621
    37   5 B    3.566 --    38 B    1.307    43 B    0.752    44 B    0.686
                            45 B    0.679
    38   5 B    3.390 --    37 B    1.307    87 H    0.968    45 B    0.821
                            44 B    0.129
    39   5 B    3.399 --    32 B    1.206    40 B    1.073    33 B    0.853
    40   5 B    3.507 --    39 B    1.073    46 B    0.817    47 B    0.706
                            33 B    0.533
    41   5 B    3.448 --    34 B    1.120    42 B    0.998    50 B    0.550
                            49 B    0.443
    42   5 B    3.541 --    35 B    1.080    41 B    0.998    51 B    0.644
                            50 B    0.612
    43   5 B    3.528 --    36 B    1.115    37 B    0.752    52 B    0.637
                            44 B    0.459    53 B    0.321
    44   5 B    3.624 --    45 B    0.901    54 B    0.692    37 B    0.686
                            53 B    0.573    43 B    0.459    38 B    0.129
    45   5 B    3.566 --    89 H    0.937    44 B    0.901    38 B    0.821
                            37 B    0.679
    46   5 B    3.572 --    86 H    0.923    56 B    0.836    40 B    0.817
                            47 B    0.803
    47   5 B    3.647 --    56 B    0.851    48 B    0.812    46 B    0.803
                            40 B    0.706    33 B    0.139
    48   5 B    3.557 --    47 B    0.812    57 B    0.799    49 B    0.646
                            33 B    0.485    34 B    0.453
    49   5 B    3.671 --    57 B    0.726    58 B    0.704    48 B    0.646
                            50 B    0.517    34 B    0.466    41 B    0.443
    50   5 B    3.571 --    51 B    0.947    58 B    0.722    42 B    0.612
                            41 B    0.550    49 B    0.517
    51   5 B    3.498 --    59 B    1.040    50 B    0.947    42 B    0.644
                            35 B    0.428
    52   5 B    3.617 --    60 B    0.685    53 B    0.644    59 B    0.641
                            43 B    0.637    36 B    0.621    35 B    0.105
    53   5 B    3.602 --    60 B    1.025    54 B    0.770    52 B    0.644
                            44 B    0.573    43 B    0.321
    54   5 B    3.673 --    61 B    0.833    55 B    0.807    53 B    0.770
                            44 B    0.692    62 B    0.163
    55   5 B    3.624 --    62 B    1.007    81 H    0.909    54 B    0.807
                            61 B    0.737
    56   5 B    3.578 --    64 B    0.879    47 B    0.851    46 B    0.836
                            63 B    0.724
    57   5 B    3.629 --    65 B    1.108    48 B    0.799    49 B    0.726
                            58 B    0.597
    58   5 B    3.515 --    66 B    1.091    50 B    0.722    49 B    0.704
                            57 B    0.597
    59   5 B    3.595 --    51 B    1.040    67 B    0.895    52 B    0.641
                            60 B    0.464    68 B    0.266
    60   5 B    3.591 --    53 B    1.025    68 B    0.966    52 B    0.685
                            59 B    0.464
    61   5 B    3.603 --    62 B    0.960    69 B    0.898    54 B    0.833
                            55 B    0.737
    62   5 B    3.426 --    55 B    1.007    85 H    0.973    61 B    0.960
                            69 B    0.181    54 B    0.163
    63   5 B    3.550 --    88 H    0.954    70 B    0.865    64 B    0.828
                            56 B    0.724
    64   5 B    3.639 --    56 B    0.879    70 B    0.875    63 B    0.828
                            71 B    0.764
    65   5 B    3.599 --    57 B    1.108    72 B    0.827    71 B    0.690
                            73 B    0.548
    66   5 B    3.605 --    58 B    1.091    74 B    0.862    75 B    0.695
                            73 B    0.587
    67   5 B    3.557 --    59 B    0.895    75 B    0.789    76 B    0.711
                            68 B    0.664
    68   5 B    3.575 --    60 B    0.966    77 B    0.749    76 B    0.682
                            67 B    0.664    59 B    0.266
    69   5 B    3.436 --    78 B    0.990    82 H    0.934    61 B    0.898
                            62 B    0.181    79 B    0.157
    70   5 B    3.543 --    84 H    0.956    64 B    0.875    63 B    0.865
                            71 B    0.661
    71   5 B    3.582 --    72 B    1.261    64 B    0.764    65 B    0.690
                            70 B    0.661
    72   5 B    3.547 --    71 B    1.261    73 B    1.116    65 B    0.827
    73   5 B    3.553 --    72 B    1.116    74 B    1.115    66 B    0.587
                            65 B    0.548
    74   5 B    3.520 --    75 B    1.161    73 B    1.115    66 B    0.862
    75   5 B    3.593 --    74 B    1.161    67 B    0.789    76 B    0.739
                            66 B    0.695
    76   5 B    3.579 --    77 B    1.196    75 B    0.739    67 B    0.711
                            68 B    0.682
    77   5 B    3.515 --    76 B    1.196    78 B    1.062    68 B    0.749
                            79 B    0.120
    78   5 B    3.392 --    77 B    1.062    79 B    1.060    69 B    0.990
    79   5 B    3.276 --    78 B    1.060    80 H    0.953    90 H    0.953
                            69 B    0.157    77 B    0.120
    80   1 H    0.979 --    79 B    0.953
    81   1 H    0.984 --    55 B    0.909
    82   1 H    0.980 --    69 B    0.934
    83   1 H    0.968 --    32 B    0.940
    84   1 H    0.979 --    70 B    0.956
    85   1 H    0.981 --    62 B    0.973
    86   1 H    0.976 --    46 B    0.923
    87   1 H    0.976 --    38 B    0.968
    88   1 H    0.977 --    63 B    0.954
    89   1 H    0.972 --    45 B    0.937
    90   1 H    0.980 --    79 B    0.953
    91   1 H    0.969 --    32 B    0.944
 ---------------------------------------------------------------------------

Topologies differ in total number of bonds
Writing topology from bond orders to xtbtopo.mol

molecular dipole:
                 x           y           z       tot (Debye)
 q only:       -3.808       0.750      -2.474
   full:       -4.247       0.967      -1.928      12.108
molecular quadrupole (traceless):
                xx          xy          yy          xz          yz          zz
 q only:      -87.548     -58.391      32.861     -53.523      -4.883      54.687
  q+dip:      -44.411     -63.147      16.065     -73.314     -14.320      28.346
   full:      -64.743     -64.918       5.142     -71.407     -12.520      59.601


           -------------------------------------------------
          | TOTAL ENERGY             -127.844417014153 Eh   |
          | GRADIENT NORM               0.086012761378 Eh/α |
          | HOMO-LUMO GAP               0.108636184345 eV   |
           -------------------------------------------------

------------------------------------------------------------------------
 * finished run on 2026/09/01 at 16:34:45.963     
------------------------------------------------------------------------
 total:
 * wall-time:     0 d,  0 h,  0 min,  0.852 sec
 *  cpu-time:     0 d,  0 h,  0 min,  7.281 sec
 * ratio c/w:     8.546 speedup
 SCF:
 * wall-time:     0 d,  0 h,  0 min,  0.771 sec
 *  cpu-time:     0 d,  0 h,  0 min,  6.812 sec
 * ratio c/w:     8.836 speedup

normal termination of xtb
