86
Drug@beta12-B40H15 clean complex
C     -2.580380      2.715858      7.416014
C     -2.014326      1.343244      7.392525
N     -0.731694      1.047686      7.419193
C     -0.644544     -0.310818      7.363908
N      0.519890     -0.994664      7.356185
C      1.861545     -0.558061      7.436062
C      2.885481     -1.519857      7.347158
C      4.236650     -1.157424      7.413683
C      4.590166      0.183479      7.570647
C      5.965411      0.567428      7.640178
N      7.092754      0.839736      7.692733
C      3.585493      1.140225      7.658383
F      3.897829      2.435998      7.810330
C      2.238800      0.779549      7.591921
C     -1.897521     -0.873059      7.303899
C     -2.327079     -2.272833      7.223097
F     -3.163608     -2.483786      6.175674
F     -1.282357     -3.128436      7.072948
F     -2.994513     -2.659639      8.338868
N     -2.767421      0.194173      7.333565
C     -4.210318      0.120097      7.285356
H     -1.779814      3.460099      7.357775
H     -3.134869      2.888441      8.343357
H     -3.250938      2.875976      6.566223
H      0.462710     -2.006891      7.276156
H      2.639151     -2.572701      7.222244
H      5.002202     -1.927674      7.341328
H      1.502541      1.572289      7.668279
H     -4.509083      0.015263      6.239535
H     -4.644259      1.025806      7.714127
H     -4.547899     -0.739501      7.868692
B     -4.780602     -2.604513      0.317266
B     -4.569465     -1.356683     -0.648004
B     -4.463861     -0.247381     -1.882945
B     -3.396531     -2.661979     -0.502827
B     -3.038009      0.177607     -1.404773
B     -4.390872      0.342644     -0.192397
B     -5.031012      1.403078      0.819222
B     -4.620094      2.986388      0.997562
B     -2.808851      0.512803      0.199513
B     -3.218551      3.227540      1.793236
B     -2.161133     -3.775821     -0.584343
B     -1.876928     -2.248084     -0.933414
B     -1.697164     -0.613334     -0.835751
B     -0.584443     -3.218984     -0.835049
B     -0.219751     -0.148448     -0.311803
B     -1.394985      0.035818      0.852087
B     -1.775686      1.662110      0.759224
B     -1.897502      3.236989      0.882584
B     -0.215292      1.037200      1.069695
B     -0.752118      4.348002      0.558417
B      0.826501     -4.112870     -0.740049
B      0.925144     -2.505404     -0.749723
B      1.214364     -0.948979     -0.586972
B      2.200665     -3.402586     -0.168167
B      2.622046     -0.195651     -0.292977
B      1.234081      0.551562      0.142600
B      1.124844      2.000923      1.042986
B      0.536600      3.437229      0.618007
B      2.458015      1.672646      0.087495
B      1.213646      3.017073     -0.852963
B      3.220244     -3.850820      1.104428
B      3.624046     -2.653486      0.063737
B      4.025027     -1.121930     -0.236552
B      4.417376     -2.835474      1.420329
B      5.363640     -0.241898     -0.689778
B      4.104119      0.531009     -0.013477
B      4.018093      2.321775     -0.033810
B      2.821838      3.096833     -0.912930
B      5.422007      1.458254     -0.185288
B      4.296118      3.550090     -1.013979
H     -5.168734     -3.094856      1.310677
H     -5.716063     -2.076392     -0.393509
H     -5.264034     -0.120717     -2.741690
H     -5.771097      1.007443      1.664604
H     -5.364514      3.843125      0.672044
H     -3.234300      3.224974      2.975674
H     -2.359297     -4.926237     -0.473225
H     -0.896482      5.475480      0.244253
H      0.822346     -5.249794     -1.023329
H      0.553695      2.694294     -1.783686
H      2.970323     -4.817556      1.717250
H      5.263074     -2.512454      2.156542
H      6.384778     -0.646686     -1.095590
H      6.503197      1.838169      0.065012
H      5.138890      4.252414     -1.415442
