31
AZD1080 - ETKDG+MMFF conformer
C     -2.580380      2.715858     -0.148983
C     -2.014326      1.343244     -0.172472
N     -0.731694      1.047686     -0.145804
C     -0.644544     -0.310818     -0.201089
N      0.519890     -0.994664     -0.208812
C      1.861545     -0.558061     -0.128935
C      2.885481     -1.519857     -0.217839
C      4.236650     -1.157424     -0.151314
C      4.590166      0.183479      0.005650
C      5.965411      0.567428      0.075181
N      7.092754      0.839736      0.127736
C      3.585493      1.140225      0.093386
F      3.897829      2.435998      0.245333
C      2.238800      0.779549      0.026924
C     -1.897521     -0.873059     -0.261098
C     -2.327079     -2.272833     -0.341900
F     -3.163608     -2.483786     -1.389323
F     -1.282357     -3.128436     -0.492049
F     -2.994513     -2.659639      0.773871
N     -2.767421      0.194173     -0.231432
C     -4.210318      0.120097     -0.279641
H     -1.779814      3.460099     -0.207222
H     -3.134869      2.888441      0.778360
H     -3.250938      2.875976     -0.998774
H      0.462710     -2.006891     -0.288841
H      2.639151     -2.572701     -0.342753
H      5.002202     -1.927674     -0.223669
H      1.502541      1.572289      0.103282
H     -4.509083      0.015263     -1.325462
H     -4.644259      1.025806      0.149130
H     -4.547899     -0.739501      0.303695
