86
AZD1080/B40H15 GFN2 opt
C       0.10980210      2.84387764     10.26014829
C      -0.21546535      2.39334525      8.88645962
N      -0.28554045      1.13240251      8.52693944
C      -0.60268641      1.10664600      7.20786096
N      -0.74203325     -0.03627039      6.47133939
C      -0.57924812     -1.33645556      6.88776293
C      -0.41071086     -1.69691845      8.23019674
C      -0.26217633     -3.01703170      8.58394126
C      -0.27363235     -4.03271580      7.62019045
C      -0.11381138     -5.38026373      7.99492065
N       0.02174685     -6.47250170      8.32000642
C      -0.44593469     -3.65475669      6.28573262
F      -0.45704726     -4.60063848      5.32720099
C      -0.59929746     -2.34092201      5.91219246
C      -0.73820864      2.41415696      6.75742849
C      -1.09608556      2.98249294      5.44801356
F      -0.08338816      3.65692469      4.85395815
F      -2.10998407      3.87496547      5.51742892
F      -1.48310072      2.04272999      4.58057721
N      -0.47428387      3.22233109      7.85555409
C      -0.48825730      4.65919685      7.85186052
H       0.24711873      1.96671019     10.88399783
H      -0.69627363      3.45035650     10.67028014
H       1.02829099      3.42932126     10.26858710
H      -0.84421769      0.08874885      5.47165749
H      -0.39168965     -0.92232999      8.97671327
H      -0.13323881     -3.28871258      9.62047842
H      -0.72922636     -2.10329450      4.86907597
H      -0.04809502      5.02389461      8.77646654
H      -1.51130408      5.03302190      7.76959557
H       0.09078939      5.03677500      7.00827825
B      -3.45555387     -2.29294829      0.90836098
B      -2.95322119     -1.65902788     -0.61871053
B      -3.23695433     -1.25672897     -2.19505296
B      -2.61044822     -3.16310486     -0.25839213
B      -1.73773497     -0.81282377     -2.14673290
B      -2.74732572     -0.02341948     -0.81042849
B      -3.78807762      1.18943187     -0.41670941
B      -3.35905432      2.71597859     -0.08904885
B      -1.10181030      0.10501293     -0.94875896
B      -2.46936222      2.79906214      1.24681138
B      -1.90970539     -4.59006588     -0.33378906
B      -1.00417011     -3.02139730     -0.79832439
B      -0.46899502     -1.79663717     -1.73854105
B      -0.55916786     -4.16783713      0.37935168
B       0.92971277     -1.34766638     -1.10076089
B       0.44166535     -0.01245004     -0.15680025
B      -0.61595556      1.23548905      0.04003994
B      -0.93966059      2.61503681      0.73617260
B       0.33418648      0.68636150      1.32597391
B       0.22927132      3.64495535      1.15961748
B       0.35347717     -3.95856301      1.80181899
B       0.41623032     -2.94189282      0.49589810
B       1.67344159     -1.89266653      0.33888273
B       1.18476617     -2.52873329      1.90159976
B       2.60434971     -1.60853826      1.72609106
B       2.05071709     -0.41387025     -0.44912163
B       0.99816259      1.29414563      2.75041090
B       1.15436154      2.44074068      1.70358871
B       3.29922160      0.49043358     -0.16721945
B       2.42838243      2.71154193      0.64950353
B       0.06780345     -0.16346746      2.77498499
B       1.37067326     -1.18438986      2.84033046
B       2.80037496     -0.30354404      2.91214869
B       1.53547671      0.23672303      3.86004784
B       4.39008665      0.21916620      3.17915537
B       4.04731418     -1.09312868      2.09465540
B       4.66641982      0.49222293      0.57846474
B       3.58952650      1.70161829      0.94986050
B       5.44513398     -0.36977837      1.71220316
B       4.85742000      1.41961158      2.03666399
H      -2.85762918     -2.29734078      1.93363706
H      -4.61356752     -2.09277293      1.05781355
H      -4.18689548     -1.39286354     -2.86540431
H      -4.91556722      0.90127938     -0.19362859
H      -3.58564900      3.61406496     -0.81435583
H      -2.84202764      2.83389444      2.35936519
H      -2.32643668     -5.58942459     -0.79469721
H       0.34492613      4.81031009      1.11896732
H       0.18273405     -4.68934432      2.69879835
H       2.43980227      3.53404644     -0.19797684
H      -1.04895643     -0.36305980      3.12625304
H       1.59805928      0.32573122      5.04102463
H       4.82125275      0.20409287      4.28339582
H       6.56020669     -0.75290189      1.76378660
H       5.62436620      2.28281960      2.30983513
