31
AZD1080 GFN2 opt
C      -2.58865173     -0.74818253      2.48087065
C      -2.01384786     -0.28607837      1.19589672
N      -0.72903951     -0.30510872      0.92062774
C      -0.58157334      0.18900034     -0.33278393
N       0.61979967      0.32325597     -0.97428983
C       1.88066997      0.01631526     -0.51826029
C       2.13109442     -0.50451161      0.75556874
C       3.41917992     -0.78785145      1.14720703
C       4.50362632     -0.56625213      0.29196219
C       5.81885578     -0.86077047      0.70670476
N       6.88184359     -1.10608525      1.05998603
C       4.23622361     -0.04647146     -0.97672336
F       5.24958822      0.18088958     -1.83068646
C       2.95469495      0.24346646     -1.38519191
C      -1.83298386      0.52141816     -0.83487359
C      -2.27182348      1.08993248     -2.12186309
F      -2.96715078      2.24106090     -1.98828977
F      -3.08806478      0.26768907     -2.82130454
F      -1.23977926      1.36713650     -2.93387114
N      -2.73825312      0.20275832      0.16911584
C      -4.16158947      0.38733398      0.09105449
H      -1.77647617     -1.08563659      3.11667493
H      -3.27979023     -1.57491703      2.32182937
H      -3.11869836      0.06074997      2.98170099
H       0.57796917      0.70124466     -1.90972839
H       1.30005028     -0.67745346      1.41755988
H       3.60938068     -1.18886633      2.13117842
H       2.79616473      0.64424127     -2.37493564
H      -4.62698817     -0.03765733      0.97626753
H      -4.55904883     -0.11088659     -0.79458759
H      -4.40538236      1.45023641      0.03318424
