100
 energy: -116.739213135719 gnorm: 0.000744651315 xtb: 6.7.1 (edcfbbe)
C            4.99228464643891       -0.44015829555589        4.22303877601919
C            4.07046331328686        0.76199856322343        4.02987770305407
N            3.22372312417170        1.00500052984165        5.18044020906151
C            3.77346342865588        1.78155479430156        6.26671084972899
C            2.03766476561124        0.38571471084890        5.36148797574222
O            1.35200305276616        0.49380416186349        6.35092308348811
O            1.70340395420524       -0.37582223912157        4.28233056744999
C            0.44754293450794       -0.97202760619046        4.27675290271257
C            0.37848185387828       -2.32673732291162        3.97859108020164
C           -0.85688601936768       -2.94926843625245        3.94480430832460
C           -2.00779456791070       -2.23350475308643        4.23589398207808
C           -1.93615668813034       -0.88272774422531        4.54998516044846
C           -3.18228223163067       -0.09277542405311        4.87203242571337
C           -3.58676003355571        0.66852758467382        3.60524467370318
N           -2.93095276506399        0.81992435297842        5.98620196526686
C           -4.07568886009339        1.65280330732105        6.29184449035075
C           -2.49977842574368        0.10519142545965        7.17208570456727
C           -0.70224271456608       -0.24467178929342        4.53757563590565
H            5.57542434304043       -0.59263747791167        3.31866464910668
H            4.40257553520463       -1.33233987535316        4.41569010241970
H            5.67032981650012       -0.28673186839493        5.05885922576433
H            4.66602841267363        1.66290709463338        3.86421247443626
H            3.43768183458212        0.59069919122898        3.15654625905218
H            3.99869989119071        2.79324277958951        5.92402432608291
H            3.03359358457935        1.82420233475569        7.06268476637249
H            4.68700043675572        1.32426136821886        6.65151081949322
H            1.28410487910130       -2.87793208840344        3.78810828822322
H           -0.91887035834678       -3.99910450596427        3.70787532895406
H           -2.96453265826367       -2.73375651859221        4.23704835131627
H           -3.99160608575582       -0.80497473713977        5.13248547611993
H           -3.52603641802508        0.00321461243838        2.74845091205243
H           -4.60261308018918        1.04606496005846        3.67407907938626
H           -2.90286127995350        1.49788720829936        3.45540697491224
H           -3.83953190250487        2.26156683020675        7.16299715804975
H           -4.98184383368170        1.06615865701692        6.51572351946750
H           -4.28583333410723        2.32200937256449        5.46151051981570
H           -2.29319126267680        0.82606134080503        7.96079274386203
H           -3.26012646266545       -0.60552187342590        7.53497765410883
H           -1.58228845780591       -0.43791829593671        6.96214473594721
H           -0.64658103911195        0.79978629186653        4.79131368204342
B           -5.86139302566507        3.25260272227009        0.21333889910652
B           -5.81799168820316        1.55824719344635       -0.02833357502823
B           -4.40021292517424        4.10604331626107       -0.06682481057827
B           -4.38211756229904        2.42752765084946        0.12397777944755
B           -4.35773106299874        0.73669059309209        0.26138953559554
B           -5.76618037729307       -1.82841383463473        0.13293622880216
B           -5.75635173303773       -3.49596909167947        0.51656499734832
B           -4.33228828936287       -0.93940782072937        0.35023098676024
B           -4.30399344436188       -2.63582834464764        0.36026476217369
B           -4.26937457403177       -4.32459935481115        0.30646930662483
B           -2.92475173683951        3.30365855378709        0.13794199617094
B           -2.90733716125472        1.60864388072076        0.33728125122326
B           -1.49038646275565        4.17215346384305        0.37226814876720
B           -1.45991531555889        2.48397401055224        0.37045556055461
B           -1.42876435600746        0.78908368545059        0.35736276815416
B           -2.85611043013924       -1.75526157827034        0.51150892436085
B           -2.81957978859163       -3.46196570354719        0.43507902508667
B           -1.40296566590453       -0.89241632502836        0.43863728774639
B           -1.38004388789973       -2.58108729206799        0.57523812634908
B           -1.35711619601122       -4.26394526513286        0.71310569247632
B           -0.01146444636040        3.36113884766454        0.46439922536411
B            0.02408032096788        1.65609517632302        0.36534288500223
B            1.43695063395396        4.22436992838632        0.51978995144878
B            1.46670514202086        2.53628012684313        0.52427496911947
B            1.49702404678175        0.84169053228046        0.51697835506630
B            0.07671341902067       -1.71011079355495        0.50949044306302
B            0.09510565084319       -3.40160229283365        0.74125890876289
B            1.52326432928426       -0.84007527727089        0.59059749477560
B            1.54664457613675       -2.52872710920639        0.72770995010042
B            1.56922143020041       -4.21080053474696        0.87597847184331
B            2.92009300930369        3.40807418427415        0.44002760321101
B            2.94224742774074        1.71338298551546        0.64840807929320
B            4.37665342525003        4.26298025108266        0.38841532069758
B            4.39904896180099        2.58426249757905        0.57447392394701
B            4.42101368166045        0.89309034975417        0.70891781082152
B            2.99443895668461       -1.65147420956679        0.80113838732517
B            3.02605777856141       -3.35795337604358        0.73040915105166
B            4.44694788073667       -0.78338846704487        0.78603987710961
B            4.47805279769935       -2.47970729179472        0.79645956637108
B            4.50880050030935       -4.16828366294028        0.74618454711991
B            5.83354856942925        3.46126812255942        0.81734545455999
B            5.87543636793835        1.76749953085450        0.57809140020517
B            5.92841332678493       -1.62010098588152        0.72428033753198
B            5.93928870426783       -3.28796930087721        1.10453102805148
H           -6.84048859085356        3.82143085095676        0.52294975683153
H           -6.75272299344707        1.02963161355265       -0.49308401251271
H           -4.45041732839320        5.20793899627962       -0.47230507517602
H           -6.71591364215154       -1.36736372419716       -0.37142738633979
H           -6.71627560801998       -4.06641586397976        0.87930914308029
H           -4.28387492779072       -5.46026249291662        0.00407762105892
H           -1.53101351832446        5.33947507254215        0.50504412094641
H           -1.35662671149922       -5.42303883464479        0.91145694803825
H            1.42368208626225        5.39245321454254        0.65210453749493
H            1.59191497097823       -5.36409573594853        1.10467817657647
H            4.42842648347564        5.36998050535030       -0.00336084017195
H            4.59475306994113       -5.30214241196365        0.44851120263138
H            6.75208199507406        4.06659105022236        1.22856119172496
H            6.87222925775464        1.26970524932201        0.21983128595659
H            6.90964506084963       -1.12047258940310        0.32745485122447
H            6.87490827053169       -3.82705519131633        1.56563756491229
