34
Memantine - ETKDG+MMFF conformer
C      2.389734     -1.716258     -0.439577
C      1.143207     -0.900518     -0.083407
C      0.934063     -0.886976      1.447790
C     -0.315646     -0.069590      1.811563
C     -0.142379      1.373887      1.312908
C      0.050209      1.395941     -0.220377
C      0.222869      2.836654     -0.710926
C      1.299920      0.557117     -0.576019
C     -1.187508      0.749433     -0.886209
C     -1.368747     -0.702582     -0.392621
N     -2.541364     -1.309932     -1.021100
C     -1.547976     -0.696537      1.139156
C     -0.108464     -1.518271     -0.750697
H      2.553021     -1.735989     -1.522745
H      3.286185     -1.291616      0.025582
H      2.294978     -2.752652     -0.097199
H      1.812676     -0.458623      1.947231
H      0.826555     -1.912045      1.825360
H     -0.450821     -0.069082      2.899054
H     -1.021199      1.968610      1.593735
H      0.720832      1.834386      1.810602
H     -0.654820      3.445191     -0.466674
H      0.360847      2.870456     -1.797262
H      1.096240      3.309628     -0.248504
H      1.460687      0.568832     -1.662515
H      2.193412      1.009295     -0.124669
H     -2.084421      1.341477     -0.657264
H     -1.073661      0.766465     -1.978952
H     -3.372225     -0.758371     -0.809841
H     -2.439671     -1.290821     -2.035237
H     -2.446283     -0.130717      1.419887
H     -1.690219     -1.718966      1.513756
H      0.027551     -1.547103     -1.840729
H     -0.227582     -2.560721     -0.424100
