      -----------------------------------------------------------      
     |                   =====================                   |     
     |                           x T B                           |     
     |                   =====================                   |     
     |                         S. Grimme                         |     
     |          Mulliken Center for Theoretical Chemistry        |     
     |                    University of Bonn                     |     
      -----------------------------------------------------------      

   * xtb version 6.7.1pre (5071a88) compiled by 'Marcel@Raven' on 2024-07-23

   xtb is free software: you can redistribute it and/or modify it under
   the terms of the GNU Lesser General Public License as published by
   the Free Software Foundation, either version 3 of the License, or
   (at your option) any later version.
   
   xtb is distributed in the hope that it will be useful,
   but WITHOUT ANY WARRANTY; without even the implied warranty of
   MERCHANTABILITY or FITNESS FOR A PARTICULAR PURPOSE.  See the
   GNU Lesser General Public License for more details.
   
   Cite this work as:
   * C. Bannwarth, E. Caldeweyher, S. Ehlert, A. Hansen, P. Pracht,
     J. Seibert, S. Spicher, S. Grimme, WIREs Comput. Mol. Sci., 2020, 11,
     e01493. DOI: 10.1002/wcms.1493
   
   for GFN2-xTB:
   * C. Bannwarth, S. Ehlert and S. Grimme., J. Chem. Theory Comput., 2019,
     15, 1652-1671. DOI: 10.1021/acs.jctc.8b01176
   for GFN1-xTB:
   * S. Grimme, C. Bannwarth, P. Shushkov, J. Chem. Theory Comput., 2017,
     13, 1989-2009. DOI: 10.1021/acs.jctc.7b00118
   for GFN0-xTB:
   * P. Pracht, E. Caldeweyher, S. Ehlert, S. Grimme, ChemRxiv, 2019, preprint.
     DOI: 10.26434/chemrxiv.8326202.v1
   for GFN-FF:
   * S. Spicher and S. Grimme, Angew. Chem. Int. Ed., 2020, 59, 15665-15673.
     DOI: 10.1002/anie.202004239
   
   for ALPB and GBSA implicit solvation:
   * S. Ehlert, M. Stahn, S. Spicher, S. Grimme, J. Chem. Theory Comput.,
     2021, 17, 4250-4261. DOI: 10.1021/acs.jctc.1c00471
   
   for ddCOSMO and CPCM-X implicit solvation:
   * M. Stahn, S. Ehlert, S. Grimme, J. Phys. Chem. A,
     2023, XX, XXXX-XXXX. DOI: 10.1021/acs.jpca.3c04382
   
   for DFT-D4:
   * E. Caldeweyher, C. Bannwarth and S. Grimme, J. Chem. Phys., 2017,
     147, 034112. DOI: 10.1063/1.4993215
   * E. Caldeweyher, S. Ehlert, A. Hansen, H. Neugebauer, S. Spicher,
     C. Bannwarth and S. Grimme, J. Chem. Phys., 2019, 150, 154122.
     DOI: 10.1063/1.5090222
   * E. Caldeweyher, J.-M. Mewes, S. Ehlert and S. Grimme, Phys. Chem. Chem. Phys.
     2020, 22, 8499-8512. DOI: 10.1039/D0CP00502A
   
   for sTDA-xTB:
   * S. Grimme and C. Bannwarth, J. Chem. Phys., 2016, 145, 054103.
     DOI: 10.1063/1.4959605
   
   in the mass-spec context:
   * V. Asgeirsson, C. Bauer and S. Grimme, Chem. Sci., 2017, 8, 4879.
     DOI: 10.1039/c7sc00601b
   * J. Koopman and S. Grimme, ACS Omega 2019, 4, 12, 15120-15133.
     DOI: 10.1021/acsomega.9b02011
   
   for metadynamics refer to:
   * S. Grimme, J. Chem. Theory Comput., 2019, 155, 2847-2862
     DOI: 10.1021/acs.jctc.9b00143
   
   for SPH calculations refer to:
   * S. Spicher and S. Grimme, J. Chem. Theory Comput., 2021, 17, 1701-1714
     DOI: 10.1021/acs.jctc.0c01306
   
   for ONIOM refer to:
   * C. Plett, A. Katbashev, S. Ehlert, S. Grimme, M. Bursch,
     Phys. Chem. Chem. Phys., 2023, 25, 17860-17868. DOI: 10.1039/D3CP02178E
   
   for DIPRO refer to:
   * J. Kohn, N. Gildemeister, S. Grimme, D. Fazzi, A. Hansen,
     J. Chem. Phys., 2023, just accepted.
   
   for PTB refer to:
   * S. Grimme, M. Mueller, A. Hansen, J. Chem. Phys., 2023, 158, 124111.
     DOI: 10.1063/5.0137838
   
   with help from (in alphabetical order)
   P. Atkinson, C. Bannwarth, F. Bohle, G. Brandenburg, E. Caldeweyher
   M. Checinski, S. Dohm, S. Ehlert, S. Ehrlich, I. Gerasimov, C. Hölzer
   A. Katbashev, J. Kohn, J. Koopman, C. Lavigne, S. Lehtola, F. März, M. Müller,
   F. Musil, H. Neugebauer, J. Pisarek, C. Plett, P. Pracht, F. Pultar,
   J. Seibert, P. Shushkov, S. Spicher, M. Stahn, M. Steiner, T. Strunk,
   J. Stückrath, T. Rose, and J. Unsleber
   
 * started run on 2026/08/31 at 20:25:07.690     
   ID    Z sym.   atoms
    1    6 C      1-10, 12, 13
    2    7 N      11
    3    1 H      14-34, 88-94
    4    5 B      35-87

           -------------------------------------------------
          |                Calculation Setup                |
           -------------------------------------------------

          program call               : "c:\Users\Andre\Proyectos doctorado\kras-pancreatic-gC3N4-ai\tools\xtb\xtb-6.7.1\bin\xtb.exe" "c:\Users\Andre\Proyectos doctorado\borophene-alzheimer-tau-ai\calculations\tau\Memantine\Memantine_B48H12_complex.xyz" --gfn 2 --sp --chrg 0 --uhf 0 --iterations 500 --norestart
          coordinate file            : c:\Users\Andre\Proyectos doctorado\borophene-alzheimer-tau-ai\calculations\tau\Memantine\Memantine_B48H12_complex.xyz
          omp threads                :                    16


molecular fragmentation (1/2 indicates fragments):
111111111111111111111111111111111122222222222222222222222222222222222222
2222222222222222222222
# atoms in fragment 1/2:    34    60
 fragment masses (1/2) :      179.30      580.04
CMA distance (Bohr)    :   6.667
constraining FC (au)   :  0.0500

           -------------------------------------------------
          |                 G F N 2 - x T B                 |
           -------------------------------------------------

        Reference                      10.1021/acs.jctc.8b01176
      * Hamiltonian:
        H0-scaling (s, p, d)           1.850000    2.230000    2.230000
        zeta-weighting                 0.500000
      * Dispersion:
        s8                             2.700000
        a1                             0.520000
        a2                             5.000000
        s9                             5.000000
      * Repulsion:
        kExp                           1.500000    1.000000
        rExp                           1.000000
      * Coulomb:
        alpha                          2.000000
        third order                    shell-resolved
        anisotropic                    true
        a3                             3.000000
        a5                             4.000000
        cn-shift                       1.200000
        cn-exp                         4.000000
        max-rad                        5.000000


          ...................................................
          :                      SETUP                      :
          :.................................................:
          :  # basis functions                 292          :
          :  # atomic orbitals                 292          :
          :  # shells                          160          :
          :  # electrons                       240          :
          :  max. iterations                   500          :
          :  Hamiltonian                  GFN2-xTB          :
          :  restarted?                      false          :
          :  GBSA solvation                  false          :
          :  PC potential                    false          :
          :  electronic temp.          300.0000000     K    :
          :  accuracy                    1.0000000          :
          :  -> integral cutoff          0.2500000E+02      :
          :  -> integral neglect         0.1000000E-07      :
          :  -> SCF convergence          0.1000000E-05 Eh   :
          :  -> wf. convergence          0.1000000E-03 e    :
          :  Broyden damping             0.4000000          :
          :  net charge                          0          :
          :  unpaired electrons                  0          :
          ...................................................

 iter      E             dE          RMSdq      gap      omega  full diag
   1   -105.6905232 -0.105691E+03  0.175E+01    0.11       0.0  T
   2      0.6559528  0.106346E+03  0.163E+01    0.11       1.0  T
   3    335.4502286  0.334794E+03  0.272E+01    0.19       1.0  T
   4     -0.8731604 -0.336323E+03  0.147E+01    0.12       1.0  T
   5    182.5781413  0.183451E+03  0.200E+01    0.08       1.0  T
   6    -73.1119720 -0.255690E+03  0.113E+01    0.22       1.0  T
   7     -9.7334998  0.633785E+02  0.129E+01    0.11       1.0  T
   8    -80.6678882 -0.709344E+02  0.856E+00    0.09       1.0  T
   9    -71.0606258  0.960726E+01  0.956E+00    0.12       1.0  T
  10    -90.6846926 -0.196241E+02  0.789E+00    0.06       1.0  T
  11   -104.0470515 -0.133624E+02  0.663E+00    0.06       1.0  T
  12   -102.1427054  0.190435E+01  0.675E+00    0.14       1.0  T
  13   -105.2137591 -0.307105E+01  0.624E+00    0.04       1.0  T
  14   -105.0785986  0.135160E+00  0.599E+00    0.08       1.0  T
  15   -104.9889206  0.896780E-01  0.598E+00    0.05       1.0  T
  16   -104.9891081 -0.187485E-03  0.597E+00    0.06       1.0  T
  17   -105.2075129 -0.218405E+00  0.602E+00    0.25       1.0  T
  18   -105.1995865  0.792637E-02  0.602E+00    0.26       1.0  T
  19   -105.2428812 -0.432946E-01  0.568E+00    0.17       1.0  T
  20   -105.4870368 -0.244156E+00  0.459E+00    0.02       1.0  T
  21   -105.5577056 -0.706688E-01  0.435E+00    0.23       1.0  T
  22   -105.6155026 -0.577970E-01  0.422E+00    0.12       1.0  T
  23   -105.6220068 -0.650415E-02  0.421E+00    0.12       1.0  T
  24   -105.6225412 -0.534426E-03  0.414E+00    0.12       1.0  T
  25   -105.7115761 -0.890349E-01  0.384E+00    0.06       1.0  T
  26   -106.2153612 -0.503785E+00  0.337E+00    0.10       1.0  T
  27   -106.9585079 -0.743147E+00  0.279E+00    0.05       1.0  T
  28   -106.8855566  0.729513E-01  0.283E+00    0.05       1.0  T
  29   -107.3002846 -0.414728E+00  0.266E+00    0.11       1.0  T
  30   -107.3000385  0.246169E-03  0.267E+00    0.11       1.0  T
  31   -107.4297374 -0.129699E+00  0.240E+00    0.13       1.0  T
  32   -107.5053306 -0.755932E-01  0.227E+00    0.14       1.0  T
  33   -107.5631512 -0.578206E-01  0.208E+00    0.20       1.0  T
  34   -107.6040796 -0.409284E-01  0.190E+00    0.23       1.0  T
  35   -107.7039580 -0.998784E-01  0.158E+00    0.22       1.0  T
  36   -107.7981062 -0.941482E-01  0.123E+00    0.24       1.0  T
  37   -107.8148118 -0.167056E-01  0.112E+00    0.24       1.0  T
  38   -107.8247843 -0.997251E-02  0.107E+00    0.23       1.0  T
  39   -107.8369294 -0.121450E-01  0.102E+00    0.23       1.0  T
  40   -107.8798632 -0.429338E-01  0.860E-01    0.19       1.0  T
  41   -107.8898403 -0.997706E-02  0.810E-01    0.19       1.0  T
  42   -107.9116727 -0.218324E-01  0.765E-01    0.15       1.0  T
  43   -107.9188498 -0.717710E-02  0.741E-01    0.15       1.0  T
  44   -107.9292308 -0.103810E-01  0.666E-01    0.13       1.0  T
  45   -107.9361257 -0.689490E-02  0.611E-01    0.13       1.0  T
  46   -107.9424190 -0.629337E-02  0.537E-01    0.10       1.0  T
  47   -107.9469599 -0.454082E-02  0.478E-01    0.10       1.0  T
  48   -107.9445281  0.243173E-02  0.469E-01    0.10       1.0  T
  49   -107.9541072 -0.957906E-02  0.362E-01    0.07       1.0  T
  50   -107.9561116 -0.200442E-02  0.338E-01    0.08       1.0  T
  51   -107.9601536 -0.404194E-02  0.302E-01    0.07       1.0  T
  52   -107.9630508 -0.289730E-02  0.277E-01    0.08       1.0  T
  53   -107.9651018 -0.205098E-02  0.254E-01    0.08       1.0  T
  54   -107.9645912  0.510673E-03  0.274E-01    0.08       1.0  T
  55   -107.9656960 -0.110484E-02  0.248E-01    0.08       1.0  T
  56   -107.9669845 -0.128848E-02  0.197E-01    0.08       1.0  T
  57   -107.9678576 -0.873165E-03  0.174E-01    0.09       1.0  T
  58   -107.9678434  0.142399E-04  0.176E-01    0.09       1.0  T
  59   -107.9690778 -0.123443E-02  0.136E-01    0.08       1.0  T
  60   -107.9694419 -0.364040E-03  0.120E-01    0.09       1.0  T
  61   -107.9696540 -0.212133E-03  0.109E-01    0.09       1.0  T
  62   -107.9696976 -0.436226E-04  0.107E-01    0.09       1.0  T
  63   -107.9703871 -0.689462E-03  0.695E-02    0.09       1.0  T
  64   -107.9704947 -0.107596E-03  0.615E-02    0.08       1.0  T
  65   -107.9705728 -0.781386E-04  0.465E-02    0.08       1.0  T
  66   -107.9706193 -0.464277E-04  0.370E-02    0.09       1.0  T
  67   -107.9706038  0.155006E-04  0.333E-02    0.08       1.0  T
  68   -107.9706754 -0.716814E-04  0.258E-02    0.09       1.0  T
  69   -107.9707033 -0.279124E-04  0.218E-02    0.09       1.0  T
  70   -107.9707416 -0.382467E-04  0.160E-02    0.09       1.0  T
  71   -107.9707366  0.496216E-05  0.194E-02    0.09       1.0  T
  72   -107.9707453 -0.866478E-05  0.158E-02    0.09       1.0  T
  73   -107.9707616 -0.163278E-04  0.877E-03    0.09       1.2  T
  74   -107.9707668 -0.519067E-05  0.566E-03    0.09       1.8  T
  75   -107.9707696 -0.282300E-05  0.283E-03    0.09       3.6  T
  76   -107.9707704 -0.774874E-06  0.198E-03    0.09       5.2  T
  77   -107.9707704 -0.199383E-07  0.182E-03    0.09       5.7  T
  78   -107.9707705 -0.397825E-07  0.175E-03    0.09       5.9  T
  79   -107.9707706 -0.882254E-07  0.142E-03    0.09       7.3  T
  80   -107.9707706 -0.652288E-07  0.111E-03    0.09       9.3  T
  81   -107.9707707 -0.483511E-07  0.827E-04    0.09      12.5  T
  82   -107.9707707 -0.660962E-08  0.742E-04    0.09      13.9  T

   *** convergence criteria satisfied after 82 iterations ***

         #    Occupation            Energy/Eh            Energy/eV
      -------------------------------------------------------------
         1        2.0000           -0.5802807             -15.7902
       ...           ...                  ...                  ...
       114        2.0000           -0.2250174              -6.1230
       115        2.0000           -0.2192250              -5.9654
       116        2.0000           -0.2184413              -5.9441
       117        2.0000           -0.2162780              -5.8852
       118        1.9999           -0.2131156              -5.7992
       119        1.9968           -0.2101152              -5.7175
       120        1.6175           -0.2053821              -5.5887 (HOMO)
       121        0.2407           -0.2021227              -5.5000 (LUMO)
       122        0.1449           -0.2015902              -5.4855
       123        0.0002           -0.1952379              -5.3127
       124        0.0001           -0.1940289              -5.2798
       125        0.0000           -0.1936398              -5.2692
       ...           ...                  ...                  ...
       292                          1.6476934              44.8360
      -------------------------------------------------------------
                  HL-Gap            0.0032594 Eh            0.0887 eV
             Fermi-level           -0.2040124 Eh           -5.5515 eV

 SCC (total)                   0 d,  0 h,  0 min,  1.032 sec
 SCC setup                      ...        0 min,  0.001 sec (  0.097%)
 Dispersion                     ...        0 min,  0.002 sec (  0.194%)
 classical contributions        ...        0 min,  0.000 sec (  0.000%)
 integral evaluation            ...        0 min,  0.006 sec (  0.581%)
 iterations                     ...        0 min,  1.003 sec ( 97.190%)
 molecular gradient             ...        0 min,  0.019 sec (  1.841%)
 printout                       ...        0 min,  0.001 sec (  0.097%)

         :::::::::::::::::::::::::::::::::::::::::::::::::::::
         ::                     SUMMARY                     ::
         :::::::::::::::::::::::::::::::::::::::::::::::::::::
         :: total energy            -106.031977413271 Eh    ::
         :: gradient norm              0.437385169130 Eh/a0 ::
         :: HOMO-LUMO gap              0.088692819480 eV    ::
         ::.................................................::
         :: SCC energy              -107.965767720302 Eh    ::
         :: -> isotropic ES            0.376063128419 Eh    ::
         :: -> anisotropic ES          0.001698553931 Eh    ::
         :: -> anisotropic XC         -0.056837906363 Eh    ::
         :: -> dispersion             -0.141705629834 Eh    ::
         :: repulsion energy           1.933790307031 Eh    ::
         :: add. restraining           0.000000000000 Eh    ::
         :: total charge              -0.000000000002 e     ::
         :::::::::::::::::::::::::::::::::::::::::::::::::::::

           -------------------------------------------------
          |                Property Printout                |
           -------------------------------------------------

    * Orbital Energies and Occupations

         #    Occupation            Energy/Eh            Energy/eV
      -------------------------------------------------------------
         1        2.0000           -0.5802807             -15.7902
       ...           ...                  ...                  ...
       108        2.0000           -0.2435115              -6.6263
       109        2.0000           -0.2419919              -6.5849
       110        2.0000           -0.2406612              -6.5487
       111        2.0000           -0.2390687              -6.5054
       112        2.0000           -0.2324517              -6.3253
       113        2.0000           -0.2288006              -6.2260
       114        2.0000           -0.2250174              -6.1230
       115        2.0000           -0.2192250              -5.9654
       116        2.0000           -0.2184413              -5.9441
       117        2.0000           -0.2162780              -5.8852
       118        1.9999           -0.2131156              -5.7992
       119        1.9968           -0.2101152              -5.7175
       120        1.6175           -0.2053821              -5.5887 (HOMO)
       121        0.2407           -0.2021227              -5.5000 (LUMO)
       122        0.1449           -0.2015902              -5.4855
       123        0.0002           -0.1952379              -5.3127
       124        0.0001           -0.1940289              -5.2798
       125        0.0000           -0.1936398              -5.2692
       126                         -0.1875716              -5.1041
       127                         -0.1869895              -5.0882
       128                         -0.1866775              -5.0798
       129                         -0.1786873              -4.8623
       130                         -0.1753363              -4.7711
       131                         -0.1734580              -4.7200
       ...                                ...                  ...
       292                          1.6476934              44.8360
      -------------------------------------------------------------
                  HL-Gap            0.0032594 Eh            0.0887 eV
             Fermi-level           -0.2040124 Eh           -5.5515 eV

     #   Z          covCN         q      C6AA      α(0)
     1   6 C        3.754    -0.159    23.633     6.932
     2   6 C        3.900     0.018    20.224     6.393
     3   6 C        3.810    -0.066    21.760     6.640
     4   6 C        3.853    -0.015    20.809     6.488
     5   6 C        3.810    -0.064    21.725     6.635
     6   6 C        3.900     0.015    20.260     6.398
     7   6 C        3.754    -0.176    23.983     6.983
     8   6 C        3.811    -0.139    23.155     6.850
     9   6 C        3.810    -0.156    23.504     6.901
    10   6 C        3.833     0.083    19.176     6.230
    11   7 N        2.633    -0.443    31.611     8.350
    12   6 C        3.810    -0.069    21.811     6.648
    13   6 C        3.811    -0.127    22.921     6.815
    14   1 H        0.924     0.091     1.872     2.140
    15   1 H        0.924     0.024     2.673     2.557
    16   1 H        0.924     0.016     2.792     2.613
    17   1 H        0.924     0.014     2.820     2.626
    18   1 H        0.924     0.012     2.854     2.642
    19   1 H        0.924    -0.001     3.082     2.745
    20   1 H        0.924     0.009     2.907     2.667
    21   1 H        0.924     0.011     2.878     2.653
    22   1 H        0.924     0.009     2.914     2.669
    23   1 H        0.924     0.114     1.666     2.019
    24   1 H        0.924     0.006     2.951     2.686
    25   1 H        0.924     0.110     1.698     2.038
    26   1 H        0.923     0.015     2.806     2.620
    27   1 H        0.923     0.008     2.927     2.675
    28   1 H        0.953     0.144     1.431     1.870
    29   1 H        0.860     0.117     1.649     2.011
    30   1 H        0.873     0.223     0.993     1.560
    31   1 H        0.923     0.010     2.885     2.656
    32   1 H        0.923     0.019     2.741     2.589
    33   1 H        0.923     0.105     1.739     2.062
    34   1 H        0.923     0.023     2.689     2.564
    35   5 B        2.887    -0.010    21.588     7.755
    36   5 B        2.890     0.023    21.003     7.649
    37   5 B        2.890     0.029    20.911     7.632
    38   5 B        2.890     0.021    21.038     7.655
    39   5 B        2.890     0.025    20.971     7.643
    40   5 B        2.887     0.006    21.317     7.706
    41   5 B        2.916     0.006    21.295     7.701
    42   5 B        3.868    -0.012    22.961     7.722
    43   5 B        3.868     0.006    22.622     7.665
    44   5 B        3.868     0.005    22.635     7.667
    45   5 B        3.868     0.004    22.670     7.673
    46   5 B        2.916     0.051    20.525     7.560
    47   5 B        3.266    -0.013    21.621     7.755
    48   5 B        2.314     0.062    30.971    10.843
    49   5 B        1.972     0.006    43.834    13.918
    50   5 B        1.958     0.022    43.327    13.842
    51   5 B        1.958     0.022    43.327    13.842
    52   5 B        2.911    -0.063    22.559     7.926
    53   5 B        2.939    -0.004    21.477     7.732
    54   5 B        2.936    -0.105    23.365     8.065
    55   5 B        1.971    -0.069    46.632    14.356
    56   5 B        1.958    -0.063    46.502    14.341
    57   5 B        1.958    -0.055    46.174    14.290
    58   5 B        1.960     0.018    43.453    13.862
    59   5 B        3.266    -0.014    21.623     7.755
    60   5 B        2.314     0.060    31.016    10.851
    61   5 B        1.975     0.016    43.429    13.852
    62   5 B        1.958     0.024    43.259    13.831
    63   5 B        1.958     0.028    43.107    13.807
    64   5 B        2.911    -0.044    22.209     7.864
    65   5 B        2.916     0.005    21.312     7.704
    66   5 B        3.868    -0.014    23.007     7.730
    67   5 B        3.868     0.001    22.713     7.680
    68   5 B        3.868     0.003    22.682     7.675
    69   5 B        3.868     0.001    22.723     7.682
    70   5 B        2.914    -0.013    21.629     7.761
    71   5 B        2.887    -0.011    21.609     7.759
    72   5 B        2.890     0.019    21.085     7.664
    73   5 B        2.890     0.025    20.973     7.644
    74   5 B        2.890     0.016    21.131     7.672
    75   5 B        2.890     0.015    21.148     7.675
    76   5 B        1.934    -0.014    44.734    14.073
    77   5 B        3.822     0.042    21.965     7.555
    78   5 B        3.822     0.038    22.036     7.567
    79   5 B        3.822     0.038    22.036     7.567
    80   5 B        3.822     0.036    22.074     7.574
    81   5 B        3.822     0.045    21.905     7.545
    82   5 B        3.822     0.040    22.000     7.561
    83   5 B        3.822     0.034    22.093     7.577
    84   5 B        3.822     0.039    22.014     7.563
    85   5 B        3.822     0.033    22.117     7.581
    86   5 B        3.822     0.032    22.145     7.586
    87   5 B        3.381     0.113    19.510     7.363
    88   1 H        0.954    -0.087     5.105     3.532
    89   1 H        0.956     0.005     2.968     2.693
    90   1 H        0.956     0.004     2.982     2.699
    91   1 H        0.954    -0.088     5.164     3.552
    92   1 H        0.954    -0.085     5.056     3.515
    93   1 H        0.956    -0.013     3.291     2.836
    94   1 H        0.956    -0.024     3.509     2.928

 Mol. C6AA /au·bohr⁶  :     142495.425564
 Mol. C8AA /au·bohr⁸  :    4799900.039806
 Mol. α(0) /au        :        643.199199


Wiberg/Mayer (AO) data.
largest (>0.10) Wiberg bond orders for each atom

 ---------------------------------------------------------------------------
     #   Z sym  total        # sym  WBO       # sym  WBO       # sym  WBO
 ---------------------------------------------------------------------------
     1   6 C    3.983 --     2 C    0.999    16 H    0.986    15 H    0.985
                            14 H    0.943
     2   6 C    3.989 --     1 C    0.999     8 C    0.986    13 C    0.984
                             3 C    0.982
     3   6 C    3.992 --     4 C    0.997     2 C    0.982    17 H    0.976
                            18 H    0.976
     4   6 C    3.995 --     3 C    0.997     5 C    0.997    12 C    0.996
                            19 H    0.969
     5   6 C    3.988 --     4 C    0.997     6 C    0.979    20 H    0.976
                            21 H    0.976
     6   6 C    3.988 --     7 C    0.999     8 C    0.986     9 C    0.983
                             5 C    0.979
     7   6 C    3.969 --     6 C    0.999    24 H    0.985    22 H    0.985
                            23 H    0.890
     8   6 C    3.958 --     6 C    0.986     2 C    0.986    26 H    0.974
                            25 H    0.869
     9   6 C    3.917 --     6 C    0.983    10 C    0.974    27 H    0.973
                            28 H    0.800
    10   6 C    3.980 --    11 N    1.007    13 C    0.982    12 C    0.976
                             9 C    0.974
    11   7 N    2.942 --    10 C    1.007    29 H    0.963    30 H    0.818
    12   6 C    3.987 --     4 C    0.996    10 C    0.976    31 H    0.976
                            32 H    0.976
    13   6 C    3.977 --     2 C    0.984    10 C    0.982    34 H    0.974
                            33 H    0.912
    14   1 H    0.991 --     1 C    0.943
    15   1 H    0.999 --     1 C    0.985
    16   1 H    0.999 --     1 C    0.986
    17   1 H    0.999 --     3 C    0.976
    18   1 H    0.999 --     3 C    0.976
    19   1 H    0.999 --     4 C    0.969
    20   1 H    0.999 --     5 C    0.976
    21   1 H    0.999 --     5 C    0.976
    22   1 H    0.999 --     7 C    0.985
    23   1 H    0.987 --     7 C    0.890
    24   1 H    0.999 --     7 C    0.985
    25   1 H    0.988 --     8 C    0.869
    26   1 H    0.999 --     8 C    0.974
    27   1 H    0.999 --     9 C    0.973
    28   1 H    0.980 --     9 C    0.800
    29   1 H    0.985 --    11 N    0.963
    30   1 H    0.949 --    11 N    0.818
    31   1 H    0.999 --    12 C    0.976
    32   1 H    0.999 --    12 C    0.976
    33   1 H    0.989 --    13 C    0.912
    34   1 H    0.999 --    13 C    0.974
    35   5 B    3.263 --    41 B    1.089    77 B    0.947    88 H    0.867
                            47 B    0.105    36 B    0.104
    36   5 B    3.415 --    78 B    0.996    77 B    0.978    42 B    0.932
                            37 B    0.145    35 B    0.104
    37   5 B    3.481 --    79 B    1.031    78 B    0.985    43 B    0.921
                            36 B    0.145    38 B    0.140
    38   5 B    3.438 --    80 B    0.996    79 B    0.982    44 B    0.916
                            37 B    0.140    39 B    0.138
    39   5 B    3.434 --    80 B    1.002    81 B    0.951    45 B    0.916
                            40 B    0.168    38 B    0.138
    40   5 B    3.385 --    81 B    1.086    46 B    1.007    92 H    0.861
                            39 B    0.168    52 B    0.101
    41   5 B    3.419 --    47 B    1.180    35 B    1.089    77 B    0.733
                            89 H    0.107
    42   5 B    3.660 --    48 B    1.166    36 B    0.932    78 B    0.683
                            77 B    0.675
    43   5 B    3.633 --    49 B    1.146    37 B    0.921    79 B    0.660
                            78 B    0.654
    44   5 B    3.637 --    50 B    1.141    38 B    0.916    79 B    0.668
                            80 B    0.661
    45   5 B    3.632 --    51 B    1.147    39 B    0.916    80 B    0.675
                            81 B    0.650
    46   5 B    3.469 --    52 B    1.238    40 B    1.007    81 B    0.697
                            93 H    0.155    58 B    0.106
    47   5 B    3.585 --    41 B    1.180    53 B    0.972    89 H    0.695
                            87 B    0.377    35 B    0.105
    48   5 B    3.371 --    54 B    1.279    42 B    1.166    87 B    0.366
                            60 B    0.175
    49   5 B    3.267 --    55 B    1.420    43 B    1.146    61 B    0.212
    50   5 B    3.338 --    56 B    1.429    44 B    1.141    62 B    0.215
    51   5 B    3.289 --    57 B    1.446    45 B    1.147    63 B    0.224
    52   5 B    3.534 --    58 B    1.265    46 B    1.238    93 H    0.663
                            64 B    0.112    40 B    0.101
    53   5 B    3.590 --    87 B    1.007    47 B    0.972    59 B    0.970
                            90 H    0.144    89 H    0.143
    54   5 B    3.675 --    60 B    1.288    48 B    1.279    87 B    0.905
    55   5 B    3.295 --    49 B    1.420    61 B    1.416
    56   5 B    3.484 --    50 B    1.429    62 B    1.422    57 B    0.124
    57   5 B    3.335 --    51 B    1.446    63 B    1.430    56 B    0.124
    58   5 B    3.276 --    64 B    1.331    52 B    1.265    94 H    0.160
                            93 H    0.135    46 B    0.106
    59   5 B    3.584 --    65 B    1.181    53 B    0.970    90 H    0.695
                            87 B    0.378    71 B    0.106
    60   5 B    3.372 --    54 B    1.288    66 B    1.166    87 B    0.366
                            48 B    0.175
    61   5 B    3.275 --    55 B    1.416    67 B    1.148    49 B    0.212
    62   5 B    3.345 --    56 B    1.422    68 B    1.148    50 B    0.215
    63   5 B    3.300 --    57 B    1.430    69 B    1.165    51 B    0.224
    64   5 B    3.454 --    58 B    1.331    70 B    1.045    94 H    0.690
                            52 B    0.112
    65   5 B    3.421 --    59 B    1.181    71 B    1.091    82 B    0.733
                            90 H    0.107
    66   5 B    3.663 --    60 B    1.166    72 B    0.935    83 B    0.684
                            82 B    0.675
    67   5 B    3.637 --    61 B    1.148    73 B    0.937    83 B    0.662
                            84 B    0.653
    68   5 B    3.640 --    62 B    1.148    74 B    0.912    85 B    0.664
                            84 B    0.650
    69   5 B    3.644 --    63 B    1.165    75 B    0.923    85 B    0.684
                            86 B    0.633
    70   5 B    3.628 --    76 B    1.592    64 B    1.045    86 B    0.690
    71   5 B    3.263 --    65 B    1.091    82 B    0.946    91 H    0.866
                            59 B    0.106    72 B    0.103
    72   5 B    3.410 --    83 B    0.993    82 B    0.979    66 B    0.935
                            73 B    0.143    71 B    0.103
    73   5 B    3.508 --    84 B    1.028    83 B    0.986    67 B    0.937
                            72 B    0.143    74 B    0.139
    74   5 B    3.452 --    85 B    1.025    84 B    0.955    68 B    0.912
                            73 B    0.139    75 B    0.129
    75   5 B    3.479 --    86 B    0.993    85 B    0.955    69 B    0.923
                            76 B    0.200    74 B    0.129
    76   5 B    3.172 --    70 B    1.592    86 B    1.129    75 B    0.200
    77   5 B    3.596 --    36 B    0.978    35 B    0.947    41 B    0.733
                            42 B    0.675
    78   5 B    3.599 --    36 B    0.996    37 B    0.985    42 B    0.683
                            43 B    0.654
    79   5 B    3.597 --    37 B    1.031    38 B    0.982    44 B    0.668
                            43 B    0.660
    80   5 B    3.607 --    39 B    1.002    38 B    0.996    45 B    0.675
                            44 B    0.661
    81   5 B    3.601 --    40 B    1.086    39 B    0.951    46 B    0.697
                            45 B    0.650
    82   5 B    3.596 --    72 B    0.979    71 B    0.946    65 B    0.733
                            66 B    0.675
    83   5 B    3.604 --    72 B    0.993    73 B    0.986    66 B    0.684
                            67 B    0.662
    84   5 B    3.586 --    73 B    1.028    74 B    0.955    67 B    0.653
                            68 B    0.650
    85   5 B    3.610 --    74 B    1.025    75 B    0.955    69 B    0.684
                            68 B    0.664
    86   5 B    3.624 --    76 B    1.129    75 B    0.993    70 B    0.690
                            69 B    0.633
    87   5 B    3.601 --    53 B    1.007    54 B    0.905    59 B    0.378
                            47 B    0.377    48 B    0.366    60 B    0.366
    88   1 H    0.979 --    35 B    0.867
    89   1 H    0.992 --    47 B    0.695    53 B    0.143    41 B    0.107
    90   1 H    0.992 --    59 B    0.695    53 B    0.144    65 B    0.107
    91   1 H    0.978 --    71 B    0.866
    92   1 H    0.987 --    40 B    0.861
    93   1 H    0.986 --    52 B    0.663    46 B    0.155    58 B    0.135
    94   1 H    0.971 --    64 B    0.690    58 B    0.160
 ---------------------------------------------------------------------------

Topologies differ in total number of bonds
Writing topology from bond orders to xtbtopo.mol

molecular dipole:
                 x           y           z       tot (Debye)
 q only:       -0.547      -0.110      -2.976
   full:       -1.188       0.299      -1.701       5.327
molecular quadrupole (traceless):
                xx          xy          yy          xz          yz          zz
 q only:      -44.736       4.085      48.045       3.183       0.341      -3.309
  q+dip:       13.495      -3.449      63.232       2.094       3.310     -76.727
   full:        7.885      -3.575      27.597       2.250       3.458     -35.482


           -------------------------------------------------
          | TOTAL ENERGY             -106.031977413271 Eh   |
          | GRADIENT NORM               0.437385169130 Eh/α |
          | HOMO-LUMO GAP               0.088692819480 eV   |
           -------------------------------------------------

------------------------------------------------------------------------
 * finished run on 2026/08/31 at 20:25:08.769     
------------------------------------------------------------------------
 total:
 * wall-time:     0 d,  0 h,  0 min,  1.078 sec
 *  cpu-time:     0 d,  0 h,  0 min, 13.094 sec
 * ratio c/w:    12.146 speedup
 SCF:
 * wall-time:     0 d,  0 h,  0 min,  1.033 sec
 *  cpu-time:     0 d,  0 h,  0 min, 12.562 sec
 * ratio c/w:    12.161 speedup

normal termination of xtb
