94
Drug@B48H12 canonical clean complex
C      2.389734     -1.716258      6.544118
C      1.143207     -0.900518      6.900288
C      0.934063     -0.886976      8.431485
C     -0.315646     -0.069590      8.795258
C     -0.142379      1.373887      8.296603
C      0.050209      1.395941      6.763318
C      0.222869      2.836654      6.272769
C      1.299920      0.557117      6.407676
C     -1.187508      0.749433      6.097486
C     -1.368747     -0.702582      6.591074
N     -2.541364     -1.309932      5.962595
C     -1.547976     -0.696537      8.122851
C     -0.108464     -1.518271      6.232998
H      2.553021     -1.735989      5.460950
H      3.286185     -1.291616      7.009277
H      2.294978     -2.752652      6.886496
H      1.812676     -0.458623      8.930926
H      0.826555     -1.912045      8.809055
H     -0.450821     -0.069082      9.882749
H     -1.021199      1.968610      8.577430
H      0.720832      1.834386      8.794297
H     -0.654820      3.445191      6.517021
H      0.360847      2.870456      5.186433
H      1.096240      3.309628      6.735191
H      1.460687      0.568832      5.321180
H      2.193412      1.009295      6.859026
H     -2.084421      1.341477      6.326431
H     -1.073661      0.766465      5.004743
H     -3.372225     -0.758371      6.173854
H     -2.439671     -1.290821      4.948458
H     -2.446283     -0.130717      8.403582
H     -1.690219     -1.718966      8.497451
H      0.027551     -1.547103      5.142966
H     -0.227582     -2.560721      6.559595
B     -6.925574     -4.651113      0.258651
B     -5.109772     -2.249293      0.322202
B     -3.591500     -2.181365      0.212799
B      0.999259     -2.875448      0.063787
B      2.475853     -3.012223     -0.270859
B      5.299353     -3.831373     -0.667177
B      6.318286     -4.835948     -1.155795
B     -6.434811     -3.158276      0.286374
B     -6.751986     -1.633834      0.316446
B     -2.052572     -2.317325      0.334938
B     -0.484105     -2.461901      0.257444
B      4.018432     -2.901059     -0.287234
B      5.753195     -2.281523     -0.302825
B      6.830072     -3.228788     -1.092903
B     -7.656446     -0.254969      0.343088
B     -6.037404     -0.139472      0.191282
B     -4.431555     -0.535693      0.223935
B     -2.737864     -0.660395      0.328987
B     -1.051797     -0.915695      0.641867
B      0.517067     -1.172154      0.725732
B      3.123140     -1.483076     -0.063477
B      4.700072     -1.133969      0.340157
B      6.266701     -0.787165      0.251702
B      7.671979     -0.351666      1.032714
B     -6.918082      1.212094      0.191543
B     -3.418449      0.780084      0.080928
B     -1.654248      0.532626      0.123936
B      1.862187     -0.403738      0.324587
B      3.584717     -0.150377      0.785151
B      6.990973      0.611062     -0.106825
B      8.307368      1.062865      0.631577
B     -7.619446      2.804022      0.298592
B     -6.123847      2.518506     -0.176534
B     -3.588598      2.327656     -0.236793
B     -0.906130      1.819502     -0.419754
B      1.623430      1.019912     -0.410817
B      3.010841      1.309010      0.529678
B      6.372866      1.858188     -0.915986
B     -6.527660      4.045620     -0.160807
B     -4.873588      3.494810     -0.388449
B     -3.415521      3.880123     -0.606384
B     -2.023468      3.220559     -0.676715
B     -0.497363      3.279553     -0.896985
B      0.710715      2.332441     -0.745678
B      2.335338      2.478091     -0.475438
B      3.816082      2.619470     -0.094099
B      5.369811      2.864588     -0.148865
B      6.055136      4.080007      0.631212
H      6.204101      5.147675      0.146336
H      8.218389     -1.121032      1.726840
H      6.622436      1.981791     -2.067388
H     -7.089961     -5.250634     -0.753775
H     -6.791161      5.181470     -0.285186
H      9.156919      1.846573      0.789984
H     -8.827690     -0.375757      0.328558
H      6.783879     -5.868988     -1.446538
H     -8.724710      3.001220      0.638842
H      7.891803     -2.883539     -1.473727
H      6.428164      3.999644      1.748458
H     -7.224878     -5.282314      1.218688
