      -----------------------------------------------------------      
     |                   =====================                   |     
     |                           x T B                           |     
     |                   =====================                   |     
     |                         S. Grimme                         |     
     |          Mulliken Center for Theoretical Chemistry        |     
     |                    University of Bonn                     |     
      -----------------------------------------------------------      

   * xtb version 6.7.1pre (5071a88) compiled by 'Marcel@Raven' on 2024-07-23

   xtb is free software: you can redistribute it and/or modify it under
   the terms of the GNU Lesser General Public License as published by
   the Free Software Foundation, either version 3 of the License, or
   (at your option) any later version.
   
   xtb is distributed in the hope that it will be useful,
   but WITHOUT ANY WARRANTY; without even the implied warranty of
   MERCHANTABILITY or FITNESS FOR A PARTICULAR PURPOSE.  See the
   GNU Lesser General Public License for more details.
   
   Cite this work as:
   * C. Bannwarth, E. Caldeweyher, S. Ehlert, A. Hansen, P. Pracht,
     J. Seibert, S. Spicher, S. Grimme, WIREs Comput. Mol. Sci., 2020, 11,
     e01493. DOI: 10.1002/wcms.1493
   
   for GFN2-xTB:
   * C. Bannwarth, S. Ehlert and S. Grimme., J. Chem. Theory Comput., 2019,
     15, 1652-1671. DOI: 10.1021/acs.jctc.8b01176
   for GFN1-xTB:
   * S. Grimme, C. Bannwarth, P. Shushkov, J. Chem. Theory Comput., 2017,
     13, 1989-2009. DOI: 10.1021/acs.jctc.7b00118
   for GFN0-xTB:
   * P. Pracht, E. Caldeweyher, S. Ehlert, S. Grimme, ChemRxiv, 2019, preprint.
     DOI: 10.26434/chemrxiv.8326202.v1
   for GFN-FF:
   * S. Spicher and S. Grimme, Angew. Chem. Int. Ed., 2020, 59, 15665-15673.
     DOI: 10.1002/anie.202004239
   
   for ALPB and GBSA implicit solvation:
   * S. Ehlert, M. Stahn, S. Spicher, S. Grimme, J. Chem. Theory Comput.,
     2021, 17, 4250-4261. DOI: 10.1021/acs.jctc.1c00471
   
   for ddCOSMO and CPCM-X implicit solvation:
   * M. Stahn, S. Ehlert, S. Grimme, J. Phys. Chem. A,
     2023, XX, XXXX-XXXX. DOI: 10.1021/acs.jpca.3c04382
   
   for DFT-D4:
   * E. Caldeweyher, C. Bannwarth and S. Grimme, J. Chem. Phys., 2017,
     147, 034112. DOI: 10.1063/1.4993215
   * E. Caldeweyher, S. Ehlert, A. Hansen, H. Neugebauer, S. Spicher,
     C. Bannwarth and S. Grimme, J. Chem. Phys., 2019, 150, 154122.
     DOI: 10.1063/1.5090222
   * E. Caldeweyher, J.-M. Mewes, S. Ehlert and S. Grimme, Phys. Chem. Chem. Phys.
     2020, 22, 8499-8512. DOI: 10.1039/D0CP00502A
   
   for sTDA-xTB:
   * S. Grimme and C. Bannwarth, J. Chem. Phys., 2016, 145, 054103.
     DOI: 10.1063/1.4959605
   
   in the mass-spec context:
   * V. Asgeirsson, C. Bauer and S. Grimme, Chem. Sci., 2017, 8, 4879.
     DOI: 10.1039/c7sc00601b
   * J. Koopman and S. Grimme, ACS Omega 2019, 4, 12, 15120-15133.
     DOI: 10.1021/acsomega.9b02011
   
   for metadynamics refer to:
   * S. Grimme, J. Chem. Theory Comput., 2019, 155, 2847-2862
     DOI: 10.1021/acs.jctc.9b00143
   
   for SPH calculations refer to:
   * S. Spicher and S. Grimme, J. Chem. Theory Comput., 2021, 17, 1701-1714
     DOI: 10.1021/acs.jctc.0c01306
   
   for ONIOM refer to:
   * C. Plett, A. Katbashev, S. Ehlert, S. Grimme, M. Bursch,
     Phys. Chem. Chem. Phys., 2023, 25, 17860-17868. DOI: 10.1039/D3CP02178E
   
   for DIPRO refer to:
   * J. Kohn, N. Gildemeister, S. Grimme, D. Fazzi, A. Hansen,
     J. Chem. Phys., 2023, just accepted.
   
   for PTB refer to:
   * S. Grimme, M. Mueller, A. Hansen, J. Chem. Phys., 2023, 158, 124111.
     DOI: 10.1063/5.0137838
   
   with help from (in alphabetical order)
   P. Atkinson, C. Bannwarth, F. Bohle, G. Brandenburg, E. Caldeweyher
   M. Checinski, S. Dohm, S. Ehlert, S. Ehrlich, I. Gerasimov, C. Hölzer
   A. Katbashev, J. Kohn, J. Koopman, C. Lavigne, S. Lehtola, F. März, M. Müller,
   F. Musil, H. Neugebauer, J. Pisarek, C. Plett, P. Pracht, F. Pultar,
   J. Seibert, P. Shushkov, S. Spicher, M. Stahn, M. Steiner, T. Strunk,
   J. Stückrath, T. Rose, and J. Unsleber
   
 * started run on 2026/09/01 at 20:28:48.693     
   ID    Z sym.   atoms
    1    6 C      1-10, 12, 13
    2    7 N      11
    3    1 H      14-34, 75-89
    4    5 B      35-74

           -------------------------------------------------
          |                Calculation Setup                |
           -------------------------------------------------

          program call               : "c:\Users\Andre\Proyectos doctorado\nano-qsar-ai-papers\kras-pancreatic-gC3N4-ai\tools\xtb\xtb-6.7.1\bin\xtb.exe" "c:\Users\Andre\Proyectos doctorado\borophene-alzheimer-tau-ai\calculations\tau\Memantine\Memantine_B40H15_clean_complex.xyz" --gfn 2 --sp --chrg 0 --uhf 0 --iterations 500 --norestart
          coordinate file            : c:\Users\Andre\Proyectos doctorado\borophene-alzheimer-tau-ai\calculations\tau\Memantine\Memantine_B40H15_clean_complex.xyz
          omp threads                :                    16


molecular fragmentation (1/2 indicates fragments):
111111111111111111111111111111111122222222222222222222222222222222222222
22222222222222222
# atoms in fragment 1/2:    34    55
 fragment masses (1/2) :      179.30      447.56
CMA distance (Bohr)    :  15.650
constraining FC (au)   :  0.0500

           -------------------------------------------------
          |                 G F N 2 - x T B                 |
           -------------------------------------------------

        Reference                      10.1021/acs.jctc.8b01176
      * Hamiltonian:
        H0-scaling (s, p, d)           1.850000    2.230000    2.230000
        zeta-weighting                 0.500000
      * Dispersion:
        s8                             2.700000
        a1                             0.520000
        a2                             5.000000
        s9                             5.000000
      * Repulsion:
        kExp                           1.500000    1.000000
        rExp                           1.000000
      * Coulomb:
        alpha                          2.000000
        third order                    shell-resolved
        anisotropic                    true
        a3                             3.000000
        a5                             4.000000
        cn-shift                       1.200000
        cn-exp                         4.000000
        max-rad                        5.000000


          ...................................................
          :                      SETUP                      :
          :.................................................:
          :  # basis functions                 248          :
          :  # atomic orbitals                 248          :
          :  # shells                          142          :
          :  # electrons                       209          :
          :  max. iterations                   500          :
          :  Hamiltonian                  GFN2-xTB          :
          :  restarted?                      false          :
          :  GBSA solvation                  false          :
          :  PC potential                    false          :
          :  electronic temp.          300.0000000     K    :
          :  accuracy                    1.0000000          :
          :  -> integral cutoff          0.2500000E+02      :
          :  -> integral neglect         0.1000000E-07      :
          :  -> SCF convergence          0.1000000E-05 Eh   :
          :  -> wf. convergence          0.1000000E-03 e    :
          :  Broyden damping             0.4000000          :
          :  net charge                          0          :
          :  unpaired electrons                  0          :
          ...................................................

 iter      E             dE          RMSdq      gap      omega  full diag
   1    -96.2283155 -0.962283E+02  0.134E+01    0.25       0.0  T
   2    -95.3523248  0.875991E+00  0.876E+00    0.46       1.0  T
   3    -57.7897467  0.375626E+02  0.124E+01    0.25       1.0  T
   4    -57.7671485  0.225982E-01  0.993E+00    0.14       1.0  T
   5    -85.5296140 -0.277625E+02  0.597E+00    0.10       1.0  T
   6    -93.7508000 -0.822119E+01  0.368E+00    0.11       1.0  T
   7    -96.4717531 -0.272095E+01  0.203E+00    0.37       1.0  T
   8    -96.7713284 -0.299575E+00  0.152E+00    0.34       1.0  T
   9    -96.8875480 -0.116220E+00  0.122E+00    0.42       1.0  T
  10    -96.8499798  0.375682E-01  0.106E+00    0.46       1.0  T
  11    -96.8470375  0.294229E-02  0.722E-01    0.30       1.0  T
  12    -96.8884840 -0.414465E-01  0.516E-01    0.49       1.0  T
  13    -96.9063943 -0.179104E-01  0.395E-01    0.38       1.0  T
  14    -96.9133189 -0.692458E-02  0.348E-01    0.41       1.0  T
  15    -96.9143257 -0.100678E-02  0.315E-01    0.40       1.0  T
  16    -96.9151061 -0.780415E-03  0.271E-01    0.40       1.0  T
  17    -96.9158163 -0.710169E-03  0.177E-01    0.40       1.0  T
  18    -96.9157123  0.103990E-03  0.119E-01    0.40       1.0  T
  19    -96.9158387 -0.126428E-03  0.949E-02    0.40       1.0  T
  20    -96.9159238 -0.851157E-04  0.747E-02    0.40       1.0  T
  21    -96.9160931 -0.169245E-03  0.435E-02    0.41       1.0  T
  22    -96.9161615 -0.684469E-04  0.297E-02    0.41       1.0  T
  23    -96.9161988 -0.372901E-04  0.149E-02    0.41       1.0  T
  24    -96.9162045 -0.570609E-05  0.716E-03    0.41       1.5  T
  25    -96.9162060 -0.142379E-05  0.543E-03    0.41       2.0  T
  26    -96.9162068 -0.811160E-06  0.396E-03    0.41       2.7  T
  27    -96.9162077 -0.909484E-06  0.277E-03    0.41       3.8  T
  28    -96.9162081 -0.463618E-06  0.185E-03    0.41       5.7  T
  29    -96.9162084 -0.284793E-06  0.115E-03    0.41       9.2  T
  30    -96.9162087 -0.265300E-06  0.714E-04    0.41      14.8  T
  31    -96.9162088 -0.841817E-07  0.368E-04    0.41      28.8  T

   *** convergence criteria satisfied after 31 iterations ***

         #    Occupation            Energy/Eh            Energy/eV
      -------------------------------------------------------------
         1        2.0000           -0.6419859             -17.4693
       ...           ...                  ...                  ...
        99        2.0000           -0.2865661              -7.7979
       100        2.0000           -0.2810362              -7.6474
       101        2.0000           -0.2784180              -7.5761
       102        2.0000           -0.2749322              -7.4813
       103        2.0000           -0.2698175              -7.3421
       104        1.9994           -0.2668873              -7.2624
       105        1.0002           -0.2527260              -6.8770 (HOMO)
       106        0.0004           -0.2377933              -6.4707 (LUMO)
       107                         -0.2201293              -5.9900
       108                         -0.2133170              -5.8046
       109                         -0.2067835              -5.6269
       110                         -0.1949580              -5.3051
       ...                                ...                  ...
       248                          1.0749851              29.2518
      -------------------------------------------------------------
                  HL-Gap            0.0149327 Eh            0.4063 eV
             Fermi-level           -0.2525225 Eh           -6.8715 eV

 SCC (total)                   0 d,  0 h,  0 min,  0.296 sec
 SCC setup                      ...        0 min,  0.001 sec (  0.338%)
 Dispersion                     ...        0 min,  0.002 sec (  0.676%)
 classical contributions        ...        0 min,  0.000 sec (  0.000%)
 integral evaluation            ...        0 min,  0.004 sec (  1.351%)
 iterations                     ...        0 min,  0.272 sec ( 91.892%)
 molecular gradient             ...        0 min,  0.014 sec (  4.730%)
 printout                       ...        0 min,  0.003 sec (  1.014%)

         :::::::::::::::::::::::::::::::::::::::::::::::::::::
         ::                     SUMMARY                     ::
         :::::::::::::::::::::::::::::::::::::::::::::::::::::
         :: total energy             -95.592624645887 Eh    ::
         :: gradient norm              0.027478608993 Eh/a0 ::
         :: HOMO-LUMO gap              0.406339144807 eV    ::
         ::.................................................::
         :: SCC energy               -96.913853088751 Eh    ::
         :: -> isotropic ES            0.229159626813 Eh    ::
         :: -> anisotropic ES          0.017831861748 Eh    ::
         :: -> anisotropic XC          0.007010119849 Eh    ::
         :: -> dispersion             -0.106312258843 Eh    ::
         :: repulsion energy           1.321228442864 Eh    ::
         :: add. restraining           0.000000000000 Eh    ::
         :: total charge               0.000000000132 e     ::
         :::::::::::::::::::::::::::::::::::::::::::::::::::::

           -------------------------------------------------
          |                Property Printout                |
           -------------------------------------------------

    * Orbital Energies and Occupations

         #    Occupation            Energy/Eh            Energy/eV
      -------------------------------------------------------------
         1        2.0000           -0.6419859             -17.4693
       ...           ...                  ...                  ...
        93        2.0000           -0.3040517              -8.2737
        94        2.0000           -0.3005531              -8.1785
        95        2.0000           -0.2983954              -8.1198
        96        2.0000           -0.2975515              -8.0968
        97        2.0000           -0.2922012              -7.9512
        98        2.0000           -0.2902742              -7.8988
        99        2.0000           -0.2865661              -7.7979
       100        2.0000           -0.2810362              -7.6474
       101        2.0000           -0.2784180              -7.5761
       102        2.0000           -0.2749322              -7.4813
       103        2.0000           -0.2698175              -7.3421
       104        1.9994           -0.2668873              -7.2624
       105        1.0002           -0.2527260              -6.8770 (HOMO)
       106        0.0004           -0.2377933              -6.4707 (LUMO)
       107                         -0.2201293              -5.9900
       108                         -0.2133170              -5.8046
       109                         -0.2067835              -5.6269
       110                         -0.1949580              -5.3051
       111                         -0.1899779              -5.1696
       112                         -0.1853466              -5.0435
       113                         -0.1765379              -4.8038
       114                         -0.1726682              -4.6985
       115                         -0.1685653              -4.5869
       116                         -0.1649240              -4.4878
       ...                                ...                  ...
       248                          1.0749851              29.2518
      -------------------------------------------------------------
                  HL-Gap            0.0149327 Eh            0.4063 eV
             Fermi-level           -0.2525225 Eh           -6.8715 eV

     #   Z          covCN         q      C6AA      α(0)
     1   6 C        3.754    -0.112    22.702     6.794
     2   6 C        3.900     0.022    20.154     6.382
     3   6 C        3.810    -0.066    21.764     6.641
     4   6 C        3.853    -0.016    20.818     6.489
     5   6 C        3.810    -0.065    21.746     6.638
     6   6 C        3.900     0.021    20.163     6.383
     7   6 C        3.754    -0.113    22.716     6.796
     8   6 C        3.811    -0.071    21.851     6.654
     9   6 C        3.810    -0.074    21.915     6.664
    10   6 C        3.833     0.089    19.090     6.216
    11   7 N        2.633    -0.356    29.183     8.023
    12   6 C        3.810    -0.068    21.800     6.646
    13   6 C        3.811    -0.074    21.905     6.662
    14   1 H        0.924     0.035     2.519     2.482
    15   1 H        0.924     0.035     2.521     2.483
    16   1 H        0.924     0.036     2.506     2.476
    17   1 H        0.924     0.030     2.581     2.512
    18   1 H        0.924     0.031     2.568     2.506
    19   1 H        0.924     0.025     2.663     2.552
    20   1 H        0.924     0.029     2.599     2.521
    21   1 H        0.924     0.030     2.590     2.517
    22   1 H        0.924     0.035     2.515     2.480
    23   1 H        0.924     0.037     2.491     2.468
    24   1 H        0.924     0.034     2.536     2.491
    25   1 H        0.923     0.030     2.580     2.512
    26   1 H        0.923     0.032     2.558     2.501
    27   1 H        0.923     0.025     2.660     2.551
    28   1 H        0.923     0.025     2.658     2.550
    29   1 H        0.860     0.137     1.495     1.915
    30   1 H        0.860     0.137     1.494     1.915
    31   1 H        0.923     0.029     2.599     2.521
    32   1 H        0.923     0.040     2.442     2.444
    33   1 H        0.923     0.030     2.586     2.515
    34   1 H        0.923     0.043     2.409     2.427
    35   5 B        3.729     0.063    21.494     7.490
    36   5 B        4.543     0.067    21.533     7.477
    37   5 B        3.764     0.029    22.146     7.593
    38   5 B        3.812     0.037    22.035     7.568
    39   5 B        3.866     0.058    21.692     7.506
    40   5 B        4.607     0.023    22.315     7.611
    41   5 B        2.881     0.051    20.546     7.566
    42   5 B        2.866     0.086    19.970     7.460
    43   5 B        4.657     0.031    22.169     7.586
    44   5 B        2.924     0.069    20.224     7.504
    45   5 B        3.820     0.054    21.737     7.516
    46   5 B        3.871     0.021    22.352     7.619
    47   5 B        4.530    -0.005    22.847     7.702
    48   5 B        3.833     0.044    21.933     7.549
    49   5 B        4.711     0.060    21.666     7.500
    50   5 B        4.714     0.045    21.924     7.544
    51   5 B        3.891     0.046    21.895     7.540
    52   5 B        2.930     0.021    21.039     7.653
    53   5 B        4.652     0.015    22.467     7.637
    54   5 B        2.877     0.054    20.484     7.555
    55   5 B        3.828     0.063    21.595     7.491
    56   5 B        3.859     0.020    22.363     7.621
    57   5 B        3.858    -0.009    22.903     7.713
    58   5 B        3.841     0.048    21.862     7.536
    59   5 B        4.594     0.025    22.290     7.607
    60   5 B        5.681     0.105    20.887     7.364
    61   5 B        4.131     0.009    22.577     7.656
    62   5 B        2.924     0.028    20.908     7.630
    63   5 B        5.586     0.060    21.649     7.497
    64   5 B        3.637     0.065    21.113     7.491
    65   5 B        3.826     0.043    21.949     7.552
    66   5 B        3.877     0.029    22.202     7.593
    67   5 B        3.870     0.017    22.426     7.632
    68   5 B        2.915     0.083    19.995     7.462
    69   5 B        3.773     0.074    21.370     7.457
    70   5 B        5.329     0.097    21.021     7.387
    71   5 B        4.732     0.042    21.970     7.552
    72   5 B        3.808     0.012    22.503     7.648
    73   5 B        3.784     0.075    21.361     7.454
    74   5 B        2.896     0.049    20.566     7.569
    75   1 H        0.938    -0.127     6.615     4.021
    76   1 H        1.528     0.025     2.634     2.533
    77   1 H        0.935    -0.153     7.829     4.375
    78   1 H        0.931    -0.143     7.355     4.241
    79   1 H        0.935    -0.129     6.688     4.043
    80   1 H        0.934    -0.129     6.672     4.039
    81   1 H        0.938    -0.114     6.056     3.847
    82   1 H        0.936    -0.143     7.330     4.233
    83   1 H        0.938    -0.098     5.492     3.664
    84   1 H        0.933    -0.157     8.048     4.436
    85   1 H        0.938    -0.106     5.784     3.760
    86   1 H        0.940    -0.143     7.348     4.238
    87   1 H        0.939    -0.118     6.240     3.905
    88   1 H        0.938    -0.121     6.333     3.934
    89   1 H        0.940    -0.148     7.594     4.308

 Mol. C6AA /au·bohr⁶  :     100777.756557
 Mol. C8AA /au·bohr⁸  :    3036514.976341
 Mol. α(0) /au        :        499.995098


Wiberg/Mayer (AO) data.
largest (>0.10) Wiberg bond orders for each atom

 ---------------------------------------------------------------------------
     #   Z sym  total        # sym  WBO       # sym  WBO       # sym  WBO
 ---------------------------------------------------------------------------
     1   6 C    3.994 --     2 C    0.999    15 H    0.985    14 H    0.985
                            16 H    0.985
     2   6 C    3.991 --     1 C    0.999     3 C    0.986     8 C    0.985
                            13 C    0.984
     3   6 C    3.997 --     4 C    0.997     2 C    0.986    18 H    0.975
                            17 H    0.975
     4   6 C    3.996 --     3 C    0.997     5 C    0.997    12 C    0.996
                            19 H    0.968
     5   6 C    3.997 --     4 C    0.997     6 C    0.986    20 H    0.976
                            21 H    0.975
     6   6 C    3.991 --     7 C    0.999     5 C    0.986     8 C    0.985
                             9 C    0.984
     7   6 C    3.994 --     6 C    0.999    24 H    0.985    22 H    0.985
                            23 H    0.985
     8   6 C    3.996 --     2 C    0.985     6 C    0.985    25 H    0.975
                            26 H    0.975
     9   6 C    3.996 --     6 C    0.984    10 C    0.975    27 H    0.974
                            28 H    0.974
    10   6 C    3.980 --    11 N    1.002    12 C    0.984    13 C    0.983
                             9 C    0.975
    11   7 N    3.000 --    10 C    1.002    29 H    0.964    30 H    0.964
    12   6 C    3.996 --     4 C    0.996    10 C    0.984    31 H    0.975
                            32 H    0.975
    13   6 C    3.995 --     2 C    0.984    10 C    0.983    33 H    0.974
                            34 H    0.974
    14   1 H    0.999 --     1 C    0.985
    15   1 H    0.998 --     1 C    0.985
    16   1 H    0.998 --     1 C    0.985
    17   1 H    0.999 --     3 C    0.975
    18   1 H    0.999 --     3 C    0.975
    19   1 H    0.999 --     4 C    0.968
    20   1 H    0.999 --     5 C    0.976
    21   1 H    0.999 --     5 C    0.975
    22   1 H    0.998 --     7 C    0.985
    23   1 H    0.998 --     7 C    0.985
    24   1 H    0.998 --     7 C    0.985
    25   1 H    0.999 --     8 C    0.975
    26   1 H    0.999 --     8 C    0.975
    27   1 H    0.999 --     9 C    0.974
    28   1 H    0.999 --     9 C    0.974
    29   1 H    0.981 --    11 N    0.964
    30   1 H    0.981 --    11 N    0.964
    31   1 H    0.999 --    12 C    0.975
    32   1 H    0.998 --    12 C    0.975
    33   1 H    0.999 --    13 C    0.974
    34   1 H    0.998 --    13 C    0.974
    35   5 B    3.579 --    75 H    0.951    38 B    0.928    36 B    0.872
                            76 H    0.538
    36   5 B    3.542 --    35 B    0.872    37 B    0.756    38 B    0.611
                            40 B    0.546    76 H    0.426    39 B    0.133
    37   5 B    3.582 --    39 B    1.120    77 H    0.947    36 B    0.756
                            40 B    0.455
    38   5 B    3.570 --    35 B    0.928    45 B    0.843    46 B    0.809
                            36 B    0.611    48 B    0.106
    39   5 B    3.393 --    37 B    1.120    47 B    0.803    43 B    0.634
                            40 B    0.433    36 B    0.133
    40   5 B    3.603 --    41 B    1.085    43 B    0.761    36 B    0.546
                            37 B    0.455    39 B    0.433
    41   5 B    3.436 --    40 B    1.085    42 B    0.996    78 H    0.911
                            43 B    0.157
    42   5 B    3.251 --    44 B    1.018    41 B    0.996    79 H    0.938
                            52 B    0.107
    43   5 B    3.682 --    51 B    0.780    40 B    0.761    50 B    0.702
                            39 B    0.634    47 B    0.374    41 B    0.157
    44   5 B    3.413 --    42 B    1.018    52 B    0.988    80 H    0.924
                            51 B    0.192
    45   5 B    3.630 --    81 H    0.928    46 B    0.845    38 B    0.843
                            48 B    0.792
    46   5 B    3.619 --    48 B    0.854    45 B    0.845    47 B    0.820
                            38 B    0.809
    47   5 B    3.653 --    49 B    0.833    46 B    0.820    39 B    0.803
                            50 B    0.434    43 B    0.374
    48   5 B    3.598 --    46 B    0.854    45 B    0.792    55 B    0.785
                            56 B    0.724    38 B    0.106
    49   5 B    3.593 --    47 B    0.833    57 B    0.683    50 B    0.634
                            60 B    0.571    53 B    0.458
    50   5 B    3.602 --    53 B    0.952    43 B    0.702    49 B    0.634
                            51 B    0.595    47 B    0.434
    51   5 B    3.552 --    52 B    0.969    43 B    0.780    53 B    0.665
                            50 B    0.595    44 B    0.192
    52   5 B    3.450 --    44 B    0.988    51 B    0.969    54 B    0.963
                            62 B    0.180    42 B    0.107
    53   5 B    3.644 --    50 B    0.952    61 B    0.776    51 B    0.665
                            49 B    0.458    60 B    0.437
    54   5 B    3.419 --    62 B    1.141    52 B    0.963    82 H    0.951
                            64 B    0.114
    55   5 B    3.577 --    83 H    0.921    58 B    0.848    56 B    0.790
                            48 B    0.785
    56   5 B    3.604 --    57 B    1.013    55 B    0.790    48 B    0.724
                            58 B    0.705
    57   5 B    3.638 --    56 B    1.013    59 B    0.892    49 B    0.683
                            60 B    0.607
    58   5 B    3.595 --    55 B    0.848    66 B    0.839    65 B    0.752
                            56 B    0.705    68 B    0.140
    59   5 B    3.669 --    57 B    0.892    67 B    0.701    60 B    0.683
                            70 B    0.617    63 B    0.392
    60   5 B    3.670 --    59 B    0.683    57 B    0.607    63 B    0.586
                            49 B    0.571    61 B    0.521    53 B    0.437
    61   5 B    3.528 --    62 B    0.969    53 B    0.776    63 B    0.775
                            60 B    0.521    64 B    0.197
    62   5 B    3.407 --    54 B    1.141    61 B    0.969    64 B    0.781
                            52 B    0.180
    63   5 B    3.635 --    61 B    0.775    71 B    0.616    60 B    0.586
                            72 B    0.486    59 B    0.392    70 B    0.291
                            64 B    0.268
    64   5 B    3.507 --    72 B    0.972    84 H    0.938    62 B    0.781
                            63 B    0.268    61 B    0.197    54 B    0.114
    65   5 B    3.612 --    68 B    1.033    85 H    0.920    66 B    0.753
                            58 B    0.752
    66   5 B    3.605 --    68 B    0.929    67 B    0.896    58 B    0.839
                            65 B    0.753
    67   5 B    3.625 --    66 B    0.896    69 B    0.862    59 B    0.701
                            70 B    0.630    68 B    0.233
    68   5 B    3.474 --    65 B    1.033    86 H    0.970    66 B    0.929
                            67 B    0.233    58 B    0.140
    69   5 B    3.514 --    87 H    0.952    67 B    0.862    70 B    0.766
                            73 B    0.688
    70   5 B    3.655 --    69 B    0.766    73 B    0.765    67 B    0.630
                            59 B    0.617    71 B    0.440    63 B    0.291
    71   5 B    3.636 --    74 B    0.954    73 B    0.765    72 B    0.706
                            63 B    0.616    70 B    0.440
    72   5 B    3.573 --    74 B    1.170    64 B    0.972    71 B    0.706
                            63 B    0.486
    73   5 B    3.564 --    88 H    0.952    70 B    0.765    71 B    0.765
                            69 B    0.688    74 B    0.189
    74   5 B    3.516 --    72 B    1.170    89 H    0.967    71 B    0.954
                            73 B    0.189
    75   1 H    0.979 --    35 B    0.951
    76   1 H    0.995 --    35 B    0.538    36 B    0.426
    77   1 H    0.975 --    37 B    0.947
    78   1 H    0.976 --    41 B    0.911
    79   1 H    0.981 --    42 B    0.938
    80   1 H    0.980 --    44 B    0.924
    81   1 H    0.977 --    45 B    0.928
    82   1 H    0.976 --    54 B    0.951
    83   1 H    0.979 --    55 B    0.921
    84   1 H    0.974 --    64 B    0.938
    85   1 H    0.979 --    65 B    0.920
    86   1 H    0.979 --    68 B    0.970
    87   1 H    0.983 --    69 B    0.952
    88   1 H    0.981 --    73 B    0.952
    89   1 H    0.977 --    74 B    0.967
 ---------------------------------------------------------------------------

Topologies differ in total number of bonds
Writing topology from bond orders to xtbtopo.mol

molecular dipole:
                 x           y           z       tot (Debye)
 q only:        1.015      -0.876      -0.327
   full:        0.532      -1.156       0.293       3.318
molecular quadrupole (traceless):
                xx          xy          yy          xz          yz          zz
 q only:      -26.865       4.618      -6.913       8.789      12.306      33.778
  q+dip:       -0.549       8.311     -15.204       9.051      17.241      15.753
   full:       -9.297       4.280     -18.380       8.069      18.435      27.677


           -------------------------------------------------
          | TOTAL ENERGY              -95.592624645887 Eh   |
          | GRADIENT NORM               0.027478608993 Eh/α |
          | HOMO-LUMO GAP               0.406339144807 eV   |
           -------------------------------------------------

------------------------------------------------------------------------
 * finished run on 2026/09/01 at 20:28:49.033     
------------------------------------------------------------------------
 total:
 * wall-time:     0 d,  0 h,  0 min,  0.339 sec
 *  cpu-time:     0 d,  0 h,  0 min,  4.250 sec
 * ratio c/w:    12.537 speedup
 SCF:
 * wall-time:     0 d,  0 h,  0 min,  0.296 sec
 *  cpu-time:     0 d,  0 h,  0 min,  3.938 sec
 * ratio c/w:    13.302 speedup

