      -----------------------------------------------------------      
     |                   =====================                   |     
     |                           x T B                           |     
     |                   =====================                   |     
     |                         S. Grimme                         |     
     |          Mulliken Center for Theoretical Chemistry        |     
     |                    University of Bonn                     |     
      -----------------------------------------------------------      

   * xtb version 6.7.1pre (5071a88) compiled by 'Marcel@Raven' on 2024-07-23

   xtb is free software: you can redistribute it and/or modify it under
   the terms of the GNU Lesser General Public License as published by
   the Free Software Foundation, either version 3 of the License, or
   (at your option) any later version.
   
   xtb is distributed in the hope that it will be useful,
   but WITHOUT ANY WARRANTY; without even the implied warranty of
   MERCHANTABILITY or FITNESS FOR A PARTICULAR PURPOSE.  See the
   GNU Lesser General Public License for more details.
   
   Cite this work as:
   * C. Bannwarth, E. Caldeweyher, S. Ehlert, A. Hansen, P. Pracht,
     J. Seibert, S. Spicher, S. Grimme, WIREs Comput. Mol. Sci., 2020, 11,
     e01493. DOI: 10.1002/wcms.1493
   
   for GFN2-xTB:
   * C. Bannwarth, S. Ehlert and S. Grimme., J. Chem. Theory Comput., 2019,
     15, 1652-1671. DOI: 10.1021/acs.jctc.8b01176
   for GFN1-xTB:
   * S. Grimme, C. Bannwarth, P. Shushkov, J. Chem. Theory Comput., 2017,
     13, 1989-2009. DOI: 10.1021/acs.jctc.7b00118
   for GFN0-xTB:
   * P. Pracht, E. Caldeweyher, S. Ehlert, S. Grimme, ChemRxiv, 2019, preprint.
     DOI: 10.26434/chemrxiv.8326202.v1
   for GFN-FF:
   * S. Spicher and S. Grimme, Angew. Chem. Int. Ed., 2020, 59, 15665-15673.
     DOI: 10.1002/anie.202004239
   
   for ALPB and GBSA implicit solvation:
   * S. Ehlert, M. Stahn, S. Spicher, S. Grimme, J. Chem. Theory Comput.,
     2021, 17, 4250-4261. DOI: 10.1021/acs.jctc.1c00471
   
   for ddCOSMO and CPCM-X implicit solvation:
   * M. Stahn, S. Ehlert, S. Grimme, J. Phys. Chem. A,
     2023, XX, XXXX-XXXX. DOI: 10.1021/acs.jpca.3c04382
   
   for DFT-D4:
   * E. Caldeweyher, C. Bannwarth and S. Grimme, J. Chem. Phys., 2017,
     147, 034112. DOI: 10.1063/1.4993215
   * E. Caldeweyher, S. Ehlert, A. Hansen, H. Neugebauer, S. Spicher,
     C. Bannwarth and S. Grimme, J. Chem. Phys., 2019, 150, 154122.
     DOI: 10.1063/1.5090222
   * E. Caldeweyher, J.-M. Mewes, S. Ehlert and S. Grimme, Phys. Chem. Chem. Phys.
     2020, 22, 8499-8512. DOI: 10.1039/D0CP00502A
   
   for sTDA-xTB:
   * S. Grimme and C. Bannwarth, J. Chem. Phys., 2016, 145, 054103.
     DOI: 10.1063/1.4959605
   
   in the mass-spec context:
   * V. Asgeirsson, C. Bauer and S. Grimme, Chem. Sci., 2017, 8, 4879.
     DOI: 10.1039/c7sc00601b
   * J. Koopman and S. Grimme, ACS Omega 2019, 4, 12, 15120-15133.
     DOI: 10.1021/acsomega.9b02011
   
   for metadynamics refer to:
   * S. Grimme, J. Chem. Theory Comput., 2019, 155, 2847-2862
     DOI: 10.1021/acs.jctc.9b00143
   
   for SPH calculations refer to:
   * S. Spicher and S. Grimme, J. Chem. Theory Comput., 2021, 17, 1701-1714
     DOI: 10.1021/acs.jctc.0c01306
   
   for ONIOM refer to:
   * C. Plett, A. Katbashev, S. Ehlert, S. Grimme, M. Bursch,
     Phys. Chem. Chem. Phys., 2023, 25, 17860-17868. DOI: 10.1039/D3CP02178E
   
   for DIPRO refer to:
   * J. Kohn, N. Gildemeister, S. Grimme, D. Fazzi, A. Hansen,
     J. Chem. Phys., 2023, just accepted.
   
   for PTB refer to:
   * S. Grimme, M. Mueller, A. Hansen, J. Chem. Phys., 2023, 158, 124111.
     DOI: 10.1063/5.0137838
   
   with help from (in alphabetical order)
   P. Atkinson, C. Bannwarth, F. Bohle, G. Brandenburg, E. Caldeweyher
   M. Checinski, S. Dohm, S. Ehlert, S. Ehrlich, I. Gerasimov, C. Hölzer
   A. Katbashev, J. Kohn, J. Koopman, C. Lavigne, S. Lehtola, F. März, M. Müller,
   F. Musil, H. Neugebauer, J. Pisarek, C. Plett, P. Pracht, F. Pultar,
   J. Seibert, P. Shushkov, S. Spicher, M. Stahn, M. Steiner, T. Strunk,
   J. Stückrath, T. Rose, and J. Unsleber
   
 * started run on 2026/09/01 at 20:28:47.625     
   ID    Z sym.   atoms
    1    6 C      1, 2, 4, 5, 8-14, 16-18
    2    7 N      3, 15
    3    8 O      6, 7
    4    1 H      19-40, 81-95
    5    5 B      41-80

           -------------------------------------------------
          |                Calculation Setup                |
           -------------------------------------------------

          program call               : "c:\Users\Andre\Proyectos doctorado\nano-qsar-ai-papers\kras-pancreatic-gC3N4-ai\tools\xtb\xtb-6.7.1\bin\xtb.exe" "c:\Users\Andre\Proyectos doctorado\borophene-alzheimer-tau-ai\calculations\tau\Rivastigmine\Rivastigmine_B40H15_clean_complex.xyz" --gfn 2 --sp --chrg 0 --uhf 0 --iterations 500 --norestart
          coordinate file            : c:\Users\Andre\Proyectos doctorado\borophene-alzheimer-tau-ai\calculations\tau\Rivastigmine\Rivastigmine_B40H15_clean_complex.xyz
          omp threads                :                    16


molecular fragmentation (1/2 indicates fragments):
111111111111111111111111111111111111111122222222222222222222222222222222
22222222222222222222222
# atoms in fragment 1/2:    40    55
 fragment masses (1/2) :      250.34      447.56
CMA distance (Bohr)    :  15.870
constraining FC (au)   :  0.0500

           -------------------------------------------------
          |                 G F N 2 - x T B                 |
           -------------------------------------------------

        Reference                      10.1021/acs.jctc.8b01176
      * Hamiltonian:
        H0-scaling (s, p, d)           1.850000    2.230000    2.230000
        zeta-weighting                 0.500000
      * Dispersion:
        s8                             2.700000
        a1                             0.520000
        a2                             5.000000
        s9                             5.000000
      * Repulsion:
        kExp                           1.500000    1.000000
        rExp                           1.000000
      * Coulomb:
        alpha                          2.000000
        third order                    shell-resolved
        anisotropic                    true
        a3                             3.000000
        a5                             4.000000
        cn-shift                       1.200000
        cn-exp                         4.000000
        max-rad                        5.000000


          ...................................................
          :                      SETUP                      :
          :.................................................:
          :  # basis functions                 269          :
          :  # atomic orbitals                 269          :
          :  # shells                          153          :
          :  # electrons                       235          :
          :  max. iterations                   500          :
          :  Hamiltonian                  GFN2-xTB          :
          :  restarted?                      false          :
          :  GBSA solvation                  false          :
          :  PC potential                    false          :
          :  electronic temp.          300.0000000     K    :
          :  accuracy                    1.0000000          :
          :  -> integral cutoff          0.2500000E+02      :
          :  -> integral neglect         0.1000000E-07      :
          :  -> SCF convergence          0.1000000E-05 Eh   :
          :  -> wf. convergence          0.1000000E-03 e    :
          :  Broyden damping             0.4000000          :
          :  net charge                          0          :
          :  unpaired electrons                  0          :
          ...................................................

 iter      E             dE          RMSdq      gap      omega  full diag
   1   -112.1918292 -0.112192E+03  0.132E+01    0.24       0.0  T
   2   -111.2156165  0.976213E+00  0.857E+00    0.44       1.0  T
   3    -65.8986084  0.453170E+02  0.126E+01    0.09       1.0  T
   4    -67.8788597 -0.198025E+01  0.102E+01    0.21       1.0  T
   5   -102.7950362 -0.349162E+02  0.569E+00    0.14       1.0  T
   6   -109.9554879 -0.716045E+01  0.352E+00    0.33       1.0  T
   7   -112.2756572 -0.232017E+01  0.213E+00    0.43       1.0  T
   8   -112.7537662 -0.478109E+00  0.156E+00    0.30       1.0  T
   9   -112.8828133 -0.129047E+00  0.127E+00    0.46       1.0  T
  10   -112.8558104  0.270030E-01  0.106E+00    0.37       1.0  T
  11   -112.8559385 -0.128134E-03  0.720E-01    0.45       1.0  T
  12   -112.8872025 -0.312641E-01  0.491E-01    0.36       1.0  T
  13   -112.9010737 -0.138712E-01  0.411E-01    0.44       1.0  T
  14   -112.9047004 -0.362674E-02  0.372E-01    0.39       1.0  T
  15   -112.9074350 -0.273459E-02  0.326E-01    0.41       1.0  T
  16   -112.9081644 -0.729356E-03  0.279E-01    0.41       1.0  T
  17   -112.9090980 -0.933626E-03  0.186E-01    0.41       1.0  T
  18   -112.9089839  0.114148E-03  0.115E-01    0.41       1.0  T
  19   -112.9091242 -0.140315E-03  0.883E-02    0.41       1.0  T
  20   -112.9092019 -0.776777E-04  0.686E-02    0.41       1.0  T
  21   -112.9093683 -0.166411E-03  0.433E-02    0.41       1.0  T
  22   -112.9094462 -0.779760E-04  0.285E-02    0.41       1.0  T
  23   -112.9094825 -0.362461E-04  0.125E-02    0.41       1.0  T
  24   -112.9094885 -0.598588E-05  0.642E-03    0.41       1.6  T
  25   -112.9094896 -0.114666E-05  0.504E-03    0.41       2.0  T
  26   -112.9094902 -0.600666E-06  0.356E-03    0.41       2.9  T
  27   -112.9094908 -0.548797E-06  0.188E-03    0.41       5.5  T
  28   -112.9094909 -0.146763E-06  0.126E-03    0.41       8.2  T
  29   -112.9094910 -0.777004E-07  0.960E-04    0.41      10.7  T
  30   -112.9094911 -0.146422E-06  0.650E-04    0.41      15.8  T

   *** convergence criteria satisfied after 30 iterations ***

         #    Occupation            Energy/Eh            Energy/eV
      -------------------------------------------------------------
         1        2.0000           -0.7247519             -19.7215
       ...           ...                  ...                  ...
       112        2.0000           -0.2868279              -7.8050
       113        2.0000           -0.2809813              -7.6459
       114        2.0000           -0.2783109              -7.5732
       115        2.0000           -0.2749919              -7.4829
       116        2.0000           -0.2699506              -7.3457
       117        1.9994           -0.2669962              -7.2653
       118        1.0003           -0.2529679              -6.8836 (HOMO)
       119        0.0003           -0.2378272              -6.4716 (LUMO)
       120                         -0.2278006              -6.1988
       121                         -0.2257937              -6.1442
       122                         -0.2200676              -5.9883
       123                         -0.2134396              -5.8080
       ...                                ...                  ...
       269                          1.0747856              29.2464
      -------------------------------------------------------------
                  HL-Gap            0.0151408 Eh            0.4120 eV
             Fermi-level           -0.2526794 Eh           -6.8758 eV

 SCC (total)                   0 d,  0 h,  0 min,  0.345 sec
 SCC setup                      ...        0 min,  0.000 sec (  0.000%)
 Dispersion                     ...        0 min,  0.002 sec (  0.580%)
 classical contributions        ...        0 min,  0.000 sec (  0.000%)
 integral evaluation            ...        0 min,  0.005 sec (  1.449%)
 iterations                     ...        0 min,  0.317 sec ( 91.884%)
 molecular gradient             ...        0 min,  0.016 sec (  4.638%)
 printout                       ...        0 min,  0.004 sec (  1.159%)

         :::::::::::::::::::::::::::::::::::::::::::::::::::::
         ::                     SUMMARY                     ::
         :::::::::::::::::::::::::::::::::::::::::::::::::::::
         :: total energy            -111.399267942618 Eh    ::
         :: gradient norm              0.065307436755 Eh/a0 ::
         :: HOMO-LUMO gap              0.412001177236 eV    ::
         ::.................................................::
         :: SCC energy              -112.907209359470 Eh    ::
         :: -> isotropic ES            0.276516969138 Eh    ::
         :: -> anisotropic ES          0.014146077452 Eh    ::
         :: -> anisotropic XC          0.011347013997 Eh    ::
         :: -> dispersion             -0.108635696241 Eh    ::
         :: repulsion energy           1.507941416852 Eh    ::
         :: add. restraining           0.000000000000 Eh    ::
         :: total charge               0.000000000001 e     ::
         :::::::::::::::::::::::::::::::::::::::::::::::::::::

           -------------------------------------------------
          |                Property Printout                |
           -------------------------------------------------

    * Orbital Energies and Occupations

         #    Occupation            Energy/Eh            Energy/eV
      -------------------------------------------------------------
         1        2.0000           -0.7247519             -19.7215
       ...           ...                  ...                  ...
       106        2.0000           -0.3040774              -8.2744
       107        2.0000           -0.3006143              -8.1801
       108        2.0000           -0.2984196              -8.1204
       109        2.0000           -0.2976405              -8.0992
       110        2.0000           -0.2920750              -7.9478
       111        2.0000           -0.2904285              -7.9030
       112        2.0000           -0.2868279              -7.8050
       113        2.0000           -0.2809813              -7.6459
       114        2.0000           -0.2783109              -7.5732
       115        2.0000           -0.2749919              -7.4829
       116        2.0000           -0.2699506              -7.3457
       117        1.9994           -0.2669962              -7.2653
       118        1.0003           -0.2529679              -6.8836 (HOMO)
       119        0.0003           -0.2378272              -6.4716 (LUMO)
       120                         -0.2278006              -6.1988
       121                         -0.2257937              -6.1442
       122                         -0.2200676              -5.9883
       123                         -0.2134396              -5.8080
       124                         -0.2067943              -5.6272
       125                         -0.2008367              -5.4650
       126                         -0.1951592              -5.3106
       127                         -0.1899770              -5.1695
       128                         -0.1852761              -5.0416
       129                         -0.1765299              -4.8036
       ...                                ...                  ...
       269                          1.0747856              29.2464
      -------------------------------------------------------------
                  HL-Gap            0.0151408 Eh            0.4120 eV
             Fermi-level           -0.2526794 Eh           -6.8758 eV

     #   Z          covCN         q      C6AA      α(0)
     1   6 C        3.749    -0.113    22.729     6.799
     2   6 C        3.738    -0.001    20.683     6.489
     3   7 N        2.727    -0.115    23.511     7.201
     4   6 C        3.693    -0.048    21.622     6.653
     5   6 C        2.647     0.383    20.524     7.411
     6   8 O        0.856    -0.460    22.910     6.417
     7   8 O        1.704    -0.299    18.970     5.881
     8   6 C        2.858     0.144    24.862     8.173
     9   6 C        2.911    -0.050    29.238     8.867
    10   6 C        2.911    -0.032    28.809     8.801
    11   6 C        2.915    -0.040    29.000     8.831
    12   6 C        2.958     0.011    27.771     8.644
    13   6 C        3.795     0.036    19.978     6.365
    14   6 C        3.747    -0.112    22.708     6.797
    15   7 N        2.721    -0.172    24.730     7.386
    16   6 C        3.701    -0.034    21.345     6.607
    17   6 C        3.703    -0.034    21.330     6.603
    18   6 C        2.911    -0.050    29.237     8.867
    19   1 H        0.924     0.050     2.321     2.382
    20   1 H        0.924     0.047     2.356     2.401
    21   1 H        0.924     0.044     2.402     2.424
    22   1 H        0.924     0.053     2.281     2.362
    23   1 H        0.924     0.063     2.163     2.300
    24   1 H        0.924     0.081     1.969     2.195
    25   1 H        0.924     0.055     2.261     2.351
    26   1 H        0.924     0.052     2.295     2.369
    27   1 H        0.925     0.048     2.348     2.396
    28   1 H        0.925     0.044     2.393     2.419
    29   1 H        0.925     0.049     2.336     2.390
    30   1 H        0.923     0.045     2.386     2.415
    31   1 H        0.924     0.039     2.468     2.457
    32   1 H        0.924     0.036     2.497     2.471
    33   1 H        0.924     0.034     2.536     2.490
    34   1 H        0.924     0.018     2.760     2.598
    35   1 H        0.924     0.035     2.516     2.481
    36   1 H        0.924     0.045     2.382     2.414
    37   1 H        0.924     0.017     2.775     2.605
    38   1 H        0.924     0.038     2.475     2.460
    39   1 H        0.924     0.035     2.515     2.480
    40   1 H        0.925     0.059     2.212     2.326
    41   5 B        3.729     0.063    21.497     7.491
    42   5 B        4.543     0.067    21.531     7.477
    43   5 B        3.764     0.029    22.149     7.594
    44   5 B        3.812     0.037    22.037     7.568
    45   5 B        3.866     0.058    21.691     7.506
    46   5 B        4.607     0.023    22.313     7.611
    47   5 B        2.881     0.051    20.544     7.565
    48   5 B        2.866     0.086    19.968     7.460
    49   5 B        4.657     0.031    22.165     7.586
    50   5 B        2.924     0.069    20.222     7.504
    51   5 B        3.820     0.054    21.742     7.517
    52   5 B        3.871     0.021    22.349     7.618
    53   5 B        4.530    -0.005    22.845     7.701
    54   5 B        3.833     0.043    21.934     7.549
    55   5 B        4.711     0.059    21.670     7.500
    56   5 B        4.714     0.046    21.907     7.541
    57   5 B        3.891     0.046    21.892     7.540
    58   5 B        2.930     0.021    21.029     7.652
    59   5 B        4.652     0.016    22.450     7.634
    60   5 B        2.877     0.055    20.481     7.554
    61   5 B        3.828     0.062    21.599     7.491
    62   5 B        3.859     0.020    22.363     7.621
    63   5 B        3.858    -0.009    22.898     7.712
    64   5 B        3.841     0.048    21.863     7.536
    65   5 B        4.594     0.025    22.291     7.607
    66   5 B        5.681     0.105    20.887     7.364
    67   5 B        4.131     0.010    22.557     7.653
    68   5 B        2.924     0.029    20.904     7.629
    69   5 B        5.586     0.060    21.652     7.497
    70   5 B        3.637     0.065    21.115     7.491
    71   5 B        3.826     0.042    21.958     7.554
    72   5 B        3.877     0.029    22.202     7.593
    73   5 B        3.870     0.016    22.432     7.633
    74   5 B        2.915     0.082    20.020     7.466
    75   5 B        3.773     0.073    21.378     7.459
    76   5 B        5.329     0.097    21.024     7.388
    77   5 B        4.732     0.042    21.972     7.553
    78   5 B        3.808     0.012    22.500     7.648
    79   5 B        3.784     0.074    21.370     7.456
    80   5 B        2.896     0.049    20.568     7.569
    81   1 H        0.938    -0.128     6.638     4.028
    82   1 H        1.528     0.026     2.631     2.532
    83   1 H        0.935    -0.152     7.796     4.366
    84   1 H        0.931    -0.143     7.333     4.234
    85   1 H        0.935    -0.128     6.651     4.032
    86   1 H        0.934    -0.127     6.624     4.024
    87   1 H        0.938    -0.114     6.062     3.849
    88   1 H        0.936    -0.142     7.290     4.222
    89   1 H        0.938    -0.098     5.495     3.665
    90   1 H        0.933    -0.156     8.007     4.424
    91   1 H        0.938    -0.108     5.838     3.778
    92   1 H        0.940    -0.146     7.489     4.278
    93   1 H        0.939    -0.118     6.243     3.906
    94   1 H        0.938    -0.121     6.350     3.940
    95   1 H        0.940    -0.148     7.578     4.304

 Mol. C6AA /au·bohr⁶  :     119339.863142
 Mol. C8AA /au·bohr⁸  :    3534202.949341
 Mol. α(0) /au        :        547.647372


Wiberg/Mayer (AO) data.
largest (>0.10) Wiberg bond orders for each atom

 ---------------------------------------------------------------------------
     #   Z sym  total        # sym  WBO       # sym  WBO       # sym  WBO
 ---------------------------------------------------------------------------
     1   6 C    3.994 --     2 C    1.011    19 H    0.986    21 H    0.986
                            20 H    0.984
     2   6 C    3.969 --     1 C    1.011     3 N    0.985    22 H    0.970
                            23 H    0.969
     3   7 N    3.445 --     5 C    1.197     4 C    0.999     2 C    0.985
                             6 O    0.170
     4   6 C    3.964 --     3 N    0.999    25 H    0.979    24 H    0.977
                            26 H    0.975
     5   6 C    3.939 --     6 O    1.644     3 N    1.197     7 O    1.019
     6   8 O    1.988 --     5 C    1.644     3 N    0.170     7 O    0.126
     7   8 O    2.260 --     5 C    1.019     8 C    0.968     6 O    0.126
     8   6 C    3.918 --     9 C    1.399    18 C    1.396     7 O    0.968
                            11 C    0.103
     9   6 C    3.988 --    10 C    1.436     8 C    1.399    27 H    0.968
                            12 C    0.109
    10   6 C    3.989 --    11 C    1.448     9 C    1.436    28 H    0.970
                            18 C    0.107
    11   6 C    3.988 --    10 C    1.448    12 C    1.405    29 H    0.969
                             8 C    0.103
    12   6 C    3.985 --    18 C    1.421    11 C    1.405    13 C    0.988
                             9 C    0.109
    13   6 C    3.984 --    14 C    0.996    12 C    0.988    15 N    0.981
                            30 H    0.955
    14   6 C    3.996 --    13 C    0.996    33 H    0.985    31 H    0.983
                            32 H    0.983
    15   7 N    3.118 --    17 C    1.015    16 C    1.013    13 C    0.981
    16   6 C    3.985 --    15 N    1.013    35 H    0.982    36 H    0.982
                            34 H    0.975
    17   6 C    3.986 --    15 N    1.015    39 H    0.983    38 H    0.981
                            37 H    0.974
    18   6 C    3.987 --    12 C    1.421     8 C    1.396    40 H    0.963
                            10 C    0.107
    19   1 H    0.998 --     1 C    0.986
    20   1 H    0.997 --     1 C    0.984
    21   1 H    0.998 --     1 C    0.986
    22   1 H    0.997 --     2 C    0.970
    23   1 H    0.996 --     2 C    0.969
    24   1 H    0.993 --     4 C    0.977
    25   1 H    0.996 --     4 C    0.979
    26   1 H    0.997 --     4 C    0.975
    27   1 H    0.997 --     9 C    0.968
    28   1 H    0.997 --    10 C    0.970
    29   1 H    0.998 --    11 C    0.969
    30   1 H    0.998 --    13 C    0.955
    31   1 H    0.998 --    14 C    0.983
    32   1 H    0.998 --    14 C    0.983
    33   1 H    0.999 --    14 C    0.985
    34   1 H    1.000 --    16 C    0.975
    35   1 H    0.999 --    16 C    0.982
    36   1 H    0.998 --    16 C    0.982
    37   1 H    1.000 --    17 C    0.974
    38   1 H    0.998 --    17 C    0.981
    39   1 H    0.999 --    17 C    0.983
    40   1 H    0.997 --    18 C    0.963
    41   5 B    3.579 --    81 H    0.950    44 B    0.929    42 B    0.872
                            82 H    0.538
    42   5 B    3.543 --    41 B    0.872    43 B    0.756    44 B    0.611
                            46 B    0.546    82 H    0.426    45 B    0.132
    43   5 B    3.582 --    45 B    1.120    83 H    0.948    42 B    0.756
                            46 B    0.456
    44   5 B    3.571 --    41 B    0.929    51 B    0.843    52 B    0.809
                            42 B    0.611    54 B    0.106
    45   5 B    3.392 --    43 B    1.120    53 B    0.802    49 B    0.635
                            46 B    0.432    42 B    0.132
    46   5 B    3.603 --    47 B    1.085    49 B    0.762    42 B    0.546
                            43 B    0.456    45 B    0.432
    47   5 B    3.435 --    46 B    1.085    48 B    0.996    84 H    0.911
                            49 B    0.157
    48   5 B    3.251 --    50 B    1.019    47 B    0.996    85 H    0.939
                            58 B    0.107
    49   5 B    3.682 --    57 B    0.780    46 B    0.762    56 B    0.701
                            45 B    0.635    53 B    0.374    47 B    0.157
    50   5 B    3.411 --    48 B    1.019    58 B    0.987    86 H    0.924
                            57 B    0.192
    51   5 B    3.630 --    87 H    0.928    52 B    0.845    44 B    0.843
                            54 B    0.792
    52   5 B    3.619 --    54 B    0.854    51 B    0.845    53 B    0.820
                            44 B    0.809
    53   5 B    3.652 --    55 B    0.833    52 B    0.820    45 B    0.802
                            56 B    0.435    49 B    0.374
    54   5 B    3.598 --    52 B    0.854    51 B    0.792    61 B    0.785
                            62 B    0.724    44 B    0.106
    55   5 B    3.593 --    53 B    0.833    63 B    0.683    56 B    0.635
                            66 B    0.570    59 B    0.459
    56   5 B    3.602 --    59 B    0.950    49 B    0.701    55 B    0.635
                            57 B    0.595    53 B    0.435
    57   5 B    3.552 --    58 B    0.969    49 B    0.780    59 B    0.665
                            56 B    0.595    50 B    0.192
    58   5 B    3.449 --    50 B    0.987    57 B    0.969    60 B    0.963
                            68 B    0.180    48 B    0.107
    59   5 B    3.645 --    56 B    0.950    67 B    0.775    57 B    0.665
                            55 B    0.459    66 B    0.438
    60   5 B    3.419 --    68 B    1.141    58 B    0.963    88 H    0.951
                            70 B    0.113
    61   5 B    3.577 --    89 H    0.921    64 B    0.848    62 B    0.791
                            54 B    0.785
    62   5 B    3.605 --    63 B    1.013    61 B    0.791    54 B    0.724
                            64 B    0.705
    63   5 B    3.638 --    62 B    1.013    65 B    0.891    55 B    0.683
                            66 B    0.606
    64   5 B    3.595 --    61 B    0.848    72 B    0.839    71 B    0.751
                            62 B    0.705    74 B    0.140
    65   5 B    3.669 --    63 B    0.891    73 B    0.701    66 B    0.683
                            76 B    0.616    69 B    0.392
    66   5 B    3.670 --    65 B    0.683    63 B    0.606    69 B    0.586
                            55 B    0.570    67 B    0.522    59 B    0.438
    67   5 B    3.528 --    68 B    0.968    69 B    0.776    59 B    0.775
                            66 B    0.522    70 B    0.197
    68   5 B    3.407 --    60 B    1.141    67 B    0.968    70 B    0.781
                            58 B    0.180
    69   5 B    3.635 --    67 B    0.776    77 B    0.617    66 B    0.586
                            78 B    0.486    65 B    0.392    76 B    0.292
                            70 B    0.267
    70   5 B    3.507 --    78 B    0.972    90 H    0.938    68 B    0.781
                            69 B    0.267    67 B    0.197    60 B    0.113
    71   5 B    3.613 --    74 B    1.036    91 H    0.920    72 B    0.752
                            64 B    0.751
    72   5 B    3.605 --    74 B    0.930    73 B    0.896    64 B    0.839
                            71 B    0.752
    73   5 B    3.625 --    72 B    0.896    75 B    0.862    65 B    0.701
                            76 B    0.630    74 B    0.233
    74   5 B    3.477 --    71 B    1.036    92 H    0.969    72 B    0.930
                            73 B    0.233    64 B    0.140
    75   5 B    3.515 --    93 H    0.952    73 B    0.862    76 B    0.767
                            79 B    0.689
    76   5 B    3.656 --    75 B    0.767    79 B    0.766    73 B    0.630
                            65 B    0.616    77 B    0.440    69 B    0.292
    77   5 B    3.636 --    80 B    0.954    79 B    0.765    78 B    0.705
                            69 B    0.617    76 B    0.440
    78   5 B    3.573 --    80 B    1.170    70 B    0.972    77 B    0.705
                            69 B    0.486
    79   5 B    3.565 --    94 H    0.952    76 B    0.766    77 B    0.765
                            75 B    0.689    80 B    0.189
    80   5 B    3.517 --    78 B    1.170    95 H    0.967    77 B    0.954
                            79 B    0.189
    81   1 H    0.979 --    41 B    0.950
    82   1 H    0.995 --    41 B    0.538    42 B    0.426
    83   1 H    0.975 --    43 B    0.948
    84   1 H    0.976 --    47 B    0.911
    85   1 H    0.981 --    48 B    0.939
    86   1 H    0.980 --    50 B    0.924
    87   1 H    0.977 --    51 B    0.928
    88   1 H    0.976 --    60 B    0.951
    89   1 H    0.979 --    61 B    0.921
    90   1 H    0.974 --    70 B    0.938
    91   1 H    0.979 --    71 B    0.920
    92   1 H    0.978 --    74 B    0.969
    93   1 H    0.983 --    75 B    0.952
    94   1 H    0.981 --    79 B    0.952
    95   1 H    0.977 --    80 B    0.967
 ---------------------------------------------------------------------------

Topologies differ in total number of bonds
Writing topology from bond orders to xtbtopo.mol

molecular dipole:
                 x           y           z       tot (Debye)
 q only:        1.456      -0.843      -1.012
   full:        1.020      -1.719      -0.347       5.155
molecular quadrupole (traceless):
                xx          xy          yy          xz          yz          zz
 q only:       -2.651       0.223       1.532      16.932      13.839       1.119
  q+dip:       26.827      10.159      -3.714      18.607       6.710     -23.112
   full:       16.787       6.022      -8.080      18.006       6.515      -8.707


           -------------------------------------------------
          | TOTAL ENERGY             -111.399267942618 Eh   |
          | GRADIENT NORM               0.065307436755 Eh/α |
          | HOMO-LUMO GAP               0.412001177236 eV   |
           -------------------------------------------------

------------------------------------------------------------------------
 * finished run on 2026/09/01 at 20:28:48.013     
------------------------------------------------------------------------
 total:
 * wall-time:     0 d,  0 h,  0 min,  0.387 sec
 *  cpu-time:     0 d,  0 h,  0 min,  4.859 sec
 * ratio c/w:    12.557 speedup
 SCF:
 * wall-time:     0 d,  0 h,  0 min,  0.346 sec
 *  cpu-time:     0 d,  0 h,  0 min,  4.531 sec
 * ratio c/w:    13.096 speedup

