40
Rivastigmine - ETKDG+MMFF conformer
C      5.231783      0.172384     -0.658691
C      4.299385     -0.841380     -1.303463
N      3.403525     -1.465604     -0.334039
C      3.906465     -2.606422      0.408753
C      2.224933     -0.857214      0.090334
O      1.527953     -1.297323      0.999429
O      1.941240      0.302297     -0.630855
C      0.768224      0.998432     -0.300730
C      0.902038      2.338439      0.050986
C     -0.238531      3.079789      0.342617
C     -1.498717      2.480238      0.263590
C     -1.646464      1.131536     -0.118770
C     -3.055484      0.534166     -0.174755
C     -3.165504     -0.755851     -1.008005
N     -3.645081      0.447173      1.181321
C     -3.025563     -0.568375      2.032645
C     -5.095666      0.279613      1.156566
C     -0.487277      0.395361     -0.406660
H      4.669375      0.971740     -0.165516
H      5.879390      0.626539     -1.414938
H      5.868994     -0.300935      0.095087
H      4.877634     -1.628231     -1.800520
H      3.706198     -0.345554     -2.079327
H      3.119890     -3.082484      1.000368
H      4.309712     -3.342496     -0.292648
H      4.698367     -2.268708      1.083276
H      1.883625      2.797722      0.107227
H     -0.152180      4.121759      0.638011
H     -2.381321      3.066549      0.514813
H     -3.638062      1.282443     -0.733423
H     -2.631679     -1.596798     -0.553902
H     -4.209444     -1.056752     -1.142061
H     -2.748581     -0.603297     -2.010509
H     -3.211794     -1.587012      1.676195
H     -3.421125     -0.495675      3.052504
H     -1.944203     -0.422179      2.118305
H     -5.402534     -0.697657      0.769376
H     -5.507064      0.384548      2.167017
H     -5.568994      1.058609      0.548772
H     -0.543467     -0.649390     -0.694018
