100
Drug@B48H12 canonical clean complex
C      5.231783      0.172384      6.369094
C      4.299385     -0.841380      5.724322
N      3.403525     -1.465604      6.693746
C      3.906465     -2.606422      7.436538
C      2.224933     -0.857214      7.118119
O      1.527953     -1.297323      8.027214
O      1.941240      0.302297      6.396930
C      0.768224      0.998432      6.727055
C      0.902038      2.338439      7.078771
C     -0.238531      3.079789      7.370402
C     -1.498717      2.480238      7.291375
C     -1.646464      1.131536      6.909015
C     -3.055484      0.534166      6.853030
C     -3.165504     -0.755851      6.019780
N     -3.645081      0.447173      8.209106
C     -3.025563     -0.568375      9.060430
C     -5.095666      0.279613      8.184351
C     -0.487277      0.395361      6.621125
H      4.669375      0.971740      6.862269
H      5.879390      0.626539      5.612847
H      5.868994     -0.300935      7.122872
H      4.877634     -1.628231      5.227265
H      3.706198     -0.345554      4.948458
H      3.119890     -3.082484      8.028153
H      4.309712     -3.342496      6.735137
H      4.698367     -2.268708      8.111061
H      1.883625      2.797722      7.135012
H     -0.152180      4.121759      7.665796
H     -2.381321      3.066549      7.542598
H     -3.638062      1.282443      6.294362
H     -2.631679     -1.596798      6.473883
H     -4.209444     -1.056752      5.885724
H     -2.748581     -0.603297      5.017276
H     -3.211794     -1.587012      8.703980
H     -3.421125     -0.495675     10.080289
H     -1.944203     -0.422179      9.146090
H     -5.402534     -0.697657      7.797161
H     -5.507064      0.384548      9.194802
H     -5.568994      1.058609      7.576557
H     -0.543467     -0.649390      6.333767
B     -6.925574     -4.651113      0.258651
B     -5.109772     -2.249293      0.322202
B     -3.591500     -2.181365      0.212799
B      0.999259     -2.875448      0.063787
B      2.475853     -3.012223     -0.270859
B      5.299353     -3.831373     -0.667177
B      6.318286     -4.835948     -1.155795
B     -6.434811     -3.158276      0.286374
B     -6.751986     -1.633834      0.316446
B     -2.052572     -2.317325      0.334938
B     -0.484105     -2.461901      0.257444
B      4.018432     -2.901059     -0.287234
B      5.753195     -2.281523     -0.302825
B      6.830072     -3.228788     -1.092903
B     -7.656446     -0.254969      0.343088
B     -6.037404     -0.139472      0.191282
B     -4.431555     -0.535693      0.223935
B     -2.737864     -0.660395      0.328987
B     -1.051797     -0.915695      0.641867
B      0.517067     -1.172154      0.725732
B      3.123140     -1.483076     -0.063477
B      4.700072     -1.133969      0.340157
B      6.266701     -0.787165      0.251702
B      7.671979     -0.351666      1.032714
B     -6.918082      1.212094      0.191543
B     -3.418449      0.780084      0.080928
B     -1.654248      0.532626      0.123936
B      1.862187     -0.403738      0.324587
B      3.584717     -0.150377      0.785151
B      6.990973      0.611062     -0.106825
B      8.307368      1.062865      0.631577
B     -7.619446      2.804022      0.298592
B     -6.123847      2.518506     -0.176534
B     -3.588598      2.327656     -0.236793
B     -0.906130      1.819502     -0.419754
B      1.623430      1.019912     -0.410817
B      3.010841      1.309010      0.529678
B      6.372866      1.858188     -0.915986
B     -6.527660      4.045620     -0.160807
B     -4.873588      3.494810     -0.388449
B     -3.415521      3.880123     -0.606384
B     -2.023468      3.220559     -0.676715
B     -0.497363      3.279553     -0.896985
B      0.710715      2.332441     -0.745678
B      2.335338      2.478091     -0.475438
B      3.816082      2.619470     -0.094099
B      5.369811      2.864588     -0.148865
B      6.055136      4.080007      0.631212
H      6.204101      5.147675      0.146336
H      8.218389     -1.121032      1.726840
H      6.622436      1.981791     -2.067388
H     -7.089961     -5.250634     -0.753775
H     -6.791161      5.181470     -0.285186
H      9.156919      1.846573      0.789984
H     -8.827690     -0.375757      0.328558
H      6.783879     -5.868988     -1.446538
H     -8.724710      3.001220      0.638842
H      7.891803     -2.883539     -1.473727
H      6.428164      3.999644      1.748458
H     -7.224878     -5.282314      1.218688
