      -----------------------------------------------------------      
     |                   =====================                   |     
     |                           x T B                           |     
     |                   =====================                   |     
     |                         S. Grimme                         |     
     |          Mulliken Center for Theoretical Chemistry        |     
     |                    University of Bonn                     |     
      -----------------------------------------------------------      

   * xtb version 6.7.1pre (5071a88) compiled by 'Marcel@Raven' on 2024-07-23

   xtb is free software: you can redistribute it and/or modify it under
   the terms of the GNU Lesser General Public License as published by
   the Free Software Foundation, either version 3 of the License, or
   (at your option) any later version.
   
   xtb is distributed in the hope that it will be useful,
   but WITHOUT ANY WARRANTY; without even the implied warranty of
   MERCHANTABILITY or FITNESS FOR A PARTICULAR PURPOSE.  See the
   GNU Lesser General Public License for more details.
   
   Cite this work as:
   * C. Bannwarth, E. Caldeweyher, S. Ehlert, A. Hansen, P. Pracht,
     J. Seibert, S. Spicher, S. Grimme, WIREs Comput. Mol. Sci., 2020, 11,
     e01493. DOI: 10.1002/wcms.1493
   
   for GFN2-xTB:
   * C. Bannwarth, S. Ehlert and S. Grimme., J. Chem. Theory Comput., 2019,
     15, 1652-1671. DOI: 10.1021/acs.jctc.8b01176
   for GFN1-xTB:
   * S. Grimme, C. Bannwarth, P. Shushkov, J. Chem. Theory Comput., 2017,
     13, 1989-2009. DOI: 10.1021/acs.jctc.7b00118
   for GFN0-xTB:
   * P. Pracht, E. Caldeweyher, S. Ehlert, S. Grimme, ChemRxiv, 2019, preprint.
     DOI: 10.26434/chemrxiv.8326202.v1
   for GFN-FF:
   * S. Spicher and S. Grimme, Angew. Chem. Int. Ed., 2020, 59, 15665-15673.
     DOI: 10.1002/anie.202004239
   
   for ALPB and GBSA implicit solvation:
   * S. Ehlert, M. Stahn, S. Spicher, S. Grimme, J. Chem. Theory Comput.,
     2021, 17, 4250-4261. DOI: 10.1021/acs.jctc.1c00471
   
   for ddCOSMO and CPCM-X implicit solvation:
   * M. Stahn, S. Ehlert, S. Grimme, J. Phys. Chem. A,
     2023, XX, XXXX-XXXX. DOI: 10.1021/acs.jpca.3c04382
   
   for DFT-D4:
   * E. Caldeweyher, C. Bannwarth and S. Grimme, J. Chem. Phys., 2017,
     147, 034112. DOI: 10.1063/1.4993215
   * E. Caldeweyher, S. Ehlert, A. Hansen, H. Neugebauer, S. Spicher,
     C. Bannwarth and S. Grimme, J. Chem. Phys., 2019, 150, 154122.
     DOI: 10.1063/1.5090222
   * E. Caldeweyher, J.-M. Mewes, S. Ehlert and S. Grimme, Phys. Chem. Chem. Phys.
     2020, 22, 8499-8512. DOI: 10.1039/D0CP00502A
   
   for sTDA-xTB:
   * S. Grimme and C. Bannwarth, J. Chem. Phys., 2016, 145, 054103.
     DOI: 10.1063/1.4959605
   
   in the mass-spec context:
   * V. Asgeirsson, C. Bauer and S. Grimme, Chem. Sci., 2017, 8, 4879.
     DOI: 10.1039/c7sc00601b
   * J. Koopman and S. Grimme, ACS Omega 2019, 4, 12, 15120-15133.
     DOI: 10.1021/acsomega.9b02011
   
   for metadynamics refer to:
   * S. Grimme, J. Chem. Theory Comput., 2019, 155, 2847-2862
     DOI: 10.1021/acs.jctc.9b00143
   
   for SPH calculations refer to:
   * S. Spicher and S. Grimme, J. Chem. Theory Comput., 2021, 17, 1701-1714
     DOI: 10.1021/acs.jctc.0c01306
   
   for ONIOM refer to:
   * C. Plett, A. Katbashev, S. Ehlert, S. Grimme, M. Bursch,
     Phys. Chem. Chem. Phys., 2023, 25, 17860-17868. DOI: 10.1039/D3CP02178E
   
   for DIPRO refer to:
   * J. Kohn, N. Gildemeister, S. Grimme, D. Fazzi, A. Hansen,
     J. Chem. Phys., 2023, just accepted.
   
   for PTB refer to:
   * S. Grimme, M. Mueller, A. Hansen, J. Chem. Phys., 2023, 158, 124111.
     DOI: 10.1063/5.0137838
   
   with help from (in alphabetical order)
   P. Atkinson, C. Bannwarth, F. Bohle, G. Brandenburg, E. Caldeweyher
   M. Checinski, S. Dohm, S. Ehlert, S. Ehrlich, I. Gerasimov, C. Hölzer
   A. Katbashev, J. Kohn, J. Koopman, C. Lavigne, S. Lehtola, F. März, M. Müller,
   F. Musil, H. Neugebauer, J. Pisarek, C. Plett, P. Pracht, F. Pultar,
   J. Seibert, P. Shushkov, S. Spicher, M. Stahn, M. Steiner, T. Strunk,
   J. Stückrath, T. Rose, and J. Unsleber
   
 * started run on 2026/08/31 at 20:24:40.414     
   ID    Z sym.   atoms
    1    6 C      1, 2, 4, 5, 8-14, 16-18
    2    7 N      3, 15
    3    8 O      6, 7
    4    1 H      19-40

           -------------------------------------------------
          |                Calculation Setup                |
           -------------------------------------------------

          program call               : "c:\Users\Andre\Proyectos doctorado\kras-pancreatic-gC3N4-ai\tools\xtb\xtb-6.7.1\bin\xtb.exe" "c:\Users\Andre\Proyectos doctorado\borophene-alzheimer-tau-ai\calculations\tau\Rivastigmine\Rivastigmine_drug.xyz" --gfn 2 --sp --chrg 0 --uhf 0 --iterations 500 --norestart
          coordinate file            : c:\Users\Andre\Proyectos doctorado\borophene-alzheimer-tau-ai\calculations\tau\Rivastigmine\Rivastigmine_drug.xyz
          omp threads                :                    16


           -------------------------------------------------
          |                 G F N 2 - x T B                 |
           -------------------------------------------------

        Reference                      10.1021/acs.jctc.8b01176
      * Hamiltonian:
        H0-scaling (s, p, d)           1.850000    2.230000    2.230000
        zeta-weighting                 0.500000
      * Dispersion:
        s8                             2.700000
        a1                             0.520000
        a2                             5.000000
        s9                             5.000000
      * Repulsion:
        kExp                           1.500000    1.000000
        rExp                           1.000000
      * Coulomb:
        alpha                          2.000000
        third order                    shell-resolved
        anisotropic                    true
        a3                             3.000000
        a5                             4.000000
        cn-shift                       1.200000
        cn-exp                         4.000000
        max-rad                        5.000000


          ...................................................
          :                      SETUP                      :
          :.................................................:
          :  # basis functions                  94          :
          :  # atomic orbitals                  94          :
          :  # shells                           58          :
          :  # electrons                       100          :
          :  max. iterations                   500          :
          :  Hamiltonian                  GFN2-xTB          :
          :  restarted?                      false          :
          :  GBSA solvation                  false          :
          :  PC potential                    false          :
          :  electronic temp.          300.0000000     K    :
          :  accuracy                    1.0000000          :
          :  -> integral cutoff          0.2500000E+02      :
          :  -> integral neglect         0.1000000E-07      :
          :  -> SCF convergence          0.1000000E-05 Eh   :
          :  -> wf. convergence          0.1000000E-03 e    :
          :  Broyden damping             0.4000000          :
          :  net charge                          0          :
          :  unpaired electrons                  0          :
          ...................................................

 iter      E             dE          RMSdq      gap      omega  full diag
   1    -55.8217098 -0.558217E+02  0.370E+00    3.50       0.0  T
   2    -55.9078837 -0.861739E-01  0.212E+00    3.46       1.0  T
   3    -55.9078219  0.617622E-04  0.976E-01    3.19       1.0  T
   4    -55.9115756 -0.375368E-02  0.331E-01    3.03       1.0  T
   5    -55.9139830 -0.240734E-02  0.817E-02    3.05       1.0  T
   6    -55.9140628 -0.798556E-04  0.399E-02    3.07       1.0  T
   7    -55.9140695 -0.673127E-05  0.159E-02    3.07       1.0  T
   8    -55.9140721 -0.254854E-05  0.491E-03    3.07       3.2  T
   9    -55.9140723 -0.193656E-06  0.222E-03    3.07       7.1  T
  10    -55.9140724 -0.914891E-07  0.904E-04    3.07      17.5  T
  11    -55.9140724 -0.782516E-08  0.453E-04    3.07      34.9  T

   *** convergence criteria satisfied after 11 iterations ***

         #    Occupation            Energy/Eh            Energy/eV
      -------------------------------------------------------------
         1        2.0000           -0.7231592             -19.6782
       ...           ...                  ...                  ...
        44        2.0000           -0.4263034             -11.6003
        45        2.0000           -0.4175059             -11.3609
        46        2.0000           -0.4108475             -11.1797
        47        2.0000           -0.3978739             -10.8267
        48        2.0000           -0.3911759             -10.6444
        49        2.0000           -0.3854546             -10.4888
        50        2.0000           -0.3394366              -9.2365 (HOMO)
        51                         -0.2265400              -6.1645 (LUMO)
        52                         -0.2244903              -6.1087
        53                         -0.1987808              -5.4091
        54                         -0.1023356              -2.7847
        55                         -0.0312867              -0.8514
       ...                                ...                  ...
        94                          0.6273371              17.0707
      -------------------------------------------------------------
                  HL-Gap            0.1128966 Eh            3.0721 eV
             Fermi-level           -0.2829883 Eh           -7.7005 eV

 SCC (total)                   0 d,  0 h,  0 min,  0.022 sec
 SCC setup                      ...        0 min,  0.000 sec (  0.000%)
 Dispersion                     ...        0 min,  0.001 sec (  4.545%)
 classical contributions        ...        0 min,  0.000 sec (  0.000%)
 integral evaluation            ...        0 min,  0.001 sec (  4.545%)
 iterations                     ...        0 min,  0.015 sec ( 68.182%)
 molecular gradient             ...        0 min,  0.003 sec ( 13.636%)
 printout                       ...        0 min,  0.001 sec (  4.545%)

         :::::::::::::::::::::::::::::::::::::::::::::::::::::
         ::                     SUMMARY                     ::
         :::::::::::::::::::::::::::::::::::::::::::::::::::::
         :: total energy             -55.204770820609 Eh    ::
         :: gradient norm              0.064935283395 Eh/a0 ::
         :: HOMO-LUMO gap              3.072073780349 eV    ::
         ::.................................................::
         :: SCC energy               -55.913842605168 Eh    ::
         :: -> isotropic ES            0.064480410615 Eh    ::
         :: -> anisotropic ES          0.007904451021 Eh    ::
         :: -> anisotropic XC          0.027200682053 Eh    ::
         :: -> dispersion             -0.036318757951 Eh    ::
         :: repulsion energy           0.709071784559 Eh    ::
         :: add. restraining           0.000000000000 Eh    ::
         :: total charge              -0.000000000000 e     ::
         :::::::::::::::::::::::::::::::::::::::::::::::::::::

           -------------------------------------------------
          |                Property Printout                |
           -------------------------------------------------

    * Orbital Energies and Occupations

         #    Occupation            Energy/Eh            Energy/eV
      -------------------------------------------------------------
         1        2.0000           -0.7231592             -19.6782
       ...           ...                  ...                  ...
        38        2.0000           -0.4565273             -12.4227
        39        2.0000           -0.4507705             -12.2661
        40        2.0000           -0.4500234             -12.2458
        41        2.0000           -0.4460504             -12.1376
        42        2.0000           -0.4422924             -12.0354
        43        2.0000           -0.4350858             -11.8393
        44        2.0000           -0.4263034             -11.6003
        45        2.0000           -0.4175059             -11.3609
        46        2.0000           -0.4108475             -11.1797
        47        2.0000           -0.3978739             -10.8267
        48        2.0000           -0.3911759             -10.6444
        49        2.0000           -0.3854546             -10.4888
        50        2.0000           -0.3394366              -9.2365 (HOMO)
        51                         -0.2265400              -6.1645 (LUMO)
        52                         -0.2244903              -6.1087
        53                         -0.1987808              -5.4091
        54                         -0.1023356              -2.7847
        55                         -0.0312867              -0.8514
        56                          0.0173259               0.4715
        57                          0.0290997               0.7918
        58                          0.0562265               1.5300
        59                          0.0847832               2.3071
        60                          0.0922519               2.5103
        61                          0.1048206               2.8523
       ...                                ...                  ...
        94                          0.6273371              17.0707
      -------------------------------------------------------------
                  HL-Gap            0.1128966 Eh            3.0721 eV
             Fermi-level           -0.2829883 Eh           -7.7005 eV

     #   Z          covCN         q      C6AA      α(0)
     1   6 C        3.749    -0.107    22.619     6.783
     2   6 C        3.738     0.005    20.572     6.472
     3   7 N        2.727    -0.116    23.538     7.206
     4   6 C        3.693    -0.043    21.528     6.639
     5   6 C        2.647     0.386    20.479     7.403
     6   8 O        0.856    -0.459    22.907     6.417
     7   8 O        1.704    -0.298    18.952     5.878
     8   6 C        2.858     0.146    24.815     8.165
     9   6 C        2.911    -0.047    29.172     8.857
    10   6 C        2.911    -0.031    28.774     8.796
    11   6 C        2.915    -0.039    28.965     8.825
    12   6 C        2.958     0.011    27.764     8.643
    13   6 C        3.795     0.039    19.927     6.357
    14   6 C        3.747    -0.104    22.549     6.773
    15   7 N        2.721    -0.173    24.748     7.388
    16   6 C        3.701    -0.031    21.285     6.597
    17   6 C        3.703    -0.029    21.255     6.592
    18   6 C        2.911    -0.046    29.133     8.851
    19   1 H        0.924     0.048     2.340     2.392
    20   1 H        0.924     0.044     2.390     2.418
    21   1 H        0.924     0.042     2.427     2.436
    22   1 H        0.924     0.048     2.343     2.394
    23   1 H        0.924     0.061     2.185     2.312
    24   1 H        0.924     0.080     1.981     2.201
    25   1 H        0.924     0.052     2.296     2.370
    26   1 H        0.924     0.050     2.315     2.379
    27   1 H        0.925     0.046     2.376     2.411
    28   1 H        0.925     0.041     2.430     2.438
    29   1 H        0.925     0.045     2.382     2.414
    30   1 H        0.923     0.040     2.452     2.449
    31   1 H        0.924     0.037     2.485     2.465
    32   1 H        0.924     0.033     2.551     2.498
    33   1 H        0.924     0.030     2.586     2.515
    34   1 H        0.924     0.017     2.773     2.604
    35   1 H        0.924     0.034     2.524     2.484
    36   1 H        0.924     0.044     2.390     2.418
    37   1 H        0.924     0.016     2.798     2.616
    38   1 H        0.924     0.037     2.484     2.465
    39   1 H        0.924     0.033     2.551     2.498
    40   1 H        0.925     0.057     2.236     2.338

 Mol. C6AA /au·bohr⁶  :      14792.077636
 Mol. C8AA /au·bohr⁸  :     329988.343475
 Mol. α(0) /au        :        186.154341


Wiberg/Mayer (AO) data.
largest (>0.10) Wiberg bond orders for each atom

 ---------------------------------------------------------------------------
     #   Z sym  total        # sym  WBO       # sym  WBO       # sym  WBO
 ---------------------------------------------------------------------------
     1   6 C    3.995 --     2 C    1.011    19 H    0.986    21 H    0.986
                            20 H    0.984
     2   6 C    3.970 --     1 C    1.011     3 N    0.985    22 H    0.971
                            23 H    0.969
     3   7 N    3.444 --     5 C    1.196     4 C    0.999     2 C    0.985
                             6 O    0.170
     4   6 C    3.965 --     3 N    0.999    25 H    0.979    24 H    0.977
                            26 H    0.976
     5   6 C    3.939 --     6 O    1.645     3 N    1.196     7 O    1.020
     6   8 O    1.988 --     5 C    1.645     3 N    0.170     7 O    0.126
     7   8 O    2.261 --     5 C    1.020     8 C    0.969     6 O    0.126
     8   6 C    3.918 --     9 C    1.398    18 C    1.395     7 O    0.969
                            11 C    0.103
     9   6 C    3.988 --    10 C    1.436     8 C    1.398    27 H    0.968
                            12 C    0.109
    10   6 C    3.990 --    11 C    1.448     9 C    1.436    28 H    0.970
                            18 C    0.107
    11   6 C    3.988 --    10 C    1.448    12 C    1.405    29 H    0.969
                             8 C    0.103
    12   6 C    3.984 --    18 C    1.421    11 C    1.405    13 C    0.988
                             9 C    0.109
    13   6 C    3.984 --    14 C    0.996    12 C    0.988    15 N    0.981
                            30 H    0.955
    14   6 C    3.996 --    13 C    0.996    33 H    0.985    32 H    0.983
                            31 H    0.983
    15   7 N    3.118 --    17 C    1.016    16 C    1.013    13 C    0.981
    16   6 C    3.985 --    15 N    1.013    35 H    0.982    36 H    0.982
                            34 H    0.975
    17   6 C    3.987 --    15 N    1.016    39 H    0.983    38 H    0.981
                            37 H    0.974
    18   6 C    3.987 --    12 C    1.421     8 C    1.395    40 H    0.963
                            10 C    0.107
    19   1 H    0.998 --     1 C    0.986
    20   1 H    0.997 --     1 C    0.984
    21   1 H    0.998 --     1 C    0.986
    22   1 H    0.998 --     2 C    0.971
    23   1 H    0.996 --     2 C    0.969
    24   1 H    0.994 --     4 C    0.977
    25   1 H    0.997 --     4 C    0.979
    26   1 H    0.997 --     4 C    0.976
    27   1 H    0.997 --     9 C    0.968
    28   1 H    0.997 --    10 C    0.970
    29   1 H    0.998 --    11 C    0.969
    30   1 H    0.998 --    13 C    0.955
    31   1 H    0.999 --    14 C    0.983
    32   1 H    0.998 --    14 C    0.983
    33   1 H    0.999 --    14 C    0.985
    34   1 H    1.000 --    16 C    0.975
    35   1 H    0.999 --    16 C    0.982
    36   1 H    0.998 --    16 C    0.982
    37   1 H    1.000 --    17 C    0.974
    38   1 H    0.998 --    17 C    0.981
    39   1 H    0.999 --    17 C    0.983
    40   1 H    0.997 --    18 C    0.963
 ---------------------------------------------------------------------------

Topologies differ in total number of bonds
Writing topology from bond orders to xtbtopo.mol

molecular dipole:
                 x           y           z       tot (Debye)
 q only:        0.654       0.088      -0.679
   full:        0.695      -0.172      -0.873       2.869
molecular quadrupole (traceless):
                xx          xy          yy          xz          yz          zz
 q only:       13.875      -6.047      -3.442      -3.817       2.094     -10.433
  q+dip:       17.403      -2.641      -3.446      -2.677       3.849     -13.957
   full:       16.430      -2.754      -4.661      -2.215       2.610     -11.769


           -------------------------------------------------
          | TOTAL ENERGY              -55.204770820609 Eh   |
          | GRADIENT NORM               0.064935283395 Eh/α |
          | HOMO-LUMO GAP               3.072073780349 eV   |
           -------------------------------------------------

------------------------------------------------------------------------
 * finished run on 2026/08/31 at 20:24:40.462     
------------------------------------------------------------------------
 total:
 * wall-time:     0 d,  0 h,  0 min,  0.047 sec
 *  cpu-time:     0 d,  0 h,  0 min,  0.641 sec
 * ratio c/w:    13.630 speedup
 SCF:
 * wall-time:     0 d,  0 h,  0 min,  0.022 sec
 *  cpu-time:     0 d,  0 h,  0 min,  0.172 sec
 * ratio c/w:     7.812 speedup

normal termination of xtb
