      -----------------------------------------------------------      
     |                   =====================                   |     
     |                           x T B                           |     
     |                   =====================                   |     
     |                         S. Grimme                         |     
     |          Mulliken Center for Theoretical Chemistry        |     
     |                    University of Bonn                     |     
      -----------------------------------------------------------      

   * xtb version 6.7.1pre (5071a88) compiled by 'Marcel@Raven' on 2024-07-23

   xtb is free software: you can redistribute it and/or modify it under
   the terms of the GNU Lesser General Public License as published by
   the Free Software Foundation, either version 3 of the License, or
   (at your option) any later version.
   
   xtb is distributed in the hope that it will be useful,
   but WITHOUT ANY WARRANTY; without even the implied warranty of
   MERCHANTABILITY or FITNESS FOR A PARTICULAR PURPOSE.  See the
   GNU Lesser General Public License for more details.
   
   Cite this work as:
   * C. Bannwarth, E. Caldeweyher, S. Ehlert, A. Hansen, P. Pracht,
     J. Seibert, S. Spicher, S. Grimme, WIREs Comput. Mol. Sci., 2020, 11,
     e01493. DOI: 10.1002/wcms.1493
   
   for GFN2-xTB:
   * C. Bannwarth, S. Ehlert and S. Grimme., J. Chem. Theory Comput., 2019,
     15, 1652-1671. DOI: 10.1021/acs.jctc.8b01176
   for GFN1-xTB:
   * S. Grimme, C. Bannwarth, P. Shushkov, J. Chem. Theory Comput., 2017,
     13, 1989-2009. DOI: 10.1021/acs.jctc.7b00118
   for GFN0-xTB:
   * P. Pracht, E. Caldeweyher, S. Ehlert, S. Grimme, ChemRxiv, 2019, preprint.
     DOI: 10.26434/chemrxiv.8326202.v1
   for GFN-FF:
   * S. Spicher and S. Grimme, Angew. Chem. Int. Ed., 2020, 59, 15665-15673.
     DOI: 10.1002/anie.202004239
   
   for ALPB and GBSA implicit solvation:
   * S. Ehlert, M. Stahn, S. Spicher, S. Grimme, J. Chem. Theory Comput.,
     2021, 17, 4250-4261. DOI: 10.1021/acs.jctc.1c00471
   
   for ddCOSMO and CPCM-X implicit solvation:
   * M. Stahn, S. Ehlert, S. Grimme, J. Phys. Chem. A,
     2023, XX, XXXX-XXXX. DOI: 10.1021/acs.jpca.3c04382
   
   for DFT-D4:
   * E. Caldeweyher, C. Bannwarth and S. Grimme, J. Chem. Phys., 2017,
     147, 034112. DOI: 10.1063/1.4993215
   * E. Caldeweyher, S. Ehlert, A. Hansen, H. Neugebauer, S. Spicher,
     C. Bannwarth and S. Grimme, J. Chem. Phys., 2019, 150, 154122.
     DOI: 10.1063/1.5090222
   * E. Caldeweyher, J.-M. Mewes, S. Ehlert and S. Grimme, Phys. Chem. Chem. Phys.
     2020, 22, 8499-8512. DOI: 10.1039/D0CP00502A
   
   for sTDA-xTB:
   * S. Grimme and C. Bannwarth, J. Chem. Phys., 2016, 145, 054103.
     DOI: 10.1063/1.4959605
   
   in the mass-spec context:
   * V. Asgeirsson, C. Bauer and S. Grimme, Chem. Sci., 2017, 8, 4879.
     DOI: 10.1039/c7sc00601b
   * J. Koopman and S. Grimme, ACS Omega 2019, 4, 12, 15120-15133.
     DOI: 10.1021/acsomega.9b02011
   
   for metadynamics refer to:
   * S. Grimme, J. Chem. Theory Comput., 2019, 155, 2847-2862
     DOI: 10.1021/acs.jctc.9b00143
   
   for SPH calculations refer to:
   * S. Spicher and S. Grimme, J. Chem. Theory Comput., 2021, 17, 1701-1714
     DOI: 10.1021/acs.jctc.0c01306
   
   for ONIOM refer to:
   * C. Plett, A. Katbashev, S. Ehlert, S. Grimme, M. Bursch,
     Phys. Chem. Chem. Phys., 2023, 25, 17860-17868. DOI: 10.1039/D3CP02178E
   
   for DIPRO refer to:
   * J. Kohn, N. Gildemeister, S. Grimme, D. Fazzi, A. Hansen,
     J. Chem. Phys., 2023, just accepted.
   
   for PTB refer to:
   * S. Grimme, M. Mueller, A. Hansen, J. Chem. Phys., 2023, 158, 124111.
     DOI: 10.1063/5.0137838
   
   with help from (in alphabetical order)
   P. Atkinson, C. Bannwarth, F. Bohle, G. Brandenburg, E. Caldeweyher
   M. Checinski, S. Dohm, S. Ehlert, S. Ehrlich, I. Gerasimov, C. Hölzer
   A. Katbashev, J. Kohn, J. Koopman, C. Lavigne, S. Lehtola, F. März, M. Müller,
   F. Musil, H. Neugebauer, J. Pisarek, C. Plett, P. Pracht, F. Pultar,
   J. Seibert, P. Shushkov, S. Spicher, M. Stahn, M. Steiner, T. Strunk,
   J. Stückrath, T. Rose, and J. Unsleber
   
 * started run on 2026/08/31 at 21:15:52.470     
   ID    Z sym.   atoms
    1    6 C      1, 2, 4, 5, 8-14, 16-18
    2    7 N      3, 15
    3    8 O      6, 7
    4    1 H      19-40, 94-100
    5    5 B      41-93

           -------------------------------------------------
          |                Calculation Setup                |
           -------------------------------------------------

          program call               : "c:\Users\Andre\Proyectos doctorado\kras-pancreatic-gC3N4-ai\tools\xtb\xtb-6.7.1\bin\xtb.exe" "c:\Users\Andre\Proyectos doctorado\borophene-alzheimer-tau-ai\calculations\tau\Rivastigmine\Rivastigmine_B48H12_phys_complex.xyz" --gfn 2 --sp --chrg 0 --uhf 0 --etemp 300 --iterations 500 --norestart
          coordinate file            : c:\Users\Andre\Proyectos doctorado\borophene-alzheimer-tau-ai\calculations\tau\Rivastigmine\Rivastigmine_B48H12_phys_complex.xyz
          omp threads                :                    16


molecular fragmentation (1/2 indicates fragments):
111111111111111111111111111111111111111122222222222222222222222222222222
2222222222222222222222222222
# atoms in fragment 1/2:    40    60
 fragment masses (1/2) :      250.34      580.04
CMA distance (Bohr)    :   9.778
constraining FC (au)   :  0.0500

           -------------------------------------------------
          |                 G F N 2 - x T B                 |
           -------------------------------------------------

        Reference                      10.1021/acs.jctc.8b01176
      * Hamiltonian:
        H0-scaling (s, p, d)           1.850000    2.230000    2.230000
        zeta-weighting                 0.500000
      * Dispersion:
        s8                             2.700000
        a1                             0.520000
        a2                             5.000000
        s9                             5.000000
      * Repulsion:
        kExp                           1.500000    1.000000
        rExp                           1.000000
      * Coulomb:
        alpha                          2.000000
        third order                    shell-resolved
        anisotropic                    true
        a3                             3.000000
        a5                             4.000000
        cn-shift                       1.200000
        cn-exp                         4.000000
        max-rad                        5.000000


          ...................................................
          :                      SETUP                      :
          :.................................................:
          :  # basis functions                 313          :
          :  # atomic orbitals                 313          :
          :  # shells                          171          :
          :  # electrons                       266          :
          :  max. iterations                   500          :
          :  Hamiltonian                  GFN2-xTB          :
          :  restarted?                      false          :
          :  GBSA solvation                  false          :
          :  PC potential                    false          :
          :  electronic temp.          300.0000000     K    :
          :  accuracy                    1.0000000          :
          :  -> integral cutoff          0.2500000E+02      :
          :  -> integral neglect         0.1000000E-07      :
          :  -> SCF convergence          0.1000000E-05 Eh   :
          :  -> wf. convergence          0.1000000E-03 e    :
          :  Broyden damping             0.4000000          :
          :  net charge                          0          :
          :  unpaired electrons                  0          :
          ...................................................

 iter      E             dE          RMSdq      gap      omega  full diag
   1   -123.7538512 -0.123754E+03  0.150E+01    0.32       0.0  T
   2   -114.4551244  0.929873E+01  0.104E+01    0.22       1.0  T
   3     95.2499351  0.209705E+03  0.189E+01    0.15       1.0  T
   4     38.9010296 -0.563489E+02  0.163E+01    0.30       1.0  T
   5    -97.2652416 -0.136166E+03  0.859E+00    0.06       1.0  T
   6    -63.2695858  0.339957E+02  0.108E+01    0.18       1.0  T
   7   -115.8053520 -0.525358E+02  0.532E+00    0.09       1.0  T
   8   -115.7736853  0.316666E-01  0.510E+00    0.06       1.0  T
   9   -123.5120285 -0.773834E+01  0.333E+00    0.38       1.0  T
  10   -123.9906760 -0.478648E+00  0.274E+00    0.19       1.0  T
  11   -124.4226447 -0.431969E+00  0.246E+00    0.42       1.0  T
  12   -124.4508744 -0.282298E-01  0.230E+00    0.41       1.0  T
  13   -124.4373903  0.134842E-01  0.207E+00    0.38       1.0  T
  14   -124.4841481 -0.467578E-01  0.161E+00    0.36       1.0  T
  15   -124.4547034  0.294447E-01  0.105E+00    0.22       1.0  T
  16   -124.5642083 -0.109505E+00  0.918E-01    0.33       1.0  T
  17   -124.5920013 -0.277930E-01  0.770E-01    0.30       1.0  T
  18   -124.6352712 -0.432699E-01  0.709E-01    0.35       1.0  T
  19   -124.6445541 -0.928282E-02  0.637E-01    0.36       1.0  T
  20   -124.6641466 -0.195926E-01  0.543E-01    0.40       1.0  T
  21   -124.6757815 -0.116348E-01  0.352E-01    0.42       1.0  T
  22   -124.6829096 -0.712816E-02  0.239E-01    0.44       1.0  T
  23   -124.6842890 -0.137940E-02  0.170E-01    0.45       1.0  T
  24   -124.6848089 -0.519914E-03  0.142E-01    0.45       1.0  T
  25   -124.6866046 -0.179572E-02  0.973E-02    0.45       1.0  T
  26   -124.6875353 -0.930691E-03  0.729E-02    0.45       1.0  T
  27   -124.6876198 -0.844519E-04  0.696E-02    0.45       1.0  T
  28   -124.6876847 -0.648751E-04  0.651E-02    0.45       1.0  T
  29   -124.6879164 -0.231724E-03  0.449E-02    0.45       1.0  T
  30   -124.6880597 -0.143337E-03  0.258E-02    0.45       1.0  T
  31   -124.6880818 -0.220317E-04  0.204E-02    0.45       1.0  T
  32   -124.6880818 -0.320776E-07  0.173E-02    0.45       1.0  T
  33   -124.6880903 -0.849473E-05  0.124E-02    0.45       1.0  T
  34   -124.6880951 -0.482132E-05  0.948E-03    0.45       1.1  T
  35   -124.6880968 -0.172825E-05  0.662E-03    0.45       1.5  T
  36   -124.6880990 -0.216645E-05  0.424E-03    0.45       2.4  T
  37   -124.6880999 -0.925309E-06  0.305E-03    0.45       3.3  T
  38   -124.6881010 -0.104422E-05  0.203E-03    0.45       4.9  T
  39   -124.6881015 -0.555872E-06  0.911E-04    0.45      11.0  T
  40   -124.6881016 -0.741961E-07  0.632E-04    0.45      15.8  T

   *** convergence criteria satisfied after 40 iterations ***

         #    Occupation            Energy/Eh            Energy/eV
      -------------------------------------------------------------
         1        2.0000           -0.7144163             -19.4403
       ...           ...                  ...                  ...
       127        2.0000           -0.2597966              -7.0694
       128        2.0000           -0.2550846              -6.9412
       129        2.0000           -0.2547171              -6.9312
       130        2.0000           -0.2503960              -6.8136
       131        2.0000           -0.2458289              -6.6893
       132        2.0000           -0.2445976              -6.6558
       133        1.9997           -0.2376862              -6.4678 (HOMO)
       134        0.0003           -0.2211135              -6.0168 (LUMO)
       135        0.0000           -0.2181304              -5.9356
       136        0.0000           -0.2149516              -5.8491
       137        0.0000           -0.2134738              -5.8089
       138                         -0.2102457              -5.7211
       ...                                ...                  ...
       313                          1.2015163              32.6949
      -------------------------------------------------------------
                  HL-Gap            0.0165727 Eh            0.4510 eV
             Fermi-level           -0.2294204 Eh           -6.2428 eV

 SCC (total)                   0 d,  0 h,  0 min,  0.746 sec
 SCC setup                      ...        0 min,  0.002 sec (  0.268%)
 Dispersion                     ...        0 min,  0.003 sec (  0.402%)
 classical contributions        ...        0 min,  0.000 sec (  0.000%)
 integral evaluation            ...        0 min,  0.008 sec (  1.072%)
 iterations                     ...        0 min,  0.711 sec ( 95.308%)
 molecular gradient             ...        0 min,  0.020 sec (  2.681%)
 printout                       ...        0 min,  0.002 sec (  0.268%)

         :::::::::::::::::::::::::::::::::::::::::::::::::::::
         ::                     SUMMARY                     ::
         :::::::::::::::::::::::::::::::::::::::::::::::::::::
         :: total energy            -122.881131654675 Eh    ::
         :: gradient norm              0.068565083194 Eh/a0 ::
         :: HOMO-LUMO gap              0.450967133663 eV    ::
         ::.................................................::
         :: SCC energy              -124.682174458036 Eh    ::
         :: -> isotropic ES            0.308439590368 Eh    ::
         :: -> anisotropic ES          0.006997017612 Eh    ::
         :: -> anisotropic XC         -0.025415837593 Eh    ::
         :: -> dispersion             -0.132224974420 Eh    ::
         :: repulsion energy           1.801042803361 Eh    ::
         :: add. restraining           0.000000000000 Eh    ::
         :: total charge              -0.000000000000 e     ::
         :::::::::::::::::::::::::::::::::::::::::::::::::::::

           -------------------------------------------------
          |                Property Printout                |
           -------------------------------------------------

    * Orbital Energies and Occupations

         #    Occupation            Energy/Eh            Energy/eV
      -------------------------------------------------------------
         1        2.0000           -0.7144163             -19.4403
       ...           ...                  ...                  ...
       121        2.0000           -0.2752716              -7.4905
       122        2.0000           -0.2736609              -7.4467
       123        2.0000           -0.2689777              -7.3193
       124        2.0000           -0.2663885              -7.2488
       125        2.0000           -0.2654876              -7.2243
       126        2.0000           -0.2616766              -7.1206
       127        2.0000           -0.2597966              -7.0694
       128        2.0000           -0.2550846              -6.9412
       129        2.0000           -0.2547171              -6.9312
       130        2.0000           -0.2503960              -6.8136
       131        2.0000           -0.2458289              -6.6893
       132        2.0000           -0.2445976              -6.6558
       133        1.9997           -0.2376862              -6.4678 (HOMO)
       134        0.0003           -0.2211135              -6.0168 (LUMO)
       135        0.0000           -0.2181304              -5.9356
       136        0.0000           -0.2149516              -5.8491
       137        0.0000           -0.2134738              -5.8089
       138                         -0.2102457              -5.7211
       139                         -0.2031300              -5.5274
       140                         -0.2016485              -5.4871
       141                         -0.1999680              -5.4414
       142                         -0.1939754              -5.2783
       143                         -0.1926279              -5.2417
       144                         -0.1887952              -5.1374
       ...                                ...                  ...
       313                          1.2015163              32.6949
      -------------------------------------------------------------
                  HL-Gap            0.0165727 Eh            0.4510 eV
             Fermi-level           -0.2294204 Eh           -6.2428 eV

     #   Z          covCN         q      C6AA      α(0)
     1   6 C        3.749    -0.125    22.962     6.834
     2   6 C        3.738    -0.020    21.016     6.541
     3   7 N        2.727    -0.116    23.529     7.204
     4   6 C        3.693    -0.059    21.823     6.684
     5   6 C        2.647     0.375    20.656     7.435
     6   8 O        0.856    -0.462    22.962     6.425
     7   8 O        1.704    -0.305    19.080     5.898
     8   6 C        2.858     0.128    25.197     8.228
     9   6 C        2.911    -0.063    29.574     8.917
    10   6 C        2.911    -0.051    29.254     8.869
    11   6 C        2.915    -0.053    29.315     8.878
    12   6 C        2.958     0.005    27.919     8.667
    13   6 C        3.795     0.021    20.221     6.403
    14   6 C        3.747    -0.167    23.817     6.961
    15   7 N        2.721    -0.173    24.738     7.387
    16   6 C        3.701    -0.042    21.486     6.629
    17   6 C        3.703    -0.042    21.475     6.626
    18   6 C        2.912    -0.068    29.704     8.937
    19   1 H        0.924     0.053     2.278     2.360
    20   1 H        0.924     0.049     2.333     2.389
    21   1 H        0.924     0.044     2.395     2.420
    22   1 H        0.924     0.057     2.235     2.338
    23   1 H        0.924     0.081     1.972     2.196
    24   1 H        0.924     0.084     1.935     2.176
    25   1 H        0.924     0.059     2.209     2.324
    26   1 H        0.924     0.051     2.307     2.375
    27   1 H        0.925     0.038     2.474     2.460
    28   1 H        0.925     0.033     2.538     2.491
    29   1 H        0.925     0.044     2.401     2.423
    30   1 H        0.923     0.052     2.300     2.372
    31   1 H        0.924     0.043     2.410     2.428
    32   1 H        0.924     0.033     2.539     2.492
    33   1 H        0.924     0.085     1.926     2.171
    34   1 H        0.924     0.021     2.720     2.579
    35   1 H        0.924     0.031     2.578     2.511
    36   1 H        0.924     0.047     2.356     2.400
    37   1 H        0.924     0.020     2.740     2.589
    38   1 H        0.924     0.034     2.525     2.485
    39   1 H        0.924     0.036     2.509     2.477
    40   1 H        0.925     0.083     1.951     2.184
    41   5 B        2.872     0.037    20.777     7.609
    42   5 B        3.645     0.022    21.922     7.623
    43   5 B        3.704     0.005    22.474     7.670
    44   5 B        3.599    -0.003    22.087     7.709
    45   5 B        3.804     0.007    22.594     7.664
    46   5 B        3.812     0.032    22.131     7.584
    47   5 B        4.425     0.058    21.701     7.506
    48   5 B        3.843     0.021    22.352     7.620
    49   5 B        5.059     0.044    21.941     7.547
    50   5 B        5.523     0.102    20.936     7.372
    51   5 B        3.792    -0.002    22.750     7.692
    52   5 B        4.799     0.085    21.228     7.424
    53   5 B        4.746     0.060    21.658     7.498
    54   5 B        3.691     0.006    22.415     7.668
    55   5 B        3.741     0.015    22.376     7.638
    56   5 B        4.170    -0.019    23.106     7.745
    57   5 B        3.938     0.004    22.660     7.670
    58   5 B        3.779     0.069    21.458     7.472
    59   5 B        3.808     0.062    21.601     7.493
    60   5 B        3.812    -0.013    22.964     7.726
    61   5 B        3.702    -0.001    22.583     7.690
    62   5 B        3.825     0.013    22.485     7.644
    63   5 B        4.691     0.049    21.844     7.531
    64   5 B        4.735     0.040    22.006     7.558
    65   5 B        3.813     0.072    21.432     7.463
    66   5 B        2.071    -0.003    43.147    13.739
    67   5 B        3.706     0.004    22.501     7.674
    68   5 B        4.547     0.016    22.442     7.633
    69   5 B        4.200     0.029    22.216     7.594
    70   5 B        3.748     0.070    21.412     7.470
    71   5 B        3.840    -0.009    22.892     7.712
    72   5 B        3.769     0.015    22.415     7.638
    73   5 B        4.530     0.062    21.615     7.491
    74   5 B        5.624     0.099    20.990     7.382
    75   5 B        3.805     0.017    22.401     7.631
    76   5 B        3.825     0.007    22.595     7.662
    77   5 B        2.886     0.065    20.311     7.522
    78   5 B        2.918     0.035    20.795     7.609
    79   5 B        2.913     0.013    21.186     7.681
    80   5 B        3.630     0.005    22.140     7.679
    81   5 B        3.792     0.000    22.707     7.684
    82   5 B        2.860    -0.012    21.643     7.767
    83   5 B        2.920    -0.042    22.166     7.856
    84   5 B        3.825     0.010    22.532     7.652
    85   5 B        2.901    -0.037    22.078     7.842
    86   5 B        4.532     0.038    22.052     7.566
    87   5 B        3.896     0.028    22.219     7.596
    88   5 B        3.818     0.011    22.514     7.649
    89   5 B        3.778    -0.042    23.503     7.820
    90   5 B        3.628    -0.027    22.712     7.779
    91   5 B        4.556     0.021    22.352     7.618
    92   5 B        3.280     0.013    21.156     7.671
    93   5 B        4.869     0.085    21.220     7.422
    94   1 H        0.937    -0.184     9.643     4.855
    95   1 H        0.935    -0.151     7.757     4.355
    96   1 H        0.936    -0.147     7.538     4.293
    97   1 H        0.939    -0.162     8.320     4.510
    98   1 H        0.936    -0.150     7.669     4.330
    99   1 H        0.937    -0.153     7.831     4.375
   100   1 H        0.934    -0.151     7.718     4.344

 Mol. C6AA /au·bohr⁶  :     153506.318097
 Mol. C8AA /au·bohr⁸  :    4949681.909524
 Mol. α(0) /au        :        627.081619


Wiberg/Mayer (AO) data.
largest (>0.10) Wiberg bond orders for each atom

 ---------------------------------------------------------------------------
     #   Z sym  total        # sym  WBO       # sym  WBO       # sym  WBO
 ---------------------------------------------------------------------------
     1   6 C    3.994 --     2 C    1.011    21 H    0.985    19 H    0.985
                            20 H    0.984
     2   6 C    3.968 --     1 C    1.011     3 N    0.986    22 H    0.970
                            23 H    0.966
     3   7 N    3.441 --     5 C    1.191     4 C    1.000     2 C    0.986
                             6 O    0.168
     4   6 C    3.964 --     3 N    1.000    25 H    0.978    24 H    0.976
                            26 H    0.976
     5   6 C    3.941 --     6 O    1.642     3 N    1.191     7 O    1.028
     6   8 O    1.985 --     5 C    1.642     3 N    0.168     7 O    0.129
     7   8 O    2.255 --     5 C    1.028     8 C    0.956     6 O    0.129
     8   6 C    3.897 --     9 C    1.408    18 C    1.363     7 O    0.956
     9   6 C    3.985 --    10 C    1.423     8 C    1.408    27 H    0.969
                            12 C    0.103
    10   6 C    3.954 --     9 C    1.423    11 C    1.423    28 H    0.971
    11   6 C    3.980 --    10 C    1.423    12 C    1.423    29 H    0.970
    12   6 C    3.972 --    11 C    1.423    18 C    1.381    13 C    0.988
                             9 C    0.103
    13   6 C    3.981 --    14 C    0.998    12 C    0.988    15 N    0.976
                            30 H    0.954
    14   6 C    3.984 --    13 C    0.998    32 H    0.983    31 H    0.982
                            33 H    0.945
    15   7 N    3.116 --    17 C    1.017    16 C    1.015    13 C    0.976
    16   6 C    3.986 --    15 N    1.015    35 H    0.982    36 H    0.982
                            34 H    0.974
    17   6 C    3.987 --    15 N    1.017    39 H    0.983    38 H    0.982
                            37 H    0.973
    18   6 C    3.966 --    12 C    1.381     8 C    1.363    40 H    0.950
    19   1 H    0.997 --     1 C    0.985
    20   1 H    0.997 --     1 C    0.984
    21   1 H    0.998 --     1 C    0.985
    22   1 H    0.997 --     2 C    0.970
    23   1 H    0.993 --     2 C    0.966
    24   1 H    0.993 --     4 C    0.976
    25   1 H    0.996 --     4 C    0.978
    26   1 H    0.997 --     4 C    0.976
    27   1 H    0.998 --     9 C    0.969
    28   1 H    0.998 --    10 C    0.971
    29   1 H    0.998 --    11 C    0.970
    30   1 H    0.997 --    13 C    0.954
    31   1 H    0.998 --    14 C    0.982
    32   1 H    0.998 --    14 C    0.983
    33   1 H    0.993 --    14 C    0.945
    34   1 H    1.000 --    16 C    0.974
    35   1 H    0.999 --    16 C    0.982
    36   1 H    0.998 --    16 C    0.982
    37   1 H    1.000 --    17 C    0.973
    38   1 H    0.998 --    17 C    0.982
    39   1 H    0.999 --    17 C    0.983
    40   1 H    0.993 --    18 C    0.950
    41   5 B    3.502 --    83 B    1.440    94 H    0.956    47 B    0.842
    42   5 B    3.507 --    83 B    1.122    84 B    0.993    48 B    0.559
                            47 B    0.508
    43   5 B    3.506 --    85 B    1.276    84 B    1.015    50 B    0.484
                            49 B    0.450
    44   5 B    3.477 --    85 B    1.293    45 B    1.017    50 B    0.564
                            86 B    0.358
    45   5 B    3.535 --    87 B    1.098    44 B    1.017    51 B    0.683
                            86 B    0.483
    46   5 B    3.601 --    98 H    0.939    87 B    0.860    58 B    0.814
                            52 B    0.799
    47   5 B    3.624 --    41 B    0.842    53 B    0.835    83 B    0.794
                            42 B    0.508    54 B    0.387
    48   5 B    3.581 --    54 B    1.114    84 B    0.774    49 B    0.684
                            42 B    0.559
    49   5 B    3.596 --    55 B    0.974    48 B    0.684    50 B    0.519
                            84 B    0.503    43 B    0.450    56 B    0.230
    50   5 B    3.598 --    56 B    0.626    86 B    0.617    85 B    0.592
                            44 B    0.564    49 B    0.519    43 B    0.484
    51   5 B    3.598 --    57 B    1.108    86 B    0.918    45 B    0.683
                            87 B    0.508
    52   5 B    3.595 --    58 B    0.845    46 B    0.799    64 B    0.687
                            87 B    0.591    57 B    0.517
    53   5 B    3.620 --    47 B    0.835    59 B    0.753    54 B    0.691
                            60 B    0.558    93 B    0.495
    54   5 B    3.564 --    48 B    1.114    60 B    0.934    53 B    0.691
                            47 B    0.387
    55   5 B    3.464 --    61 B    1.057    49 B    0.974    62 B    0.589
                            56 B    0.422
    56   5 B    3.608 --    62 B    1.111    86 B    0.914    50 B    0.626
                            55 B    0.422    49 B    0.230
    57   5 B    3.555 --    51 B    1.108    63 B    0.833    64 B    0.607
                            52 B    0.517    87 B    0.180
    58   5 B    3.519 --    99 H    0.951    52 B    0.845    46 B    0.814
                            64 B    0.682
    59   5 B    3.538 --    95 H    0.938    65 B    0.837    53 B    0.753
                            93 B    0.733
    60   5 B    3.628 --    66 B    1.268    54 B    0.934    53 B    0.558
                            93 B    0.542
    61   5 B    3.501 --    67 B    1.148    55 B    1.057    62 B    0.557
                            68 B    0.394
    62   5 B    3.564 --    56 B    1.111    68 B    0.966    55 B    0.589
                            61 B    0.557
    63   5 B    3.583 --    69 B    0.869    57 B    0.833    76 B    0.558
                            64 B    0.539    70 B    0.497
    64   5 B    3.608 --    70 B    0.870    52 B    0.687    58 B    0.682
                            57 B    0.607    63 B    0.539
    65   5 B    3.576 --    96 H    0.941    59 B    0.837    93 B    0.777
                            71 B    0.721
    66   5 B    3.416 --    72 B    1.331    60 B    1.268    93 B    0.204
                            88 B    0.158
    67   5 B    3.431 --    61 B    1.148    73 B    1.015    74 B    0.513
                            68 B    0.457
    68   5 B    3.600 --    62 B    0.966    91 B    0.791    74 B    0.656
                            67 B    0.457    61 B    0.394
    69   5 B    3.562 --    75 B    1.009    63 B    0.869    76 B    0.630
                            82 B    0.535    92 B    0.316
    70   5 B    3.415 --   100 H    0.923    76 B    0.895    64 B    0.870
                            63 B    0.497
    71   5 B    3.612 --    77 B    1.238    65 B    0.721    88 B    0.717
                            93 B    0.688
    72   5 B    3.577 --    66 B    1.331    78 B    0.687    88 B    0.604
                            89 B    0.577
    73   5 B    3.520 --    67 B    1.015    79 B    0.649    89 B    0.580
                            74 B    0.536    90 B    0.452
    74   5 B    3.613 --    68 B    0.656    91 B    0.630    73 B    0.536
                            80 B    0.524    67 B    0.513    90 B    0.504
    75   5 B    3.544 --    91 B    1.034    69 B    1.009    81 B    0.623
                            92 B    0.517
    76   5 B    3.509 --    82 B    1.234    70 B    0.895    69 B    0.630
                            63 B    0.558
    77   5 B    3.476 --    71 B    1.238    97 H    0.955    88 B    0.859
                            78 B    0.145
    78   5 B    3.407 --    89 B    1.168    88 B    1.105    72 B    0.687
                            77 B    0.145
    79   5 B    3.350 --    90 B    1.210    89 B    1.131    73 B    0.649
    80   5 B    3.397 --    90 B    1.138    81 B    1.084    74 B    0.524
                            91 B    0.382
    81   5 B    3.492 --    80 B    1.084    92 B    1.069    75 B    0.623
                            91 B    0.488
    82   5 B    3.344 --    92 B    1.272    76 B    1.234    69 B    0.535
    83   5 B    3.542 --    41 B    1.440    42 B    1.122    47 B    0.794
    84   5 B    3.534 --    43 B    1.015    42 B    0.993    48 B    0.774
                            49 B    0.503
    85   5 B    3.451 --    44 B    1.293    43 B    1.276    50 B    0.592
    86   5 B    3.559 --    51 B    0.918    56 B    0.914    50 B    0.617
                            45 B    0.483    44 B    0.358
    87   5 B    3.486 --    45 B    1.098    46 B    0.860    52 B    0.591
                            51 B    0.508    57 B    0.180
    88   5 B    3.642 --    78 B    1.105    77 B    0.859    71 B    0.717
                            72 B    0.604    66 B    0.158
    89   5 B    3.632 --    78 B    1.168    79 B    1.131    73 B    0.580
                            72 B    0.577
    90   5 B    3.522 --    79 B    1.210    80 B    1.138    74 B    0.504
                            73 B    0.452
    91   5 B    3.616 --    75 B    1.034    68 B    0.791    74 B    0.630
                            81 B    0.488    80 B    0.382
    92   5 B    3.399 --    82 B    1.272    81 B    1.069    75 B    0.517
                            69 B    0.316
    93   5 B    3.631 --    65 B    0.777    59 B    0.733    71 B    0.688
                            60 B    0.542    53 B    0.495    66 B    0.204
    94   1 H    0.965 --    41 B    0.956
    95   1 H    0.971 --    59 B    0.938
    96   1 H    0.973 --    65 B    0.941
    97   1 H    0.970 --    77 B    0.955
    98   1 H    0.967 --    46 B    0.939
    99   1 H    0.973 --    58 B    0.951
   100   1 H    0.971 --    70 B    0.923
 ---------------------------------------------------------------------------

Topologies differ in total number of bonds
Writing topology from bond orders to xtbtopo.mol

molecular dipole:
                 x           y           z       tot (Debye)
 q only:        2.640       0.838       0.373
   full:        2.841       0.394      -0.818       7.580
molecular quadrupole (traceless):
                xx          xy          yy          xz          yz          zz
 q only:      -54.910      15.133      55.393      -6.964      -1.873      -0.483
  q+dip:      -16.132      -4.144      22.514      -1.516       8.362      -6.382
   full:      -29.126       0.636      11.878       2.745       7.906      17.248


           -------------------------------------------------
          | TOTAL ENERGY             -122.881131654675 Eh   |
          | GRADIENT NORM               0.068565083194 Eh/α |
          | HOMO-LUMO GAP               0.450967133663 eV   |
           -------------------------------------------------

------------------------------------------------------------------------
 * finished run on 2026/08/31 at 21:15:53.266     
------------------------------------------------------------------------
 total:
 * wall-time:     0 d,  0 h,  0 min,  0.795 sec
 *  cpu-time:     0 d,  0 h,  0 min,  7.375 sec
 * ratio c/w:     9.277 speedup
 SCF:
 * wall-time:     0 d,  0 h,  0 min,  0.747 sec
 *  cpu-time:     0 d,  0 h,  0 min,  6.953 sec
 * ratio c/w:     9.308 speedup

normal termination of xtb
