100
Drug@B48H12 complex
C      5.231783      0.172384      2.841309
C      4.299385     -0.841380      2.196537
N      3.403525     -1.465604      3.165961
C      3.906465     -2.606422      3.908753
C      2.224933     -0.857214      3.590334
O      1.527953     -1.297323      4.499429
O      1.941240      0.302297      2.869145
C      0.768224      0.998432      3.199270
C      0.902038      2.338439      3.550986
C     -0.238531      3.079789      3.842617
C     -1.498717      2.480238      3.763590
C     -1.646464      1.131536      3.381230
C     -3.055484      0.534166      3.325245
C     -3.165504     -0.755851      2.491995
N     -3.645081      0.447173      4.681321
C     -3.025563     -0.568375      5.532645
C     -5.095666      0.279613      4.656566
C     -0.487277      0.395361      3.093340
H      4.669375      0.971740      3.334484
H      5.879390      0.626539      2.085062
H      5.868994     -0.300935      3.595087
H      4.877634     -1.628231      1.699480
H      3.706198     -0.345554      1.420673
H      3.119890     -3.082484      4.500368
H      4.309712     -3.342496      3.207352
H      4.698367     -2.268708      4.583276
H      1.883625      2.797722      3.607227
H     -0.152180      4.121759      4.138011
H     -2.381321      3.066549      4.014813
H     -3.638062      1.282443      2.766577
H     -2.631679     -1.596798      2.946098
H     -4.209444     -1.056752      2.357939
H     -2.748581     -0.603297      1.489491
H     -3.211794     -1.587012      5.176195
H     -3.421125     -0.495675      6.552504
H     -1.944203     -0.422179      5.618305
H     -5.402534     -0.697657      4.269376
H     -5.507064      0.384548      5.667017
H     -5.568994      1.058609      4.048772
H     -0.543467     -0.649390      2.805982
B     -7.500000     -4.500000      0.000000
B     -4.500000     -4.500000      0.000000
B     -1.500000     -4.500000      0.000000
B      1.500000     -4.500000      0.000000
B      4.500000     -4.500000      0.000000
B      7.500000     -4.500000      0.000000
B     -7.500000     -3.000000      0.000000
B     -4.500000     -3.000000      0.000000
B     -1.500000     -3.000000      0.000000
B      1.500000     -3.000000      0.000000
B      4.500000     -3.000000      0.000000
B      7.500000     -3.000000      0.000000
B     -7.500000     -1.500000      0.000000
B     -4.500000     -1.500000      0.000000
B     -1.500000     -1.500000      0.000000
B      1.500000     -1.500000      0.000000
B      4.500000     -1.500000      0.000000
B      7.500000     -1.500000      0.000000
B     -7.500000      0.000000      0.000000
B     -4.500000      0.000000      0.000000
B     -1.500000      0.000000      0.000000
B      1.500000      0.000000      0.000000
B      4.500000      0.000000      0.000000
B      7.500000      0.000000      0.000000
B     -7.500000      1.500000      0.000000
B     -4.500000      1.500000      0.000000
B     -1.500000      1.500000      0.000000
B      1.500000      1.500000      0.000000
B      4.500000      1.500000      0.000000
B      7.500000      1.500000      0.000000
B     -7.500000      3.000000      0.000000
B     -4.500000      3.000000      0.000000
B     -1.500000      3.000000      0.000000
B      1.500000      3.000000      0.000000
B      4.500000      3.000000      0.000000
B      7.500000      3.000000      0.000000
B     -7.500000      4.500000      0.000000
B     -4.500000      4.500000      0.000000
B     -1.500000      4.500000      0.000000
B      1.500000      4.500000      0.000000
B      4.500000      4.500000      0.000000
B      7.500000      4.500000      0.000000
B     -6.000000     -3.750000      0.000000
B     -3.000000     -3.750000      0.000000
B      0.000000     -3.750000      0.000000
B      3.000000     -3.750000      0.000000
B      6.000000     -3.750000      0.000000
B     -6.000000      3.750000      0.000000
B     -3.000000      3.750000      0.000000
B      0.000000      3.750000      0.000000
B      3.000000      3.750000      0.000000
B      6.000000      3.750000      0.000000
B     -6.000000      0.000000      0.000000
H     -8.600000     -4.500000      0.000000
H     -8.600000     -1.500000      0.000000
H     -8.600000      1.500000      0.000000
H     -8.600000      4.500000      0.000000
H      8.600000     -4.500000      0.000000
H      8.600000     -1.500000      0.000000
H      8.600000      1.500000      0.000000
