      -----------------------------------------------------------      
     |                   =====================                   |     
     |                           x T B                           |     
     |                   =====================                   |     
     |                         S. Grimme                         |     
     |          Mulliken Center for Theoretical Chemistry        |     
     |                    University of Bonn                     |     
      -----------------------------------------------------------      

   * xtb version 6.7.1pre (5071a88) compiled by 'Marcel@Raven' on 2024-07-23

   xtb is free software: you can redistribute it and/or modify it under
   the terms of the GNU Lesser General Public License as published by
   the Free Software Foundation, either version 3 of the License, or
   (at your option) any later version.
   
   xtb is distributed in the hope that it will be useful,
   but WITHOUT ANY WARRANTY; without even the implied warranty of
   MERCHANTABILITY or FITNESS FOR A PARTICULAR PURPOSE.  See the
   GNU Lesser General Public License for more details.
   
   Cite this work as:
   * C. Bannwarth, E. Caldeweyher, S. Ehlert, A. Hansen, P. Pracht,
     J. Seibert, S. Spicher, S. Grimme, WIREs Comput. Mol. Sci., 2020, 11,
     e01493. DOI: 10.1002/wcms.1493
   
   for GFN2-xTB:
   * C. Bannwarth, S. Ehlert and S. Grimme., J. Chem. Theory Comput., 2019,
     15, 1652-1671. DOI: 10.1021/acs.jctc.8b01176
   for GFN1-xTB:
   * S. Grimme, C. Bannwarth, P. Shushkov, J. Chem. Theory Comput., 2017,
     13, 1989-2009. DOI: 10.1021/acs.jctc.7b00118
   for GFN0-xTB:
   * P. Pracht, E. Caldeweyher, S. Ehlert, S. Grimme, ChemRxiv, 2019, preprint.
     DOI: 10.26434/chemrxiv.8326202.v1
   for GFN-FF:
   * S. Spicher and S. Grimme, Angew. Chem. Int. Ed., 2020, 59, 15665-15673.
     DOI: 10.1002/anie.202004239
   
   for ALPB and GBSA implicit solvation:
   * S. Ehlert, M. Stahn, S. Spicher, S. Grimme, J. Chem. Theory Comput.,
     2021, 17, 4250-4261. DOI: 10.1021/acs.jctc.1c00471
   
   for ddCOSMO and CPCM-X implicit solvation:
   * M. Stahn, S. Ehlert, S. Grimme, J. Phys. Chem. A,
     2023, XX, XXXX-XXXX. DOI: 10.1021/acs.jpca.3c04382
   
   for DFT-D4:
   * E. Caldeweyher, C. Bannwarth and S. Grimme, J. Chem. Phys., 2017,
     147, 034112. DOI: 10.1063/1.4993215
   * E. Caldeweyher, S. Ehlert, A. Hansen, H. Neugebauer, S. Spicher,
     C. Bannwarth and S. Grimme, J. Chem. Phys., 2019, 150, 154122.
     DOI: 10.1063/1.5090222
   * E. Caldeweyher, J.-M. Mewes, S. Ehlert and S. Grimme, Phys. Chem. Chem. Phys.
     2020, 22, 8499-8512. DOI: 10.1039/D0CP00502A
   
   for sTDA-xTB:
   * S. Grimme and C. Bannwarth, J. Chem. Phys., 2016, 145, 054103.
     DOI: 10.1063/1.4959605
   
   in the mass-spec context:
   * V. Asgeirsson, C. Bauer and S. Grimme, Chem. Sci., 2017, 8, 4879.
     DOI: 10.1039/c7sc00601b
   * J. Koopman and S. Grimme, ACS Omega 2019, 4, 12, 15120-15133.
     DOI: 10.1021/acsomega.9b02011
   
   for metadynamics refer to:
   * S. Grimme, J. Chem. Theory Comput., 2019, 155, 2847-2862
     DOI: 10.1021/acs.jctc.9b00143
   
   for SPH calculations refer to:
   * S. Spicher and S. Grimme, J. Chem. Theory Comput., 2021, 17, 1701-1714
     DOI: 10.1021/acs.jctc.0c01306
   
   for ONIOM refer to:
   * C. Plett, A. Katbashev, S. Ehlert, S. Grimme, M. Bursch,
     Phys. Chem. Chem. Phys., 2023, 25, 17860-17868. DOI: 10.1039/D3CP02178E
   
   for DIPRO refer to:
   * J. Kohn, N. Gildemeister, S. Grimme, D. Fazzi, A. Hansen,
     J. Chem. Phys., 2023, just accepted.
   
   for PTB refer to:
   * S. Grimme, M. Mueller, A. Hansen, J. Chem. Phys., 2023, 158, 124111.
     DOI: 10.1063/5.0137838
   
   with help from (in alphabetical order)
   P. Atkinson, C. Bannwarth, F. Bohle, G. Brandenburg, E. Caldeweyher
   M. Checinski, S. Dohm, S. Ehlert, S. Ehrlich, I. Gerasimov, C. Hölzer
   A. Katbashev, J. Kohn, J. Koopman, C. Lavigne, S. Lehtola, F. März, M. Müller,
   F. Musil, H. Neugebauer, J. Pisarek, C. Plett, P. Pracht, F. Pultar,
   J. Seibert, P. Shushkov, S. Spicher, M. Stahn, M. Steiner, T. Strunk,
   J. Stückrath, T. Rose, and J. Unsleber
   
 * started run on 2026/08/31 at 20:24:48.407     
   ID    Z sym.   atoms
    1    6 C      1, 2, 4, 5, 8-14, 16-18
    2    7 N      3, 15
    3    8 O      6, 7
    4    1 H      19-40, 94-100
    5    5 B      41-93

           -------------------------------------------------
          |                Calculation Setup                |
           -------------------------------------------------

          program call               : "c:\Users\Andre\Proyectos doctorado\kras-pancreatic-gC3N4-ai\tools\xtb\xtb-6.7.1\bin\xtb.exe" "c:\Users\Andre\Proyectos doctorado\borophene-alzheimer-tau-ai\calculations\tau\Rivastigmine\Rivastigmine_B48H12_complex.xyz" --gfn 2 --sp --chrg 0 --uhf 0 --iterations 500 --norestart
          coordinate file            : c:\Users\Andre\Proyectos doctorado\borophene-alzheimer-tau-ai\calculations\tau\Rivastigmine\Rivastigmine_B48H12_complex.xyz
          omp threads                :                    16


molecular fragmentation (1/2 indicates fragments):
111111111111111111111111111111111111111122222222222222222222222222222222
2222222222222222222222222222
# atoms in fragment 1/2:    40    60
 fragment masses (1/2) :      250.34      580.04
CMA distance (Bohr)    :   6.831
constraining FC (au)   :  0.0500

           -------------------------------------------------
          |                 G F N 2 - x T B                 |
           -------------------------------------------------

        Reference                      10.1021/acs.jctc.8b01176
      * Hamiltonian:
        H0-scaling (s, p, d)           1.850000    2.230000    2.230000
        zeta-weighting                 0.500000
      * Dispersion:
        s8                             2.700000
        a1                             0.520000
        a2                             5.000000
        s9                             5.000000
      * Repulsion:
        kExp                           1.500000    1.000000
        rExp                           1.000000
      * Coulomb:
        alpha                          2.000000
        third order                    shell-resolved
        anisotropic                    true
        a3                             3.000000
        a5                             4.000000
        cn-shift                       1.200000
        cn-exp                         4.000000
        max-rad                        5.000000


          ...................................................
          :                      SETUP                      :
          :.................................................:
          :  # basis functions                 313          :
          :  # atomic orbitals                 313          :
          :  # shells                          171          :
          :  # electrons                       266          :
          :  max. iterations                   500          :
          :  Hamiltonian                  GFN2-xTB          :
          :  restarted?                      false          :
          :  GBSA solvation                  false          :
          :  PC potential                    false          :
          :  electronic temp.          300.0000000     K    :
          :  accuracy                    1.0000000          :
          :  -> integral cutoff          0.2500000E+02      :
          :  -> integral neglect         0.1000000E-07      :
          :  -> SCF convergence          0.1000000E-05 Eh   :
          :  -> wf. convergence          0.1000000E-03 e    :
          :  Broyden damping             0.4000000          :
          :  net charge                          0          :
          :  unpaired electrons                  0          :
          ...................................................

 iter      E             dE          RMSdq      gap      omega  full diag
   1   -121.4407151 -0.121441E+03  0.171E+01    0.18       0.0  T
   2    -15.3850018  0.106056E+03  0.160E+01    0.08       1.0  T
   3    299.1612989  0.314546E+03  0.248E+01    0.06       1.0  T
   4     25.8882756 -0.273273E+03  0.159E+01    0.10       1.0  T
   5    108.9107142  0.830224E+02  0.190E+01    0.04       1.0  T
   6   -104.1714491 -0.213082E+03  0.105E+01    0.06       1.0  T
   7    -47.8569072  0.563145E+02  0.124E+01    0.02       1.0  T
   8   -107.3337481 -0.594768E+02  0.801E+00    0.10       1.0  T
   9   -115.4950674 -0.816132E+01  0.696E+00    0.07       1.0  T
  10   -119.7969666 -0.430190E+01  0.651E+00    0.02       1.0  T
  11   -122.0024329 -0.220547E+01  0.585E+00    0.10       1.0  T
  12   -121.0856605  0.916772E+00  0.615E+00    0.16       1.0  T
  13   -121.1875637 -0.101903E+00  0.585E+00    0.09       1.0  T
  14   -121.6473834 -0.459820E+00  0.571E+00    0.12       1.0  T
  15   -121.0744032  0.572980E+00  0.561E+00    0.11       1.0  T
  16   -121.0411503  0.332529E-01  0.562E+00    0.12       1.0  T
  17   -120.9849431  0.562073E-01  0.547E+00    0.20       1.0  T
  18   -121.2834079 -0.298465E+00  0.489E+00    0.11       1.0  T
  19   -121.8531836 -0.569776E+00  0.438E+00    0.07       1.0  T
  20   -122.6864914 -0.833308E+00  0.338E+00    0.03       1.0  T
  21   -122.9336610 -0.247170E+00  0.315E+00    0.02       1.0  T
  22   -122.9215225  0.121385E-01  0.306E+00    0.02       1.0  T
  23   -122.9950802 -0.735577E-01  0.299E+00    0.03       1.0  T
  24   -122.5145244  0.480556E+00  0.280E+00    0.03       1.0  T
  25   -123.3615495 -0.847025E+00  0.231E+00    0.06       1.0  T
  26   -123.0760525  0.285497E+00  0.233E+00    0.01       1.0  T
  27   -123.2079335 -0.131881E+00  0.217E+00    0.01       1.0  T
  28   -123.5654546 -0.357521E+00  0.180E+00    0.11       1.0  T
  29   -123.6859650 -0.120510E+00  0.163E+00    0.20       1.0  T
  30   -123.7091112 -0.231462E-01  0.149E+00    0.20       1.0  T
  31   -123.7147438 -0.563269E-02  0.143E+00    0.19       1.0  T
  32   -123.7370362 -0.222924E-01  0.136E+00    0.21       1.0  T
  33   -123.7951765 -0.581402E-01  0.106E+00    0.20       1.0  T
  34   -123.8402963 -0.451198E-01  0.100E+00    0.16       1.0  T
  35   -123.8706091 -0.303128E-01  0.915E-01    0.12       1.0  T
  36   -123.8830217 -0.124126E-01  0.882E-01    0.10       1.0  T
  37   -123.8871042 -0.408245E-02  0.819E-01    0.10       1.0  T
  38   -123.8908535 -0.374935E-02  0.819E-01    0.08       1.0  T
  39   -123.8909951 -0.141631E-03  0.818E-01    0.08       1.0  T
  40   -123.8584573  0.325378E-01  0.974E-01    0.02       1.0  T
  41   -123.8569934  0.146389E-02  0.916E-01    0.02       1.0  T
  42   -123.9028203 -0.458269E-01  0.688E-01    0.06       1.0  T
  43   -123.8717541  0.310663E-01  0.817E-01    0.01       1.0  T
  44   -123.8889144 -0.171603E-01  0.728E-01    0.02       1.0  T
  45   -123.8971098 -0.819542E-02  0.690E-01    0.03       1.0  T
  46   -123.9243394 -0.272296E-01  0.525E-01    0.05       1.0  T
  47   -123.9376552 -0.133158E-01  0.443E-01    0.06       1.0  T
  48   -123.9371550  0.500195E-03  0.452E-01    0.06       1.0  T
  49   -123.9379223 -0.767304E-03  0.440E-01    0.06       1.0  T
  50   -123.9452603 -0.733798E-02  0.366E-01    0.07       1.0  T
  51   -123.9566437 -0.113834E-01  0.218E-01    0.08       1.0  T
  52   -123.9573489 -0.705191E-03  0.205E-01    0.09       1.0  T
  53   -123.9573567 -0.776849E-05  0.199E-01    0.08       1.0  T
  54   -123.9593660 -0.200934E-02  0.154E-01    0.09       1.0  T
  55   -123.9623946 -0.302861E-02  0.627E-02    0.10       1.0  T
  56   -123.9624466 -0.519914E-04  0.609E-02    0.10       1.0  T
  57   -123.9623987  0.479194E-04  0.623E-02    0.10       1.0  T
  58   -123.9626321 -0.233436E-03  0.504E-02    0.10       1.0  T
  59   -123.9615912  0.104094E-02  0.996E-02    0.09       1.0  T
  60   -123.9615719  0.192874E-04  0.100E-01    0.09       1.0  T
  61   -123.9621927 -0.620794E-03  0.689E-02    0.10       1.0  T
  62   -123.9624312 -0.238496E-03  0.557E-02    0.10       1.0  T
  63   -123.9626218 -0.190580E-03  0.407E-02    0.10       1.0  T
  64   -123.9626617 -0.399437E-04  0.357E-02    0.10       1.0  T
  65   -123.9627126 -0.508958E-04  0.293E-02    0.10       1.0  T
  66   -123.9626956  0.169858E-04  0.310E-02    0.10       1.0  T
  67   -123.9627457 -0.501031E-04  0.256E-02    0.10       1.0  T
  68   -123.9627719 -0.261418E-04  0.220E-02    0.10       1.0  T
  69   -123.9627725 -0.665451E-06  0.219E-02    0.10       1.0  T
  70   -123.9627744 -0.186023E-05  0.208E-02    0.10       1.0  T
  71   -123.9627759 -0.147387E-05  0.205E-02    0.10       1.0  T
  72   -123.9627900 -0.141679E-04  0.179E-02    0.10       1.0  T
  73   -123.9627931 -0.307091E-05  0.172E-02    0.10       1.0  T
  74   -123.9628045 -0.114215E-04  0.146E-02    0.10       1.0  T
  75   -123.9628164 -0.118286E-04  0.110E-02    0.10       1.0  T
  76   -123.9628262 -0.985494E-05  0.667E-03    0.10       1.5  T
  77   -123.9628287 -0.252580E-05  0.463E-03    0.10       2.2  T
  78   -123.9628304 -0.170452E-05  0.330E-03    0.10       3.0  T
  79   -123.9628306 -0.189197E-06  0.309E-03    0.10       3.2  T
  80   -123.9628313 -0.628436E-06  0.170E-03    0.10       5.9  T
  81   -123.9628311  0.153837E-06  0.211E-03    0.10       4.7  T
  82   -123.9628313 -0.238169E-06  0.135E-03    0.10       7.4  T
  83   -123.9628314 -0.739236E-07  0.915E-04    0.10      10.9  T
  84   -123.9628315 -0.415247E-07  0.564E-04    0.10      17.7  T

   *** convergence criteria satisfied after 84 iterations ***

         #    Occupation            Energy/Eh            Energy/eV
      -------------------------------------------------------------
         1        2.0000           -0.6770542             -18.4236
       ...           ...                  ...                  ...
       127        2.0000           -0.2243645              -6.1053
       128        2.0000           -0.2187196              -5.9517
       129        2.0000           -0.2180887              -5.9345
       130        1.9999           -0.2129351              -5.7943
       131        1.9998           -0.2120913              -5.7713
       132        1.9982           -0.2099972              -5.7143
       133        1.6608           -0.2048519              -5.5743 (HOMO)
       134        0.1870           -0.2011849              -5.4745 (LUMO)
       135        0.1541           -0.2009840              -5.4691
       136        0.0001           -0.1938828              -5.2758
       137        0.0001           -0.1934506              -5.2641
       138        0.0000           -0.1917539              -5.2179
       ...           ...                  ...                  ...
       313                          1.6482185              44.8503
      -------------------------------------------------------------
                  HL-Gap            0.0036670 Eh            0.0998 eV
             Fermi-level           -0.2033429 Eh           -5.5332 eV

 SCC (total)                   0 d,  0 h,  0 min,  1.122 sec
 SCC setup                      ...        0 min,  0.000 sec (  0.000%)
 Dispersion                     ...        0 min,  0.002 sec (  0.178%)
 classical contributions        ...        0 min,  0.000 sec (  0.000%)
 integral evaluation            ...        0 min,  0.007 sec (  0.624%)
 iterations                     ...        0 min,  1.093 sec ( 97.415%)
 molecular gradient             ...        0 min,  0.019 sec (  1.693%)
 printout                       ...        0 min,  0.001 sec (  0.089%)

         :::::::::::::::::::::::::::::::::::::::::::::::::::::
         ::                     SUMMARY                     ::
         :::::::::::::::::::::::::::::::::::::::::::::::::::::
         :: total energy            -121.836104524040 Eh    ::
         :: gradient norm              0.439926051641 Eh/a0 ::
         :: HOMO-LUMO gap              0.099783108748 eV    ::
         ::.................................................::
         :: SCC energy              -123.956685944992 Eh    ::
         :: -> isotropic ES            0.423511918541 Eh    ::
         :: -> anisotropic ES          0.002068365858 Eh    ::
         :: -> anisotropic XC         -0.051839892993 Eh    ::
         :: -> dispersion             -0.149040741418 Eh    ::
         :: repulsion energy           2.120581420952 Eh    ::
         :: add. restraining           0.000000000000 Eh    ::
         :: total charge               0.000000000001 e     ::
         :::::::::::::::::::::::::::::::::::::::::::::::::::::

           -------------------------------------------------
          |                Property Printout                |
           -------------------------------------------------

    * Orbital Energies and Occupations

         #    Occupation            Energy/Eh            Energy/eV
      -------------------------------------------------------------
         1        2.0000           -0.6770542             -18.4236
       ...           ...                  ...                  ...
       121        2.0000           -0.2417279              -6.5778
       122        2.0000           -0.2413041              -6.5662
       123        2.0000           -0.2399068              -6.5282
       124        2.0000           -0.2385179              -6.4904
       125        2.0000           -0.2316153              -6.3026
       126        2.0000           -0.2282781              -6.2118
       127        2.0000           -0.2243645              -6.1053
       128        2.0000           -0.2187196              -5.9517
       129        2.0000           -0.2180887              -5.9345
       130        1.9999           -0.2129351              -5.7943
       131        1.9998           -0.2120913              -5.7713
       132        1.9982           -0.2099972              -5.7143
       133        1.6608           -0.2048519              -5.5743 (HOMO)
       134        0.1870           -0.2011849              -5.4745 (LUMO)
       135        0.1541           -0.2009840              -5.4691
       136        0.0001           -0.1938828              -5.2758
       137        0.0001           -0.1934506              -5.2641
       138        0.0000           -0.1917539              -5.2179
       139        0.0000           -0.1888639              -5.1392
       140                         -0.1872838              -5.0963
       141                         -0.1859889              -5.0610
       142                         -0.1856568              -5.0520
       143                         -0.1845328              -5.0214
       144                         -0.1770177              -4.8169
       ...                                ...                  ...
       313                          1.6482185              44.8503
      -------------------------------------------------------------
                  HL-Gap            0.0036670 Eh            0.0998 eV
             Fermi-level           -0.2033429 Eh           -5.5332 eV

     #   Z          covCN         q      C6AA      α(0)
     1   6 C        3.749    -0.149    23.449     6.906
     2   6 C        3.843    -0.100    22.368     6.728
     3   7 N        2.727    -0.113    23.458     7.193
     4   6 C        3.693    -0.063    21.895     6.695
     5   6 C        2.647     0.366    20.791     7.459
     6   8 O        0.856    -0.488    23.517     6.502
     7   8 O        1.704    -0.282    18.685     5.836
     8   6 C        2.858     0.139    24.970     8.190
     9   6 C        2.911    -0.063    29.564     8.916
    10   6 C        2.911    -0.047    29.160     8.855
    11   6 C        2.915    -0.056    29.383     8.889
    12   6 C        2.958     0.008    27.843     8.655
    13   6 C        3.795     0.016    20.311     6.418
    14   6 C        3.747    -0.203    24.573     7.071
    15   7 N        2.721    -0.178    24.844     7.403
    16   6 C        3.701    -0.042    21.480     6.628
    17   6 C        3.703    -0.046    21.550     6.637
    18   6 C        2.911    -0.060    29.491     8.905
    19   1 H        0.924     0.034     2.526     2.485
    20   1 H        0.924     0.092     1.861     2.134
    21   1 H        0.924     0.019     2.746     2.591
    22   1 H        0.940     0.127     1.558     1.952
    23   1 H        0.984     0.175     1.230     1.733
    24   1 H        0.924     0.069     2.095     2.264
    25   1 H        0.924     0.058     2.225     2.333
    26   1 H        0.924     0.044     2.394     2.420
    27   1 H        0.925     0.045     2.382     2.413
    28   1 H        0.925     0.029     2.605     2.524
    29   1 H        0.925     0.037     2.484     2.465
    30   1 H        0.923     0.058     2.218     2.329
    31   1 H        0.924     0.024     2.679     2.560
    32   1 H        0.924     0.045     2.382     2.413
    33   1 H        0.924     0.133     1.515     1.925
    34   1 H        0.924     0.019     2.746     2.591
    35   1 H        0.924     0.024     2.666     2.554
    36   1 H        0.924     0.047     2.357     2.401
    37   1 H        0.924     0.020     2.733     2.585
    38   1 H        0.924     0.028     2.609     2.526
    39   1 H        0.924     0.037     2.492     2.469
    40   1 H        0.925     0.087     1.910     2.161
    41   5 B        2.887    -0.011    21.614     7.760
    42   5 B        2.890     0.018    21.099     7.666
    43   5 B        2.890     0.022    21.029     7.654
    44   5 B        2.890     0.018    21.106     7.668
    45   5 B        2.890     0.018    21.105     7.668
    46   5 B        2.887     0.003    21.354     7.713
    47   5 B        2.916     0.005    21.318     7.705
    48   5 B        3.868    -0.017    23.052     7.738
    49   5 B        3.868     0.002    22.694     7.677
    50   5 B        3.868     0.002    22.695     7.677
    51   5 B        3.868    -0.009    22.904     7.713
    52   5 B        2.916     0.046    20.609     7.575
    53   5 B        3.266    -0.015    21.646     7.759
    54   5 B        2.314     0.066    30.886    10.828
    55   5 B        1.958     0.012    43.668    13.897
    56   5 B        1.958     0.019    43.442    13.861
    57   5 B        2.042     0.034    42.223    13.619
    58   5 B        2.911    -0.072    22.723     7.955
    59   5 B        2.939    -0.006    21.500     7.736
    60   5 B        2.936    -0.102    23.300     8.054
    61   5 B        1.958    -0.075    46.950    14.410
    62   5 B        1.958    -0.062    46.447    14.332
    63   5 B        2.054    -0.053    45.241    14.087
    64   5 B        1.960     0.006    43.898    13.933
    65   5 B        3.266    -0.014    21.629     7.756
    66   5 B        2.314     0.057    31.093    10.864
    67   5 B        1.958     0.016    43.549    13.878
    68   5 B        1.958     0.028    43.099    13.806
    69   5 B        1.958     0.014    43.627    13.890
    70   5 B        2.911    -0.053    22.366     7.892
    71   5 B        2.916     0.005    21.315     7.704
    72   5 B        3.868    -0.015    23.019     7.732
    73   5 B        3.868     0.003    22.681     7.675
    74   5 B        3.868     0.004    22.664     7.672
    75   5 B        3.868    -0.004    22.803     7.696
    76   5 B        2.914    -0.012    21.624     7.760
    77   5 B        2.887    -0.011    21.602     7.757
    78   5 B        2.890     0.017    21.110     7.669
    79   5 B        2.890     0.023    21.019     7.652
    80   5 B        2.890     0.018    21.101     7.667
    81   5 B        2.890     0.016    21.128     7.672
    82   5 B        1.934    -0.015    44.772    14.079
    83   5 B        3.822     0.039    22.005     7.562
    84   5 B        3.822     0.034    22.104     7.579
    85   5 B        3.822     0.038    22.024     7.565
    86   5 B        3.822     0.034    22.107     7.579
    87   5 B        3.822     0.037    22.044     7.569
    88   5 B        3.822     0.040    22.001     7.561
    89   5 B        3.822     0.034    22.104     7.579
    90   5 B        3.822     0.039    22.011     7.563
    91   5 B        3.822     0.034    22.100     7.578
    92   5 B        3.822     0.029    22.197     7.595
    93   5 B        3.381     0.112    19.534     7.368
    94   1 H        0.954    -0.089     5.169     3.554
    95   1 H        0.956     0.004     2.983     2.699
    96   1 H        0.956     0.004     2.983     2.700
    97   1 H        0.954    -0.088     5.159     3.550
    98   1 H        0.954    -0.086     5.094     3.528
    99   1 H        0.956    -0.012     3.273     2.828
   100   1 H        0.956    -0.024     3.512     2.929

 Mol. C6AA /au·bohr⁶  :     164089.028533
 Mol. C8AA /au·bohr⁸  :    5415607.366623
 Mol. α(0) /au        :        690.101118


Wiberg/Mayer (AO) data.
largest (>0.10) Wiberg bond orders for each atom

 ---------------------------------------------------------------------------
     #   Z sym  total        # sym  WBO       # sym  WBO       # sym  WBO
 ---------------------------------------------------------------------------
     1   6 C    3.984 --     2 C    1.006    21 H    0.985    19 H    0.984
                            20 H    0.953
     2   6 C    3.888 --     1 C    1.006     3 N    0.962    22 H    0.872
                            23 H    0.827
     3   7 N    3.448 --     5 C    1.206     4 C    1.002     2 C    0.962
                             6 O    0.168
     4   6 C    3.970 --     3 N    1.002    24 H    0.978    25 H    0.977
                            26 H    0.976
     5   6 C    3.933 --     6 O    1.617     3 N    1.206     7 O    1.023
     6   8 O    1.954 --     5 C    1.617     3 N    0.168     7 O    0.123
     7   8 O    2.272 --     5 C    1.023     8 C    0.973     6 O    0.123
     8   6 C    3.917 --     9 C    1.393    18 C    1.388     7 O    0.973
     9   6 C    3.984 --    10 C    1.436     8 C    1.393    27 H    0.969
                            12 C    0.105
    10   6 C    3.984 --    11 C    1.439     9 C    1.436    28 H    0.971
                            18 C    0.103
    11   6 C    3.979 --    10 C    1.439    12 C    1.403    29 H    0.970
    12   6 C    3.981 --    18 C    1.416    11 C    1.403    13 C    0.988
                             9 C    0.105
    13   6 C    3.974 --    14 C    1.000    12 C    0.988    15 N    0.969
                            30 H    0.947
    14   6 C    3.950 --    13 C    1.000    31 H    0.982    32 H    0.968
                            33 H    0.884
    15   7 N    3.113 --    17 C    1.018    16 C    1.016    13 C    0.969
    16   6 C    3.987 --    15 N    1.016    35 H    0.983    36 H    0.982
                            34 H    0.974
    17   6 C    3.988 --    15 N    1.018    39 H    0.983    38 H    0.982
                            37 H    0.973
    18   6 C    3.981 --    12 C    1.416     8 C    1.388    40 H    0.957
                            10 C    0.103
    19   1 H    0.998 --     1 C    0.984
    20   1 H    0.991 --     1 C    0.953
    21   1 H    0.998 --     1 C    0.985
    22   1 H    0.984 --     2 C    0.872
    23   1 H    0.970 --     2 C    0.827
    24   1 H    0.995 --     4 C    0.978
    25   1 H    0.996 --     4 C    0.977
    26   1 H    0.998 --     4 C    0.976
    27   1 H    0.997 --     9 C    0.969
    28   1 H    0.998 --    10 C    0.971
    29   1 H    0.999 --    11 C    0.970
    30   1 H    0.996 --    13 C    0.947
    31   1 H    0.999 --    14 C    0.982
    32   1 H    0.997 --    14 C    0.968
    33   1 H    0.982 --    14 C    0.884
    34   1 H    1.000 --    16 C    0.974
    35   1 H    0.999 --    16 C    0.983
    36   1 H    0.998 --    16 C    0.982
    37   1 H    1.000 --    17 C    0.973
    38   1 H    0.999 --    17 C    0.982
    39   1 H    0.999 --    17 C    0.983
    40   1 H    0.992 --    18 C    0.957
    41   5 B    3.268 --    47 B    1.092    83 B    0.948    94 H    0.866
                            42 B    0.107    53 B    0.104
    42   5 B    3.414 --    84 B    0.991    83 B    0.975    48 B    0.941
                            43 B    0.140    41 B    0.107
    43   5 B    3.503 --    85 B    1.027    84 B    0.984    49 B    0.933
                            44 B    0.159    42 B    0.140
    44   5 B    3.442 --    86 B    0.995    85 B    0.981    50 B    0.928
                            43 B    0.159    45 B    0.121
    45   5 B    3.479 --    86 B    0.990    51 B    0.966    87 B    0.947
                            46 B    0.163    44 B    0.121
    46   5 B    3.389 --    87 B    1.089    52 B    1.014    98 H    0.861
                            45 B    0.163
    47   5 B    3.421 --    53 B    1.180    41 B    1.092    83 B    0.732
                            95 H    0.107
    48   5 B    3.667 --    54 B    1.166    42 B    0.941    84 B    0.683
                            83 B    0.676
    49   5 B    3.631 --    55 B    1.147    43 B    0.933    85 B    0.664
                            84 B    0.661
    50   5 B    3.639 --    56 B    1.148    44 B    0.928    85 B    0.667
                            86 B    0.664
    51   5 B    3.666 --    57 B    1.112    45 B    0.966    86 B    0.688
                            87 B    0.655
    52   5 B    3.473 --    58 B    1.234    46 B    1.014    87 B    0.702
                            99 H    0.156
    53   5 B    3.585 --    47 B    1.180    59 B    0.972    95 H    0.695
                            93 B    0.376    41 B    0.104
    54   5 B    3.363 --    60 B    1.263    48 B    1.166    93 B    0.365
                            66 B    0.172
    55   5 B    3.301 --    61 B    1.456    49 B    1.147    67 B    0.250
    56   5 B    3.328 --    62 B    1.457    50 B    1.148    68 B    0.235
    57   5 B    3.242 --    63 B    1.386    51 B    1.112    69 B    0.157
    58   5 B    3.567 --    64 B    1.279    52 B    1.234    99 H    0.663
                            70 B    0.122
    59   5 B    3.593 --    93 B    1.004    53 B    0.972    65 B    0.971
                            95 H    0.144    96 H    0.143
    60   5 B    3.669 --    66 B    1.285    54 B    1.263    93 B    0.910
    61   5 B    3.407 --    67 B    1.460    55 B    1.456    62 B    0.127
    62   5 B    3.467 --    56 B    1.457    68 B    1.445    61 B    0.127
    63   5 B    3.272 --    69 B    1.393    57 B    1.386
    64   5 B    3.375 --    70 B    1.350    58 B    1.279   100 H    0.159
                            99 H    0.135
    65   5 B    3.585 --    71 B    1.181    59 B    0.971    96 H    0.695
                            93 B    0.376    77 B    0.105
    66   5 B    3.377 --    60 B    1.285    72 B    1.163    93 B    0.368
                            54 B    0.172
    67   5 B    3.290 --    61 B    1.460    73 B    1.147    55 B    0.250
    68   5 B    3.310 --    62 B    1.445    74 B    1.152    56 B    0.235
    69   5 B    3.331 --    63 B    1.393    75 B    1.216    57 B    0.157
    70   5 B    3.486 --    64 B    1.350    76 B    1.039   100 H    0.690
                            58 B    0.122
    71   5 B    3.418 --    65 B    1.181    77 B    1.090    88 B    0.731
                            96 H    0.107
    72   5 B    3.661 --    66 B    1.163    78 B    0.934    89 B    0.682
                            88 B    0.678
    73   5 B    3.629 --    67 B    1.147    79 B    0.931    90 B    0.665
                            89 B    0.658
    74   5 B    3.638 --    68 B    1.152    80 B    0.922    90 B    0.668
                            91 B    0.664
    75   5 B    3.658 --    69 B    1.216    81 B    0.902    91 B    0.671
                            92 B    0.622
    76   5 B    3.635 --    82 B    1.590    70 B    1.039    92 B    0.694
    77   5 B    3.271 --    71 B    1.090    88 B    0.949    97 H    0.866
                            78 B    0.109    65 B    0.105
    78   5 B    3.414 --    89 B    0.999    88 B    0.973    72 B    0.934
                            79 B    0.140    77 B    0.109
    79   5 B    3.516 --    90 B    1.031    89 B    0.982    73 B    0.931
                            80 B    0.166    78 B    0.140
    80   5 B    3.490 --    91 B    1.034    90 B    0.968    74 B    0.922
                            79 B    0.166    81 B    0.125
    81   5 B    3.474 --    92 B    0.998    91 B    0.950    75 B    0.902
                            82 B    0.201    80 B    0.125
    82   5 B    3.195 --    76 B    1.590    92 B    1.141    81 B    0.201
    83   5 B    3.595 --    42 B    0.975    41 B    0.948    47 B    0.732
                            48 B    0.676
    84   5 B    3.601 --    42 B    0.991    43 B    0.984    48 B    0.683
                            49 B    0.661
    85   5 B    3.603 --    43 B    1.027    44 B    0.981    50 B    0.667
                            49 B    0.664
    86   5 B    3.614 --    44 B    0.995    45 B    0.990    51 B    0.688
                            50 B    0.664
    87   5 B    3.609 --    46 B    1.089    45 B    0.947    52 B    0.702
                            51 B    0.655
    88   5 B    3.594 --    78 B    0.973    77 B    0.949    71 B    0.731
                            72 B    0.678
    89   5 B    3.602 --    78 B    0.999    79 B    0.982    72 B    0.682
                            73 B    0.658
    90   5 B    3.599 --    79 B    1.031    80 B    0.968    74 B    0.668
                            73 B    0.665
    91   5 B    3.600 --    80 B    1.034    81 B    0.950    75 B    0.671
                            74 B    0.664
    92   5 B    3.631 --    82 B    1.141    81 B    0.998    76 B    0.694
                            75 B    0.622
    93   5 B    3.605 --    59 B    1.004    60 B    0.910    53 B    0.376
                            65 B    0.376    66 B    0.368    54 B    0.365
    94   1 H    0.978 --    41 B    0.866
    95   1 H    0.992 --    53 B    0.695    59 B    0.144    47 B    0.107
    96   1 H    0.992 --    65 B    0.695    59 B    0.143    71 B    0.107
    97   1 H    0.978 --    77 B    0.866
    98   1 H    0.986 --    46 B    0.861
    99   1 H    0.988 --    58 B    0.663    52 B    0.156    64 B    0.135
   100   1 H    0.971 --    70 B    0.690    64 B    0.159
 ---------------------------------------------------------------------------

Topologies differ in total number of bonds
Writing topology from bond orders to xtbtopo.mol

molecular dipole:
                 x           y           z       tot (Debye)
 q only:       -0.242       0.051      -2.493
   full:       -1.101       0.004      -1.636       5.013
molecular quadrupole (traceless):
                xx          xy          yy          xz          yz          zz
 q only:      -42.683       0.920      48.212       3.701       1.731      -5.529
  q+dip:       15.273      -0.458      71.153       9.083       0.305     -86.426
   full:        8.566      -0.702      34.513       9.144      -0.893     -43.079


           -------------------------------------------------
          | TOTAL ENERGY             -121.836104524040 Eh   |
          | GRADIENT NORM               0.439926051641 Eh/α |
          | HOMO-LUMO GAP               0.099783108748 eV   |
           -------------------------------------------------

------------------------------------------------------------------------
 * finished run on 2026/08/31 at 20:24:49.576     
------------------------------------------------------------------------
 total:
 * wall-time:     0 d,  0 h,  0 min,  1.168 sec
 *  cpu-time:     0 d,  0 h,  0 min, 16.375 sec
 * ratio c/w:    14.020 speedup
 SCF:
 * wall-time:     0 d,  0 h,  0 min,  1.124 sec
 *  cpu-time:     0 d,  0 h,  0 min, 15.953 sec
 * ratio c/w:    14.193 speedup

normal termination of xtb
