70
Congo Red GFN2 opt
O      13.93492604      0.53885366      0.34347595
S      13.57879626     -0.87791345      1.05141006
O      13.99572913     -1.92892385      0.18381783
O      14.12352084     -0.80852834      2.37664399
C      11.81139749     -0.77094452      1.09019791
C      11.09637395     -1.19018133      0.00718012
C       9.69436722     -1.07245667      0.03063982
C       8.90706368     -1.48908675     -1.06934493
C       7.55207043     -1.37695178     -1.05516457
C       6.90302253     -0.82133631      0.07575226
N       5.54507726     -0.61820950      0.15460696
N       4.81480182     -1.27233256     -0.65236313
C       3.47776054     -0.97548285     -0.68941385
C       2.95900013      0.29116481     -0.38080841
C       1.61422839      0.54056651     -0.51690509
C       0.73817408     -0.45617617     -0.95924861
C      -0.69469104     -0.18785240     -1.08511851
C      -1.44209141     -0.74464231     -2.12884504
C      -2.79194491     -0.50607920     -2.23880439
C      -3.43941974      0.32059488     -1.31180297
N      -4.80080871      0.45697367     -1.42338099
N      -5.33460108      1.48822129     -0.92981989
C      -6.69417927      1.56143229     -0.81054433
C      -7.28336918      2.85059254     -0.89549909
C      -8.61124947      3.01204917     -0.65161075
C      -9.42136306      1.91508247     -0.27423529
C     -10.79143190      2.05107373      0.00255021
C     -11.53597526      0.96781846      0.36701038
S     -13.26727874      1.21355594      0.65023715
O     -13.74607217      0.32618045      1.68082405
O     -13.56261315      2.60088721      0.75063163
O     -13.89751269      0.68309665     -0.73916715
C     -10.98388724     -0.32587799      0.48929853
N     -11.79443956     -1.39016210      0.79292371
C      -9.63403902     -0.47201407      0.22451960
C      -8.83590989      0.61988302     -0.16135946
C      -7.46848964      0.47070869     -0.45023862
C      -2.69645293      0.87891674     -0.26106688
C      -1.35009112      0.62424443     -0.15358755
C       1.26308943     -1.71351375     -1.27769266
C       2.60836483     -1.97010820     -1.15662828
C       7.65372963     -0.39368477      1.15841401
C       9.04942549     -0.51976795      1.17726877
C       9.84380828     -0.11267346      2.29993318
N       9.26995948      0.44651072      3.40630749
C      11.22119584     -0.23959856      2.22657946
H      14.43945221      1.07723048      0.95479507
H      11.61032217     -1.61036169     -0.84084159
H       9.41564248     -1.90217013     -1.92785746
H       6.94209384     -1.68990034     -1.88878884
H       3.64235129      1.06182911     -0.05617136
H       1.23052548      1.52708914     -0.30103453
H      -0.94631524     -1.35469774     -2.86920720
H      -3.36780030     -0.92584277     -3.04923521
H      -6.65369530      3.68058075     -1.17554217
H      -9.07153816      3.98572416     -0.72915933
H     -11.28134861      3.00954622     -0.06437206
H     -14.13048427     -0.24513896     -0.67907584
H     -11.32121899     -2.22170936      1.11019143
H     -12.63300976     -1.14541074      1.30800541
H      -9.17814031     -1.44787731      0.30917240
H      -6.99807541     -0.49793555     -0.36175820
H      -3.21082163      1.49078519      0.46535437
H      -0.79411061      1.03678250      0.67558274
H       0.59744783     -2.49977875     -1.60160331
H       3.01249775     -2.94376926     -1.38772885
H       7.11474404      0.03232751      1.99095733
H       9.85385226      0.54187985      4.21992173
H       8.29383098      0.28460530      3.58085401
H      11.85582676      0.04671998      3.04996885
