109
Chrysamine G/B40H15 GFN2 opt
O      -1.35718671     10.13105950      4.69841919
C      -1.39876387      9.08982952      5.33779209
O      -2.54481752      8.68043296      5.89470218
C      -0.26039677      8.20220704      5.55196380
C      -0.39762002      7.04586675      6.31258017
C       0.67629752      6.16677677      6.49438182
N       0.44514400      5.04359414      7.19927659
N       1.40988671      4.18210567      7.37775646
C       1.17581443      2.91271500      7.52033199
C       2.23551661      2.03892153      7.88836497
C       2.05519857      0.69739924      7.96221744
C       0.76568401      0.10064174      7.76721079
C       0.60981680     -1.34845619      7.74987288
C       1.60002364     -2.15260959      7.17044719
C       1.41824881     -3.50599857      7.02395046
C       0.24557114     -4.12031621      7.48780054
N       0.11002739     -5.45806218      7.24296001
N      -0.83348284     -6.07002936      7.85889590
C      -1.06374866     -7.37238239      7.49406233
C      -0.66531703     -7.92059001      6.27484874
C      -1.01263787     -9.22413765      5.93073945
C      -0.61186536     -9.79008544      4.64429163
O      -0.86320923    -10.92972964      4.28230312
O       0.07214574     -8.95759844      3.85307485
C      -1.76148892    -10.01415002      6.83168421
O      -2.12055520    -11.27364178      6.56362002
C      -2.15497524     -9.45451859      8.05330693
C      -1.82614230     -8.16216492      8.37357781
C      -0.73612516     -3.32178695      8.10152788
C      -0.55818855     -1.96672273      8.21481970
C      -0.29744788      0.91643689      7.50360792
C      -0.14562709      2.32520883      7.15369988
C       1.91375189      6.49352250      5.88543469
C       2.06032617      7.64396868      5.15757868
C       0.98558710      8.51958751      4.96636150
O       1.18240431      9.62319081      4.22676075
H      -3.24536641      9.32020757      5.69609396
H      -1.35092986      6.80739805      6.75335667
H       3.18845739      2.48542617      8.12929943
H       2.87704733      0.05754649      8.24541705
H       2.50204094     -1.69237311      6.79741094
H       2.16959787     -4.12225516      6.55538507
H      -0.09397466     -7.31350454      5.59093520
H       0.30193140     -9.41103855      3.02733742
H      -1.77236361    -11.51694441      5.67648548
H      -2.72874204    -10.07092512      8.72721464
H      -2.13411558     -7.73113330      9.31354888
H      -1.63122905     -3.80425024      8.46312410
H      -1.31986474     -1.36640613      8.69008323
H      -1.28456311      0.49428554      7.39048371
H      -0.93763746      2.97842635      7.52336954
H       2.74432733      5.81853722      6.02610690
H       3.00473508      7.90196049      4.70404280
H       0.33626711     10.11989347      4.18731681
B      -3.77080683      0.65648648      3.28977976
B      -4.09495112      0.11912167      1.58326434
B      -2.38948668     -0.05713205      1.08882246
B      -3.22637640     -0.80990863      2.48706120
B      -1.23506515      0.85329314      1.99841992
B      -2.97402522      1.43300953      1.88519779
B      -3.46353099      2.89788505      1.30101437
B      -2.61502887      4.23641555      1.52544311
B      -2.18165819      1.38165022      3.54514408
B      -2.55357956      4.92863263      2.98994981
B      -2.51324709     -0.36231927      3.99963755
B      -1.54117182     -0.96103033      2.43176589
B      -0.96668008      0.16757315      3.56018798
B      -0.36049729     -1.94797455      2.75337707
B       0.18588025      0.78943355      4.67711960
B      -0.33341830      2.17090267      5.48667339
B      -1.59616374      2.63071788      4.44317134
B      -1.44706943      4.15835561      3.82169557
B      -0.04288059      3.52239124      4.41444336
B       0.02425106      4.79428415      3.33205422
B       0.58713730     -3.28433271      2.76148501
B       1.00491830     -2.02230625      3.63704738
B       0.70726182     -0.54214958      4.09165467
B       2.21159865     -2.97138033      3.15649709
B       2.47378632      0.46108333      2.52889872
B       1.67747177      0.85037572      3.87062015
B       0.97712026      2.25060980      4.25507547
B       0.62774362      3.36455351      2.86414925
B       1.41897654      2.56935147      1.76938845
B      -0.03685100      1.65499936      1.15747173
B       3.62644381     -3.76371955      2.90209569
B       3.58388386     -2.11014076      2.93178375
B       3.42691312     -0.77651104      1.99164535
B       4.92287153     -2.82243874      2.57611372
B       3.80374503     -0.49856602      0.39143748
B       3.87768725      0.82839815      1.42185391
B       2.86336099      2.00273658      1.46771118
B       1.52981103      1.01977239      1.09930777
B       2.84599715      0.84417020     -0.05351446
B       2.08937344     -0.54223092      0.79912529
H      -4.72608512      0.97320041      3.89808944
H      -5.07400690      0.16546856      0.94785643
H      -2.23109777     -0.35133840     -0.03850567
H      -4.52349110      3.00407265      0.79283134
H      -1.97273153      4.71301377      0.66376915
H      -3.18984822      5.84769923      3.34905726
H      -2.70092782     -0.95266126      5.00413374
H       0.31199200      5.91161663      3.13605907
H       0.25291301     -4.27842832      2.24846282
H      -0.41680901      2.26687128      0.21290281
H       3.81431233     -4.87498476      3.21258855
H       6.04753077     -2.80045322      2.28467540
H       4.49188811     -1.11873917     -0.33155856
H       2.84166881      1.31750511     -1.12861942
H       1.35783695     -1.39240397      0.43726909
