32
drug @complex
C       4.23601023     -1.97697946      4.02189522
N       3.96802609     -0.64134199      3.53488933
C       5.04633646      0.30932203      3.69405693
C       2.66190170     -0.16827891      3.59706878
C       2.35908203      1.19629405      3.49124287
C       1.05799571      1.64042908      3.45514375
C      -0.04864352      0.77099839      3.52924653
N      -1.27468562      1.31190515      3.44765634
C      -2.38539585      0.56180764      3.54771692
C      -3.62577753      1.23131245      3.48635788
C      -4.82690526      0.56382330      3.53455745
C      -4.86545106     -0.82771483      3.64786515
N      -6.06586308     -1.51969168      3.57624232
C      -3.65652410     -1.51483565      3.74326756
C      -2.45002988     -0.84340330      3.70093660
S      -0.98795236     -1.82618807      3.84542180
C       0.27289404     -0.59633949      3.67965643
C       1.57790991     -1.04604129      3.70697724
H       3.94168720     -2.11042242      5.06999401
H       3.71019441     -2.71476769      3.41535480
H       5.30119530     -2.17941408      3.93666489
H       5.00817233      1.04468431      2.89131840
H       5.99476148     -0.21605639      3.61449317
H       5.01609640      0.82513751      4.66160039
H       3.14688501      1.92902513      3.45279999
H       0.84489711      2.69554564      3.39259018
H      -3.59791973      2.30705216      3.42083390
H      -5.75518933      1.11408610      3.48886150
H      -6.88734479     -0.98291938      3.80392684
H      -6.06279576     -2.44184163      3.98220874
H      -3.65902184     -2.58947493      3.86490477
H       1.72981856     -2.10501570      3.83659863
