92
 energy: -110.388425640914 gnorm: 0.000574022780 xtb: 6.7.1 (edcfbbe)
C           -4.23281640422186        1.76246048342661        3.89742461886385
N           -3.97431654635540        0.39310036568829        3.51081081901290
C           -5.05310718228093       -0.53086773869839        3.78570974286519
C           -2.66897100657531       -0.08113913381155        3.59382407482504
C           -2.37386274104205       -1.45152076804922        3.55936728716975
C           -1.07598174979904       -1.90605211651666        3.54429439338010
C            0.03603945321297       -1.04036436381042        3.56830684272104
N            1.25888156591380       -1.59174892070205        3.51079899576850
C            2.37428461008163       -0.84481727217423        3.56750525810340
C            3.60981549632466       -1.52552173039076        3.53088178132536
C            4.81558405054253       -0.86504830768051        3.54626210661451
C            4.86406194130184        0.52963565453599        3.59780591183778
N            6.07042750896607        1.20948225710880        3.49621221313462
C            3.66009841753804        1.22927705713690        3.66159788229901
C            2.44878969494731        0.56569790330585        3.65218666566104
S            0.99256742959289        1.56268148850102        3.74201102298399
C           -0.27645424437065        0.33464018827074        3.64667333898028
C           -1.57851342092913        0.79340612617333        3.65253459043098
H           -3.98991732527844        1.95777019356446        4.94938905837743
H           -3.65887646062689        2.44621649656373        3.27424294581667
H           -5.28710131462580        1.97985798030692        3.74143742000203
H           -5.04312472311659       -1.34116204956140        3.05849956330189
H           -6.00026962373865       -0.00790988447813        3.68038707210853
H           -5.00031849489285       -0.95311150256131        4.79667012196449
H           -3.16520784295993       -2.18190337448105        3.56151778724582
H           -0.86992024183438       -2.96445113012045        3.53206855903725
H            3.57336962557004       -2.60297495248348        3.50992588269881
H            5.73950589697118       -1.42398063042592        3.52148606976573
H            6.88624715797316        0.67209886866251        3.74308189444264
H            6.07720138137810        2.14248901114671        3.87702960040164
H            3.67110875382534        2.30818634942761        3.73506567846726
H           -1.72101643252444        1.85827910267863        3.73239682921727
B           -5.88281469854287        3.32518032617111        0.07861466286372
B           -5.87035448404304        1.64060448140133        0.37617248355407
B           -4.43150197801781        4.17559163330083        0.42692128739784
B           -4.41972418142164        2.49198497972116        0.26411325689921
B           -4.40396477187220        0.79735521844296        0.16283903445264
B           -5.84361199805158       -1.74964989519828        0.35202873143539
B           -5.82880562422216       -3.43210440390793        0.04977823231806
B           -4.39044866833748       -0.88152591424796        0.14764306625979
B           -4.37931578329521       -2.57704119389940        0.24412228254727
B           -4.36434572812351       -4.26177621383224        0.39335140781765
B           -2.95513003758988        3.35577573791438        0.29069008812865
B           -2.94331568484791        1.65401939057388        0.18931535949358
B           -1.49998306736351        4.20254051343051        0.10923318624166
B           -1.48776707973549        2.51630079950764        0.22262462666660
B           -1.47431642709195        0.82215008261033        0.28521718896952
B           -2.91640607668994       -1.71502024901720        0.16911171121929
B           -2.90110049232897       -3.41746932339817        0.26729663881699
B           -1.46090483405925       -0.86069759655981        0.27074375964929
B           -1.44730403557271       -2.55420355441076        0.18977651249623
B           -1.43258955063431       -4.23956615450125        0.07555311051378
B           -0.02783963965886        3.37839336129843        0.27340813771334
B           -0.01407559455914        1.67729961092012        0.22967239174625
B            1.42793762333794        4.22212478318602        0.46537512557968
B            1.44286540892540        2.53897208519390        0.29811429756644
B            1.45659095266979        0.84625360076744        0.13537169808997
B            0.01282576006730       -1.69208346758857        0.21747115662387
B            0.02600087430557       -3.39330679738931        0.25658909243721
B            1.46999673412623       -0.83721835295514        0.12928418877508
B            1.48304839280535       -2.53058781498344        0.30142658641666
B            1.49496444505870       -4.21480630931241        0.44596651514039
B            2.89926680149673        3.40271809578326        0.27069670720701
B            2.91460366249427        1.70013530367294        0.27775785397779
B            4.36012408344363        4.24819955458772        0.14552393917072
B            4.37501842962550        2.56201266568823        0.26833660754300
B            4.38619981652053        0.86658658862765        0.30953801711286
B            2.94129219213382       -1.66867395080362        0.27199503378509
B            2.95312286010001       -3.37106996161389        0.25180310351078
B            4.39959271044408       -0.81201378840270        0.30277548574409
B            4.41535113371406       -2.50703033278595        0.24107888215986
B            4.42706878395263       -4.19235196670986        0.11255977249407
B            5.82641149992144        3.41551448230699        0.48058663185422
B            5.84202139023023        1.73559387235932        0.14911556062918
B            5.86881474509958       -1.65653103234673        0.12937058364395
B            5.88033664611524       -3.33878801792357        0.45159140929052
H           -6.81356051519859        3.89168468421817       -0.33948354345300
H           -6.81420775284594        1.12915704117111        0.82845259039004
H           -4.49774014960242        5.27186069852848        0.82701534236851
H           -6.79954259382727       -1.25433916947500        0.79707997531052
H           -6.75243674446144       -4.01162627078367       -0.36590688327066
H           -4.41384188117132       -5.36266124925766        0.78233113891298
H           -1.51438684340677        5.34786187422500       -0.12796191332265
H           -1.42907383348042       -5.37697888735279       -0.19685145355157
H            1.42309775912365        5.36022104895540        0.73362867197490
H            1.50881371947868       -5.35290777959241        0.71200089929632
H            4.40583141478372        5.35198989179939       -0.23596964226225
H            4.49202322688607       -5.28667907812073       -0.29225104129866
H            6.74672628309490        3.98708527396843        0.91341814211080
H            6.79461076397259        1.25118360901864       -0.31275255089388
H            6.81623206903835       -1.15104761620440       -0.32144471468350
H            6.81141338812649       -3.89930059734038        0.87558516759236
