92
 energy: -110.388846407712 gnorm: 0.000672334189 xtb: 6.7.1 (edcfbbe)
C            4.23601022672483       -1.97697945559324        4.02189522448074
N            3.96802608785476       -0.64134199455215        3.53488932965767
C            5.04633645525383        0.30932202979213        3.69405692935650
C            2.66190170096614       -0.16827891249908        3.59706877784179
C            2.35908202836839        1.19629404629259        3.49124286702952
C            1.05799571031329        1.64042908137476        3.45514374892981
C           -0.04864351972157        0.77099838731843        3.52924652692729
N           -1.27468561846991        1.31190515157835        3.44765633603980
C           -2.38539585442350        0.56180763699384        3.54771691664531
C           -3.62577752905732        1.23131245318128        3.48635787959342
C           -4.82690526157195        0.56382329828168        3.53455745285924
C           -4.86545105534951       -0.82771483345442        3.64786514520354
N           -6.06586307506130       -1.51969167880844        3.57624231856488
C           -3.65652410125639       -1.51483564867334        3.74326756055440
C           -2.45002988158355       -0.84340329805133        3.70093659573207
S           -0.98795236180025       -1.82618807111008        3.84542180123407
C            0.27289404441014       -0.59633948687749        3.67965642538868
C            1.57790991273786       -1.04604128719957        3.70697724432134
H            3.94168719538289       -2.11042241998999        5.06999400982212
H            3.71019441046092       -2.71476768985511        3.41535479996658
H            5.30119529569209       -2.17941407731316        3.93666488672263
H            5.00817233175732        1.04468431479701        2.89131839587704
H            5.99476147775638       -0.21605639119086        3.61449317249755
H            5.01609639950154        0.82513751317564        4.66160039259796
H            3.14688501012916        1.92902513019599        3.45279998523180
H            0.84489710724362        2.69554563696225        3.39259017839010
H           -3.59791972713134        2.30705215646961        3.42083389511318
H           -5.75518932941935        1.11408609998875        3.48886150081762
H           -6.88734478935061       -0.98291938416099        3.80392684059850
H           -6.06279576100284       -2.44184162576846        3.98220874038560
H           -3.65902184426428       -2.58947493457328        3.86490477315527
H            1.72981856331660       -2.10501570449705        3.83659862773315
B           -6.01112674013298        3.23131581010724        0.36886427705018
B           -5.92933124237287        1.54205577723866        0.09595274987672
B           -4.59880433194781        4.13476860383372       -0.00221467534887
B           -4.51544035962749        2.45619738120177        0.18032603561180
B           -4.42792890626644        0.76576871510137        0.28836974198165
B           -5.75888042336627       -1.84393949117357        0.20793812186258
B           -5.67183995051609       -3.51084727872792        0.59393792792678
B           -4.34362245836620       -0.90997234385960        0.34156559160739
B           -4.26073431158611       -2.60383979458089        0.35232860750424
B           -4.17473281142076       -4.29083486021973        0.28156638618401
B           -3.08854726718154        3.38087903657376        0.15116737191453
B           -3.00469198644981        1.68197552664428        0.22593361106355
B           -1.66952962762341        4.29092753868355        0.31600977215999
B           -1.58667553316781        2.60501014927799        0.22210645193809
B           -1.50241439268589        0.90932549330077        0.10381217136470
B           -2.83553579852859       -1.68086482206458        0.33427512905165
B           -2.74826304053826       -3.38077457861584        0.37684919811842
B           -1.41779383806146       -0.77121476401462        0.15876891855902
B           -1.33213578104532       -2.45610489667217        0.37220236863971
B           -1.24585106057423       -4.13088363743594        0.59546151403169
B           -0.16499540109542        3.52688462100084        0.14807423023394
B           -0.07997856676641        1.82724765096391        0.15749933754957
B            1.25354658765971        4.42794650289066       -0.06313950532028
B            1.33986606068297        2.74905926093244        0.10546912926164
B            1.42515316353016        1.06068410462638        0.23247362716100
B            0.08941174511760       -1.53618238299384        0.26923663811819
B            0.17524705340755       -3.23263618127260        0.37489504010193
B            1.50972849264537       -0.61902342909500        0.29244162348382
B            1.59480139055867       -2.31187696364164        0.29170276848667
B            1.67817730435344       -3.99884292751354        0.23658670891366
B            2.75851443890652        3.67482164155492        0.14487152064778
B            2.84556644055334        1.97235131887634        0.09951883409288
B            4.18245613527145        4.58349850871856        0.23875174286292
B            4.26835914963556        2.89712881955778        0.14521851052710
B            4.35097957057213        1.20140920184624        0.10043359683833
B            3.01500056110869       -1.39048449648182        0.22271503932738
B            3.09900248613911       -3.08586253518879        0.38356823700845
B            4.43541813989562       -0.47432248181198        0.16259261895501
B            4.52315920060683       -2.16240795723665        0.32419852387537
B            4.60639012210986       -3.83769840782828        0.54381437904379
B            5.68271369605558        3.80613961444985       -0.08147034239965
B            5.76905160555398        2.13639328546815        0.27575317857773
B            5.93943318247598       -1.24775946736106        0.39625681988647
B            6.02242411882948       -2.93866616996435        0.16142236321764
H           -6.96420168322272        3.76284480259711        0.78161338554698
H           -6.85760923820146        0.98532807955799       -0.33411666036763
H           -4.71032976008775        5.21541033019800       -0.43285584854365
H           -6.73307699866149       -1.41721269503845       -0.26589544658412
H           -6.57052683817674       -4.10310500373936        1.04367683878834
H           -4.17248051675439       -5.40569191057692       -0.06919630613112
H           -1.72959731438700        5.43517929849859        0.54849812832168
H           -1.19127194662381       -5.25841426760727        0.89964026586185
H            1.20289767423663        5.55775729688375       -0.36150218742590
H            1.74198004513404       -5.15118146745745        0.04577986151904
H            4.18772884470121        5.69890383797761        0.58729403378622
H            4.72133299074216       -4.91592434480520        0.98083132125485
H            6.57768760211938        4.41246647700700       -0.52066766453307
H            6.74021348691211        1.69798971682651        0.74757968233186
H            6.86275359802710       -0.67821285105281        0.82046472922212
H            6.97458899950057       -3.48358199643170       -0.23674768386410
