92
 energy: -110.378609410563 gnorm: 0.000940827035 xtb: 6.7.1 (edcfbbe)
C            1.75289767444711        4.21273611783040        4.13221378268028
N            0.40778560043844        3.97306249969273        3.66215788060529
C           -0.52933581714891        5.06598740096857        3.76109289683503
C           -0.07033069304555        2.67418936768068        3.64884464921502
C           -1.43899055708676        2.38058854717633        3.55935993285125
C           -1.88683519573208        1.08367075735512        3.46090380714663
C           -1.01753433926302       -0.02626139174734        3.47623891081031
N           -1.56546379199648       -1.24859291774594        3.38544775239801
C           -0.82656609272331       -2.36468555603625        3.52329753155425
C           -1.51401809470715       -3.59743066525877        3.53545607605077
C           -0.86476436337337       -4.80057717035019        3.66953774565227
C            0.52710700317441       -4.85227785363735        3.78130379143040
N            1.19551376091174       -6.06269719479181        3.81327552214033
C            1.23386186633179       -3.65100203271111        3.77281214649330
C            0.57974995443734       -2.43952438707554        3.65360965756982
S            1.58489306619565       -0.98492839898120        3.64710317199691
C            0.35601576314463        0.28382613081706        3.59709726864205
C            0.81011806570043        1.58528398485291        3.66890685701025
H            1.94325705661918        3.73744906409950        5.10122857988624
H            2.48227295229634        3.84014404378166        3.40868020554806
H            1.91141435432810        5.28234747204798        4.24160040979790
H           -1.22808977098461        5.02654198364788        2.92429245509985
H            0.01354576693773        6.00550681574742        3.69398675297651
H           -1.09312583588196        5.05782501831918        4.70199511271303
H           -2.16821165492739        3.17299593997924        3.58026550310825
H           -2.94193493810910        0.87232913307080        3.40582477278187
H           -2.58940526252945       -3.55926842366970        3.46812379066412
H           -1.42979683483734       -5.72018068331377        3.68731403662162
H            0.64571676947722       -6.85688807032370        4.09827720610111
H            2.12409782173565       -6.04573250303764        4.20286011876694
H            2.31048072719513       -3.66284085411547        3.87298618434741
H            1.87334869817362        1.73487699553100        3.75928415440602
B           -5.86133141947738        3.37597394524264        0.49010180192399
B           -5.86532467341988        1.69453522592114        0.15267360007019
B           -4.40649845473666        4.21821268678402        0.13137063703448
B           -4.40671661051505        2.53317886351509        0.26821082267101
B           -4.40470106102099        0.83786743637431        0.34235826286084
B           -5.86610243566488       -1.69644762370773        0.15086915028768
B           -5.86256932925460       -3.37947215042833        0.47849884523173
B           -4.40499621243621       -0.84115801092910        0.34454789985544
B           -4.40780758490795       -2.53611244991891        0.26323223528676
B           -4.40858020818286       -4.22012162066885        0.10678488803761
B           -2.93601552579811        3.38463320797603        0.20736743771582
B           -2.93675099557456        1.68210713552542        0.33720750857215
B           -1.47396834808157        4.22056012339308        0.33083120823845
B           -1.47478092136444        2.53329276759552        0.24838498564786
B           -1.47599133496959        0.83982643142966        0.17009042058142
B           -2.93717630269778       -1.68617692868706        0.34059147429745
B           -2.93766010874693       -3.38794180043300        0.20080002219833
B           -1.47647932201356       -0.84356869686612        0.16620996148999
B           -1.47594046668977       -2.53736925693640        0.24176697958183
B           -1.47568246760643       -4.22449565114401        0.34490929500388
B           -0.00738977803824        3.38140149962797        0.34575390423981
B           -0.00910492822370        1.68277535755832        0.15200806974939
B            1.45747618395453        4.21761629019496        0.38614591646848
B            1.45593313109727        2.53202048522655        0.27857975127172
B            1.45492105181876        0.83938714170047        0.16042893760519
B           -0.01015721703531       -1.68691524693957        0.13093517650643
B           -0.00895459362400       -3.38691048478252        0.31297402838316
B            1.45441025933166       -0.84409427765677        0.14854217297526
B            1.45452019982528       -2.53806678284128        0.22972448605401
B            1.45532135885949       -4.22504975788503        0.32034132847034
B            2.91865983051429        3.38386979698059        0.17766890375814
B            2.92103004304248        1.68070604401674        0.29349446580032
B            4.38514758727960        4.21670108821050        0.06247393777608
B            4.38732176226606        2.53139114221045        0.19417939597365
B            4.38592504261485        0.83588125102003        0.27330913640234
B            2.92019985418984       -1.68748281185653        0.28127103924850
B            2.91715156685588       -3.38930773492795        0.14527029195569
B            4.38552805077141       -0.84312244399161        0.26505642165388
B            4.38613422942920       -2.53781922351943        0.17344033144750
B            4.38322987433422       -4.22174555427702        0.02165933564467
B            5.84874693295046        3.37338110100089        0.38908075051428
B            5.84595930817376        1.69253611183852        0.05622123609316
B            5.84504415499575       -1.69849080252417        0.03888050679408
B            5.84703221660465       -3.38228017173595        0.36039722676975
H           -6.78646814607094        3.92908484380352        0.93789349104088
H           -6.81839579051456        1.20846689975071       -0.30897226068482
H           -4.46866790022171        5.31848272784463       -0.25932818569053
H           -6.81829077113336       -1.20741812320460       -0.30896275935787
H           -6.78742843531419       -3.93468586057201        0.92336513245412
H           -4.47366233864076       -5.30808122496011       -0.31539010773382
H           -1.47916886332335        5.38978876994146        0.39612593241185
H           -1.47822488242894       -5.38697816717828        0.46649842255325
H            1.47343760378450        5.36886329576887        0.59309313712918
H            1.46404949383211       -5.38439783065318        0.46494987239057
H            4.43957415777164        5.32012344860988       -0.31997853185873
H            4.43750366775251       -5.31344283540353       -0.39200577995990
H            6.77782106387664        3.93151825627603        0.82278175719719
H            6.78575197674784        1.20358025685378       -0.42888197155422
H            6.78744261068913       -1.20590500649018       -0.43734644742369
H            6.77804056515231       -3.93917827084175        0.79098706704020
