92
 energy: -110.378627420741 gnorm: 0.000572998609 xtb: 6.7.1 (edcfbbe)
C           -1.75648516049873       -4.21660967482484        4.10543127721899
N           -0.40448069068203       -3.97423382240826        3.65767910496477
C            0.53530974102507       -5.06140140043541        3.79426432096986
C            0.07123503503427       -2.67367008518460        3.64999318291039
C            1.43983639727499       -2.37930792335700        3.56022836944646
C            1.88764409229332       -1.08241294116755        3.46156062571372
C            1.01833831783308        0.02741989730363        3.47610203012080
N            1.56575626495837        1.24982778638586        3.38214510251157
C            0.82654099612790        2.36583376099213        3.51919173680222
C            1.51326608474692        3.59900058958623        3.52598771364194
C            0.86369410704500        4.80220004699439        3.65851360945033
C           -0.52778951795231        4.85334215877401        3.77443133799649
N           -1.19697168275158        6.06348036882113        3.80463824021796
C           -1.23379694190377        3.65161340063050        3.77161631026184
C           -0.57943307703512        2.44020577934940        3.65347860135166
S           -1.58394423191483        0.98524541914557        3.65319951340032
C           -0.35472380152472       -0.28301487996816        3.59985952651488
C           -0.80864787537546       -1.58454236899270        3.67333395195558
H           -1.95097128939385       -3.78753049953310        5.09508237906240
H           -2.47260053179293       -3.79915907138813        3.39482218603550
H           -1.93039197952312       -5.28775576949764        4.15821067890273
H            1.24414451489731       -5.04005676090137        2.96541318525311
H           -0.00319842515904       -6.00437016041628        3.74436487984964
H            1.08752064772334       -5.02784747200880        4.74125206151373
H            2.16945040250656       -3.17130883464041        3.57946503294102
H            2.94271329599803       -0.87117057654784        3.40559754787140
H            2.58844797113017        3.56115522941886        3.45560486362710
H            1.42819948366327        5.72218041887715        3.67166851829833
H           -0.64657399308030        6.85882732158510        4.08515565481054
H           -2.12378549840175        6.04710717752528        4.19830566826866
H           -2.31007347281016        3.66309998718513        3.87525206430083
H           -1.87152093794165       -1.73246131730992        3.76950067366883
B           -5.84527442981398        3.38238397373206        0.36461597769935
B           -5.84371399018291        1.69834681070033        0.04267979889348
B           -4.38431521702001        4.22163574852385        0.02392260805644
B           -4.38722047305859        2.53774969164816        0.17529032135315
B           -4.38676162838107        0.84307019821323        0.26782936593736
B           -5.84481956289019       -1.69242065357346        0.05852906787364
B           -5.84760943282204       -3.37330095682385        0.39359610954998
B           -4.38730985385586       -0.83599620125210        0.27614621553236
B           -4.38882634553868       -2.53153005493041        0.19691515707107
B           -4.38691375292797       -4.21689769869367        0.06638688164064
B           -2.91569237742761        3.38897807660171        0.14524033095560
B           -2.91878233393020        1.68726968206252        0.28353502847575
B           -1.45619067973600        4.22473642022653        0.32015370506345
B           -1.45558985501185        2.53773155351485        0.23063393162682
B           -1.45572457996088        0.84371333648547        0.15081768436981
B           -2.91992914796274       -1.68084806718240        0.29801914430620
B           -2.91772522211923       -3.38402691372866        0.17707582528290
B           -1.45635426387658       -0.83976147059140        0.16354133970258
B           -1.45743868899777       -2.53238634961438        0.27922645118770
B           -1.45907002773811       -4.21822322645917        0.38093484584561
B            0.01055121873410        3.38649880683079        0.31070788429329
B            0.01147818816096        1.68635337478560        0.13009231597185
B            1.47482734559388        4.22398525072925        0.33688592932944
B            1.47491321500660        2.53676016572679        0.23624184434056
B            1.47519784641023        0.84288067802954        0.16328663093992
B            0.01019630800292       -1.68332282507473        0.15315038396571
B            0.00836659079476       -3.38177294481914        0.34901922583247
B            1.47457308895335       -0.84051254717544        0.16902890811077
B            1.47321994395029       -2.53382153962575        0.25658773120540
B            1.47228303122134       -4.22072794864424        0.34826555517283
B            2.93915701773061        3.38722464093734        0.19699464838396
B            2.93864399887592        1.68558518888991        0.33634887381953
B            4.40757285250049        4.21900276197924        0.09893159637392
B            4.40676835792681        2.53521012859381        0.25902565895863
B            4.40378519111862        0.84036557200982        0.34169651415866
B            2.93794800368276       -1.68277373093277        0.33447993361109
B            2.93687570658609       -3.38550129878560        0.21210482089332
B            4.40337086010028       -0.83859675956613        0.34132907585404
B            4.40520786546257       -2.53398686758710        0.26898580331759
B            4.40471137480683       -4.21917002479598        0.13352420505630
B            5.86442792034073        3.37877533985810        0.47038229627610
B            5.86755006887661        1.69544090419420        0.14713311895129
B            5.86645177509905       -1.69577663836938        0.15247362698878
B            5.86256272792435       -3.37668214572435        0.48999689130721
H           -6.77837576093498        3.93722447131326        0.79350005660913
H           -6.78934915485824        1.20719796013780       -0.42855215379387
H           -4.43757915644354        5.31328009311738       -0.39009483653617
H           -6.78739190740360       -1.20505366284636       -0.42285258514129
H           -6.77963335701798       -3.92799419204516        0.82544494813891
H           -4.44016747549373       -5.32007997498151       -0.31690109053910
H           -1.46342565225186        5.38391473266022        0.46634733496486
H           -1.47315998308883       -5.37107916367737        0.57862665615917
H            1.47864169890901        5.38726211111809        0.44949132227811
H            1.48011643048458       -5.38828893421209        0.43742406679419
H            4.47361503979214        5.30612195818043       -0.32529296516988
H            4.46776852840443       -5.32109586398470       -0.25215020019610
H            6.78811708328189        3.93742077640198        0.91335010605952
H            6.81822087178664        1.20332803886686       -0.31245454922481
H            6.81613975598750       -1.20864022646850       -0.31488129285199
H            6.78437620974111       -3.93286530789186        0.94073358905970
