32
drug @complex
Br      5.79628396     -3.10310029      4.32584579
C       5.12874934     -1.33633306      4.03490618
C       6.02772894     -0.28977433      3.89186816
C       5.52128682      0.98988510      3.70328043
C       4.16118974      1.20814969      3.65716669
C       3.25790301      0.14527684      3.79618825
C       1.83648062      0.39162312      3.73762249
C       0.78189026     -0.53294519      3.84710157
C      -0.38966450      0.20206059      3.71818669
C      -1.76687296     -0.20044244      3.75445493
C      -2.10072001     -1.56159565      3.82500925
C      -3.41156288     -2.00556277      3.87477144
C      -4.40313548     -1.04732822      3.84838302
C      -4.09070523      0.31156156      3.78170300
C      -2.80280308      0.76515427      3.73281603
O      -5.24942680      1.04418595      3.78697029
C      -6.30118146      0.10369686      3.84202653
O      -5.76811943     -1.20046282      3.89496388
N       0.02181101      1.49169466      3.53642631
N       1.35160950      1.62452577      3.54787516
C       3.76559539     -1.14441146      3.98265421
H       7.08950172     -0.46886970      3.93209237
H       6.20715426      1.81549462      3.59211379
H       3.75957598      2.19913910      3.52917289
H       0.86255445     -1.58427157      4.01993922
H      -1.30835287     -2.28992937      3.84464954
H      -3.65382806     -3.05268157      3.93106340
H      -2.60500408      1.82147078      3.70615259
H      -6.92792763      0.20783473      2.94473609
H      -6.91058361      0.28826046      4.74129459
H      -0.55128940      2.30375839      3.39401886
H       3.09978164     -1.98345248      4.10108341
