92
 energy: -119.480598932731 gnorm: 0.000677110850 xtb: 6.7.1 (edcfbbe)
Br          -5.80004680528019        3.09341659082771        4.32621573609547
C           -5.13040676058512        1.32753437827694        4.03468541008858
C           -6.02825834710731        0.28054137456094        3.88794758432670
C           -5.52042911829064       -0.99852091027085        3.69913473433251
C           -4.16005284840321       -1.21564699266027        3.65594215601608
C           -3.25790186580341       -0.15223664996477        3.79802055716083
C           -1.83622417140394       -0.39764386980263        3.74073194709502
C           -0.78201645897164        0.52745726905856        3.84939291184937
C            0.38985550842577       -0.20720276088058        3.72103227528681
C            1.76701207394359        0.19551572763062        3.75617848347686
C            2.10101623766259        1.55675998462342        3.82440317580984
C            3.41193148621361        2.00068808522626        3.87253814096542
C            4.40345708897836        1.04237420532434        3.84683226343974
C            4.09087203397850       -0.31658089505063        3.78241123329083
C            2.80292167326654       -0.77015379794297        3.73519554869047
O            5.24955834392878       -1.04929834721857        3.78744089151713
C            6.30137818710077       -0.10885660484184        3.84202494643261
O            5.76849926920666        1.19546414919208        3.89189442919443
N           -0.02114545868318       -1.49717774414377        3.54042718677658
N           -1.35085826457830       -1.63049890967115        3.55197598163950
C           -3.76695674455717        1.13675998962932        3.98538361273740
H           -7.09026325921538        0.45883493230034        3.92539282069633
H           -6.20535818271312       -1.82453372777356        3.58529333220234
H           -3.75733857516741       -2.20615784744918        3.52768935285884
H           -0.86312114348232        1.57891570647348        4.02124248232650
H            1.30867953308186        2.28514064149276        3.84353304452823
H            3.65434849112753        3.04787668377303        3.92696008277995
H            2.60509006516600       -1.82652558196385        3.71041934233044
H            6.92928380062957       -0.21490135867889        2.94581083249511
H            6.90964184947233       -0.29188774276791        4.74244469813929
H            0.55224894371400       -2.30922548869128        3.39910545904714
H           -3.10203928765782        1.97609544622575        4.10676895119310
B           -5.80359147577104        3.37544211672455        0.59800291833017
B           -5.82575106811705        1.69674805579757        0.27973460602805
B           -4.33260240092205        4.20216410111239        0.30148056126703
B           -4.35754443054969        2.51503528501400        0.40718120832060
B           -4.37807675360714        0.81892850018118        0.44534972213221
B           -5.87088341670516       -1.69405748200426        0.24330197804926
B           -5.89291939213008       -3.37956338208629        0.52810523892143
B           -4.40027467442075       -0.85901043592049        0.42577125010266
B           -4.42481431712057       -2.55367766205881        0.34716494062897
B           -4.44497901614799       -4.23797365921758        0.20773927796802
B           -2.87473011024499        3.34767792610376        0.42614025938966
B           -2.89935899801841        1.64458716348602        0.44966561269410
B           -1.40281593112460        4.15760701655547        0.63975547938848
B           -1.42587270773017        2.47503457291096        0.48419538057241
B           -1.44802285107723        0.78443831799026        0.31162360520433
B           -2.94403000934308       -1.72345167635294        0.39960341368828
B           -2.96461908107065       -3.42536009474123        0.33724964832948
B           -1.47032936649855       -0.89864604862970        0.27838251640140
B           -1.49313059836471       -2.59333399240435        0.40345024825315
B           -1.51477475107954       -4.27924370715603        0.52969107710724
B            0.05201826302064        3.30721683769172        0.46374940304384
B            0.02941475365735        1.60667041925413        0.39992933935234
B            1.52643154220955        4.12544552488414        0.31768381274468
B            1.50498810938629        2.43783374028285        0.39969731641942
B            1.48222608718356        0.74360630890351        0.43842834763940
B           -0.01532447980166       -1.76178581951226        0.33797307642581
B           -0.03792236141625       -3.46357483200346        0.36996795599390
B            1.45987461141816       -0.93897454656974        0.41127762712970
B            1.43778672111372       -2.63183823706868        0.33984312262580
B            1.41455434307453       -4.31727449442762        0.22215371238309
B            2.97895056426210        3.26882878683147        0.48499688262015
B            2.95840518100334        1.56838343728155        0.35695240129503
B            4.45700425511199        4.07989917335884        0.61712298753235
B            4.43665643410528        2.39779787250905        0.43909054565797
B            4.41170192845595        0.70396977379721        0.31823572508296
B            2.91373722799768       -1.80042711508687        0.31661886923587
B            2.88917326487711       -3.50343688681076        0.40248583764901
B            4.38953950226805       -0.97431034983460        0.30066801424838
B            4.36940694478105       -2.67051252677719        0.38850196626609
B            4.34497484721906       -4.35642490984113        0.51727106868254
B            5.90667002175541        3.22584551929489        0.27050190259020
B            5.88624205050550        1.53814253875301        0.50038801675009
B            5.84112064365463       -1.85140047023420        0.46877691094376
B            5.81719432526335       -3.53290838596202        0.19280129817788
H           -6.74387949307680        3.96639987405397        0.96705821717581
H           -6.78993794702631        1.21052198342115       -0.16758071744497
H           -4.36501355527364        5.32241986387058       -0.04538255596672
H           -6.82177467528086       -1.17292521566901       -0.19307158988378
H           -6.84727775510430       -3.95141342370596        0.89816602110831
H           -4.50813518805385       -5.35589603432167       -0.14517559857766
H           -1.39504651405346        5.29800127678667        0.91855690258393
H           -1.53485506469636       -5.42676676369469        0.77648544166888
H            1.54579878561549        5.27899636315180        0.09839011025362
H            1.40655638801682       -5.47186861110123        0.00628132738177
H            4.52117812574760        5.19652082889905        0.97374366926922
H            4.38009712662348       -5.48004259005092        0.85623445627679
H            6.85209972746273        3.80614869866364       -0.10960458774416
H            6.86383517421649        0.99942537248089        0.84850867931591
H            6.82820720297610       -1.35040096266105        0.84666193261551
H            6.74906698682864       -4.12956286908528       -0.19567194611342
