92
 energy: -119.480621319084 gnorm: 0.000520299579 xtb: 6.7.1 (edcfbbe)
Br           5.79628396230040       -3.10310029219914        4.32584578720680
C            5.12874934360741       -1.33633306147397        4.03490617814518
C            6.02772893747606       -0.28977432513074        3.89186816468612
C            5.52128681633665        0.98988509744858        3.70328043252700
C            4.16118973689857        1.20814969182412        3.65716669363780
C            3.25790300738217        0.14527684059147        3.79618825142558
C            1.83648062361577        0.39162312348565        3.73762249217666
C            0.78189025904279       -0.53294519147505        3.84710157010834
C           -0.38966450375573        0.20206059091231        3.71818668600939
C           -1.76687295825472       -0.20044243951994        3.75445493005127
C           -2.10072000800277       -1.56159565351286        3.82500925255597
C           -3.41156288450106       -2.00556277276711        3.87477144078573
C           -4.40313547936836       -1.04732821560170        3.84838302295213
C           -4.09070523431824        0.31156155535841        3.78170300249679
C           -2.80280308077000        0.76515426891597        3.73281602753061
O           -5.24942679878812        1.04418594766949        3.78697029488546
C           -6.30118146187673        0.10369685582355        3.84202652936590
O           -5.76811942530627       -1.20046281747502        3.89496387649765
N            0.02181100987740        1.49169466296368        3.53642631313086
N            1.35160950488336        1.62452576817980        3.54787516180173
C            3.76559538954096       -1.14441145981794        3.98265421240261
H            7.08950171571572       -0.46886970242797        3.93209237200870
H            6.20715425887575        1.81549462425223        3.59211378527580
H            3.75957598030057        2.19913910201221        3.52917288990258
H            0.86255444615591       -1.58427157484475        4.01993921988454
H           -1.30835286512346       -2.28992937065178        3.84464953570589
H           -3.65382805992647       -3.05268157139616        3.93106339526343
H           -2.60500407717480        1.82147077806260        3.70615258825550
H           -6.92792762686029        0.20783472770703        2.94473609162435
H           -6.91058361357168        0.28826046381356        4.74129458537319
H           -0.55128940340365        2.30375838534815        3.39401885939292
H            3.09978164136779       -1.98345247881614        4.10108340801976
B           -5.81338848990929        3.54000573418562        0.19107040685775
B           -5.83844281039315        1.85853229191012        0.47000221943041
B           -4.34328046252190        4.36276736713545        0.51593125912897
B           -4.36879921414372        2.67682339640782        0.38802069968523
B           -4.39011085032589        0.98057378342385        0.30076333906992
B           -5.88583735634279       -1.53075080155175        0.50147457065045
B           -5.90734487821530       -3.21867870101508        0.27123124142038
B           -4.41338820655393       -0.69772893145818        0.31864060872076
B           -4.43941427910075       -2.39152384128979        0.44040495840062
B           -4.46090389103245       -4.07353062294776        0.61911820035316
B           -2.88551782792046        3.50862943742650        0.40263244537817
B           -2.91119891858543        1.80560577386772        0.31473165955311
B           -1.41291696428954        4.32155240303832        0.22142907743948
B           -1.43721731886384        2.63615348955098        0.33958205266104
B           -1.46047382353207        0.94330260503500        0.41029740862672
B           -2.95810495355229       -1.56309741278800        0.35669367836180
B           -2.97978598919371       -3.26340887441442        0.48804455770733
B           -1.48393518027442       -0.73926449698818        0.43836982820099
B           -1.50779115093970       -2.43349923103630        0.40045816935561
B           -1.53040942622903       -4.12112843339715        0.31959824219409
B            0.04158197801756        3.46685183049996        0.36700882941416
B            0.01784130599752        1.76507344519105        0.33732946871425
B            1.51640161924690        4.28160708451341        0.52860583490485
B            1.49367350832598        2.59567523023082        0.40225238202396
B            1.46969725539746        0.90096440209631        0.27721078077757
B           -0.02913272728771       -1.60332465288364        0.40095781958331
B           -0.05285659387254       -3.30387656076960        0.46350242224968
B            1.44627549792814       -0.78208740806250        0.31111851159757
B            1.42304917467318       -2.47258800260048        0.48460214749299
B            1.39883298007993       -4.15505201054180        0.64165384283634
B            2.96823053258580        3.42675145753591        0.33731748353094
B            2.94652275602674        1.72483206708350        0.39725300646569
B            4.44659022625570        4.23827321481095        0.20645598011034
B            4.42535111173820        2.55403831050179        0.34690842824994
B            4.39962701356592        0.85942123906454        0.42516884728048
B            2.89961368335040       -1.64324205348806        0.44859550910561
B            2.87383648436830       -3.34627902811488        0.42891478861516
B            4.37631882800011       -0.81845550985509        0.44514467354934
B            4.35469310702608       -2.51452610251788        0.40802963987665
B            4.32859799924784       -4.20169162235402        0.30313193980079
B            5.89662951181522        3.37897573978359        0.52607271324553
B            5.87345553958443        1.69354882168830        0.24327456943583
B            5.82605481202710       -1.69746077505234        0.28066044414653
B            5.80283794343846       -3.37591828701870        0.59820962457036
H           -6.74687790977804        4.13436173376199       -0.19714899755945
H           -6.82706003435571        1.36065884223472        0.84816443572016
H           -4.37632053913526        5.48615894561212        0.85578261337255
H           -6.86515434512101       -0.99300883385967        0.84656864475487
H           -6.85520818652385       -3.79594866955198       -0.10756210678237
H           -4.52446500160455       -5.18970888638110        0.97719903654406
H           -1.40277570681872        5.47645539077675        0.00734610620603
H           -1.54930848424364       -5.27472996129171        0.10059339088692
H            1.53851710221715        5.42897492973942        0.77594242899823
H            1.39154389460466       -5.29530476594700        0.92105207496613
H            4.51183601901409        5.35660366974805       -0.14479396351289
H            4.36154075217804       -5.32254705877080       -0.04173215935082
H            6.84927543450695        3.95309128311269        0.89693752160506
H            6.82187257009909        1.16977608763644       -0.19515850480176
H            6.78853695304486       -1.21027488508153       -0.16913889931192
H            6.74066678392094       -3.97001510376131        0.96831146640644
