92
 energy: -119.475009228990 gnorm: 0.000961508749 xtb: 6.7.1 (edcfbbe)
Br          -3.02596272661245       -5.72449502849775        4.12696604606466
C           -1.23193598947842       -5.08285969202534        4.00172645917047
C           -0.18863703942897       -5.99478104775167        3.96830549219939
C            1.10929898698702       -5.50758808997447        3.87964594936324
C            1.34921481887380       -4.15219271810053        3.82194210799910
C            0.28971816210059       -3.23586553689658        3.85841380205957
C            0.55251702977591       -1.81714056947514        3.77610219244252
C           -0.35441289974853       -0.75161430016217        3.92541355152070
C            0.38449598511072        0.40643036621034        3.72620860076209
C           -0.00814332059739        1.78727779865346        3.76954243432655
C           -1.36839377926271        2.13045250847051        3.76864788953172
C           -1.80085730438465        3.44633721224493        3.79237195121558
C           -0.83307247658993        4.42834825553043        3.81267545489396
C            0.52532961150659        4.10427122934604        3.83059976867447
C            0.96859373187216        2.81124210549577        3.81220536510129
O            1.26507508250234        5.25791169835200        3.85984744778691
C            0.33350449916334        6.31350882353913        3.76696416616320
O           -0.97515682374971        5.79503674611712        3.82697376406194
N            1.65980440934876       -0.01736916403076        3.48175147846971
N            1.77353720593104       -1.34826705818364        3.49587585197805
C           -1.01777273307083       -3.72305891892575        3.94861245334206
H           -0.38439417499243       -7.05384872814491        4.01146914625375
H            1.93270722774468       -6.20451183986133        3.85308314032956
H            2.35278051742555       -3.76646799407080        3.75476663573297
H           -1.38968035243595       -0.81459093970820        4.18152033315783
H           -2.10000876319544        1.34199008084373        3.73187622254446
H           -2.84647022329917        3.70124258163058        3.78820677959442
H            2.02122036039496        2.59409541939484        3.85325505085579
H            0.47588981767025        6.84265637740025        2.80995911605125
H            0.49026223947790        7.01612376641434        4.59872120072309
H            2.42769908482438        0.52841999785847        3.12758174374663
H           -1.85459495673211       -3.04411301637339        3.97416947418324
B           -5.88452137651908        3.34144689910760        0.49331849678367
B           -5.87186351501807        1.65484548442040        0.17212437127381
B           -4.42796861033808        4.18860852786884        0.17558238885415
B           -4.42059475746116        2.50401648658056        0.28619712495291
B           -4.40966646917471        0.80923675171479        0.33739815917507
B           -5.85539961076280       -1.73103060130107        0.55051797040026
B           -5.84420871404225       -3.41650323910749        0.23368640272317
B           -4.40067895653428       -0.86805247611792        0.40523305281587
B           -4.39305388723183       -2.56348778096867        0.45430586785380
B           -4.38192253591476       -4.24870587801365        0.55437851468554
B           -2.95482571794286        3.36426713102243        0.29259146313026
B           -2.94798174718882        1.66427867032312        0.45506774208153
B           -1.49801395323688        4.21042838810747        0.32240037415864
B           -1.48951422438802        2.52209293121399        0.35064273220635
B           -1.48011225175512        0.82912379373445        0.42335374271958
B           -2.92822397298446       -1.70550123063450        0.39578109025379
B           -2.91690229445103       -3.40776819480472        0.41197075017896
B           -1.47052734101424       -0.85353368230316        0.45920841475200
B           -1.46089856281315       -2.54800914810946        0.39885621302028
B           -1.44944985446416       -4.23362992860318        0.24762954528131
B           -0.02846200951071        3.38140180630280        0.43937251520740
B           -0.01743297085465        1.67980067182645        0.34183671940019
B            1.43020880382134        4.22696503086444        0.50238112101955
B            1.44075905227411        2.53925352714679        0.43581345844010
B            1.45152049704498        0.84533320041425        0.34151349718086
B            0.00125601484036       -1.68895074464966        0.40541135610842
B            0.01063928885949       -3.39020245515939        0.41280613918116
B            1.46111074358164       -0.83783147519495        0.32437923948247
B            1.47007695509685       -2.53104104264893        0.42644252483645
B            1.47759295407960       -4.21724478917513        0.55914258645141
B            2.89997683087502        3.39850160818190        0.36924302497590
B            2.90950598080366        1.69715653467113        0.51323243318637
B            4.36357768232262        4.23924159222037        0.27905259003102
B            4.37287200323020        2.55544460626364        0.43287017831405
B            4.37931055937055        0.86048144632532        0.53063397720066
B            2.92921977468917       -1.67170431677740        0.49337645288761
B            2.93828863826401       -3.37421681920463        0.42916475995375
B            4.38889511932240       -0.81773314990816        0.53449727555700
B            4.40176346365743       -2.51361708082100        0.46287013869420
B            4.41112532332831       -4.19945479266649        0.32726462069313
B            5.82518980070988        3.40880599547432        0.63347421957754
B            5.83917042051823        1.72396980643581        0.35138939005709
B            5.85834274340060       -1.66663093733796        0.36876233876566
B            5.86377795844801       -3.34821950998538        0.66513148878976
H           -6.84427549204447        3.89843890103314        0.87290241513421
H           -6.83069102546187        1.14729557420577       -0.26948153012162
H           -4.48170615592374        5.29512198356392       -0.21486395410794
H           -6.81406558799608       -1.23205441220315        0.99870757830825
H           -6.77550136764397       -3.99117694609846       -0.18441723129837
H           -4.42343570950535       -5.36458392576588        0.90824242682177
H           -1.50181243106128        5.37858322739105        0.19436220090168
H           -1.44306182375004       -5.39336238949861        0.06490784638875
H            1.43212116130904        5.39262731572446        0.65315502865506
H            1.48600084307276       -5.38328937439853        0.69219133570725
H            4.41379441434370        5.35261039042177       -0.08991804386053
H            4.47176386242008       -5.31824549918554       -0.02254270105927
H            6.75994929727617        3.99522099945881        1.03054743085025
H            6.80713709210951        1.21819213285873       -0.06560859852610
H            6.81710323187313       -1.15049361150476       -0.05471190661327
H            6.80256725890030       -3.92309626803383        1.06759461923535
