60

B      -5.56618303     -3.21100000      0.00000000
B      -5.56618303     -1.60550000      0.00000000
B      -4.17577923     -4.01375000      0.00000000
B      -4.17577923     -2.40825000      0.00000000
B      -4.17577923     -0.80275000      0.00000000
B      -5.56618303      1.60550000      0.00000000
B      -5.56618303      3.21100000      0.00000000
B      -4.17577923      0.80275000      0.00000000
B      -4.17577923      2.40825000      0.00000000
B      -4.17577923      4.01375000      0.00000000
B      -2.78268303     -3.21100000      0.00000000
B      -2.78268303     -1.60550000      0.00000000
B      -1.39227923     -4.01375000      0.00000000
B      -1.39227923     -2.40825000      0.00000000
B      -1.39227923     -0.80275000      0.00000000
B      -2.78268303      1.60550000      0.00000000
B      -2.78268303      3.21100000      0.00000000
B      -1.39227923      0.80275000      0.00000000
B      -1.39227923      2.40825000      0.00000000
B      -1.39227923      4.01375000      0.00000000
B       0.00081697     -3.21100000      0.00000000
B       0.00081697     -1.60550000      0.00000000
B       1.39122077     -4.01375000      0.00000000
B       1.39122077     -2.40825000      0.00000000
B       1.39122077     -0.80275000      0.00000000
B       0.00081697      1.60550000      0.00000000
B       0.00081697      3.21100000      0.00000000
B       1.39122077      0.80275000      0.00000000
B       1.39122077      2.40825000      0.00000000
B       1.39122077      4.01375000      0.00000000
B       2.78431697     -3.21100000      0.00000000
B       2.78431697     -1.60550000      0.00000000
B       4.17472077     -4.01375000      0.00000000
B       4.17472077     -2.40825000      0.00000000
B       4.17472077     -0.80275000      0.00000000
B       2.78431697      1.60550000      0.00000000
B       2.78431697      3.21100000      0.00000000
B       4.17472077      0.80275000      0.00000000
B       4.17472077      2.40825000      0.00000000
B       4.17472077      4.01375000      0.00000000
B       5.56781697     -3.21100000      0.00000000
B       5.56781697     -1.60550000      0.00000000
B       5.56781697      1.60550000      0.00000000
B       5.56781697      3.21100000      0.00000000
H      -6.59675326     -3.80600000      0.00000000
H      -6.59675326     -1.01050000      0.00000000
H      -4.17677705     -5.20374958      0.00000000
H      -6.59675326      1.01050000      0.00000000
H      -6.59675326      3.80600000      0.00000000
H      -4.17677705      5.20374958      0.00000000
H      -1.39327705     -5.20374958      0.00000000
H      -1.39327705      5.20374958      0.00000000
H       1.39022295     -5.20374958      0.00000000
H       1.39022295      5.20374958      0.00000000
H       4.17372295     -5.20374958      0.00000000
H       4.17372295      5.20374958      0.00000000
H       6.59888503     -3.80513691      0.00000000
H       6.59888503     -1.01136309      0.00000000
H       6.59888503      1.01136309      0.00000000
H       6.59888503      3.80513691      0.00000000
