39
drug @complex
C      -6.71393579      0.95009379      3.69234093
C      -5.34837826      0.36299061      3.86013516
C      -5.16979521     -0.99952979      4.05888611
C      -3.90964190     -1.56957446      4.17172113
C      -2.78763440     -0.75011398      4.08800570
C      -2.96843156      0.62410364      3.87796104
C      -4.22307713      1.18283494      3.76118715
S      -1.43249183      1.44606870      3.81697282
C      -0.57117968     -0.08536022      3.99736380
C       0.82668268     -0.12519466      3.92571775
C       1.55076921      1.09526162      3.91284839
C       2.91774609      1.14177628      3.86242056
C       3.69458944     -0.02900197      3.81259132
N       5.07167036      0.02221054      3.74658851
C       5.82736098     -1.20447589      3.82955509
C       5.74573403      1.24764824      4.10668657
C       2.99104728     -1.24293283      3.78886572
C       1.61884314     -1.29569565      3.83165255
N      -1.47316830     -1.12972016      4.19463572
C      -1.12867479     -2.36494515      4.85531342
H      -6.93298235      1.06622672      2.63041158
H      -6.77501026      1.93027531      4.15900686
H      -7.47138650      0.30514412      4.12857674
H      -6.03567663     -1.63905123      4.12957672
H      -3.81089527     -2.63317534      4.31268023
H      -4.33345471      2.24498421      3.61739999
H       0.99935863      2.02112388      3.97348324
H       3.39271225      2.10816052      3.87679174
H       6.88824859     -0.97545219      3.77657174
H       5.64112600     -1.74897510      4.76304884
H       5.58360560     -1.84869289      2.98158723
H       5.51330782      2.03899801      3.39114472
H       5.47194909      1.58978709      5.11163229
H       6.82030729      1.08857678      4.08191631
H       3.52679270     -2.17573312      3.74311258
H       1.15165914     -2.26314135      3.77605704
H      -0.22295754     -2.22980208      5.44296761
H      -0.98386150     -3.17451973      4.13414475
H      -1.93488985     -2.64540396      5.53452134
