99
 energy: -116.433549406625 gnorm: 0.000635184339 xtb: 6.7.1 (edcfbbe)
C           -6.71393578524818        0.95009379365735        3.69234092761997
C           -5.34837826204480        0.36299061021231        3.86013515589822
C           -5.16979520742160       -0.99952979192514        4.05888610706330
C           -3.90964190059719       -1.56957445759479        4.17172113306767
C           -2.78763439613400       -0.75011397706610        4.08800570195850
C           -2.96843156045099        0.62410364158326        3.87796103776784
C           -4.22307712545868        1.18283494044920        3.76118715328053
S           -1.43249182619764        1.44606869803909        3.81697281672446
C           -0.57117968385565       -0.08536022155509        3.99736380022538
C            0.82668268072124       -0.12519465910692        3.92571775319837
C            1.55076920739864        1.09526161921577        3.91284839188607
C            2.91774609113497        1.14177628488681        3.86242056076458
C            3.69458944195999       -0.02900197375581        3.81259131867969
N            5.07167036485840        0.02221054272216        3.74658850947058
C            5.82736098008823       -1.20447589371733        3.82955509478069
C            5.74573402666927        1.24764823558773        4.10668656942132
C            2.99104728077855       -1.24293283379801        3.78886571832337
C            1.61884314363889       -1.29569565164786        3.83165254572727
N           -1.47316829742859       -1.12972015759653        4.19463571610649
C           -1.12867478549333       -2.36494514840180        4.85531341561001
H           -6.93298235220943        1.06622671911914        2.63041158134926
H           -6.77501025854362        1.93027530908471        4.15900686344431
H           -7.47138650208285        0.30514411567287        4.12857674151200
H           -6.03567663083596       -1.63905123324696        4.12957672395027
H           -3.81089526971094       -2.63317533925361        4.31268023162000
H           -4.33345470888331        2.24498421083366        3.61739998816960
H            0.99935863418791        2.02112387831103        3.97348324477188
H            3.39271224963619        2.10816052094778        3.87679174017145
H            6.88824859119453       -0.97545219437877        3.77657174247075
H            5.64112600393721       -1.74897509782761        4.76304884316143
H            5.58360560470709       -1.84869288505412        2.98158722946477
H            5.51330781600614        2.03899800909372        3.39114472269137
H            5.47194908963563        1.58978708867720        5.11163229182910
H            6.82030729372517        1.08857678349206        4.08191631171360
H            3.52679270435429       -2.17573312342180        3.74311257868420
H            1.15165913719351       -2.26314135184087        3.77605703564436
H           -0.22295754269423       -2.22980207637964        5.44296760858546
H           -0.98386149841114       -3.17451972796803        4.13414474912449
H           -1.93488984814037       -2.64540395697148        5.53452133557001
B           -5.06792787385112        4.65609402214255        0.44933834866443
B           -5.41171273644275        2.99225708372497        0.25581709800536
B           -3.47399951748981        5.16277797573303        0.05934310382668
B           -3.81372321146005        3.52518581789959        0.30893558664833
B           -4.15245854166044        1.87202284849561        0.48631830962107
B           -6.09408311220706       -0.32500940171428        0.44089732987099
B           -6.42913581306873       -1.94595879605405        0.89112896854917
B           -4.49091769999883        0.23074265528242        0.58485833360196
B           -4.83455226987523       -1.42999785760396        0.63299289482145
B           -5.17367068096672       -3.08549390184526        0.62211741169829
B           -2.20107012198764        4.06076006335993        0.24777116555455
B           -2.54511498193488        2.40026645521208        0.40599996991547
B           -0.59933609771962        4.59246644968487        0.38721240460256
B           -0.94133407974688        2.93668307959190        0.35289868896174
B           -1.28403018955967        1.27344602910152        0.34183751099370
B           -3.22331389661809       -0.89013647378813        0.65410278462248
B           -3.56517991181702       -2.55999459114003        0.68781961656066
B           -1.62303669530495       -0.37146849178186        0.46166899546015
B           -1.96171222688843       -2.01550903264395        0.72431016210573
B           -2.29957201946511       -3.65255068162199        0.97055813007942
B            0.66626270475297        3.47116843461815        0.28169563366165
B            0.32311907153833        1.80654821833567        0.36294795814219
B            2.26570127232201        3.98069844645463        0.05697008928827
B            1.92879745287643        2.34232060688473        0.30786276410816
B            1.58763129411629        0.68893914320935        0.45372592101199
B           -0.35673982355578       -1.49123830023938        0.51977923830431
B           -0.69570468660973       -3.13781468901355        0.83668664639466
B            1.24807813754390       -0.95842721719690        0.52271676088076
B            0.90774175230235       -2.61068086055083        0.68157023180472
B            0.57009340800632       -4.25106610884030        0.90598158088961
B            3.53397884091514        2.88109425065061        0.28313556461568
B            3.19228794975200        1.21453849515135        0.35324894229561
B            5.13956967904785        3.40944058019158        0.40495622564394
B            4.80100940714671        1.75406977417512        0.38168186935329
B            4.45701749752770        0.09402002773961        0.43570184131132
B            2.51443950207987       -2.07479576976965        0.62798190739120
B            2.16868315032894       -3.74216095859847        0.67816106869747
B            4.11783700678712       -1.54998866880691        0.48002804259484
B            3.77759368466396       -3.20824824639391        0.57862484843616
B            3.43479681565807       -4.86096650969694        0.60142717453993
B            6.39818184344571        2.27189603175582        0.12327013883288
B            6.06285598054098        0.64515836541704        0.53928406968726
B            5.37441748824322       -2.68972574509191        0.40890003363734
B            5.04158275218811       -4.31161541209433        0.87079706086653
H           -5.85283462386954        5.42672415859606        0.84142503596494
H           -6.45774967986831        2.66269545446801       -0.13917869629916
H           -3.30880937654890        6.22986332248510       -0.38938650444564
H           -6.93093820917624        0.30640969524328       -0.07125095616903
H           -7.45394790636269       -2.27206581688853        1.34618457405666
H           -5.45003472955513       -4.17606794607193        0.30162023232428
H           -0.37453759973178        5.73101473994071        0.53667179488243
H           -2.53927896297919       -4.74161997791028        1.33009063815571
H            2.49760250311863        5.09819586302575       -0.20363173000865
H            0.34469137614204       -5.38476073206324        1.09712992197078
H            5.41410798530909        4.49263576596550        0.75285429702218
H            3.25769790726806       -5.97323028860716        0.28293105023526
H            7.41752256622640        2.61863636731067       -0.32838331003857
H            6.89972440697802       -0.01555218879111        1.01207461304884
H            6.40974584046428       -2.43380970304277       -0.06738263854706
H            5.84770110904387       -5.00458907294811        1.35593118979457
