99
 energy: -116.433453252629 gnorm: 0.001009710354 xtb: 6.7.1 (edcfbbe)
C            6.73147112063449       -0.92133757964095        3.69422196437880
C            5.36412809295740       -0.33870326564927        3.86213579617899
C            5.18724599941626        1.02514964933245        4.05758144511235
C            3.92842035876895        1.59743868313907        4.16747541293337
C            2.80501091193326        0.77942366238279        4.08396557509793
C            2.98392204551289       -0.59538574415833        3.87813373461945
C            4.23814231894414       -1.15673453265748        3.76417665872140
S            1.44658856095178       -1.41517278476076        3.81756903250308
C            0.58762106132899        0.11802456444404        3.99331864212507
C           -0.81048791383509        0.16023906818004        3.92410454529330
C           -1.53711798619133       -1.05863031904230        3.91758852441557
C           -2.90440973117938       -1.10221273232431        3.87191761292530
C           -3.67853648488573        0.07034001479334        3.82127174947233
N           -5.05504074499896        0.02220362223573        3.76667485635170
C           -5.81016200971838        1.24978810463350        3.83136113408881
C           -5.72981120445616       -1.20505161149263        4.11791948545756
C           -2.97239870272570        1.28266216700301        3.78735656658012
C           -1.59997441713467        1.33219424099706        3.82598871096802
N            1.49104273910728        1.16183604300539        4.18729478126453
C            1.14799362876428        2.39881741188144        4.84571152246157
H            7.00165674786106       -0.91584119395557        2.63777197213213
H            6.76311736928835       -1.94850428490218        4.04709112100278
H            7.47167497961695       -0.33957294329246        4.23631844013142
H            6.05463133397793        1.66266714807890        4.12777049188298
H            3.83114546888534        2.66152922132584        4.30570304292719
H            4.34595235641811       -2.21955183013365        3.62333619080448
H           -0.98728528021306       -1.98528834082553        3.97945445702795
H           -3.38223291936316       -2.06705747537572        3.89033182787572
H           -6.87143654923609        1.02003170851658        3.80601676212051
H           -5.60590489822976        1.81783638165890        4.74635326873665
H           -5.58394021966601        1.87310081865151        2.96281200868776
H           -5.52535004686323       -1.98270394521367        3.37854444224968
H           -5.42926799806724       -1.57068141063966        5.10641525036628
H           -6.80303008099302       -1.03661292488479        4.12977077963589
H           -3.50654876853003        2.21618556132719        3.73665095674117
H           -1.13038028864799        2.29795453430365        3.76207543389375
H            0.24161403748035        2.26601878342068        5.43287247132356
H            1.00483315299229        3.20713491109794        4.12286049246304
H            1.95416583633214        2.67929617116336        5.52492271220919
B           -5.09195280182133        4.24384153340060        0.84520841408702
B           -5.40979575861172        2.61647054023539        0.39093984399828
B           -3.49276168861809        4.80704923313288        0.57305825337124
B           -3.82034170375163        3.15116993647121        0.55803430889875
B           -4.14537768130015        1.48935300985846        0.46782618546773
B           -6.06761963575030       -0.72378012395048        0.54183708953605
B           -6.38794919912404       -2.35550873148703        0.13066677719774
B           -4.46952117549308       -0.15799959469572        0.43354312195739
B           -4.79822233965258       -1.82143065921576        0.38805108688617
B           -5.12165793769460       -3.47960027679965        0.41642691383631
B           -2.21397619978467        3.69980878822638        0.65388844302714
B           -2.54446120847939        2.02899177015346        0.61471060350460
B           -0.62258880781432        4.22554034660762        0.87537647512585
B           -0.94512236778910        2.58073497630823        0.66099239052014
B           -1.27037037752303        0.92428674479273        0.51542663161040
B           -3.19200351851799       -1.26763653514842        0.35576397241837
B           -3.51841114132701       -2.93762288720111        0.29485507013009
B           -1.59481754157017       -0.72649591129637        0.45564610179245
B           -1.92071399944271       -2.38359702306257        0.31678203596631
B           -2.24250933166401       -4.02621431037823        0.07407424934766
B            0.65569018299930        3.12249485095888        0.81886883399474
B            0.33204980315743        1.47122252810290        0.51083103364839
B            2.25205164842948        3.65257842995959        0.95571811808410
B            1.92948154166002        2.01159101862806        0.71454026207518
B            1.60604802195143        0.36336331694555        0.45844356865985
B           -0.31755599928370       -1.83342549850778        0.37122800737493
B           -0.64537379226099       -3.50131988798747        0.29501246999740
B            1.28215940475494       -1.28514360726621        0.34654760731260
B            0.95471112508113       -2.95138427825287        0.36592331370146
B            0.62779559096217       -4.61006194071173        0.40874165354653
B            3.53040808364269        2.56995275282920        0.67934725730755
B            3.20386396211643        0.89710915179707        0.64970391427914
B            5.13160271289627        3.11028481652774        0.61158594018117
B            4.80764224713348        1.45187306048468        0.62885851469725
B            4.47917592782608       -0.21212079142419        0.58825853159444
B            2.55597447792196       -2.40053865195262        0.41631674932505
B            2.22717800585122       -4.06509303125749        0.26958450816656
B            4.15583485163805       -1.85676407832568        0.49622363921007
B            3.83239888412566       -3.51380337873820        0.32717036044348
B            3.50780664676788       -5.15567486404354        0.08599948205672
B            6.39978665252178        1.98310427474039        0.88584839095337
B            6.07998424237510        0.35708991477150        0.44460330644022
B            5.42799446536687       -2.96720999982297        0.27230326915813
B            5.09936756581136       -4.63297841774508        0.47378353684295
H           -5.90734783770459        4.92920910837101        1.32578676693005
H           -6.44556468898663        2.34964114911747       -0.07843277679318
H           -3.32428155266393        5.91894456154272        0.24874697707140
H           -6.91128106924708       -0.07180987696777        1.01512573150863
H           -7.40738575521966       -2.71041570466711       -0.31435147142033
H           -5.38492850974455       -4.56413362155529        0.76869915753197
H           -0.40530510387855        5.36355206943620        1.04947950971120
H           -2.46295863929525       -5.14757063554092       -0.17969466810186
H            2.48249272365649        4.74433197355230        1.31338868433733
H            0.41434048458728       -5.75012514793187        0.56330535296216
H            5.39959732168084        4.20269475891165        0.29017610305254
H            3.35385515178034       -6.22717701634500       -0.35612838767168
H            7.41940952451953        2.32431561720995        1.34141756334773
H            6.92031826061526       -0.27052067710590       -0.06658877187020
H            6.46844169694031       -2.62793970165473       -0.12870875897988
H            5.88763432902385       -5.39633291484401        0.87323180750444
