99
 energy: -116.424359981916 gnorm: 0.000851293604 xtb: 6.7.1 (edcfbbe)
C            1.18894197146120        6.75532669570625        3.73298314982369
C            0.61390680592633        5.37780998290156        3.83611978044048
C           -0.76349528661502        5.19462580691428        3.88666855345854
C           -1.33677101963573        3.93664949176473        3.96804204936830
C           -0.50827125391178        2.81794088058067        4.00988628378085
C            0.87855518455321        3.00332920525443        3.95335136575734
C            1.44318574219509        4.25922891495790        3.86505221828097
S            1.71141280559969        1.46918924110895        4.01927890312391
C            0.17081363183976        0.60434241989722        4.03232856405557
C            0.14012381480727       -0.79365246846395        3.97955340480809
C            1.35644949257439       -1.51591766667940        4.09811164557626
C            1.40549812759212       -2.88312137893136        4.09135554948420
C            0.23883545819220       -3.66246172159320        3.96840780422857
N            0.27502971590094       -5.03085891675195        4.01433034812595
C           -0.90551480987483       -5.79921336313485        3.70750295940709
C            1.52039148787185       -5.72368625591132        4.22469237591414
C           -0.96598175613015       -2.95955694983228        3.79755106541293
C           -1.01799320008837       -1.58733456852903        3.78479771131843
N           -0.89189918838251        1.50241454349714        4.09429754036735
C           -2.20042687824137        1.15770118409557        4.59159520274334
H            0.86115470584922        7.22927662888018        2.80948497753262
H            2.27453345473815        6.72568838276399        3.74138422935211
H            0.85011871340743        7.37443255321361        4.56188891604588
H           -1.40737039988157        6.05943678627213        3.85877975796260
H           -2.40944137967471        3.83582077144676        3.99158000239261
H            2.51526290738804        4.36892043737790        3.83244393318248
H            2.27521943735564       -0.96118548172531        4.21094412290139
H            2.36650104310424       -3.35925429568888        4.18845531420280
H           -0.65716269402662       -6.85679858366006        3.70438403680895
H           -1.68671380691843       -5.63835801815162        4.45690781097557
H           -1.29878106623239       -5.53630005759628        2.72044456394456
H            2.18841248210210       -5.63036712382315        3.36130284094918
H            2.03074444062549       -5.33745798079053        5.10973348512725
H            1.32203640986893       -6.77933595613795        4.39167969923150
H           -1.88856017196086       -3.50052626473982        3.67074440075979
H           -1.96798088520636       -1.12153119135248        3.59706194863079
H           -2.13253373903138        0.28096392186570        5.23259082869707
H           -2.89626929815495        0.96148478775463        3.77066014346047
H           -2.58502235939874        1.98472401688244        5.18931970309395
B           -5.81337460843568        3.44787160984282        0.70733761998007
B           -5.83537113817157        1.76420958942266        0.39478500729938
B           -4.34549213089432        4.26924726737045        0.35184426076767
B           -4.36735632585713        2.58565702870876        0.50517900105864
B           -4.38666296311955        0.89090568833237        0.61011267879406
B           -5.87767976124915       -1.62576031072002        0.40091022240593
B           -5.89710937854414       -3.30788278183504        0.73540620971602
B           -4.40753892284190       -0.78820196585220        0.60981781591045
B           -4.43058797705244       -2.48317950780501        0.52305544707277
B           -4.45119532399252       -4.16797780260845        0.39206964291599
B           -2.88598957829989        3.41827801197179        0.44205931450838
B           -2.90846636891538        1.71732040136066        0.62477431686250
B           -1.41486605807042        4.23732285546610        0.59953567002805
B           -1.43581551025634        2.54977539606991        0.55741533729244
B           -1.45708161848400        0.85629970996659        0.50784052898460
B           -2.95017528588971       -1.65141753381489        0.63320964937381
B           -2.97051437374939       -3.35239574003296        0.44464344481797
B           -1.47801697134637       -0.82685725393103        0.50210311215411
B           -1.49920530255550       -2.52014176454408        0.47845935895988
B           -1.51930734139098       -4.20813439214966        0.46045043354725
B            0.04138330383468        3.38148947437426        0.58099083658883
B            0.01995569890572        1.68060201958189        0.44723268974701
B            1.51582690177011        4.20125035736398        0.56277039449102
B            1.49462907253570        2.51330789098193        0.50454402960453
B            1.47354620287686        0.81939943408301        0.45187050905328
B           -0.02175364456207       -1.68817118658996        0.46883666380808
B           -0.04330258923396       -3.38836348192052        0.60225483734663
B            1.45278436556535       -0.86369677108515        0.47070024324272
B            1.43123520603658       -2.55649138074279        0.57573509804022
B            1.41007938484367       -4.24220265975492        0.68181712320174
B            2.96865131320752        3.34554940594985        0.44302297207184
B            2.94896183585619        1.64447112236671        0.59021775914514
B            4.44625376115525        4.15948318022512        0.34260961498473
B            4.42633921639908        2.47582345939892        0.49347360052089
B            4.40340543878819        0.78150935499843        0.59150969138348
B            2.90681578475356       -1.72373411975310        0.61282798788381
B            2.88417112417363       -3.42657871607038        0.50018843582363
B            4.38237431052645       -0.89727840002454        0.60844022921360
B            4.36308947043045       -2.59283158458695        0.52708773536191
B            4.34078568150362       -4.27795951432647        0.39139295051223
B            5.89619763469318        3.30205219904241        0.69208163324661
B            5.87561661474799        1.61779469538152        0.37434475518500
B            5.83364295906910       -1.77260664289592        0.40810830960615
B            5.81183668633761       -3.45338815124946        0.73148951511511
H           -6.73073684772972        4.02178797374777        1.14819987547046
H           -6.78994637474336        1.27840806616207       -0.06546953222159
H           -4.39009899686226        5.37463008692924       -0.02845686142299
H           -6.82677971631922       -1.12107866327074       -0.05084451080257
H           -6.83693625516109       -3.84602415626466        1.17410732190010
H           -4.52384381379006       -5.27638737016686        0.02361709956252
H           -1.40834728153887        5.39800473814830        0.75067467268301
H           -1.53173752006846       -5.37385405459417        0.33094831198483
H            1.53406016899281        5.36905751815336        0.63353507706732
H            1.40395482422626       -5.39915702688318        0.86605968184449
H            4.51627390991216        5.25600639063869       -0.05854460126500
H            4.38429196796253       -5.38660500677127        0.01947093748124
H            6.83111827386745        3.84806506974239        1.12991268510830
H            6.81630196341279        1.11121438332089       -0.09179674058671
H            6.78520985380352       -1.29123838221123       -0.06230927726191
H            6.72955844933394       -4.02958642631143        1.16748491214268
