103
AZD1080/beta12_supported GFN2 opt
N       4.74300344      6.54874828      3.09675692
C       3.64749923      6.20411452      3.01825875
C       2.30983442      5.78429587      2.93959914
C       1.31319056      6.72369209      2.61663898
C      -0.00479894      6.34158280      2.53482463
C      -0.31503523      5.01018477      2.78318653
N      -1.53767958      4.39010032      2.76476637
C      -1.37096228      3.07920867      3.07583158
O      -2.39995372      2.23780800      3.12255443
C      -0.02713157      2.79683526      3.31021759
C       0.39571854      1.46986932      3.66264676
C       1.70390088      1.09343819      3.98782028
C       1.96455463     -0.20698964      4.36335195
C       0.92183550     -1.14558817      4.39778699
C       1.16676209     -2.57455138      4.79293427
N      -0.06159591     -3.19956595      5.25453307
C      -0.48252825     -2.76285334      6.57682069
C       0.30316702     -3.45022623      7.70239035
O       0.23426659     -4.85679072      7.59543370
C       0.71442637     -5.29535473      6.33868535
C      -0.07714468     -4.65159282      5.19440581
C      -0.33438070     -0.69922364      4.02768574
N      -0.60268718      0.54892536      3.68748559
C       0.67022606      4.04154021      3.12451321
C       1.99515716      4.44328032      3.19391525
H       1.60125684      7.74724049      2.43370069
H      -0.77749673      7.05069769      2.28281578
H      -2.41629005      4.81233714      2.51924332
H      -1.94283106      1.34550832      3.32804165
H       2.49840151      1.81671837      3.96319146
H       2.96604394     -0.50457628      4.63844101
H       1.98136471     -2.60467586      5.53483292
H       1.50720269     -3.13101418      3.90956855
H      -0.36897766     -1.68030412      6.64958691
H      -1.54200723     -3.01541036      6.68489873
H      -0.11933649     -3.19885520      8.67628194
H       1.35624728     -3.12837280      7.68150537
H       0.59504700     -6.37935690      6.33366861
H       1.78413804     -5.05228349      6.24433549
H      -1.12268478     -4.96576897      5.27669048
H       0.31204781     -4.97667899      4.22934082
H      -1.17535184     -1.37637829      4.02630483
H       2.79392281      3.76203575      3.43463099
B      -7.10886029      0.34087336      0.40498153
B      -6.40806751     -1.21460735      0.49148478
B      -6.11708138      1.60453960     -0.19522547
B      -5.42921652      0.14635287      0.31555834
B      -4.73155365     -1.33400756      0.76599798
B      -5.01161719     -4.21572652      1.22575154
B      -4.32720773     -5.63297176      1.89814874
B      -4.04052128     -2.81899124      1.13263041
B      -3.34188744     -4.33741051      1.42741463
B      -2.64316019     -5.85821045      1.66579800
B      -4.43913145      1.49349075      0.00434565
B      -3.74244018      0.00794342      0.46689470
B      -3.45666511      2.86769864     -0.10163873
B      -2.75984442      1.34806208      0.14869964
B      -2.05979498     -0.17159298      0.42818578
B      -2.35640276     -2.96278744      1.24411154
B      -1.64974947     -4.50472497      1.45830494
B      -1.36714921     -1.65707897      0.81170956
B      -0.67218729     -3.13794001      1.25502232
B       0.02310091     -4.62893857      1.63560555
B      -1.77316157      2.68896963     -0.17623479
B      -1.07213080      1.17949902      0.17841667
B      -0.77845248      3.98344273     -0.62409846
B      -0.08774350      2.52337085     -0.12676474
B       0.60724893      1.04011977      0.30815199
B       0.31617881     -1.80775839      0.88798291
B       1.01213774     -3.27895599      1.40017091
B       1.30082638     -0.45278775      0.65865878
B       1.99709372     -1.94132393      1.06956164
B       2.68831480     -3.40896742      1.54242084
B       0.89272540      3.88380745     -0.36583590
B       1.59579673      2.37616861     -0.00403951
B       1.88042984      5.25126300     -0.50778340
B       2.57930148      3.74197167     -0.21765861
B       3.27682692      2.23478726      0.12599046
B       2.98071503     -0.58672566      0.80780784
B       3.68255599     -2.11209700      1.10080419
B       3.96935632      0.73831785      0.44107197
B       4.66983897     -0.76898392      0.77731468
B       5.36489855     -2.28253278      1.05412795
B       3.56896998      5.03434961     -0.70614926
B       4.25022854      3.62186266     -0.01143227
B       5.65680675      0.54267459      0.38634441
B       6.34073356     -0.86964646      1.07992262
H      -8.21658023      0.56165571      0.71905584
H      -7.05525623     -2.15399655      0.23799126
H      -6.61443066      2.49545458     -0.77604097
H      -6.08165168     -4.26403276      0.75647410
H      -4.96861074     -6.43128470      2.46998561
H      -2.21839890     -6.94870849      1.56762733
H      -3.94422627      3.93683096     -0.13321625
H       0.50373677     -5.66209858      1.93266602
H      -1.24496333      4.96294528     -1.07542220
H       3.17245886     -4.41043448      1.92646664
H       1.44275984      6.33821907     -0.45276616
H       5.87721808     -3.33187716      0.92547227
H       4.19922514      5.81350217     -1.31099550
H       5.30763961      3.67183926      0.48284255
H       6.33603113      1.26141626     -0.23987532
H       7.42464845     -0.89597803      1.52527760
