43
drug @complex
N       4.74300344      6.54874828      3.09675692
C       3.64749923      6.20411452      3.01825875
C       2.30983442      5.78429587      2.93959914
C       1.31319056      6.72369209      2.61663898
C      -0.00479894      6.34158280      2.53482463
C      -0.31503523      5.01018477      2.78318653
N      -1.53767958      4.39010032      2.76476637
C      -1.37096228      3.07920867      3.07583158
O      -2.39995372      2.23780800      3.12255443
C      -0.02713157      2.79683526      3.31021759
C       0.39571854      1.46986932      3.66264676
C       1.70390088      1.09343819      3.98782028
C       1.96455463     -0.20698964      4.36335195
C       0.92183550     -1.14558817      4.39778699
C       1.16676209     -2.57455138      4.79293427
N      -0.06159591     -3.19956595      5.25453307
C      -0.48252825     -2.76285334      6.57682069
C       0.30316702     -3.45022623      7.70239035
O       0.23426659     -4.85679072      7.59543370
C       0.71442637     -5.29535473      6.33868535
C      -0.07714468     -4.65159282      5.19440581
C      -0.33438070     -0.69922364      4.02768574
N      -0.60268718      0.54892536      3.68748559
C       0.67022606      4.04154021      3.12451321
C       1.99515716      4.44328032      3.19391525
H       1.60125684      7.74724049      2.43370069
H      -0.77749673      7.05069769      2.28281578
H      -2.41629005      4.81233714      2.51924332
H      -1.94283106      1.34550832      3.32804165
H       2.49840151      1.81671837      3.96319146
H       2.96604394     -0.50457628      4.63844101
H       1.98136471     -2.60467586      5.53483292
H       1.50720269     -3.13101418      3.90956855
H      -0.36897766     -1.68030412      6.64958691
H      -1.54200723     -3.01541036      6.68489873
H      -0.11933649     -3.19885520      8.67628194
H       1.35624728     -3.12837280      7.68150537
H       0.59504700     -6.37935690      6.33366861
H       1.78413804     -5.05228349      6.24433549
H      -1.12268478     -4.96576897      5.27669048
H       0.31204781     -4.97667899      4.22934082
H      -1.17535184     -1.37637829      4.02630483
H       2.79392281      3.76203575      3.43463099
