60
carrier @complex
B      -7.10886029      0.34087336      0.40498153
B      -6.40806751     -1.21460735      0.49148478
B      -6.11708138      1.60453960     -0.19522547
B      -5.42921652      0.14635287      0.31555834
B      -4.73155365     -1.33400756      0.76599798
B      -5.01161719     -4.21572652      1.22575154
B      -4.32720773     -5.63297176      1.89814874
B      -4.04052128     -2.81899124      1.13263041
B      -3.34188744     -4.33741051      1.42741463
B      -2.64316019     -5.85821045      1.66579800
B      -4.43913145      1.49349075      0.00434565
B      -3.74244018      0.00794342      0.46689470
B      -3.45666511      2.86769864     -0.10163873
B      -2.75984442      1.34806208      0.14869964
B      -2.05979498     -0.17159298      0.42818578
B      -2.35640276     -2.96278744      1.24411154
B      -1.64974947     -4.50472497      1.45830494
B      -1.36714921     -1.65707897      0.81170956
B      -0.67218729     -3.13794001      1.25502232
B       0.02310091     -4.62893857      1.63560555
B      -1.77316157      2.68896963     -0.17623479
B      -1.07213080      1.17949902      0.17841667
B      -0.77845248      3.98344273     -0.62409846
B      -0.08774350      2.52337085     -0.12676474
B       0.60724893      1.04011977      0.30815199
B       0.31617881     -1.80775839      0.88798291
B       1.01213774     -3.27895599      1.40017091
B       1.30082638     -0.45278775      0.65865878
B       1.99709372     -1.94132393      1.06956164
B       2.68831480     -3.40896742      1.54242084
B       0.89272540      3.88380745     -0.36583590
B       1.59579673      2.37616861     -0.00403951
B       1.88042984      5.25126300     -0.50778340
B       2.57930148      3.74197167     -0.21765861
B       3.27682692      2.23478726      0.12599046
B       2.98071503     -0.58672566      0.80780784
B       3.68255599     -2.11209700      1.10080419
B       3.96935632      0.73831785      0.44107197
B       4.66983897     -0.76898392      0.77731468
B       5.36489855     -2.28253278      1.05412795
B       3.56896998      5.03434961     -0.70614926
B       4.25022854      3.62186266     -0.01143227
B       5.65680675      0.54267459      0.38634441
B       6.34073356     -0.86964646      1.07992262
H      -8.21658023      0.56165571      0.71905584
H      -7.05525623     -2.15399655      0.23799126
H      -6.61443066      2.49545458     -0.77604097
H      -6.08165168     -4.26403276      0.75647410
H      -4.96861074     -6.43128470      2.46998561
H      -2.21839890     -6.94870849      1.56762733
H      -3.94422627      3.93683096     -0.13321625
H       0.50373677     -5.66209858      1.93266602
H      -1.24496333      4.96294528     -1.07542220
H       3.17245886     -4.41043448      1.92646664
H       1.44275984      6.33821907     -0.45276616
H       5.87721808     -3.33187716      0.92547227
H       4.19922514      5.81350217     -1.31099550
H       5.30763961      3.67183926      0.48284255
H       6.33603113      1.26141626     -0.23987532
H       7.42464845     -0.89597803      1.52527760
