103
 energy: -131.237931005715 gnorm: 0.000767941886 xtb: 6.7.1 (edcfbbe)
N           -6.33019394354999        4.26201615936359        4.50488980142190
C           -5.99792195812437        3.16418969390562        4.40976963821060
C           -5.58017591374221        1.82672081542859        4.31253461800372
C           -6.54304198672228        0.80086191508450        4.32504503343977
C           -6.15796651899733       -0.51627620190615        4.24099047223089
C           -4.80014431464761       -0.79486237858720        4.14875495499871
N           -4.17412774550751       -2.01010052864900        4.05615177392839
C           -2.83367561973024       -1.80908838180582        3.97590016534157
O           -1.98299159935359       -2.82636719209298        3.87394820664242
C           -2.53595597300969       -0.45012618179644        4.02569283214830
C           -1.17632300890923        0.01099582867608        3.97103448449609
C           -0.76978780075871        1.34640967583441        4.07971447289812
C            0.57198610650061        1.65710337653654        4.03628277795700
C            1.52077161706660        0.63532573031883        3.87825696452743
C            2.98817530372595        0.93293761914201        3.79229912668538
N            3.78044682582717       -0.16883986220593        4.31518863503470
C            3.67711449814787       -0.34551792881358        5.75537117050914
C            4.53485351613717        0.65953411029972        6.53672794732542
O            5.88606564530194        0.61270510463572        6.12688294307464
C            6.00551340748401        0.85813803173751        4.73859274255178
C            5.18128102352387       -0.14809095739648        3.92605998647887
C            1.03481981023265       -0.65632219771729        3.77305529135556
N           -0.24811808762447       -0.97021234703599        3.82220583190869
C           -3.80378926969815        0.22095208882188        4.13647027215081
C           -4.21175074236987        1.54361597553988        4.21614253685328
H           -7.58612237223801        1.06485007330746        4.40156246193578
H           -6.88555726394053       -1.31243913095752        4.24495241275806
H           -4.62495983872630       -2.90735456729193        4.00381082818699
H           -1.08336812064442       -2.35091776966629        3.80456838712723
H           -1.49769262833848        2.12631490460100        4.21325062559441
H            0.89513342204909        2.68365744005982        4.13115257394890
H            3.18832850648529        1.89467409924838        4.29288744675358
H            3.25831264696449        1.04119335719486        2.73230990588227
H            2.63164200778678       -0.25406323146916        6.05313019594319
H            4.02391604060452       -1.35701862770857        5.98882600740415
H            4.53273681591373        0.42229302667625        7.60152942882157
H            4.14198414728461        1.67953060191558        6.40199463250361
H            7.06732308402440        0.76605155606777        4.50771017969338
H            5.67968220332894        1.88583491983178        4.51417795490363
H            5.58127157001717       -1.15072195995957        4.10935017715692
H            5.25827360323297        0.07623015139505        2.85988176108759
H            1.71889447950301       -1.48508817514514        3.66642729180524
H           -3.51543630015503        2.36582689075119        4.20892526118141
B           -6.41492913931998        1.92827945417510        0.96120435221165
B           -6.09016431438788        0.27092755469268        0.67973327579347
B           -5.16923227254846        3.03421100249730        0.54486110927261
B           -4.82761129879493        1.38724657366699        0.70792589273589
B           -4.48312295383152       -0.27098527015142        0.81011227291669
B           -5.40907878758061       -3.04993160727926        0.77366011674831
B           -5.05687536933385       -4.68744645127089        1.12737630696758
B           -4.14595442632703       -1.91508473377189        0.84535534403675
B           -3.80966027377047       -3.57787808100051        0.81968315471319
B           -3.47478115152493       -5.23167750249176        0.73897518808475
B           -3.55916987963298        2.51508281573152        0.61030201677465
B           -3.21488907007527        0.85032876338221        0.75240148807734
B           -2.28887651149603        3.62919105020115        0.72624904410149
B           -1.95431076705631        1.97505296933346        0.66110690021065
B           -1.61952251062271        0.31366039040073        0.57628617170248
B           -2.53899022008600       -2.44903376087099        0.81440053767759
B           -2.20015274746424       -4.11949773439118        0.73029603409105
B           -1.28156602466437       -1.33558420652055        0.60838512707751
B           -0.93770660606313       -2.99115531375855        0.73862830790320
B           -0.59557495181906       -4.64051983581325        0.86355965923453
B           -0.68691161482517        3.10134758243095        0.63350901786983
B           -0.35453252181881        1.43141629452393        0.46529886761789
B            0.57858378404935        4.21437058342481        0.55564944978348
B            0.91343822344060        2.55985918372186        0.50791518241725
B            1.24876534589328        0.89861637710390        0.44074468561733
B            0.32241560946666       -1.86917766345866        0.54024551919131
B            0.67162506139354       -3.52738163788880        0.76987348119176
B            1.58738956491382       -0.75018821924172        0.48608820251724
B            1.93169512673544       -2.40506112089943        0.62423848042891
B            2.27379799003814       -4.05475651741899        0.73612346616206
B            2.16925440344679        3.68277978537995        0.31019472790794
B            2.51865587757759        2.01968019539127        0.46950172621981
B            3.43406267749144        4.78927366459630        0.13538323252685
B            3.77939622714649        3.14264723737769        0.28931261314193
B            4.12153700900233        1.48390132769534        0.39953922136997
B            3.19571037306293       -1.27895729594699        0.55904638000516
B            3.52963785648420       -2.95081110062380        0.46015465985777
B            4.45864019929596       -0.16000526281756        0.43706486308045
B            4.79724480616233       -1.82256689698637        0.39741796516111
B            5.12847915855372       -3.47706740952046        0.30909066817898
B            5.04767362375439        4.26622305028762        0.40459133021208
B            5.37287567428133        2.60897706988324        0.13803487765566
B            6.05294613284180       -0.71254575141777        0.19964022970652
B            6.40418022371811       -2.35108801598383        0.54471754795610
H           -7.44369982721060        2.31104758000296        1.36762563839292
H           -6.95050885652341       -0.41356294675247        0.28235814914636
H           -5.46067639963424        4.08546800062231        0.11576493129840
H           -6.47798479478580       -2.76705881313277        0.39284052314612
H           -5.84434378578464       -5.41700672487743        1.60193990143149
H           -3.32066642754708       -6.34797131476451        0.41055216257240
H           -2.52543953657746        4.76471414022408        0.90398022921757
H           -0.36686298302743       -5.77850255731928        1.03745698120794
H            0.36837938410988        5.35931212457650        0.70830799660612
H            2.52871904161983       -5.18308761920249        0.93726074763675
H            3.24455819863094        5.88851318412224       -0.23098008605492
H            5.38797318596522       -4.57009233890902       -0.03199653851547
H            5.87551402259063        5.02828324158884        0.73573628696256
H            6.40244475126278        2.29676937055695       -0.32026086011392
H            6.87530468929888       -0.04580750247564       -0.29692207412906
H            7.46347255753891       -2.71024485705161        0.89624574220128
