32
RDKit ETKDG+MMFF
O       1.70953833      1.85620568      2.41388846
C       1.36864991      1.14205132      1.47332832
C      -0.06407877      0.86060361      1.22464471
O      -0.97599391      1.42318455      2.09902556
C      -0.39309190      0.07027414      0.18577633
C      -1.78795004     -0.29497121     -0.14842258
C      -2.09762510     -1.63012896     -0.47258136
C      -3.39990977     -2.00432134     -0.81561304
C      -4.39454555     -1.04097778     -0.83937451
O      -5.66743280     -1.40355839     -1.17321380
C      -4.10746679      0.28446880     -0.52863686
O      -5.13760778      1.18415475     -0.57142835
C      -2.81246520      0.66620969     -0.18997663
O       0.53675449     -0.50838207     -0.67082660
C       1.87043616     -0.25979039     -0.47055037
C       2.76717140     -0.85170765     -1.35919654
C       4.13350361     -0.63453655     -1.20166802
O       4.97520808     -1.23212734     -2.09220217
C       4.61998332      0.16464494     -0.17043767
C       3.71937777      0.75316291      0.71422074
O       4.25096597      1.52823518      1.70916478
C       2.34506541      0.54106453      0.56381585
H      -0.43569942      1.89793981      2.76573269
H      -1.32330119     -2.39473890     -0.45569462
H      -3.63270718     -3.03590252     -1.06095357
H      -6.17925400     -0.57175932     -1.12208235
H      -4.79378737      2.04844562     -0.28609791
H      -2.59144061      1.70398278      0.04032709
H       2.40698315     -1.47842272     -2.17062560
H       5.89172097     -0.99823323     -1.86675996
H       5.68363417      0.33860944     -0.04078642
H       3.51536464      1.87632060      2.26084534
