32
 energy: -65.720431245200 gnorm: 0.000524637647 xtb: 6.7.1 (edcfbbe)
O            1.65234895583078        2.17860337105948        2.19650686313838
C            1.36581430497031        1.33645297812371        1.31985539108581
C           -0.03309689950157        1.05807530281086        1.04223295961432
O           -0.89538212656348        1.77854222426758        1.80120489282407
C           -0.40037379712133        0.13466662790384        0.10177941016560
C           -1.76180562071553       -0.24595199998816       -0.25808026540253
C           -1.97979546051362       -1.35999731827508       -1.07190263745714
C           -3.25784734115662       -1.73718822520158       -1.42820474361305
C           -4.35608826204826       -1.01263692646962       -0.98680612610817
O           -5.60865631470214       -1.38052182444107       -1.33817538191400
C           -4.14344631850601        0.10858585958368       -0.16950039528685
O           -5.26158172907236        0.79243535877154        0.23915904040861
C           -2.86678704843239        0.48448348612483        0.18862785183169
O            0.54554586723259       -0.54021269011377       -0.60210761232169
C            1.85917403576008       -0.32567384648206       -0.40638894934081
C            2.75674363092984       -1.05145691404840       -1.17794244248706
C            4.12012084753617       -0.85238247841822       -1.00142203120742
O            4.96512448758282       -1.57241590531401       -1.76981493446521
C            4.59584734033721        0.06138004161055       -0.06123551332123
C            3.71331597162926        0.79171335873034        0.71603609026840
O            4.17120632459896        1.66370384813182        1.61333535232526
C            2.32010820698145        0.60005463323159        0.54309464664084
H           -0.31232530759330        2.31571588333108        2.38074914497319
H           -1.13778459711295       -1.93428765495028       -1.42093600856756
H           -3.43033362100253       -2.59843749127109       -2.05268928580905
H           -6.22908692869710       -0.75616299206832       -0.93554434229243
H           -4.99481269862438        1.53017155154805        0.79870028202866
H           -2.72480533675088        1.35046001199055        0.81380888518187
H            2.40426628668819       -1.75960443233889       -1.90724721045954
H            5.88022247493833       -1.34858142410579       -1.55765930430509
H            5.65611220229559        0.21365530514834        0.07495481173489
H            3.38805847080212        2.07681226110988        2.05925250213847
