60
carrier @complex
B      -5.85845362      3.06252789      0.49535543
B      -5.82465595      1.39663890      0.09696855
B      -4.41390172      3.94556588      0.21884792
B      -4.38442381      2.25670931      0.26299773
B      -4.35095327      0.56077526      0.24675551
B      -5.76076644     -1.99185227     -0.03255295
B      -5.73010498     -3.68534077      0.19978905
B      -4.31898399     -1.11627389      0.18616028
B      -4.28840092     -2.80766411      0.05815876
B      -4.25341262     -4.48591594     -0.14504593
B      -2.92963242      3.13548186      0.31312071
B      -2.89959440      1.43105385      0.31874126
B      -1.48621130      3.98536999      0.56566060
B      -1.45341559      2.30754341      0.37102025
B      -1.42064957      0.62345468      0.14906160
B      -2.83544834     -1.93285978      0.15428190
B      -2.80095145     -3.63127566      0.02523431
B      -1.38861516     -1.05786268      0.06454513
B      -1.35720784     -2.75526113      0.13223900
B      -1.32523750     -4.44412043      0.19140236
B      -0.00346362      3.18175278      0.46250209
B       0.02923424      1.49268547      0.20290969
B       1.44435637      4.04969529      0.45544294
B       1.47695476      2.36588381      0.33188006
B       1.50905904      0.67551198      0.22334280
B       0.09328448     -1.87541973      0.10126949
B       0.12554843     -3.57680607      0.07806734
B       1.54100457     -1.00629873      0.16876604
B       1.57366549     -2.69783585      0.08113918
B       1.60576350     -4.37637183     -0.11730405
B       2.92418016      3.24620924      0.31669749
B       2.95805008      1.54219735      0.33247875
B       4.37514124      4.11102380      0.24697703
B       4.40847381      2.42350098      0.25973141
B       4.43883261      0.72931875      0.19775130
B       3.02242995     -1.82036870      0.11424456
B       3.05234974     -3.52328947      0.11050760
B       4.47080128     -0.94947474      0.19408583
B       4.50388552     -2.64598685      0.20397339
B       4.53261941     -4.33399327      0.25321702
B       5.85085892      3.28331464      0.54686076
B       5.88435949      1.61638956      0.13186385
B       5.94596486     -1.78394218      0.36526997
B       5.98180799     -3.45445604     -0.01171850
H      -6.82171029      3.59327530      0.89809087
H      -6.77143212      0.91120249     -0.38654741
H      -4.48262589      5.06602381     -0.12252905
H      -6.72341956     -1.48652112     -0.45948975
H      -6.66012456     -4.29699705      0.56502243
H      -4.27823306     -5.58946305     -0.54202323
H      -1.52058891      5.12309572      0.85070433
H      -1.31308317     -5.60369021      0.36592514
H       1.42473006      5.22186059      0.49632746
H       1.63161784     -5.51938349     -0.38044406
H       4.40804684      5.23137178     -0.09991055
H       4.59672902     -5.46120361      0.56747876
H       6.78317488      3.83897371      0.98736957
H       6.86577791      1.15728627     -0.31101191
H       6.87595630     -1.27528367      0.86013407
H       6.93441743     -3.99578449     -0.42528583
