90
Baicalein on beta12_supported 270 deg
O       3.03893286      1.43233723      3.57374063
C       1.90757917      0.95032446      3.71862024
C       1.64362776     -0.46691939      3.75634163
C       0.38657196     -0.95204193      3.91442252
C       0.05857283     -2.38310412      3.93236147
C       0.99003221     -3.33534530      4.34432767
C       0.66210648     -4.67766187      4.33795927
C      -0.59410436     -5.08876003      3.92202723
C      -1.52863764     -4.14833171      3.52099862
C      -1.20859211     -2.80421367      3.52923127
O      -0.69227586     -0.15897651      4.04287687
C      -0.54169352      1.18856130      4.01949946
C      -1.68274293      1.96615989      4.15920260
C      -1.57583107      3.34893668      4.13770990
O      -2.67706493      4.11444860      4.27265633
C      -0.32323532      3.95652367      3.97442360
O      -0.26359268      5.32745057      3.95597243
C       0.82270500      3.18346501      3.83664206
O       2.00661745      3.80563791      3.68287447
C       0.71976269      1.77883147      3.86050594
H       2.48017383     -1.13262896      3.62934520
H       1.96354175     -3.02303757      4.68865857
H       1.38907535     -5.40753734      4.66155556
H      -0.84470518     -6.13891558      3.91526362
H      -2.51017215     -4.46372104      3.20000000
H      -1.93346074     -2.06998835      3.21293594
H      -2.64735643      1.50616163      4.28483209
H      -2.40160521      5.04259585      4.23262674
H       0.66544837      5.56696186      3.83571430
H       2.69032240      3.08278723      3.60322089
B      -5.85857624      3.38040841      0.00000000
B      -5.85854689      1.69158049     -0.00000000
B      -4.39532834      4.22466855     -0.00000000
B      -4.39711400      2.53475765     -0.00000000
B      -4.39575475      0.84147203     -0.00000000
B      -5.85854686     -1.69158078      0.00000000
B      -5.85857617     -3.38040837     -0.00000000
B      -4.39575479     -0.84147232     -0.00000000
B      -4.39711414     -2.53475765      0.00000000
B      -4.39532857     -4.22466843      0.00000000
B      -2.92793521      3.38324044     -0.00000000
B      -2.92888517      1.68724694     -0.00000000
B      -1.46554580      4.22439782     -0.00000000
B      -1.46605622      2.53507234     -0.00000000
B      -1.46573170      0.84295491     -0.00000000
B      -2.92888518     -1.68724692      0.00000000
B      -2.92793508     -3.38324074      0.00000000
B      -1.46573174     -0.84295512     -0.00000000
B      -1.46605627     -2.53507234      0.00000000
B      -1.46554588     -4.22439779     -0.00000000
B       0.00067086      3.38275146      0.00000000
B       0.00067433      1.68721076      0.00000000
B       1.46420559      4.22439023     -0.00000000
B       1.46473580      2.53506444     -0.00000000
B       1.46438553      0.84295188     -0.00000000
B       0.00067433     -1.68721088      0.00000000
B       0.00067085     -3.38275170      0.00000000
B       1.46438555     -0.84295208     -0.00000000
B       1.46473583     -2.53506442     -0.00000000
B       1.46420568     -4.22439021     -0.00000000
B       2.92927005      3.38326104     -0.00000000
B       2.93022956      1.68726759      0.00000000
B       4.39401124      4.22463050     -0.00000000
B       4.39579743      2.53472819      0.00000000
B       4.39441416      0.84146678     -0.00000000
B       2.93022962     -1.68726763     -0.00000000
B       2.92927005     -3.38326139     -0.00000000
B       4.39441419     -0.84146703     -0.00000000
B       4.39579756     -2.53472819     -0.00000000
B       4.39401144     -4.22463033     -0.00000000
B       5.85997303      3.38040496      0.00000000
B       5.85993260      1.69164307     -0.00000000
B       5.85993251     -1.69164335      0.00000000
B       5.85997297     -3.38040486      0.00000000
H      -6.86866001      3.98474441      0.00000000
H      -6.88164909      1.12316321     -0.00000000
H      -4.39961690      5.40226943     -0.00000000
H      -6.88164986     -1.12316494      0.00000000
H      -6.86866148     -3.98474191     -0.00000000
H      -4.39961557     -5.40226922      0.00000000
H      -1.46579024      5.40011773     -0.00000000
H      -1.46578943     -5.40011766      0.00000000
H       1.46622796      5.40011192     -0.00000000
H       1.46622721     -5.40011186     -0.00000000
H       4.39986570      5.40225046     -0.00000000
H       4.39986407     -5.40225022     -0.00000000
H       6.86878772      3.98676429      0.00000000
H       6.88200886      1.12155941     -0.00000000
H       6.88200989     -1.12156160      0.00000000
H       6.86878944     -3.98676138      0.00000000
