90
 energy: -119.141996286066 gnorm: 0.000764763498 xtb: 6.7.1 (edcfbbe)
O            1.43295839363313       -2.62627117706022        3.23783859923864
C            0.87501069101692       -1.49121556354487        3.38258815796443
C           -0.51338035653097       -1.29050881464849        3.42970187728950
C           -1.08177863003230       -0.03220128304877        3.55520810377533
C           -2.48241507222160        0.24887448356643        3.58876881778271
C           -3.46360216103880       -0.76142910255685        3.50479121426783
C           -4.80369193859830       -0.45267408437515        3.53550035728108
C           -5.23082691329767        0.86505061128767        3.64994228258586
C           -4.28008411593625        1.87573360511040        3.74122989823450
C           -2.93788641557923        1.58163048409317        3.70888013650927
O           -0.28541131308645        1.09495207498251        3.65387238158745
C            1.06021157040002        0.96712615082983        3.62625121559809
C            1.81960842373421        2.12635811994878        3.70722661864060
C            3.20580746958158        2.04847694404593        3.61963490328314
O            3.95235598979086        3.18663543182150        3.64291465933455
C            3.83427489112981        0.81490251164201        3.46746682305506
O            5.20717607852646        0.77683543612641        3.33792056785384
C            3.07676526523524       -0.35271508416080        3.41592200615283
O            3.69712142817406       -1.53912176110854        3.24939404903170
C            1.67956235424519       -0.27762548937348        3.48422061936044
H           -1.14598271971353       -2.15787722011560        3.37503527955085
H           -3.16501880183213       -1.79356478853482        3.43160666483393
H           -5.53489522929819       -1.24532952702074        3.47204495187568
H           -6.28311702988300        1.09907001996073        3.67401952314698
H           -4.60035641904484        2.90340885941163        3.83785831199537
H           -2.20961968509636        2.37236537132489        3.78826713286533
H            1.34773446187387        3.08617500397963        3.81952793500857
H            4.87530254340720        2.92606352888740        3.51602970150290
H            5.42899602865982       -0.13321077694041        3.09959073855797
H            2.91180708275623       -2.20461147688980        3.21678526573929
B           -5.85845361684961        3.06252788860572        0.49535542659182
B           -5.82465595178746        1.39663889776268        0.09696855192988
B           -4.41390172328850        3.94556587646481        0.21884792165666
B           -4.38442381190797        2.25670930869101        0.26299772853912
B           -4.35095326618618        0.56077525504183        0.24675550576727
B           -5.76076644392612       -1.99185227299285       -0.03255294823983
B           -5.73010497790675       -3.68534077155884        0.19978904537700
B           -4.31898399334872       -1.11627389163116        0.18616027832518
B           -4.28840091703308       -2.80766410999710        0.05815875932157
B           -4.25341261826678       -4.48591593877479       -0.14504592714982
B           -2.92963242484909        3.13548186360158        0.31312070560006
B           -2.89959440420855        1.43105384994300        0.31874126288584
B           -1.48621129981201        3.98536998809566        0.56566059918816
B           -1.45341559006584        2.30754340864042        0.37102025115531
B           -1.42064957201077        0.62345468348561        0.14906159586178
B           -2.83544834132349       -1.93285978147137        0.15428190484555
B           -2.80095144920693       -3.63127566485810        0.02523430568031
B           -1.38861515611611       -1.05786268285963        0.06454513064477
B           -1.35720784115943       -2.75526113498186        0.13223900102990
B           -1.32523750482071       -4.44412042864802        0.19140236129346
B           -0.00346362008968        3.18175278249717        0.46250209374730
B            0.02923424381637        1.49268547330301        0.20290968655939
B            1.44435636961168        4.04969528950654        0.45544293948441
B            1.47695476292906        2.36588381043886        0.33188006406140
B            1.50905903804937        0.67551197653346        0.22334279774993
B            0.09328448449795       -1.87541972905443        0.10126948640184
B            0.12554843340193       -3.57680607353528        0.07806734357511
B            1.54100457145257       -1.00629873131058        0.16876603568582
B            1.57366548545377       -2.69783584671465        0.08113918085669
B            1.60576349979548       -4.37637182899428       -0.11730404971714
B            2.92418015813089        3.24620924282996        0.31669748851868
B            2.95805007589339        1.54219734701493        0.33247874894592
B            4.37514124197949        4.11102380311258        0.24697702691217
B            4.40847381424055        2.42350098296829        0.25973141064898
B            4.43883261320121        0.72931874900969        0.19775130356326
B            3.02242995226334       -1.82036869672049        0.11424455930218
B            3.05234974346317       -3.52328946597023        0.11050760392939
B            4.47080128185578       -0.94947473626778        0.19408582737014
B            4.50388551809466       -2.64598685372052        0.20397338747789
B            4.53261940706200       -4.33399326546827        0.25321701773354
B            5.85085892350348        3.28331464045500        0.54686076004014
B            5.88435949359263        1.61638955744667        0.13186384836018
B            5.94596485849838       -1.78394217565081        0.36526997040673
B            5.98180798872997       -3.45445603870819       -0.01171849761048
H           -6.82171028916918        3.59327530397946        0.89809087233040
H           -6.77143211561277        0.91120249225940       -0.38654740745131
H           -4.48262589215792        5.06602380538932       -0.12252905242220
H           -6.72341955876005       -1.48652112175914       -0.45948975384114
H           -6.66012455862331       -4.29699704565814        0.56502243199663
H           -4.27823305747198       -5.58946305176614       -0.54202323098704
H           -1.52058891428488        5.12309572486679        0.85070432510690
H           -1.31308316600924       -5.60369020639827        0.36592513794991
H            1.42473005749250        5.22186058748078        0.49632746051435
H            1.63161783746956       -5.51938348841013       -0.38044405788432
H            4.40804683877139        5.23137178372795       -0.09991055321473
H            4.59672901708679       -5.46120361368200        0.56747875582389
H            6.78317487687087        3.83897371305314        0.98736956630022
H            6.86577790915044        1.15728626838036       -0.31101190782446
H            6.87595630275481       -1.27528366926894        0.86013407468734
H            6.93441742620961       -3.99578448562408       -0.42528582930446
