90
 energy: -119.137577000312 gnorm: 0.000972525978 xtb: 6.7.1 (edcfbbe)
O            3.03072336107484        1.47570827965498        3.40269644899959
C            1.88106506200486        0.93941603592350        3.49855119403949
C            1.64854707618629       -0.44461865936858        3.53543053854074
C            0.37236837147861       -0.98309893319658        3.59552961549123
C            0.05191522575548       -2.37670325312892        3.62178503122585
C            1.03745709908161       -3.38494959841927        3.67556856201698
C            0.68788398258853       -4.71524856236227        3.69014344375932
C           -0.64573600141048       -5.10362126158995        3.64617494889198
C           -1.63264257927906       -4.12577431803832        3.59954434867428
C           -1.29799001400284       -2.79246634651795        3.59136801599569
O           -0.74073003510638       -0.16472417859117        3.61482737648034
C           -0.58442679461469        1.17548355578149        3.59118980969673
C           -1.73149129540338        1.95699837322041        3.58040728112796
C           -1.62148841316517        3.34150408951621        3.50516089586180
O           -2.74622551679229        4.10580549903422        3.43755869755970
C           -0.36837810895265        3.94617905465901        3.45451846318539
O           -0.28946616147368        5.31694767165935        3.33497222036053
C            0.78562948993974        3.16489646872970        3.48335218921130
O            1.99261607229794        3.76368069439337        3.40142702596081
C            0.67975921856562        1.76875225998405        3.54032808654279
H            2.50461917062589       -1.09424274718554        3.51192214004766
H            2.07961225569752       -3.11431114246305        3.72476871997706
H            1.46155246669372       -5.46744267892816        3.73773316141623
H           -0.91115646346258       -6.14858416663579        3.65454591446064
H           -2.67284738891783       -4.41689507672548        3.57172800004352
H           -2.06837993463330       -2.03914957824694        3.56325864206756
H           -2.70407187280492        1.50033101927830        3.61514617875682
H           -2.45950152737398        5.02182714513487        3.32132430108454
H            0.64815745636655        5.51872684634133        3.21656438411669
H            2.64652126463380        2.96811346035424        3.39614084743823
B           -5.82480793823614        3.40952671783624        0.02933532327435
B           -5.83138964845612        1.72782528595174        0.33458112064451
B           -4.36117114155932        4.24643286367201        0.33494529267894
B           -4.37077457881887        2.56050109719129        0.21607684882685
B           -4.37621229632202        0.86464200543137        0.13992487053435
B           -5.84618110783605       -1.66301901525952        0.33618796893845
B           -5.85327878484151       -3.34713447838649        0.04854777887127
B           -4.38331976836619       -0.81371587105543        0.14390775106124
B           -4.39245342652406       -2.50893334966932        0.23534342412230
B           -4.39727560542771       -4.19389049227746        0.36728077427908
B           -2.89550828294295        3.40649308395758        0.21326739709274
B           -2.90513327091192        1.70375717372112        0.14826886638884
B           -1.43124378569762        4.23222530708826       -0.00205446746465
B           -1.43908051898661        2.54802466521864        0.13857699785248
B           -1.44589518508108        0.85496045112935        0.24566610443370
B           -2.91941809009863       -1.66527079981623        0.16289100726760
B           -2.92430873170168       -3.36746628511353        0.24486256358894
B           -1.45309825637306       -0.82810881711044        0.25580904873219
B           -1.46067005355804       -2.52208663257771        0.16588231660253
B           -1.46716794304516       -4.20716102135456        0.02934935468141
B            0.03130205573741        3.39289288527985        0.16705430407103
B            0.02433061881574        1.69141022081457        0.17657519986201
B            1.49798684387823        4.22265756495997        0.31606252595080
B            1.49207247455734        2.53586621816936        0.19609939583516
B            1.48457907854090        0.84170037478091        0.08976166702814
B            0.00992245325456       -1.67773075845992        0.20450916115981
B            0.00242293038857       -3.37908522664854        0.19670713438782
B            1.47744826886067       -0.84130582419500        0.10822396976460
B            1.47035522336355       -2.53415849043107        0.24173434656601
B            1.46216434075431       -4.22013150584377        0.35237632996870
B            2.95885636854963        3.38117539560245        0.16809093748983
B            2.95306438331507        1.67905554691207        0.22770673617627
B            4.42990954493714        4.20763778224096        0.05117835994933
B            4.42401592433101        2.52274199603354        0.19697236037691
B            4.41445804536890        0.82755105124837        0.25892459187831
B            2.93872493828137       -1.68967028679831        0.25309950040121
B            2.92978745582499       -3.39252014775987        0.18851365685939
B            4.40720897384936       -0.85066581182147        0.26832868891867
B            4.40237977646142       -2.54637902257548        0.20942229236016
B            4.39356538628507       -4.23228623015701        0.07632079702320
B            5.88600648942260        3.36054733183342        0.39074222950504
B            5.88087875115035        1.67745736057224        0.08780287338011
B            5.86627746897632       -1.71404729169747        0.09128951078859
B            5.85784283167322       -3.39550381489182        0.39680497045788
H           -6.76255063653772        3.98775268936702       -0.36980470044814
H           -6.79130729388222        1.22329534802981        0.76729617955044
H           -4.40299132578888        5.37451023886390        0.64909831492132
H           -6.80428701064044       -1.14908126157781        0.76253313678124
H           -6.79761573004887       -3.92471336761679       -0.33645056018171
H           -4.44959711491695       -5.31696400089754        0.70123956621279
H           -1.43367445789469        5.37302867360893       -0.27626558033434
H           -1.48035607306458       -5.34387550774879       -0.26012770021676
H            1.50792501320611        5.38123898206940        0.49819492770389
H            1.45954825234323       -5.37547062527306        0.55033636024700
H            4.48970734801755        5.31507576899918       -0.33014557189129
H            4.43888976532015       -5.35326483623258       -0.26595024596389
H            6.82767606883043        3.93757584675800        0.77831764979603
H            6.83369398611860        1.16772084919104       -0.35559457230413
H            6.81967977567517       -1.21323206398308       -0.36057507660981
H            6.79419176590888       -3.98094788156740        0.78782662712339
