31
 energy: -61.635409479047 gnorm: 0.000355863837 xtb: 6.7.1 (edcfbbe)
O            1.58833411863111        2.59021875393753        2.19811873210415
C            1.38457945277674        1.63035771161168        1.45146867027515
C            0.00704976645511        1.32495005582539        1.06550433556519
O           -0.89470774528712        2.17580148301513        1.61207893032735
C           -0.29935287700654        0.28727359229801        0.23234958839268
C           -1.62824191534995       -0.10859040736296       -0.22177589944368
C           -1.76404958305798       -1.08463121134806       -1.21164673455845
C           -3.01080336108458       -1.48041210715587       -1.64995366152654
C           -4.15927861346926       -0.91686856352319       -1.11170397780137
O           -5.38234842593491       -1.30723185167768       -1.53881041416228
C           -4.02958882976351        0.06487835325433       -0.11735399023695
O           -5.19498270121484        0.59123636566182        0.38420797101858
C           -2.78406240125876        0.46202538640834        0.31927480517076
O            0.69142607236162       -0.50337794771102       -0.26749542291843
C            1.97966544157587       -0.29428848654313        0.05335848656423
C            2.92143858798158       -1.16511069231791       -0.49124867763312
C            4.26324563969674       -1.00377723333696       -0.19167825218268
O            5.14574122313008       -1.87187202676010       -0.73538964817307
C            4.67660275833171        0.03517389176988        0.65446197495682
C            3.75056478700525        0.89392560089450        1.18779668994717
C            2.38925808552437        0.74593236509495        0.90011160177492
H           -0.33611786880957        2.80031885973806        2.13089856889303
H           -0.88251456617952       -1.53130441057627       -1.64131337880383
H           -3.11906573715729       -2.23184472219894       -2.41532106583835
H           -6.04590449635712       -0.80252071233068       -1.04738925039052
H           -4.98123674402972        1.25535598357339        1.04848620125937
H           -2.70578269148900        1.21520745302268        1.08578861029168
H            2.60678139683322       -1.96417349131887       -1.14121726891095
H            6.04336737941028       -1.65907997584779       -0.45034544334165
H            5.72739392686768        0.15132248213816        0.88163156161208
H            4.04258990087028        1.70110551176748        1.84156129777080
