31
RDKit ETKDG+MMFF
O       1.70207101      2.78851895      1.79721883
C       1.42024291      1.75880227      1.19254666
C       0.01155004      1.48748429      0.81626518
O      -0.92232155      2.44592897      1.16794536
C      -0.27518650      0.35262644      0.15111027
C      -1.64167818     -0.00985761     -0.28771906
C      -1.84246327     -0.52046562     -1.58491242
C      -3.11610209     -0.89490152     -2.02244842
C      -4.19151700     -0.76295560     -1.15991900
O      -5.43681462     -1.12681909     -1.58435133
C      -4.01289680     -0.26641488      0.12744632
O      -5.11853350     -0.16129354      0.92690906
C      -2.74726027      0.10447743      0.57236381
O       0.67810448     -0.59044997     -0.21712839
C       1.98924343     -0.37491567      0.11986850
C       2.91363699     -1.34656683     -0.25880425
C       4.25828591     -1.17365020      0.05817112
O       5.12913585     -2.14739861     -0.33089592
C       4.69593560     -0.04483692      0.74814199
C       3.76902501      0.92799561      1.12723066
C       2.41771602      0.75503368      0.80925781
H      -0.40041921      3.15949228      1.59469330
H      -1.00377820     -0.62648238     -2.27035303
H      -3.26433227     -1.28437132     -3.02482966
H      -6.01728154     -0.94632876     -0.81822000
H      -4.84320085      0.24604964      1.76657269
H      -2.61118679      0.48024482      1.58193092
H       2.59150107     -2.23362566     -0.79701121
H       6.02646261     -1.90289140     -0.04933012
H       5.74402651      0.09341460      0.99676424
H       4.09803518      1.81415661      1.66594103
