98
Honokiol/beta12_supported GFN2 opt
C      -5.59799256      1.49404021      4.10858591
C      -4.44157171      1.31733270      4.72098775
C      -3.12911417      1.19058160      4.01325274
C      -2.51529831     -0.17810847      4.15764747
C      -3.31420791     -1.31590616      4.16402957
C      -2.72798871     -2.56853048      4.14573257
C      -1.34781746     -2.71332388      4.11991014
O      -0.86942676     -3.98171847      3.95931858
C      -0.51594000     -1.58119239      4.21463962
C       0.94128954     -1.67675568      4.33373299
C       1.55698813     -2.77847363      4.93843782
C       2.93054092     -2.84368172      5.06346871
C       3.73147032     -1.78927423      4.64795006
O       5.09565627     -1.83130046      4.76398645
C       3.13905634     -0.64094544      4.11059059
C       3.98400287      0.54618228      3.75989480
C       3.35941862      1.84591284      4.16157050
C       3.69534687      3.01921516      3.65348694
C       1.76976190     -0.62581848      3.91802047
C      -1.14188585     -0.32795981      4.22102755
H      -6.52215486      1.57686927      4.65475166
H      -5.66754239      1.55606017      3.03490841
H      -4.39701362      1.24069636      5.80029328
H      -2.43379644      1.93894915      4.40170110
H      -3.27879759      1.37377766      2.94358418
H      -4.38800475     -1.22109057      4.15472437
H      -3.32863929     -3.46263712      4.11223682
H      -0.03028137     -3.96137779      3.47168656
H       0.96527918     -3.57739987      5.35509705
H       3.38692835     -3.71369452      5.51684558
H       5.35737234     -2.68245110      5.12989841
H       4.18209131      0.55067970      2.67708693
H       4.95042697      0.43925882      4.25810451
H       2.60520921      1.78751814      4.93573043
H       4.45592132      3.11364727      2.89769985
H       3.23948964      3.93518426      3.98799435
H       1.33987464      0.23290388      3.43072024
H      -0.52894587      0.55589950      4.29057765
B      -5.90620230      3.68151090      0.31085834
B      -5.92089313      1.96977818      0.20349598
B      -4.44554568      4.46326959     -0.13135289
B      -4.45704400      2.80355746      0.17573868
B      -4.46615086      1.12742041      0.43411533
B      -5.93809178     -1.34653825      0.98405837
B      -5.95475912     -3.05727629      0.87777684
B      -4.47639804     -0.52952062      0.70285239
B      -4.48885484     -2.20753604      0.94914275
B      -4.49634265     -3.86951167      1.24717402
B      -2.98074342      3.63933565      0.06998852
B      -2.99211905      1.96753198      0.41147392
B      -1.51269398      4.47301797      0.06604863
B      -1.52458939      2.79418878      0.24519309
B      -1.53535184      1.11417632      0.46014535
B      -3.01515318     -1.38474395      0.75819362
B      -3.02428617     -3.07317790      0.97560110
B      -1.54602461     -0.55292521      0.69167517
B      -1.55876066     -2.24462322      0.81395320
B      -1.57028221     -3.93385065      0.88479079
B      -0.05133604      3.63276107      0.18001458
B      -0.06459806      1.92750700      0.24890706
B       1.41922310      4.45653824      0.10537196
B       1.40653764      2.77221454      0.22805603
B       1.39353132      1.07873791      0.33305853
B      -0.08593782     -1.40843420      0.72570451
B      -0.09688216     -3.09423110      0.95668704
B       1.38241921     -0.59208605      0.53991153
B       1.37317696     -2.25664423      0.86963628
B       1.36261995     -3.90626583      1.24349692
B       2.87286555      3.59016689     -0.01502968
B       2.86577929      1.91631255      0.31289170
B       4.34316860      4.38908407     -0.25563702
B       4.33614820      2.73370465      0.08094108
B       4.32462204      1.06093575      0.36477722
B       2.84336702     -1.42651353      0.73264442
B       2.82998832     -3.11754214      0.93208686
B       4.31373903     -0.60172850      0.59123352
B       4.30452363     -2.28428642      0.80347685
B       4.28996890     -3.97134719      0.91075580
B       5.80476434      3.58418904      0.14993172
B       5.78895044      1.87563869      0.06710670
B       5.76811080     -1.48189238      0.54864929
B       5.76085960     -3.10716132      1.07932046
H      -6.85068096      4.29998665      0.63072363
H      -6.89678237      1.42587987     -0.15133918
H      -4.49175446      5.51990325     -0.64446292
H      -6.88246876     -0.78216750      1.38403939
H      -6.91315623     -3.66384428      0.57906592
H      -4.53658799     -4.94734668      1.71086523
H      -1.50776813      5.64302617     -0.04754430
H      -1.57860648     -5.10424543      0.79073126
H       1.44485149      5.62860150      0.18794235
H       1.36756593     -5.01487310      1.63821060
H       4.39395170      5.45146744     -0.75509008
H       4.32251904     -5.13569961      0.75585562
H       6.76001938      4.19648258      0.44947065
H       6.74585655      1.31543896     -0.30606841
H       6.73249733     -1.04596807      0.05245303
H       6.70551594     -3.63345141      1.53431024
