38
drug @complex
C      -5.59799256      1.49404021      4.10858591
C      -4.44157171      1.31733270      4.72098775
C      -3.12911417      1.19058160      4.01325274
C      -2.51529831     -0.17810847      4.15764747
C      -3.31420791     -1.31590616      4.16402957
C      -2.72798871     -2.56853048      4.14573257
C      -1.34781746     -2.71332388      4.11991014
O      -0.86942676     -3.98171847      3.95931858
C      -0.51594000     -1.58119239      4.21463962
C       0.94128954     -1.67675568      4.33373299
C       1.55698813     -2.77847363      4.93843782
C       2.93054092     -2.84368172      5.06346871
C       3.73147032     -1.78927423      4.64795006
O       5.09565627     -1.83130046      4.76398645
C       3.13905634     -0.64094544      4.11059059
C       3.98400287      0.54618228      3.75989480
C       3.35941862      1.84591284      4.16157050
C       3.69534687      3.01921516      3.65348694
C       1.76976190     -0.62581848      3.91802047
C      -1.14188585     -0.32795981      4.22102755
H      -6.52215486      1.57686927      4.65475166
H      -5.66754239      1.55606017      3.03490841
H      -4.39701362      1.24069636      5.80029328
H      -2.43379644      1.93894915      4.40170110
H      -3.27879759      1.37377766      2.94358418
H      -4.38800475     -1.22109057      4.15472437
H      -3.32863929     -3.46263712      4.11223682
H      -0.03028137     -3.96137779      3.47168656
H       0.96527918     -3.57739987      5.35509705
H       3.38692835     -3.71369452      5.51684558
H       5.35737234     -2.68245110      5.12989841
H       4.18209131      0.55067970      2.67708693
H       4.95042697      0.43925882      4.25810451
H       2.60520921      1.78751814      4.93573043
H       4.45592132      3.11364727      2.89769985
H       3.23948964      3.93518426      3.98799435
H       1.33987464      0.23290388      3.43072024
H      -0.52894587      0.55589950      4.29057765
