98
Honokiol on beta12_supported 90 deg
C      -1.37099607     -5.62088698      6.18101940
C      -1.35287820     -4.30550180      6.08281044
C      -1.44213475     -3.54867482      4.79099055
C      -0.17509086     -2.76036764      4.58190173
C       0.97769467     -3.39740636      4.13738855
C       2.15100192     -2.69262071      3.96745255
C       2.20432746     -1.33285435      4.25347971
O       3.38172820     -0.68498749      4.03399731
C       1.05923624     -0.67760131      4.72019678
C       1.07850075      0.76236701      5.04002684
C       2.03948808      1.30107671      5.89164215
C       2.03932918      2.65358249      6.18030954
C       1.08247660      3.49342847      5.62733452
O       1.06601961      4.83049928      5.89499951
C       0.10824691      2.97019833      4.77007602
C      -0.95635956      3.86441394      4.19314688
C      -2.15220717      3.86636671      5.09827706
C      -3.34650482      3.42354811      4.75576014
C       0.12036921      1.61476373      4.49696902
C      -0.11621153     -1.40692414      4.86814804
H      -1.29049537     -6.12471384      7.12937906
H      -1.47466972     -6.25339680      5.31403485
H      -1.24206734     -3.68975393      6.96607536
H      -2.29515851     -2.86648196      4.83030020
H      -1.58947749     -4.24725308      3.96516297
H       0.95197612     -4.45472782      3.91926750
H       3.04663354     -3.17465546      3.60857373
H       3.26794834      0.25693592      4.22182750
H       2.76995830      0.65902049      6.36384356
H       2.78628041      3.06222838      6.84900926
H       1.79672641      5.05119390      6.48423675
H      -1.24106965      3.51354867      3.20000000
H      -0.56221777      4.88031819      4.11970709
H      -1.96954079      4.24856031      6.09386996
H      -3.54760362      3.03792822      3.76935331
H      -4.17821861      3.43464217      5.43974200
H      -0.62857988      1.20838848      3.83308090
H      -0.99646022     -0.89420102      5.23060149
B      -5.85857624      3.38040841      0.00000000
B      -5.85854689      1.69158049     -0.00000000
B      -4.39532834      4.22466855     -0.00000000
B      -4.39711400      2.53475765     -0.00000000
B      -4.39575475      0.84147203     -0.00000000
B      -5.85854686     -1.69158078      0.00000000
B      -5.85857617     -3.38040837     -0.00000000
B      -4.39575479     -0.84147232     -0.00000000
B      -4.39711414     -2.53475765      0.00000000
B      -4.39532857     -4.22466843      0.00000000
B      -2.92793521      3.38324044     -0.00000000
B      -2.92888517      1.68724694     -0.00000000
B      -1.46554580      4.22439782     -0.00000000
B      -1.46605622      2.53507234     -0.00000000
B      -1.46573170      0.84295491     -0.00000000
B      -2.92888518     -1.68724692      0.00000000
B      -2.92793508     -3.38324074      0.00000000
B      -1.46573174     -0.84295512     -0.00000000
B      -1.46605627     -2.53507234      0.00000000
B      -1.46554588     -4.22439779     -0.00000000
B       0.00067086      3.38275146      0.00000000
B       0.00067433      1.68721076      0.00000000
B       1.46420559      4.22439023     -0.00000000
B       1.46473580      2.53506444     -0.00000000
B       1.46438553      0.84295188     -0.00000000
B       0.00067433     -1.68721088      0.00000000
B       0.00067085     -3.38275170      0.00000000
B       1.46438555     -0.84295208     -0.00000000
B       1.46473583     -2.53506442     -0.00000000
B       1.46420568     -4.22439021     -0.00000000
B       2.92927005      3.38326104     -0.00000000
B       2.93022956      1.68726759      0.00000000
B       4.39401124      4.22463050     -0.00000000
B       4.39579743      2.53472819      0.00000000
B       4.39441416      0.84146678     -0.00000000
B       2.93022962     -1.68726763     -0.00000000
B       2.92927005     -3.38326139     -0.00000000
B       4.39441419     -0.84146703     -0.00000000
B       4.39579756     -2.53472819     -0.00000000
B       4.39401144     -4.22463033     -0.00000000
B       5.85997303      3.38040496      0.00000000
B       5.85993260      1.69164307     -0.00000000
B       5.85993251     -1.69164335      0.00000000
B       5.85997297     -3.38040486      0.00000000
H      -6.86866001      3.98474441      0.00000000
H      -6.88164909      1.12316321     -0.00000000
H      -4.39961690      5.40226943     -0.00000000
H      -6.88164986     -1.12316494      0.00000000
H      -6.86866148     -3.98474191     -0.00000000
H      -4.39961557     -5.40226922      0.00000000
H      -1.46579024      5.40011773     -0.00000000
H      -1.46578943     -5.40011766      0.00000000
H       1.46622796      5.40011192     -0.00000000
H       1.46622721     -5.40011186     -0.00000000
H       4.39986570      5.40225046     -0.00000000
H       4.39986407     -5.40225022     -0.00000000
H       6.86878772      3.98676429      0.00000000
H       6.88200886      1.12155941     -0.00000000
H       6.88200989     -1.12156160      0.00000000
H       6.86878944     -3.98676138      0.00000000
