98
 energy: -117.334866482526 gnorm: 0.000977746182 xtb: 6.7.1 (edcfbbe)
C           -5.59799256294681        1.49404020852766        4.10858590882992
C           -4.44157170765791        1.31733270408988        4.72098774818695
C           -3.12911417232153        1.19058160496627        4.01325274006705
C           -2.51529831274908       -0.17810846689003        4.15764746977738
C           -3.31420790770782       -1.31590615867307        4.16402956751142
C           -2.72798870514379       -2.56853047762235        4.14573256868961
C           -1.34781745818588       -2.71332387522131        4.11991014345955
O           -0.86942675753236       -3.98171847325109        3.95931858163738
C           -0.51593999639232       -1.58119239279262        4.21463962445874
C            0.94128953780671       -1.67675567590906        4.33373299405261
C            1.55698813044111       -2.77847363188063        4.93843782446328
C            2.93054091989041       -2.84368172325989        5.06346870624702
C            3.73147032212103       -1.78927423344115        4.64795006213677
O            5.09565626948811       -1.83130045940478        4.76398645323018
C            3.13905633556230       -0.64094544074779        4.11059058758259
C            3.98400286751939        0.54618227577435        3.75989480341590
C            3.35941862057381        1.84591283644286        4.16157049604107
C            3.69534686842396        3.01921516229535        3.65348694321514
C            1.76976189516062       -0.62581847679098        3.91802047485936
C           -1.14188584848208       -0.32795980982362        4.22102755006128
H           -6.52215486003431        1.57686927176252        4.65475165967199
H           -5.66754238887307        1.55606016868301        3.03490840836369
H           -4.39701362364842        1.24069636079426        5.80029328043449
H           -2.43379644365691        1.93894915018953        4.40170109678019
H           -3.27879758982258        1.37377766080043        2.94358418278591
H           -4.38800474796288       -1.22109056674962        4.15472436691992
H           -3.32863928518029       -3.46263711583812        4.11223681883835
H           -0.03028136872188       -3.96137778944175        3.47168655903609
H            0.96527917691720       -3.57739987486322        5.35509705469969
H            3.38692834669600       -3.71369452278353        5.51684558449567
H            5.35737233662074       -2.68245109828954        5.12989841486709
H            4.18209130548263        0.55067969666734        2.67708693177483
H            4.95042696531232        0.43925882083720        4.25810450878154
H            2.60520921031365        1.78751814412448        4.93573043362376
H            4.45592132254569        3.11364727083599        2.89769985092139
H            3.23948964154215        3.93518426178482        3.98799434568784
H            1.33987464018022        0.23290387779217        3.43072023708905
H           -0.52894587133338        0.55589949963906        4.29057765143704
B           -5.90620230336785        3.68151089519029        0.31085834067418
B           -5.92089312736965        1.96977817703613        0.20349597958185
B           -4.44554567790210        4.46326959200933       -0.13135289080985
B           -4.45704400200954        2.80355745852332        0.17573867792156
B           -4.46615086191841        1.12742040973953        0.43411533457144
B           -5.93809178348899       -1.34653825416949        0.98405836890128
B           -5.95475911753189       -3.05727629285066        0.87777684189830
B           -4.47639804098059       -0.52952061855430        0.70285238723286
B           -4.48885484087888       -2.20753603582342        0.94914275255558
B           -4.49634264979908       -3.86951167064250        1.24717402119669
B           -2.98074342344050        3.63933564732836        0.06998851758227
B           -2.99211905273358        1.96753198438399        0.41147391859744
B           -1.51269398136755        4.47301797403002        0.06604863074127
B           -1.52458938518398        2.79418877599190        0.24519309410748
B           -1.53535183675351        1.11417631869284        0.46014535290606
B           -3.01515318269813       -1.38474395227731        0.75819362120727
B           -3.02428617449684       -3.07317789784937        0.97560110437920
B           -1.54602461283443       -0.55292521491954        0.69167517269265
B           -1.55876065915050       -2.24462321728542        0.81395320071683
B           -1.57028221089003       -3.93385065191613        0.88479079455073
B           -0.05133604095199        3.63276107186625        0.18001457786931
B           -0.06459805773211        1.92750700385824        0.24890706166601
B            1.41922310482072        4.45653824171951        0.10537195592826
B            1.40653763876067        2.77221453827645        0.22805602663800
B            1.39353131759760        1.07873791321528        0.33305852925694
B           -0.08593782479323       -1.40843420445177        0.72570450669661
B           -0.09688215643048       -3.09423109940654        0.95668704360838
B            1.38241921359434       -0.59208604594537        0.53991152916545
B            1.37317696345116       -2.25664423407564        0.86963628371396
B            1.36261995271895       -3.90626582906719        1.24349691975226
B            2.87286555460119        3.59016688643566       -0.01502967802454
B            2.86577929208945        1.91631255121590        0.31289169531328
B            4.34316860193982        4.38908407085554       -0.25563702273477
B            4.33614819919135        2.73370465252736        0.08094108209983
B            4.32462203530823        1.06093574750643        0.36477721977397
B            2.84336701577573       -1.42651352671751        0.73264442111654
B            2.82998831872586       -3.11754213568829        0.93208685583327
B            4.31373903012888       -0.60172849806247        0.59123352291344
B            4.30452363352367       -2.28428641558824        0.80347685342362
B            4.28996890414835       -3.97134719351219        0.91075580463566
B            5.80476434032526        3.58418904292004        0.14993171888118
B            5.78895044479170        1.87563869339949        0.06710669699370
B            5.76811079908251       -1.48189237771653        0.54864928511529
B            5.76085959758203       -3.10716132246343        1.07932046451954
H           -6.85068095981931        4.29998664751797        0.63072363460899
H           -6.89678237345506        1.42587987028806       -0.15133918485295
H           -4.49175446063571        5.51990325342530       -0.64446291902801
H           -6.88246876117819       -0.78216749946105        1.38403938536308
H           -6.91315623137774       -3.66384427503180        0.57906591665921
H           -4.53658798986767       -4.94734667983068        1.71086522955672
H           -1.50776812592349        5.64302616624341       -0.04754429948698
H           -1.57860647635686       -5.10424542984296        0.79073125802851
H            1.44485148589787        5.62860149747960        0.18794234850788
H            1.36756593120222       -5.01487310377758        1.63821060279234
H            4.39395170374265        5.45146744106846       -0.75509007644162
H            4.32251903954922       -5.13569961259829        0.75585561699808
H            6.76001937702687        4.19648258367508        0.44947065244950
H            6.74585654657104        1.31543895542517       -0.30606841048317
H            6.73249733040079       -1.04596807414428        0.05245302949955
H            6.70551593608989       -3.63345140965121        1.53431023638392
