98
 energy: -117.333681458256 gnorm: 0.000868716108 xtb: 6.7.1 (edcfbbe)
C           -1.65951567401443       -5.60453043429688        5.25376040832630
C           -1.49460178063822       -4.29830242523850        5.34483904172968
C           -1.49510964080094       -3.36384695031138        4.17390282102759
C           -0.15616038596618       -2.68471802219064        4.03206099338009
C            0.98882078849606       -3.45434146832548        3.85140496884838
C            2.20432549025564       -2.82686894310687        3.66015253810704
C            2.31003760824722       -1.44262127422780        3.63743633305370
O            3.54825485714299       -0.93204366931178        3.34964808912255
C            1.17873075260056       -0.63716023559502        3.89234847673666
C            1.24126892083595        0.82053470965548        4.00758892346191
C            2.44093921347926        1.49023106271806        4.27646191156298
C            2.47983232257061        2.86262380203422        4.41375075908529
C            1.31690430531613        3.61748231730635        4.34698510935904
O            1.32602238858249        4.97566240428840        4.50125053287038
C            0.09338463756445        2.97361254819132        4.13323836178395
C           -1.17715146312065        3.77854849786092        4.14447898260056
C           -2.34857142462600        3.00222810473555        4.65455416365798
C           -3.55422873886595        3.02666228633052        4.11581538105488
C            0.08285915201393        1.60822856180431        3.92439756227396
C           -0.03846788619443       -1.30942867971729        4.08049550230842
H           -1.63894754156840       -6.24520499069981        6.11885044506834
H           -1.82740986772959       -6.08878095110034        4.30574826155122
H           -1.31960986494613       -3.83354123812316        6.30642247214261
H           -2.27351212417570       -2.60950742508114        4.31231925000349
H           -1.71053349925577       -3.92851534356049        3.26235465615930
H            0.92268565330433       -4.53038685846797        3.84680610594263
H            3.10164794384678       -3.40322830529456        3.49822962894695
H            3.51020921865882       -0.36876026760637        2.54563042660002
H            3.35387363604357        0.93708482811712        4.41154319649681
H            3.42408838924176        3.35586492804527        4.60424911683774
H            2.23590503245712        5.28044647444757        4.58196278552729
H           -1.38408735459986        4.16461544017862        3.14122967562792
H           -1.01381411762650        4.64371493116855        4.79333791661084
H           -2.15689256284332        2.40764500952477        5.53949263174413
H           -3.77295158558300        3.62171795349414        3.24541259817379
H           -4.37592258633615        2.46876351317720        4.53175702232984
H           -0.86441793323792        1.15099432573415        3.69428324733084
H           -0.92533598410737       -0.73453589321764        4.28997269930766
B           -5.93747144396211        3.27850824710113        0.74312333048437
B           -5.89882387144617        1.60660474444702        0.38477775252320
B           -4.49487220370738        4.16128938668645        0.45378169226309
B           -4.46078280409740        2.47316623386041        0.53127514966307
B           -4.42280445867208        0.77619962349516        0.56708100257501
B           -5.82551652011396       -1.78185948790792        0.29280901685414
B           -5.79011397362270       -3.47347325080734        0.52450910498704
B           -4.38613370155697       -0.90115402313695        0.52005175862173
B           -4.35070754888084       -2.59280335737051        0.38488243391200
B           -4.31118674149841       -4.27206893105794        0.19010393501514
B           -3.00806904083661        3.35729242327862        0.52400135115763
B           -2.97409102544871        1.65135263041470        0.63247805106319
B           -1.56728369378259        4.22038684046894        0.70544577776831
B           -1.53017997408895        2.53534559185257        0.59901336461952
B           -1.49276591735592        0.84533453576537        0.48572998812633
B           -2.90044047678369       -1.71407055816811        0.49620249692287
B           -2.86095703902489       -3.41187192899642        0.34472612030832
B           -1.45617648180811       -0.83631830993224        0.41967898780852
B           -1.41974420903342       -2.53170017326985        0.45837961432934
B           -1.38260857052211       -4.22014242810139        0.51031075852945
B           -0.08288594378669        3.41346351631137        0.71259609149463
B           -0.04471710432118        1.71988344088951        0.51248751619704
B            1.36201429190731        4.27899129154640        0.80779451259531
B            1.39973452222759        2.59669464020940        0.66409698851005
B            1.43682514261891        0.90618719917200        0.56263077879676
B            0.02826333587587       -1.64835372504234        0.43502834459599
B            0.06546128391570       -3.34895606188407        0.39076524222593
B            1.47344454999051       -0.77495045596237        0.49344359360641
B            1.51095554091580       -2.46414560800469        0.36096834760817
B            1.54721664620999       -4.14357588922512        0.18290173455921
B            2.84482054149948        3.48150264708619        0.64285666798703
B            2.88281887621338        1.77685102984447        0.67704537746388
B            4.29362816794231        4.35054430701190        0.56829259501887
B            4.33131098250606        2.66283881751441        0.59884546373793
B            4.36646151209557        0.96762959171465        0.56124853548986
B            2.95724683254923       -1.58259729877512        0.39493742526212
B            2.99222645770530       -3.28577208951497        0.39100019941845
B            4.40296452199083       -0.70891930203668        0.50767300943437
B            4.44141095367722       -2.40476696363152        0.48071611835407
B            4.47509384324967       -4.09290935129645        0.53424442275711
B            5.77094866985678        3.52764446438202        0.86506425338138
B            5.80995535061646        1.85998591860996        0.47045322537682
B            5.88169436514212       -1.53919073479334        0.64022790557308
B            5.92092331324942       -3.20841178096914        0.26738871756596
H           -6.89960637170971        3.81684274234153        1.14511250720690
H           -6.84728253061410        1.09918659500483       -0.07535002777304
H           -4.56708651749136        5.29116455171732        0.13888299587555
H           -6.78957944588030       -1.27690549799287       -0.13403215717887
H           -6.71987436675919       -4.08954462128941        0.88821056862371
H           -4.33135095208958       -5.38932981064819       -0.17224157994579
H           -1.60131172505784        5.38843297243424        0.83995829523579
H           -1.36633962286161       -5.38054962817178        0.69747750564164
H            1.34053347391057        5.44391905696168        0.96010165525601
H            1.57199895842482       -5.28817734471967       -0.08135841878737
H            4.32030322296551        5.48349419804176        0.25488379934313
H            4.53895238745273       -5.22231939882306        0.84991003533388
H            6.70378287943582        4.10331740145514        1.28432777801637
H            6.78261006920517        1.40463323911882        0.00260602120958
H            6.81680262994512       -1.02787752678564        1.12234294608108
H            6.87781270909685       -3.75631064378758       -0.13208144541173
