      -----------------------------------------------------------      
     |                   =====================                   |     
     |                           x T B                           |     
     |                   =====================                   |     
     |                         S. Grimme                         |     
     |          Mulliken Center for Theoretical Chemistry        |     
     |                    University of Bonn                     |     
      -----------------------------------------------------------      

   * xtb version 6.7.1pre (5071a88) compiled by 'Marcel@Raven' on 2024-07-23

   xtb is free software: you can redistribute it and/or modify it under
   the terms of the GNU Lesser General Public License as published by
   the Free Software Foundation, either version 3 of the License, or
   (at your option) any later version.
   
   xtb is distributed in the hope that it will be useful,
   but WITHOUT ANY WARRANTY; without even the implied warranty of
   MERCHANTABILITY or FITNESS FOR A PARTICULAR PURPOSE.  See the
   GNU Lesser General Public License for more details.
   
   Cite this work as:
   * C. Bannwarth, E. Caldeweyher, S. Ehlert, A. Hansen, P. Pracht,
     J. Seibert, S. Spicher, S. Grimme, WIREs Comput. Mol. Sci., 2020, 11,
     e01493. DOI: 10.1002/wcms.1493
   
   for GFN2-xTB:
   * C. Bannwarth, S. Ehlert and S. Grimme., J. Chem. Theory Comput., 2019,
     15, 1652-1671. DOI: 10.1021/acs.jctc.8b01176
   for GFN1-xTB:
   * S. Grimme, C. Bannwarth, P. Shushkov, J. Chem. Theory Comput., 2017,
     13, 1989-2009. DOI: 10.1021/acs.jctc.7b00118
   for GFN0-xTB:
   * P. Pracht, E. Caldeweyher, S. Ehlert, S. Grimme, ChemRxiv, 2019, preprint.
     DOI: 10.26434/chemrxiv.8326202.v1
   for GFN-FF:
   * S. Spicher and S. Grimme, Angew. Chem. Int. Ed., 2020, 59, 15665-15673.
     DOI: 10.1002/anie.202004239
   
   for ALPB and GBSA implicit solvation:
   * S. Ehlert, M. Stahn, S. Spicher, S. Grimme, J. Chem. Theory Comput.,
     2021, 17, 4250-4261. DOI: 10.1021/acs.jctc.1c00471
   
   for ddCOSMO and CPCM-X implicit solvation:
   * M. Stahn, S. Ehlert, S. Grimme, J. Phys. Chem. A,
     2023, XX, XXXX-XXXX. DOI: 10.1021/acs.jpca.3c04382
   
   for DFT-D4:
   * E. Caldeweyher, C. Bannwarth and S. Grimme, J. Chem. Phys., 2017,
     147, 034112. DOI: 10.1063/1.4993215
   * E. Caldeweyher, S. Ehlert, A. Hansen, H. Neugebauer, S. Spicher,
     C. Bannwarth and S. Grimme, J. Chem. Phys., 2019, 150, 154122.
     DOI: 10.1063/1.5090222
   * E. Caldeweyher, J.-M. Mewes, S. Ehlert and S. Grimme, Phys. Chem. Chem. Phys.
     2020, 22, 8499-8512. DOI: 10.1039/D0CP00502A
   
   for sTDA-xTB:
   * S. Grimme and C. Bannwarth, J. Chem. Phys., 2016, 145, 054103.
     DOI: 10.1063/1.4959605
   
   in the mass-spec context:
   * V. Asgeirsson, C. Bauer and S. Grimme, Chem. Sci., 2017, 8, 4879.
     DOI: 10.1039/c7sc00601b
   * J. Koopman and S. Grimme, ACS Omega 2019, 4, 12, 15120-15133.
     DOI: 10.1021/acsomega.9b02011
   
   for metadynamics refer to:
   * S. Grimme, J. Chem. Theory Comput., 2019, 155, 2847-2862
     DOI: 10.1021/acs.jctc.9b00143
   
   for SPH calculations refer to:
   * S. Spicher and S. Grimme, J. Chem. Theory Comput., 2021, 17, 1701-1714
     DOI: 10.1021/acs.jctc.0c01306
   
   for ONIOM refer to:
   * C. Plett, A. Katbashev, S. Ehlert, S. Grimme, M. Bursch,
     Phys. Chem. Chem. Phys., 2023, 25, 17860-17868. DOI: 10.1039/D3CP02178E
   
   for DIPRO refer to:
   * J. Kohn, N. Gildemeister, S. Grimme, D. Fazzi, A. Hansen,
     J. Chem. Phys., 2023, just accepted.
   
   for PTB refer to:
   * S. Grimme, M. Mueller, A. Hansen, J. Chem. Phys., 2023, 158, 124111.
     DOI: 10.1063/5.0137838
   
   with help from (in alphabetical order)
   P. Atkinson, C. Bannwarth, F. Bohle, G. Brandenburg, E. Caldeweyher
   M. Checinski, S. Dohm, S. Ehlert, S. Ehrlich, I. Gerasimov, C. Hölzer
   A. Katbashev, J. Kohn, J. Koopman, C. Lavigne, S. Lehtola, F. März, M. Müller,
   F. Musil, H. Neugebauer, J. Pisarek, C. Plett, P. Pracht, F. Pultar,
   J. Seibert, P. Shushkov, S. Spicher, M. Stahn, M. Steiner, T. Strunk,
   J. Stückrath, T. Rose, and J. Unsleber
   
 * started run on 2026/09/01 at 16:33:37.058     
   ID    Z sym.   atoms
    1    5 B      1-48
    2    1 H      49-60

           -------------------------------------------------
          |                Calculation Setup                |
           -------------------------------------------------

          program call               : "c:\Users\Andre\Proyectos doctorado\kras-pancreatic-gC3N4-ai\tools\xtb\xtb-6.7.1\bin\xtb.exe" "c:\Users\Andre\Proyectos doctorado\borophene-alzheimer-tau-ai\calculations\tau\B48H12_canonical_initial.xyz" --opt tight --gfn 2 --chrg 0 --uhf 0 --etemp 300 --iterations 500 --cycles 100
          coordinate file            : c:\Users\Andre\Proyectos doctorado\borophene-alzheimer-tau-ai\calculations\tau\B48H12_canonical_initial.xyz
          omp threads                :                    16


           -------------------------------------------------
          |                 G F N 2 - x T B                 |
           -------------------------------------------------

        Reference                      10.1021/acs.jctc.8b01176
      * Hamiltonian:
        H0-scaling (s, p, d)           1.850000    2.230000    2.230000
        zeta-weighting                 0.500000
      * Dispersion:
        s8                             2.700000
        a1                             0.520000
        a2                             5.000000
        s9                             5.000000
      * Repulsion:
        kExp                           1.500000    1.000000
        rExp                           1.000000
      * Coulomb:
        alpha                          2.000000
        third order                    shell-resolved
        anisotropic                    true
        a3                             3.000000
        a5                             4.000000
        cn-shift                       1.200000
        cn-exp                         4.000000
        max-rad                        5.000000


          ...................................................
          :                      SETUP                      :
          :.................................................:
          :  # basis functions                 204          :
          :  # atomic orbitals                 204          :
          :  # shells                          108          :
          :  # electrons                       156          :
          :  max. iterations                   500          :
          :  Hamiltonian                  GFN2-xTB          :
          :  restarted?                      false          :
          :  GBSA solvation                  false          :
          :  PC potential                    false          :
          :  electronic temp.          300.0000000     K    :
          :  accuracy                    1.0000000          :
          :  -> integral cutoff          0.2500000E+02      :
          :  -> integral neglect         0.1000000E-07      :
          :  -> SCF convergence          0.1000000E-05 Eh   :
          :  -> wf. convergence          0.1000000E-03 e    :
          :  Broyden damping             0.4000000          :
          :  net charge                          0          :
          :  unpaired electrons                  0          :
          ...................................................

 iter      E             dE          RMSdq      gap      omega  full diag
   1    -61.1681277 -0.611681E+02  0.199E+01    0.09       0.0  T
   2    -20.2043056  0.409638E+02  0.182E+01    0.09       1.0  T
   3     81.3740734  0.101578E+03  0.240E+01    0.08       1.0  T
   4     15.4382422 -0.659358E+02  0.185E+01    0.09       1.0  T
   5    -23.5575368 -0.389958E+02  0.156E+01    0.22       1.0  T
   6    -20.7960225  0.276151E+01  0.144E+01    0.05       1.0  T
   7     -2.7441560  0.180519E+02  0.142E+01    0.20       1.0  T
   8    -33.8462261 -0.311021E+02  0.107E+01    0.08       1.0  T
   9    -30.3747627  0.347146E+01  0.110E+01    0.22       1.0  T
  10    -56.2226626 -0.258479E+02  0.832E+00    0.20       1.0  T
  11    -62.0829588 -0.586030E+01  0.703E+00    0.01       1.0  T
  12    -62.2850462 -0.202087E+00  0.665E+00    0.13       1.0  T
  13    -62.8053095 -0.520263E+00  0.641E+00    0.04       1.0  T
  14    -62.7970554  0.825411E-02  0.642E+00    0.04       1.0  T
  15    -62.9991609 -0.202105E+00  0.618E+00    0.04       1.0  T
  16    -62.9909160  0.824489E-02  0.616E+00    0.03       1.0  T
  17    -63.1576749 -0.166759E+00  0.572E+00    0.05       1.0  T
  18    -63.6363504 -0.478676E+00  0.463E+00    0.13       1.0  T
  19    -62.7818772  0.854473E+00  0.471E+00    0.15       1.0  T
  20    -63.4361101 -0.654233E+00  0.382E+00    0.11       1.0  T
  21    -63.4240941  0.120160E-01  0.381E+00    0.05       1.0  T
  22    -63.3317758  0.923183E-01  0.379E+00    0.07       1.0  T
  23    -63.3680099 -0.362341E-01  0.361E+00    0.06       1.0  T
  24    -63.6721107 -0.304101E+00  0.279E+00    0.05       1.0  T
  25    -63.7975660 -0.125455E+00  0.235E+00    0.13       1.0  T
  26    -63.8632585 -0.656925E-01  0.211E+00    0.15       1.0  T
  27    -63.9437202 -0.804617E-01  0.191E+00    0.12       1.0  T
  28    -63.9533255 -0.960530E-02  0.186E+00    0.12       1.0  T
  29    -63.9203340  0.329914E-01  0.183E+00    0.13       1.0  T
  30    -64.0496731 -0.129339E+00  0.141E+00    0.08       1.0  T
  31    -64.0704254 -0.207523E-01  0.120E+00    0.07       1.0  T
  32    -64.0859746 -0.155492E-01  0.106E+00    0.06       1.0  T
  33    -64.0860623 -0.876564E-04  0.106E+00    0.06       1.0  T
  34    -64.0869855 -0.923264E-03  0.102E+00    0.06       1.0  T
  35    -64.0960387 -0.905323E-02  0.871E-01    0.04       1.0  T
  36    -64.1163737 -0.203349E-01  0.627E-01    0.02       1.0  T
  37    -64.1176451 -0.127141E-02  0.616E-01    0.02       1.0  T
  38    -64.1192657 -0.162061E-02  0.587E-01    0.02       1.0  T
  39    -64.1211870 -0.192132E-02  0.504E-01    0.03       1.0  T
  40    -64.1206043  0.582687E-03  0.445E-01    0.03       1.0  T
  41    -64.1243478 -0.374347E-02  0.347E-01    0.03       1.0  T
  42    -64.1223390  0.200883E-02  0.355E-01    0.03       1.0  T
  43    -64.1246926 -0.235364E-02  0.313E-01    0.03       1.0  T
  44    -64.1262924 -0.159979E-02  0.259E-01    0.02       1.0  T
  45    -64.1273066 -0.101421E-02  0.223E-01    0.03       1.0  T
  46    -64.1281265 -0.819842E-03  0.199E-01    0.03       1.0  T
  47    -64.1282013 -0.748078E-04  0.195E-01    0.03       1.0  T
  48    -64.1282001  0.115211E-05  0.193E-01    0.03       1.0  T
  49    -64.1289747 -0.774581E-03  0.152E-01    0.03       1.0  T
  50    -64.1301639 -0.118919E-02  0.973E-02    0.03       1.0  T
  51    -64.1303025 -0.138601E-03  0.884E-02    0.03       1.0  T
  52    -64.1305904 -0.287906E-03  0.645E-02    0.03       1.0  T
  53    -64.1307814 -0.190967E-03  0.418E-02    0.02       1.0  T
  54    -64.1307497  0.316888E-04  0.471E-02    0.02       1.0  T
  55    -64.1308364 -0.866928E-04  0.336E-02    0.02       1.0  T
  56    -64.1308550 -0.186131E-04  0.282E-02    0.02       1.0  T
  57    -64.1308824 -0.273597E-04  0.229E-02    0.02       1.0  T
  58    -64.1308917 -0.936314E-05  0.208E-02    0.02       1.0  T
  59    -64.1309072 -0.155064E-04  0.162E-02    0.02       1.0  T
  60    -64.1309064  0.807547E-06  0.162E-02    0.02       1.0  T
  61    -64.1309143 -0.787558E-05  0.128E-02    0.02       1.0  T
  62    -64.1309207 -0.642780E-05  0.907E-03    0.02       1.4  T
  63    -64.1309226 -0.189790E-05  0.780E-03    0.02       1.7  T
  64    -64.1309247 -0.207585E-05  0.557E-03    0.02       2.3  T
  65    -64.1309265 -0.178922E-05  0.298E-03    0.02       4.3  T
  66    -64.1309262  0.290923E-06  0.320E-03    0.02       4.0  T
  67    -64.1309262 -0.388438E-07  0.288E-03    0.02       4.5  T
  68    -64.1309264 -0.137014E-06  0.227E-03    0.02       5.7  T
  69    -64.1309266 -0.258960E-06  0.133E-03    0.02       9.7  T
  70    -64.1309267 -0.832753E-07  0.822E-04    0.02      15.7  T
  71    -64.1309267 -0.308872E-07  0.561E-04    0.02      23.0  T

   *** convergence criteria satisfied after 71 iterations ***

         #    Occupation            Energy/Eh            Energy/eV
      -------------------------------------------------------------
         1        2.0000           -0.4866181             -13.2416
       ...           ...                  ...                  ...
        72        2.0000           -0.2370190              -6.4496
        73        2.0000           -0.2369886              -6.4488
        74        2.0000           -0.2306299              -6.2758
        75        2.0000           -0.2232134              -6.0739
        76        1.9998           -0.2198414              -5.9822
        77        1.9925           -0.2161248              -5.8811
        78        1.0500           -0.2109191              -5.7394 (HOMO)
        79        0.5967           -0.2100115              -5.7147 (LUMO)
        80        0.3391           -0.2093146              -5.6957
        81        0.0216           -0.2065304              -5.6200
        82        0.0003           -0.2025939              -5.5129
        83        0.0000           -0.1984220              -5.3993
       ...           ...                  ...                  ...
       204                          2.1940825              59.7040
      -------------------------------------------------------------
                  HL-Gap            0.0009076 Eh            0.0247 eV
             Fermi-level           -0.2108240 Eh           -5.7368 eV

 SCC (total)                   0 d,  0 h,  0 min,  0.517 sec
 SCC setup                      ...        0 min,  0.001 sec (  0.193%)
 Dispersion                     ...        0 min,  0.001 sec (  0.193%)
 classical contributions        ...        0 min,  0.000 sec (  0.000%)
 integral evaluation            ...        0 min,  0.003 sec (  0.580%)
 iterations                     ...        0 min,  0.502 sec ( 97.099%)
 molecular gradient             ...        0 min,  0.009 sec (  1.741%)
 printout                       ...        0 min,  0.001 sec (  0.193%)

         :::::::::::::::::::::::::::::::::::::::::::::::::::::
         ::                     SUMMARY                     ::
         :::::::::::::::::::::::::::::::::::::::::::::::::::::
         :: total energy             -63.353962640118 Eh    ::
         :: gradient norm              0.695083966342 Eh/a0 ::
         :: HOMO-LUMO gap              0.024697379111 eV    ::
         ::.................................................::
         :: SCC energy               -64.131516976500 Eh    ::
         :: -> isotropic ES            0.343447190063 Eh    ::
         :: -> anisotropic ES         -0.010082079490 Eh    ::
         :: -> anisotropic XC         -0.064599757139 Eh    ::
         :: -> dispersion             -0.070491016726 Eh    ::
         :: repulsion energy           0.777554336382 Eh    ::
         :: add. restraining           0.000000000000 Eh    ::
         :: total charge              -0.000000000126 e     ::
         :::::::::::::::::::::::::::::::::::::::::::::::::::::

      ----------------------------------------------------------- 
     |                   =====================                   |
     |                        A N C O P T                        |
     |                   =====================                   |
     |               Approximate Normal Coordinate               |
     |                Rational Function Optimizer                |
      ----------------------------------------------------------- 
      ----------------------------------------------------------- 
     |                   =====================                   |
     |                        A N C O P T                        |
     |                   =====================                   |
     |               Approximate Normal Coordinate               |
     |                Rational Function Optimizer                |
      ----------------------------------------------------------- 

          ...................................................
          :                      SETUP                      :
          :.................................................:
          :   optimization level             tight          :
          :   max. optcycles                   100          :
          :   ANC micro-cycles                  20          :
          :   degrees of freedom               174          :
          :.................................................:
          :   RF solver                   davidson          :
          :   write xtbopt.log                true          :
          :   linear?                        false          :
          :   energy convergence         0.1000000E-05 Eh   :
          :   grad. convergence          0.8000000E-03 Eh/α :
          :   maxmium RF displ.          1.0000000          :
          :   Hlow (freq-cutoff)         0.1000000E-01      :
          :   Hmax (freq-cutoff)         5.0000000          :
          :   S6 in model hess.         20.0000000          :
          ...................................................

generating ANC from exact Hessian ...
Using Lindh-Hessian (1995)
 Shifting diagonal of input Hessian by   1.041667480298500E-002
 Lowest  eigenvalues of input Hessian
    0.010000    0.010108    0.010192    0.010222    0.010270    0.000000
    0.000000    0.000000    0.000000    0.000000    0.000000    0.010556
    0.010627    0.010689    0.011026    0.011222    0.011404    0.011589
 Highest eigenvalues
    1.194509    1.208824    1.223869    1.243392    1.586236    2.003958
 

........................................................................
.............................. CYCLE    1 ..............................
........................................................................

 iter      E             dE          RMSdq      gap      omega  full diag
   1    -64.1309267 -0.641309E+02  0.451E-04    0.02       0.0  T
   2    -64.1309253  0.140050E-05  0.354E-03    0.02       3.6  T
   3    -64.1309265 -0.113610E-05  0.149E-03    0.02       8.7  T
   4    -64.1309267 -0.237103E-06  0.586E-04    0.02      22.0  T
   5    -64.1309267 -0.159173E-07  0.524E-04    0.02      24.6  T
     SCC iter.                  ...        0 min,  0.039 sec
     gradient                   ...        0 min,  0.008 sec
 * total energy  :   -63.3539626 Eh     change        0.2264400E-08 Eh
   gradient norm :     0.6950808 Eh/α   predicted     0.0000000E+00 (-100.00%)
   displ. norm   :     0.5796761 α      lambda       -0.3229165E+00
   maximum displ.:     0.2583589 α      in ANC's #174, #120, #68, ...

........................................................................
.............................. CYCLE    2 ..............................
........................................................................

 iter      E             dE          RMSdq      gap      omega  full diag
   1    -64.2451795 -0.642452E+02  0.787E-01    0.06       0.0  T
   2    -62.9748548  0.127032E+01  0.324E+00    0.02       1.0  T
   3    -64.1297854 -0.115493E+01  0.100E+00    0.13       1.0  T
   4    -64.1893822 -0.595968E-01  0.835E-01    0.04       1.0  T
   5    -64.0373772  0.152005E+00  0.146E+00    0.09       1.0  T
   6    -63.4197324  0.617645E+00  0.231E+00    0.09       1.0  T
   7    -64.2254735 -0.805741E+00  0.552E-01    0.03       1.0  T
   8    -64.2486769 -0.232034E-01  0.409E-01    0.04       1.0  T
   9    -64.2428178  0.585910E-02  0.425E-01    0.05       1.0  T
  10    -64.2353630  0.745474E-02  0.474E-01    0.06       1.0  T
  11    -64.2434120 -0.804899E-02  0.422E-01    0.06       1.0  T
  12    -64.2371107  0.630132E-02  0.418E-01    0.05       1.0  T
  13    -64.2480085 -0.108978E-01  0.370E-01    0.05       1.0  T
  14    -64.2450859  0.292259E-02  0.366E-01    0.05       1.0  T
  15    -64.2499254 -0.483952E-02  0.331E-01    0.04       1.0  T
  16    -64.2517516 -0.182618E-02  0.301E-01    0.04       1.0  T
  17    -64.2538430 -0.209145E-02  0.273E-01    0.04       1.0  T
  18    -64.2540671 -0.224049E-03  0.267E-01    0.04       1.0  T
  19    -64.2539398  0.127230E-03  0.271E-01    0.04       1.0  T
  20    -64.2558425 -0.190268E-02  0.224E-01    0.04       1.0  T
  21    -64.2580650 -0.222249E-02  0.147E-01    0.04       1.0  T
  22    -64.2580598  0.522535E-05  0.150E-01    0.04       1.0  T
  23    -64.2583392 -0.279418E-03  0.138E-01    0.04       1.0  T
  24    -64.2588773 -0.538048E-03  0.114E-01    0.04       1.0  T
  25    -64.2600441 -0.116682E-02  0.178E-02    0.04       1.0  T
  26    -64.2600430  0.106066E-05  0.175E-02    0.04       1.0  T
  27    -64.2600399  0.313629E-05  0.178E-02    0.04       1.0  T
  28    -64.2600505 -0.106198E-04  0.117E-02    0.04       1.1  T
  29    -64.2600246  0.259605E-04  0.218E-02    0.04       1.0  T
  30    -64.2600384 -0.138904E-04  0.169E-02    0.04       1.0  T
  31    -64.2600150  0.234140E-04  0.228E-02    0.04       1.0  T
  32    -64.2600337 -0.186619E-04  0.166E-02    0.04       1.0  T
  33    -64.2600489 -0.151964E-04  0.977E-03    0.04       1.3  T
  34    -64.2600547 -0.585067E-05  0.493E-03    0.04       2.6  T
  35    -64.2600565 -0.177116E-05  0.199E-03    0.04       6.5  T
  36    -64.2600568 -0.310380E-06  0.403E-04    0.04      32.1  T
  37    -64.2600568 -0.802962E-08  0.274E-04    0.04      47.2  T
     SCC iter.                  ...        0 min,  0.255 sec
     gradient                   ...        0 min,  0.008 sec
 * total energy  :   -63.5567368 Eh     change       -0.2027741E+00 Eh
   gradient norm :     0.2486004 Eh/α   predicted    -0.2157872E+00 (   6.42%)
   displ. norm   :     0.7233245 α      lambda       -0.1601109E+00
   maximum displ.:     0.2433394 α      in ANC's #68, #46, #38, ...

........................................................................
.............................. CYCLE    3 ..............................
........................................................................

 iter      E             dE          RMSdq      gap      omega  full diag
   1    -64.4413203 -0.644413E+02  0.854E-01    0.10       0.0  T
   2    -63.7695261  0.671794E+00  0.247E+00    0.15       1.0  T
   3    -63.8321717 -0.626456E-01  0.186E+00    0.01       1.0  T
   4    -64.2374647 -0.405293E+00  0.113E+00    0.17       1.0  T
   5    -64.2731889 -0.357242E-01  0.129E+00    0.11       1.0  T
   6    -64.0370970  0.236092E+00  0.185E+00    0.01       1.0  T
   7    -64.3874734 -0.350376E+00  0.853E-01    0.14       1.0  T
   8    -64.3897207 -0.224732E-02  0.617E-01    0.09       1.0  T
   9    -64.4262591 -0.365384E-01  0.506E-01    0.10       1.0  T
  10    -64.4266928 -0.433712E-03  0.489E-01    0.10       1.0  T
  11    -64.4282824 -0.158956E-02  0.478E-01    0.10       1.0  T
  12    -64.4350893 -0.680688E-02  0.425E-01    0.09       1.0  T
  13    -64.4454511 -0.103618E-01  0.337E-01    0.08       1.0  T
  14    -64.4477834 -0.233228E-02  0.289E-01    0.08       1.0  T
  15    -64.4484308 -0.647482E-03  0.278E-01    0.07       1.0  T
  16    -64.4490546 -0.623724E-03  0.264E-01    0.07       1.0  T
  17    -64.4499676 -0.913039E-03  0.239E-01    0.07       1.0  T
  18    -64.4512888 -0.132118E-02  0.180E-01    0.07       1.0  T
  19    -64.4522066 -0.917874E-03  0.155E-01    0.07       1.0  T
  20    -64.4524844 -0.277796E-03  0.143E-01    0.07       1.0  T
  21    -64.4531723 -0.687874E-03  0.119E-01    0.07       1.0  T
  22    -64.4538224 -0.650106E-03  0.848E-02    0.06       1.0  T
  23    -64.4542819 -0.459431E-03  0.443E-02    0.06       1.0  T
  24    -64.4543174 -0.355311E-04  0.360E-02    0.06       1.0  T
  25    -64.4542851  0.322936E-04  0.402E-02    0.06       1.0  T
  26    -64.4543200 -0.348816E-04  0.355E-02    0.06       1.0  T
  27    -64.4544299 -0.109960E-03  0.778E-03    0.06       1.7  T
  28    -64.4544319 -0.197015E-05  0.471E-03    0.06       2.7  T
  29    -64.4544319  0.169686E-08  0.447E-03    0.06       2.9  T
  30    -64.4544316  0.331153E-06  0.443E-03    0.06       2.9  T
  31    -64.4544325 -0.896488E-06  0.274E-03    0.06       4.7  T
  32    -64.4544322  0.235249E-06  0.300E-03    0.06       4.3  T
  33    -64.4544327 -0.439047E-06  0.209E-03    0.06       6.2  T
  34    -64.4544330 -0.284189E-06  0.114E-03    0.06      11.3  T
  35    -64.4544331 -0.117318E-06  0.350E-04    0.06      36.9  T
  36    -64.4544331  0.302211E-08  0.366E-04    0.06      35.3  T
     SCC iter.                  ...        0 min,  0.262 sec
     gradient                   ...        0 min,  0.009 sec
 * total energy  :   -63.6828231 Eh     change       -0.1260863E+00 Eh
   gradient norm :     0.1554417 Eh/α   predicted    -0.1219407E+00 (  -3.29%)
   displ. norm   :     0.7269768 α      lambda       -0.9928519E-01
   maximum displ.:     0.2839894 α      in ANC's #68, #46, #38, ...

........................................................................
.............................. CYCLE    4 ..............................
........................................................................

 iter      E             dE          RMSdq      gap      omega  full diag
   1    -64.5930487 -0.645930E+02  0.798E-01    0.11       0.0  T
   2    -63.6323198  0.960729E+00  0.269E+00    0.10       1.0  T
   3    -64.4502248 -0.817905E+00  0.926E-01    0.12       1.0  T
   4    -64.2923300  0.157895E+00  0.131E+00    0.16       1.0  T
   5    -64.5223372 -0.230007E+00  0.899E-01    0.06       1.0  T
   6    -64.5719398 -0.496026E-01  0.594E-01    0.11       1.0  T
   7    -64.5737354 -0.179561E-02  0.518E-01    0.10       1.0  T
   8    -64.5928625 -0.191271E-01  0.372E-01    0.11       1.0  T
   9    -64.6016080 -0.874543E-02  0.300E-01    0.09       1.0  T
  10    -64.6035394 -0.193140E-02  0.257E-01    0.11       1.0  T
  11    -64.6045008 -0.961403E-03  0.226E-01    0.10       1.0  T
  12    -64.6054280 -0.927217E-03  0.195E-01    0.10       1.0  T
  13    -64.6065954 -0.116739E-02  0.157E-01    0.10       1.0  T
  14    -64.6072130 -0.617615E-03  0.130E-01    0.10       1.0  T
  15    -64.6072465 -0.335503E-04  0.112E-01    0.10       1.0  T
  16    -64.6076427 -0.396121E-03  0.891E-02    0.10       1.0  T
  17    -64.6077305 -0.878197E-04  0.651E-02    0.10       1.0  T
  18    -64.6077886 -0.580934E-04  0.505E-02    0.10       1.0  T
  19    -64.6078553 -0.667373E-04  0.398E-02    0.10       1.0  T
  20    -64.6079189 -0.635689E-04  0.298E-02    0.10       1.0  T
  21    -64.6079997 -0.807685E-04  0.152E-02    0.10       1.0  T
  22    -64.6080154 -0.157515E-04  0.800E-03    0.10       1.6  T
  23    -64.6080175 -0.207735E-05  0.543E-03    0.10       2.4  T
  24    -64.6080177 -0.213842E-06  0.427E-03    0.10       3.0  T
  25    -64.6080192 -0.149226E-05  0.200E-03    0.10       6.5  T
  26    -64.6080194 -0.263512E-06  0.117E-03    0.10      11.0  T
  27    -64.6080195 -0.550698E-07  0.718E-04    0.10      18.0  T
  28    -64.6080195 -0.397561E-07  0.364E-04    0.10      35.5  T
     SCC iter.                  ...        0 min,  0.191 sec
     gradient                   ...        0 min,  0.008 sec
 * total energy  :   -63.7602748 Eh     change       -0.7745173E-01 Eh
   gradient norm :     0.0975257 Eh/α   predicted    -0.7587853E-01 (  -2.03%)
   displ. norm   :     0.7164542 α      lambda       -0.5681641E-01
   maximum displ.:     0.2517006 α      in ANC's #68, #33, #38, ...

........................................................................
.............................. CYCLE    5 ..............................
........................................................................

 iter      E             dE          RMSdq      gap      omega  full diag
   1    -64.7064951 -0.647065E+02  0.666E-01    0.07       0.0  T
   2    -64.3382216  0.368273E+00  0.167E+00    0.14       1.0  T
   3    -64.6535022 -0.315281E+00  0.697E-01    0.12       1.0  T
   4    -64.4103732  0.243129E+00  0.163E+00    0.07       1.0  T
   5    -64.5869603 -0.176587E+00  0.891E-01    0.05       1.0  T
   6    -64.7003194 -0.113359E+00  0.351E-01    0.08       1.0  T
   7    -64.7103398 -0.100203E-01  0.245E-01    0.06       1.0  T
   8    -64.7114156 -0.107586E-02  0.190E-01    0.07       1.0  T
   9    -64.7110119  0.403762E-03  0.210E-01    0.07       1.0  T
  10    -64.7112917 -0.279862E-03  0.199E-01    0.07       1.0  T
  11    -64.7119634 -0.671710E-03  0.158E-01    0.07       1.0  T
  12    -64.7128296 -0.866203E-03  0.133E-01    0.07       1.0  T
  13    -64.7133856 -0.555924E-03  0.960E-02    0.07       1.0  T
  14    -64.7135887 -0.203138E-03  0.841E-02    0.07       1.0  T
  15    -64.7135975 -0.880228E-05  0.831E-02    0.07       1.0  T
  16    -64.7137635 -0.166032E-03  0.670E-02    0.07       1.0  T
  17    -64.7138959 -0.132335E-03  0.456E-02    0.07       1.0  T
  18    -64.7140109 -0.115004E-03  0.295E-02    0.07       1.0  T
  19    -64.7140354 -0.245459E-04  0.233E-02    0.07       1.0  T
  20    -64.7140640 -0.285990E-04  0.140E-02    0.07       1.0  T
  21    -64.7140765 -0.124437E-04  0.835E-03    0.07       1.5  T
  22    -64.7140790 -0.252285E-05  0.570E-03    0.07       2.3  T
  23    -64.7140810 -0.202252E-05  0.238E-03    0.07       5.4  T
  24    -64.7140812 -0.201268E-06  0.178E-03    0.07       7.3  T
  25    -64.7140814 -0.190018E-06  0.112E-03    0.07      11.5  T
  26    -64.7140815 -0.988086E-07  0.446E-04    0.07      29.0  T
  27    -64.7140815 -0.734865E-08  0.330E-04    0.07      39.1  T
     SCC iter.                  ...        0 min,  0.184 sec
     gradient                   ...        0 min,  0.009 sec
 * total energy  :   -63.8054839 Eh     change       -0.4520905E-01 Eh
   gradient norm :     0.0812792 Eh/α   predicted    -0.4299036E-01 (  -4.91%)
   displ. norm   :     0.7104060 α      lambda       -0.3895022E-01
   maximum displ.:     0.2894013 α      in ANC's #33, #38, #46, ...

........................................................................
.............................. CYCLE    6 ..............................
........................................................................

 iter      E             dE          RMSdq      gap      omega  full diag
   1    -64.7862001 -0.647862E+02  0.641E-01    0.02       0.0  T
   2    -64.7237370  0.624631E-01  0.796E-01    0.12       1.0  T
   3    -64.5475529  0.176184E+00  0.132E+00    0.03       1.0  T
   4    -64.7383851 -0.190832E+00  0.812E-01    0.01       1.0  T
   5    -64.7449223 -0.653717E-02  0.576E-01    0.09       1.0  T
   6    -64.7426096  0.231267E-02  0.569E-01    0.03       1.0  T
   7    -64.7813122 -0.387025E-01  0.268E-01    0.05       1.0  T
   8    -64.7854134 -0.410120E-02  0.201E-01    0.04       1.0  T
   9    -64.7873345 -0.192118E-02  0.176E-01    0.04       1.0  T
  10    -64.7877610 -0.426411E-03  0.162E-01    0.04       1.0  T
  11    -64.7884303 -0.669319E-03  0.140E-01    0.04       1.0  T
  12    -64.7896760 -0.124568E-02  0.942E-02    0.04       1.0  T
  13    -64.7902552 -0.579289E-03  0.641E-02    0.04       1.0  T
  14    -64.7902892 -0.339265E-04  0.613E-02    0.04       1.0  T
  15    -64.7904071 -0.117917E-03  0.479E-02    0.04       1.0  T
  16    -64.7905506 -0.143480E-03  0.175E-02    0.04       1.0  T
  17    -64.7905701 -0.195039E-04  0.910E-03    0.04       1.4  T
  18    -64.7905758 -0.574951E-05  0.716E-03    0.04       1.8  T
  19    -64.7905780 -0.215186E-05  0.411E-03    0.04       3.1  T
  20    -64.7905780 -0.204059E-07  0.277E-03    0.04       4.7  T
  21    -64.7905787 -0.732185E-06  0.979E-04    0.04      13.2  T
  22    -64.7905788 -0.523915E-07  0.784E-04    0.04      16.5  T
     SCC iter.                  ...        0 min,  0.148 sec
     gradient                   ...        0 min,  0.008 sec
 * total energy  :   -63.8365453 Eh     change       -0.3106138E-01 Eh
   gradient norm :     0.0553780 Eh/α   predicted    -0.2930396E-01 (  -5.66%)
   displ. norm   :     0.7003141 α      lambda       -0.2533892E-01
   maximum displ.:     0.3552881 α      in ANC's #33, #38, #46, ...

........................................................................
.............................. CYCLE    7 ..............................
........................................................................

 iter      E             dE          RMSdq      gap      omega  full diag
   1    -64.8415507 -0.648416E+02  0.623E-01    0.00       0.0  T
   2    -64.7480899  0.934609E-01  0.956E-01    0.12       1.0  T
   3    -64.6732981  0.747917E-01  0.131E+00    0.10       1.0  T
   4    -64.7836665 -0.110368E+00  0.729E-01    0.00       1.0  T
   5    -64.8183481 -0.346816E-01  0.409E-01    0.01       1.0  T
   6    -64.8215799 -0.323178E-02  0.372E-01    0.03       1.0  T
   7    -64.8411804 -0.196005E-01  0.214E-01    0.02       1.0  T
   8    -64.8438996 -0.271914E-02  0.172E-01    0.02       1.0  T
   9    -64.8438750  0.246170E-04  0.156E-01    0.02       1.0  T
  10    -64.8448890 -0.101407E-02  0.136E-01    0.02       1.0  T
  11    -64.8456240 -0.734990E-03  0.710E-02    0.01       1.0  T
  12    -64.8458587 -0.234661E-03  0.366E-02    0.01       1.0  T
  13    -64.8458845 -0.258048E-04  0.284E-02    0.01       1.0  T
  14    -64.8459003 -0.158439E-04  0.252E-02    0.01       1.0  T
  15    -64.8459085 -0.821145E-05  0.171E-02    0.01       1.0  T
  16    -64.8459242 -0.156355E-04  0.103E-02    0.01       1.3  T
  17    -64.8459273 -0.309456E-05  0.845E-03    0.01       1.5  T
  18    -64.8459280 -0.766695E-06  0.767E-03    0.01       1.7  T
  19    -64.8459290 -0.944226E-06  0.621E-03    0.01       2.1  T
  20    -64.8459312 -0.220349E-05  0.198E-03    0.01       6.5  T
  21    -64.8459315 -0.341693E-06  0.154E-03    0.01       8.4  T
  22    -64.8459316 -0.740362E-07  0.865E-04    0.01      14.9  T
  23    -64.8459316 -0.233496E-07  0.563E-04    0.01      22.9  T
     SCC iter.                  ...        0 min,  0.163 sec
     gradient                   ...        0 min,  0.008 sec
 * total energy  :   -63.8564642 Eh     change       -0.1991897E-01 Eh
   gradient norm :     0.0469082 Eh/α   predicted    -0.1888308E-01 (  -5.20%)
   displ. norm   :     0.6859726 α      lambda       -0.1750567E-01
   maximum displ.:     0.3756070 α      in ANC's #33, #38, #15, ...

........................................................................
.............................. CYCLE    8 ..............................
........................................................................

 iter      E             dE          RMSdq      gap      omega  full diag
   1    -64.8818017 -0.648818E+02  0.525E-01    0.02       0.0  T
   2    -64.7775772  0.104224E+00  0.992E-01    0.10       1.0  T
   3    -64.7770019  0.575302E-03  0.106E+00    0.10       1.0  T
   4    -64.8423487 -0.653468E-01  0.549E-01    0.00       1.0  T
   5    -64.8480249 -0.567618E-02  0.479E-01    0.01       1.0  T
   6    -64.8769568 -0.289319E-01  0.295E-01    0.02       1.0  T
   7    -64.8823165 -0.535964E-02  0.177E-01    0.00       1.0  T
   8    -64.8844274 -0.211091E-02  0.141E-01    0.01       1.0  T
   9    -64.8844687 -0.413594E-04  0.132E-01    0.01       1.0  T
  10    -64.8852700 -0.801293E-03  0.895E-02    0.00       1.0  T
  11    -64.8856201 -0.350026E-03  0.380E-02    0.00       1.0  T
  12    -64.8856728 -0.527595E-04  0.251E-02    0.00       1.0  T
  13    -64.8856682  0.460947E-05  0.221E-02    0.00       1.0  T
  14    -64.8856849 -0.167284E-04  0.183E-02    0.00       1.0  T
  15    -64.8856969 -0.119837E-04  0.908E-03    0.00       1.4  T
  16    -64.8856998 -0.291400E-05  0.770E-03    0.00       1.7  T
  17    -64.8857016 -0.179185E-05  0.655E-03    0.00       2.0  T
  18    -64.8857036 -0.199275E-05  0.342E-03    0.00       3.8  T
  19    -64.8857041 -0.454461E-06  0.174E-03    0.00       7.4  T
  20    -64.8857041  0.948691E-08  0.224E-03    0.00       5.8  T
  21    -64.8857042 -0.133322E-06  0.115E-03    0.00      11.2  T
  22    -64.8857043 -0.448431E-07  0.484E-04    0.00      26.7  T
  23    -64.8857043 -0.105954E-07  0.270E-04    0.00      47.8  T
     SCC iter.                  ...        0 min,  0.157 sec
     gradient                   ...        0 min,  0.008 sec
 * total energy  :   -63.8701988 Eh     change       -0.1373455E-01 Eh
   gradient norm :     0.0488819 Eh/α   predicted    -0.1287157E-01 (  -6.28%)
   displ. norm   :     0.6915166 α      lambda       -0.1451555E-01
   maximum displ.:     0.3861766 α      in ANC's #33, #38, #15, ...

........................................................................
.............................. CYCLE    9 ..............................
........................................................................

 iter      E             dE          RMSdq      gap      omega  full diag
   1    -64.9066834 -0.649067E+02  0.491E-01    0.02       0.0  T
   2    -64.8331466  0.735368E-01  0.878E-01    0.06       1.0  T
   3    -64.8462063 -0.130597E-01  0.865E-01    0.09       1.0  T
   4    -64.8043992  0.418071E-01  0.859E-01    0.04       1.0  T
   5    -64.8615672 -0.571680E-01  0.589E-01    0.03       1.0  T
   6    -64.9067826 -0.452154E-01  0.179E-01    0.00       1.0  T
   7    -64.9075404 -0.757831E-03  0.126E-01    0.01       1.0  T
   8    -64.9092080 -0.166753E-02  0.730E-02    0.01       1.0  T
   9    -64.9093877 -0.179766E-03  0.603E-02    0.01       1.0  T
  10    -64.9094257 -0.379297E-04  0.511E-02    0.01       1.0  T
  11    -64.9095104 -0.847425E-04  0.276E-02    0.01       1.0  T
  12    -64.9095666 -0.562414E-04  0.104E-02    0.01       1.2  T
  13    -64.9095698 -0.319329E-05  0.937E-03    0.01       1.4  T
  14    -64.9095722 -0.231584E-05  0.813E-03    0.01       1.6  T
  15    -64.9095718  0.402872E-06  0.779E-03    0.01       1.7  T
  16    -64.9095728 -0.100581E-05  0.511E-03    0.01       2.5  T
  17    -64.9095745 -0.175154E-05  0.233E-03    0.01       5.5  T
  18    -64.9095750 -0.499332E-06  0.121E-03    0.01      10.6  T
  19    -64.9095749  0.627694E-07  0.153E-03    0.01       8.5  T
  20    -64.9095750 -0.452783E-07  0.136E-03    0.01       9.5  T
  21    -64.9095750 -0.490856E-07  0.636E-04    0.01      20.3  T
  22    -64.9095751 -0.433331E-07  0.217E-04    0.01      59.5  T
     SCC iter.                  ...        0 min,  0.160 sec
     gradient                   ...        0 min,  0.007 sec
 * total energy  :   -63.8813515 Eh     change       -0.1115273E-01 Eh
   gradient norm :     0.0473092 Eh/α   predicted    -0.1072842E-01 (  -3.80%)
   displ. norm   :     0.6779635 α      lambda       -0.1203236E-01
   maximum displ.:     0.3701673 α      in ANC's #33, #38, #15, ...

........................................................................
.............................. CYCLE   10 ..............................
........................................................................

 iter      E             dE          RMSdq      gap      omega  full diag
   1    -64.9246406 -0.649246E+02  0.412E-01    0.01       0.0  T
   2    -64.8691071  0.555335E-01  0.724E-01    0.01       1.0  T
   3    -64.9112330 -0.421259E-01  0.416E-01    0.02       1.0  T
   4    -64.9007089  0.105241E-01  0.568E-01    0.03       1.0  T
   5    -64.8792623  0.214466E-01  0.648E-01    0.07       1.0  T
   6    -64.9246196 -0.453573E-01  0.154E-01    0.00       1.0  T
   7    -64.9263805 -0.176094E-02  0.751E-02    0.01       1.0  T
   8    -64.9269203 -0.539769E-03  0.430E-02    0.01       1.0  T
   9    -64.9269959 -0.756130E-04  0.334E-02    0.01       1.0  T
  10    -64.9269134  0.824512E-04  0.428E-02    0.01       1.0  T
  11    -64.9270053 -0.919017E-04  0.199E-02    0.01       1.0  T
  12    -64.9270559 -0.505916E-04  0.797E-03    0.01       1.6  T
  13    -64.9270598 -0.383863E-05  0.532E-03    0.01       2.4  T
  14    -64.9270602 -0.443193E-06  0.512E-03    0.01       2.5  T
  15    -64.9270612 -0.101628E-05  0.402E-03    0.01       3.2  T
  16    -64.9270608  0.412955E-06  0.378E-03    0.01       3.4  T
  17    -64.9270621 -0.127790E-05  0.108E-03    0.01      11.9  T
  18    -64.9270622 -0.127238E-06  0.337E-04    0.01      38.3  T
  19    -64.9270622 -0.440049E-08  0.238E-04    0.01      54.2  T
     SCC iter.                  ...        0 min,  0.168 sec
     gradient                   ...        0 min,  0.009 sec
 * total energy  :   -63.8909491 Eh     change       -0.9597538E-02 Eh
   gradient norm :     0.0383414 Eh/α   predicted    -0.8781428E-02 (  -8.50%)
   displ. norm   :     0.6764703 α      lambda       -0.1027653E-01
   maximum displ.:     0.3294725 α      in ANC's #33, #15, #38, ...

........................................................................
.............................. CYCLE   11 ..............................
........................................................................

 iter      E             dE          RMSdq      gap      omega  full diag
   1    -64.9351819 -0.649352E+02  0.424E-01    0.01       0.0  T
   2    -64.8451578  0.900241E-01  0.918E-01    0.06       1.0  T
   3    -64.8798002 -0.346424E-01  0.742E-01    0.07       1.0  T
   4    -64.8723146  0.748555E-02  0.782E-01    0.06       1.0  T
   5    -64.8709330  0.138162E-02  0.727E-01    0.01       1.0  T
   6    -64.9343526 -0.634196E-01  0.195E-01    0.01       1.0  T
   7    -64.9360534 -0.170077E-02  0.136E-01    0.01       1.0  T
   8    -64.9374351 -0.138176E-02  0.952E-02    0.00       1.0  T
   9    -64.9379004 -0.465254E-03  0.711E-02    0.00       1.0  T
  10    -64.9376772  0.223239E-03  0.733E-02    0.00       1.0  T
  11    -64.9379772 -0.300091E-03  0.400E-02    0.00       1.0  T
  12    -64.9381433 -0.166046E-03  0.149E-02    0.00       1.0  T
  13    -64.9381621 -0.188577E-04  0.668E-03    0.00       1.9  T
  14    -64.9381622 -0.756131E-08  0.625E-03    0.00       2.1  T
  15    -64.9381625 -0.351488E-06  0.582E-03    0.00       2.2  T
  16    -64.9381619  0.586605E-06  0.540E-03    0.00       2.4  T
  17    -64.9381642 -0.223325E-05  0.179E-03    0.00       7.2  T
  18    -64.9381643 -0.131409E-06  0.932E-04    0.00      13.9  T
  19    -64.9381643 -0.481332E-07  0.455E-04    0.00      28.4  T
     SCC iter.                  ...        0 min,  0.151 sec
     gradient                   ...        0 min,  0.008 sec
 * total energy  :   -63.8993461 Eh     change       -0.8397053E-02 Eh
   gradient norm :     0.0461267 Eh/α   predicted    -0.7489607E-02 ( -10.81%)
   displ. norm   :     0.6993959 α      lambda       -0.1114558E-01
   maximum displ.:     0.3164446 α      in ANC's #33, #15, #38, ...

........................................................................
.............................. CYCLE   12 ..............................
........................................................................

 iter      E             dE          RMSdq      gap      omega  full diag
   1    -64.9319735 -0.649320E+02  0.527E-01    0.04       0.0  T
   2    -64.7377258  0.194248E+00  0.129E+00    0.09       1.0  T
   3    -64.8254794 -0.877536E-01  0.963E-01    0.13       1.0  T
   4    -64.8995320 -0.740525E-01  0.535E-01    0.01       1.0  T
   5    -64.8880100  0.115219E-01  0.625E-01    0.03       1.0  T
   6    -64.9311061 -0.430961E-01  0.284E-01    0.00       1.0  T
   7    -64.9338531 -0.274699E-02  0.169E-01    0.01       1.0  T
   8    -64.9361771 -0.232397E-02  0.116E-01    0.01       1.0  T
   9    -64.9364062 -0.229140E-03  0.930E-02    0.01       1.0  T
  10    -64.9368231 -0.416895E-03  0.666E-02    0.02       1.0  T
  11    -64.9371539 -0.330768E-03  0.438E-02    0.02       1.0  T
  12    -64.9371725 -0.186161E-04  0.309E-02    0.02       1.0  T
  13    -64.9372166 -0.440456E-04  0.223E-02    0.02       1.0  T
  14    -64.9372490 -0.323909E-04  0.128E-02    0.02       1.0  T
  15    -64.9372505 -0.155125E-05  0.113E-02    0.02       1.1  T
  16    -64.9372510 -0.466742E-06  0.987E-03    0.02       1.3  T
  17    -64.9372578 -0.680821E-05  0.507E-03    0.02       2.5  T
  18    -64.9372585 -0.712912E-06  0.378E-03    0.02       3.4  T
  19    -64.9372574  0.108015E-05  0.522E-03    0.02       2.5  T
  20    -64.9372581 -0.721439E-06  0.393E-03    0.02       3.3  T
  21    -64.9372590 -0.816378E-06  0.817E-04    0.02      15.8  T
  22    -64.9372590 -0.657700E-07  0.413E-04    0.02      31.3  T
     SCC iter.                  ...        0 min,  0.170 sec
     gradient                   ...        0 min,  0.008 sec
 * total energy  :   -63.9083802 Eh     change       -0.9034100E-02 Eh
   gradient norm :     0.0519544 Eh/α   predicted    -0.8298804E-02 (  -8.14%)
   displ. norm   :     0.6718942 α      lambda       -0.1278366E-01
   maximum displ.:     0.3180594 α      in ANC's #15, #33, #38, ...

........................................................................
.............................. CYCLE   13 ..............................
........................................................................

 iter      E             dE          RMSdq      gap      omega  full diag
   1    -64.9381598 -0.649382E+02  0.649E-01    0.07       0.0  T
   2    -64.6686883  0.269472E+00  0.153E+00    0.07       1.0  T
   3    -64.7767484 -0.108060E+00  0.110E+00    0.19       1.0  T
   4    -64.8701763 -0.934280E-01  0.815E-01    0.07       1.0  T
   5    -64.9086697 -0.384934E-01  0.593E-01    0.01       1.0  T
   6    -64.9260220 -0.173523E-01  0.391E-01    0.06       1.0  T
   7    -64.9443135 -0.182915E-01  0.140E-01    0.04       1.0  T
   8    -64.9454753 -0.116182E-02  0.981E-02    0.05       1.0  T
   9    -64.9449439  0.531415E-03  0.120E-01    0.05       1.0  T
  10    -64.9451157 -0.171759E-03  0.913E-02    0.05       1.0  T
  11    -64.9454021 -0.286475E-03  0.645E-02    0.05       1.0  T
  12    -64.9455037 -0.101556E-03  0.404E-02    0.05       1.0  T
  13    -64.9455835 -0.798429E-04  0.272E-02    0.05       1.0  T
  14    -64.9456143 -0.308095E-04  0.226E-02    0.05       1.0  T
  15    -64.9456134  0.902101E-06  0.218E-02    0.05       1.0  T
  16    -64.9456514 -0.379640E-04  0.939E-03    0.05       1.4  T
  17    -64.9456583 -0.685753E-05  0.556E-03    0.05       2.3  T
  18    -64.9456573  0.977266E-06  0.664E-03    0.05       1.9  T
  19    -64.9456573 -0.171699E-07  0.656E-03    0.05       2.0  T
  20    -64.9456574 -0.107498E-06  0.553E-03    0.05       2.3  T
  21    -64.9456594 -0.200385E-05  0.132E-03    0.05       9.8  T
  22    -64.9456595 -0.984083E-07  0.918E-04    0.05      14.1  T
  23    -64.9456596 -0.400069E-07  0.564E-04    0.05      22.9  T
     SCC iter.                  ...        0 min,  0.174 sec
     gradient                   ...        0 min,  0.009 sec
 * total energy  :   -63.9182195 Eh     change       -0.9839333E-02 Eh
   gradient norm :     0.0503968 Eh/α   predicted    -0.9277380E-02 (  -5.71%)
   displ. norm   :     0.5980013 α      lambda       -0.1101701E-01
   maximum displ.:     0.2771536 α      in ANC's #15, #38, #33, ...

........................................................................
.............................. CYCLE   14 ..............................
........................................................................

 iter      E             dE          RMSdq      gap      omega  full diag
   1    -64.9466313 -0.649466E+02  0.578E-01    0.10       0.0  T
   2    -64.7053127  0.241319E+00  0.138E+00    0.01       1.0  T
   3    -64.8228696 -0.117557E+00  0.924E-01    0.20       1.0  T
   4    -64.8804983 -0.576287E-01  0.723E-01    0.09       1.0  T
   5    -64.9335616 -0.530633E-01  0.402E-01    0.07       1.0  T
   6    -64.9454708 -0.119093E-01  0.233E-01    0.08       1.0  T
   7    -64.9501883 -0.471750E-02  0.141E-01    0.08       1.0  T
   8    -64.9511731 -0.984737E-03  0.110E-01    0.08       1.0  T
   9    -64.9510796  0.934360E-04  0.110E-01    0.09       1.0  T
  10    -64.9506702  0.409398E-03  0.110E-01    0.08       1.0  T
  11    -64.9512618 -0.591576E-03  0.634E-02    0.08       1.0  T
  12    -64.9514983 -0.236529E-03  0.296E-02    0.08       1.0  T
  13    -64.9515596 -0.612492E-04  0.205E-02    0.08       1.0  T
  14    -64.9515631 -0.353943E-05  0.184E-02    0.08       1.0  T
  15    -64.9515613  0.184891E-05  0.183E-02    0.08       1.0  T
  16    -64.9515633 -0.196168E-05  0.118E-02    0.08       1.1  T
  17    -64.9515748 -0.115591E-04  0.332E-03    0.08       3.9  T
  18    -64.9515760 -0.120150E-05  0.229E-03    0.08       5.6  T
  19    -64.9515760  0.400805E-07  0.235E-03    0.08       5.5  T
  20    -64.9515760 -0.198236E-08  0.231E-03    0.08       5.6  T
  21    -64.9515762 -0.223223E-06  0.113E-03    0.08      11.4  T
  22    -64.9515763 -0.128662E-06  0.365E-04    0.08      35.4  T
  23    -64.9515763 -0.812562E-08  0.259E-04    0.08      49.9  T
     SCC iter.                  ...        0 min,  0.191 sec
     gradient                   ...        0 min,  0.009 sec
 * total energy  :   -63.9265972 Eh     change       -0.8377624E-02 Eh
   gradient norm :     0.0467449 Eh/α   predicted    -0.7478386E-02 ( -10.73%)
   displ. norm   :     0.5642198 α      lambda       -0.1005276E-01
   maximum displ.:     0.2903168 α      in ANC's #15, #33, #81, ...

........................................................................
.............................. CYCLE   15 ..............................
........................................................................

 iter      E             dE          RMSdq      gap      omega  full diag
   1    -64.9583455 -0.649583E+02  0.582E-01    0.14       0.0  T
   2    -64.5608067  0.397539E+00  0.173E+00    0.06       1.0  T
   3    -64.9236663 -0.362860E+00  0.551E-01    0.16       1.0  T
   4    -64.8309240  0.927423E-01  0.934E-01    0.12       1.0  T
   5    -64.9476269 -0.116703E+00  0.378E-01    0.12       1.0  T
   6    -64.9585367 -0.109098E-01  0.220E-01    0.10       1.0  T
   7    -64.9625624 -0.402572E-02  0.127E-01    0.13       1.0  T
   8    -64.9631568 -0.594427E-03  0.114E-01    0.11       1.0  T
   9    -64.9632064 -0.496232E-04  0.957E-02    0.12       1.0  T
  10    -64.9631893  0.171324E-04  0.106E-01    0.11       1.0  T
  11    -64.9635929 -0.403638E-03  0.722E-02    0.12       1.0  T
  12    -64.9640214 -0.428510E-03  0.415E-02    0.11       1.0  T
  13    -64.9641243 -0.102839E-03  0.291E-02    0.11       1.0  T
  14    -64.9641296 -0.530264E-05  0.274E-02    0.11       1.0  T
  15    -64.9641472 -0.175820E-04  0.245E-02    0.11       1.0  T
  16    -64.9641532 -0.604609E-05  0.162E-02    0.11       1.0  T
  17    -64.9641704 -0.172132E-04  0.610E-03    0.11       2.1  T
  18    -64.9641734 -0.295904E-05  0.315E-03    0.11       4.1  T
  19    -64.9641740 -0.585597E-06  0.209E-03    0.11       6.2  T
  20    -64.9641740 -0.442811E-07  0.176E-03    0.11       7.4  T
  21    -64.9641741 -0.508418E-07  0.118E-03    0.11      11.0  T
  22    -64.9641741 -0.402499E-07  0.431E-04    0.11      29.9  T
  23    -64.9641741 -0.107737E-07  0.233E-04    0.11      55.4  T
     SCC iter.                  ...        0 min,  0.161 sec
     gradient                   ...        0 min,  0.007 sec
 * total energy  :   -63.9341205 Eh     change       -0.7523368E-02 Eh
   gradient norm :     0.0486953 Eh/α   predicted    -0.6626496E-02 ( -11.92%)
   displ. norm   :     0.6288465 α      lambda       -0.1137926E-01
   maximum displ.:     0.3547481 α      in ANC's #15, #92, #76, ...

........................................................................
.............................. CYCLE   16 ..............................
........................................................................

 iter      E             dE          RMSdq      gap      omega  full diag
   1    -64.9758437 -0.649758E+02  0.704E-01    0.20       0.0  T
   2    -64.3478953  0.627948E+00  0.211E+00    0.13       1.0  T
   3    -64.9451394 -0.597244E+00  0.579E-01    0.22       1.0  T
   4    -64.8315592  0.113580E+00  0.114E+00    0.19       1.0  T
   5    -64.9049762 -0.734170E-01  0.731E-01    0.09       1.0  T
   6    -64.9690819 -0.641057E-01  0.330E-01    0.20       1.0  T
   7    -64.9771633 -0.808139E-02  0.222E-01    0.17       1.0  T
   8    -64.9807692 -0.360588E-02  0.160E-01    0.18       1.0  T
   9    -64.9805542  0.214971E-03  0.146E-01    0.18       1.0  T
  10    -64.9811463 -0.592019E-03  0.130E-01    0.18       1.0  T
  11    -64.9819963 -0.850071E-03  0.993E-02    0.18       1.0  T
  12    -64.9824943 -0.497930E-03  0.809E-02    0.17       1.0  T
  13    -64.9825725 -0.782186E-04  0.711E-02    0.17       1.0  T
  14    -64.9825712  0.127967E-05  0.712E-02    0.17       1.0  T
  15    -64.9825800 -0.884535E-05  0.702E-02    0.17       1.0  T
  16    -64.9829036 -0.323575E-03  0.390E-02    0.17       1.0  T
  17    -64.9829886 -0.850221E-04  0.151E-02    0.16       1.0  T
  18    -64.9829933 -0.462752E-05  0.935E-03    0.16       1.4  T
  19    -64.9829946 -0.129070E-05  0.532E-03    0.16       2.4  T
  20    -64.9829946 -0.434289E-08  0.327E-03    0.16       3.9  T
  21    -64.9829947 -0.164144E-06  0.207E-03    0.16       6.2  T
  22    -64.9829952 -0.508653E-06  0.999E-04    0.16      12.9  T
  23    -64.9829953 -0.717704E-07  0.344E-04    0.16      37.5  T
     SCC iter.                  ...        0 min,  0.170 sec
     gradient                   ...        0 min,  0.009 sec
 * total energy  :   -63.9426991 Eh     change       -0.8578540E-02 Eh
   gradient norm :     0.0631889 Eh/α   predicted    -0.7939586E-02 (  -7.45%)
   displ. norm   :     0.6033686 α      lambda       -0.1375270E-01
   maximum displ.:     0.2969699 α      in ANC's #15, #67, #73, ...

........................................................................
.............................. CYCLE   17 ..............................
........................................................................

 iter      E             dE          RMSdq      gap      omega  full diag
   1    -64.9970054 -0.649970E+02  0.714E-01    0.25       0.0  T
   2    -64.3160617  0.680944E+00  0.223E+00    0.17       1.0  T
   3    -64.9652759 -0.649214E+00  0.590E-01    0.29       1.0  T
   4    -64.8256427  0.139633E+00  0.110E+00    0.13       1.0  T
   5    -64.9571114 -0.131469E+00  0.561E-01    0.14       1.0  T
   6    -64.9850334 -0.279221E-01  0.398E-01    0.24       1.0  T
   7    -64.9983778 -0.133444E-01  0.251E-01    0.22       1.0  T
   8    -65.0037289 -0.535103E-02  0.159E-01    0.23       1.0  T
   9    -65.0032639  0.464972E-03  0.154E-01    0.22       1.0  T
  10    -65.0037693 -0.505440E-03  0.131E-01    0.23       1.0  T
  11    -65.0043467 -0.577329E-03  0.976E-02    0.23       1.0  T
  12    -65.0047084 -0.361706E-03  0.804E-02    0.22       1.0  T
  13    -65.0047913 -0.829759E-04  0.675E-02    0.22       1.0  T
  14    -65.0049203 -0.129014E-03  0.619E-02    0.22       1.0  T
  15    -65.0049259 -0.556754E-05  0.612E-02    0.22       1.0  T
  16    -65.0051726 -0.246649E-03  0.369E-02    0.22       1.0  T
  17    -65.0052487 -0.761193E-04  0.121E-02    0.21       1.1  T
  18    -65.0052487 -0.588780E-08  0.104E-02    0.21       1.2  T
  19    -65.0052509 -0.219897E-05  0.813E-03    0.21       1.6  T
  20    -65.0052543 -0.341603E-05  0.553E-03    0.21       2.3  T
  21    -65.0052564 -0.207081E-05  0.173E-03    0.21       7.4  T
  22    -65.0052565 -0.131573E-06  0.110E-03    0.21      11.7  T
  23    -65.0052566 -0.580106E-07  0.611E-04    0.21      21.1  T
  24    -65.0052566 -0.138314E-07  0.402E-04    0.21      32.1  T
     SCC iter.                  ...        0 min,  0.173 sec
     gradient                   ...        0 min,  0.010 sec
 * total energy  :   -63.9543758 Eh     change       -0.1167677E-01 Eh
   gradient norm :     0.0675396 Eh/α   predicted    -0.9379688E-02 ( -19.67%)
   displ. norm   :     0.6594445 α      lambda       -0.2138603E-01
   maximum displ.:     0.2113526 α      in ANC's #15, #67, #73, ...

........................................................................
.............................. CYCLE   18 ..............................
........................................................................

 iter      E             dE          RMSdq      gap      omega  full diag
   1    -65.0194776 -0.650195E+02  0.893E-01    0.27       0.0  T
   2    -64.6451086  0.374369E+00  0.179E+00    0.14       1.0  T
   3    -64.9032984 -0.258190E+00  0.997E-01    0.32       1.0  T
   4    -64.9436540 -0.403556E-01  0.984E-01    0.21       1.0  T
   5    -64.9476872 -0.403326E-02  0.763E-01    0.17       1.0  T
   6    -65.0199016 -0.722143E-01  0.311E-01    0.22       1.0  T
   7    -65.0248441 -0.494250E-02  0.254E-01    0.23       1.0  T
   8    -65.0254288 -0.584704E-03  0.223E-01    0.25       1.0  T
   9    -65.0250102  0.418582E-03  0.218E-01    0.26       1.0  T
  10    -65.0250444 -0.341569E-04  0.190E-01    0.26       1.0  T
  11    -65.0259157 -0.871361E-03  0.159E-01    0.25       1.0  T
  12    -65.0267548 -0.839050E-03  0.100E-01    0.24       1.0  T
  13    -65.0271342 -0.379426E-03  0.735E-02    0.24       1.0  T
  14    -65.0272471 -0.112863E-03  0.625E-02    0.24       1.0  T
  15    -65.0273374 -0.902956E-04  0.424E-02    0.23       1.0  T
  16    -65.0274243 -0.869061E-04  0.220E-02    0.23       1.0  T
  17    -65.0274458 -0.215587E-04  0.111E-02    0.23       1.2  T
  18    -65.0274511 -0.525588E-05  0.672E-03    0.23       1.9  T
  19    -65.0274542 -0.315073E-05  0.459E-03    0.23       2.8  T
  20    -65.0274544 -0.166485E-06  0.353E-03    0.23       3.7  T
  21    -65.0274552 -0.843170E-06  0.103E-03    0.23      12.6  T
  22    -65.0274553 -0.752890E-07  0.398E-04    0.23      32.5  T
  23    -65.0274553 -0.456849E-08  0.261E-04    0.23      49.5  T
     SCC iter.                  ...        0 min,  0.157 sec
     gradient                   ...        0 min,  0.008 sec
 * total energy  :   -63.9697464 Eh     change       -0.1537054E-01 Eh
   gradient norm :     0.0742524 Eh/α   predicted    -0.1534307E-01 (  -0.18%)
   displ. norm   :     0.5468478 α      lambda       -0.1853561E-01
   maximum displ.:     0.1744130 α      in ANC's #67, #15, #39, ...

........................................................................
.............................. CYCLE   19 ..............................
........................................................................

 iter      E             dE          RMSdq      gap      omega  full diag
   1    -65.0319444 -0.650319E+02  0.664E-01    0.27       0.0  T
   2    -64.8530435  0.178901E+00  0.127E+00    0.14       1.0  T
   3    -64.9728876 -0.119844E+00  0.802E-01    0.37       1.0  T
   4    -64.9905513 -0.176638E-01  0.662E-01    0.26       1.0  T
   5    -64.9958700 -0.531862E-02  0.531E-01    0.22       1.0  T
   6    -65.0328179 -0.369480E-01  0.212E-01    0.23       1.0  T
   7    -65.0350300 -0.221207E-02  0.168E-01    0.24       1.0  T
   8    -65.0355005 -0.470475E-03  0.153E-01    0.27       1.0  T
   9    -65.0357853 -0.284837E-03  0.139E-01    0.26       1.0  T
  10    -65.0351432  0.642071E-03  0.123E-01    0.26       1.0  T
  11    -65.0358419 -0.698660E-03  0.949E-02    0.26       1.0  T
  12    -65.0362962 -0.454316E-03  0.588E-02    0.25       1.0  T
  13    -65.0364053 -0.109053E-03  0.382E-02    0.25       1.0  T
  14    -65.0364500 -0.447054E-04  0.317E-02    0.25       1.0  T
  15    -65.0364847 -0.347391E-04  0.208E-02    0.24       1.0  T
  16    -65.0365078 -0.231346E-04  0.934E-03    0.24       1.4  T
  17    -65.0365109 -0.309327E-05  0.456E-03    0.24       2.8  T
  18    -65.0365118 -0.872545E-06  0.253E-03    0.24       5.1  T
  19    -65.0365122 -0.393001E-06  0.185E-03    0.24       7.0  T
  20    -65.0365123 -0.561820E-07  0.131E-03    0.24       9.8  T
  21    -65.0365124 -0.105927E-06  0.449E-04    0.24      28.8  T
  22    -65.0365124 -0.166052E-07  0.211E-04    0.24      61.2  T
     SCC iter.                  ...        0 min,  0.148 sec
     gradient                   ...        0 min,  0.007 sec
 * total energy  :   -63.9813113 Eh     change       -0.1156492E-01 Eh
   gradient norm :     0.0792756 Eh/α   predicted    -0.1203928E-01 (   4.10%)
   displ. norm   :     0.4722722 α      lambda       -0.1707933E-01
   maximum displ.:     0.1232931 α      in ANC's #15, #48, #51, ...

........................................................................
.............................. CYCLE   20 ..............................
........................................................................

 iter      E             dE          RMSdq      gap      omega  full diag
   1    -65.0362686 -0.650363E+02  0.502E-01    0.27       0.0  T
   2    -64.9942590  0.420096E-01  0.672E-01    0.18       1.0  T
   3    -64.9746788  0.195802E-01  0.771E-01    0.40       1.0  T
   4    -65.0279027 -0.532239E-01  0.362E-01    0.28       1.0  T
   5    -65.0351289 -0.722619E-02  0.159E-01    0.25       1.0  T
   6    -65.0369378 -0.180881E-02  0.117E-01    0.25       1.0  T
   7    -65.0380260 -0.108827E-02  0.728E-02    0.26       1.0  T
   8    -65.0381197 -0.936883E-04  0.652E-02    0.26       1.0  T
   9    -65.0380872  0.324889E-04  0.615E-02    0.26       1.0  T
  10    -65.0379900  0.971680E-04  0.469E-02    0.26       1.0  T
  11    -65.0381491 -0.159003E-03  0.202E-02    0.26       1.0  T
  12    -65.0381635 -0.144793E-04  0.121E-02    0.26       1.1  T
  13    -65.0381783 -0.147367E-04  0.753E-03    0.26       1.7  T
  14    -65.0381803 -0.207313E-05  0.359E-03    0.26       3.6  T
  15    -65.0381801  0.217094E-06  0.275E-03    0.26       4.7  T
  16    -65.0381800  0.132098E-06  0.247E-03    0.26       5.2  T
  17    -65.0381807 -0.741751E-06  0.738E-04    0.26      17.5  T
  18    -65.0381808 -0.667008E-07  0.332E-04    0.26      38.8  T
     SCC iter.                  ...        0 min,  0.123 sec
     gradient                   ...        0 min,  0.007 sec
 * total energy  :   -63.9891864 Eh     change       -0.7875134E-02 Eh
   gradient norm :     0.0723219 Eh/α   predicted    -0.1044437E-01 (  32.62%)
   displ. norm   :     0.4565168 α      lambda       -0.1503918E-01
   maximum displ.:     0.1990125 α      in ANC's #15, #39, #26, ...
 * RMSD in coord.:     1.2117595 α      energy gain  -0.6352238E+00 Eh

generating ANC from exact Hessian ...
Using Lindh-Hessian (1995)
 Shifting diagonal of input Hessian by   1.063042055077808E-002
 Lowest  eigenvalues of input Hessian
    0.010000    0.010034    0.010143    0.010192    0.010256    0.010307
    0.010348    0.010395    0.010412    0.010420    0.010452    0.010511
    0.000000    0.000000    0.000000    0.000000    0.000000    0.000000
 Highest eigenvalues
    1.426678    1.448927    1.462414    1.510448    1.530363    1.574466
 

........................................................................
.............................. CYCLE   21 ..............................
........................................................................

 iter      E             dE          RMSdq      gap      omega  full diag
   1    -65.0258655 -0.650259E+02  0.492E-01    0.24       0.0  T
   2    -64.9642600  0.616056E-01  0.886E-01    0.42       1.0  T
   3    -64.9889387 -0.246787E-01  0.713E-01    0.22       1.0  T
   4    -64.9951452 -0.620647E-02  0.492E-01    0.35       1.0  T
   5    -65.0167467 -0.216015E-01  0.333E-01    0.25       1.0  T
   6    -65.0269265 -0.101798E-01  0.187E-01    0.29       1.0  T
   7    -65.0287225 -0.179602E-02  0.145E-01    0.28       1.0  T
   8    -65.0287628 -0.403102E-04  0.139E-01    0.29       1.0  T
   9    -65.0291298 -0.367007E-03  0.119E-01    0.28       1.0  T
  10    -65.0296570 -0.527228E-03  0.462E-02    0.27       1.0  T
  11    -65.0297848 -0.127706E-03  0.270E-02    0.27       1.0  T
  12    -65.0298623 -0.775312E-04  0.158E-02    0.27       1.0  T
  13    -65.0298709 -0.864465E-05  0.998E-03    0.27       1.3  T
  14    -65.0298716 -0.714602E-06  0.776E-03    0.27       1.7  T
  15    -65.0298717 -0.941893E-07  0.551E-03    0.27       2.3  T
  16    -65.0298724 -0.691211E-06  0.262E-03    0.27       4.9  T
  17    -65.0298732 -0.778493E-06  0.914E-04    0.27      14.1  T
  18    -65.0298732 -0.112287E-07  0.823E-04    0.27      15.7  T
     SCC iter.                  ...        0 min,  0.120 sec
     gradient                   ...        0 min,  0.009 sec
 * total energy  :   -63.9949101 Eh     change       -0.5723684E-02 Eh
   gradient norm :     0.0469344 Eh/α   predicted     0.0000000E+00 (-100.00%)
   displ. norm   :     0.4375837 α      lambda       -0.9160638E-02
   maximum displ.:     0.2091557 α      in ANC's #25, #30, #52, ...

........................................................................
.............................. CYCLE   22 ..............................
........................................................................

 iter      E             dE          RMSdq      gap      omega  full diag
   1    -65.0402826 -0.650403E+02  0.249E-01    0.26       0.0  T
   2    -65.0360068  0.427578E-02  0.246E-01    0.29       1.0  T
   3    -65.0250992  0.109077E-01  0.347E-01    0.23       1.0  T
   4    -65.0295232 -0.442404E-02  0.325E-01    0.30       1.0  T
   5    -65.0385863 -0.906309E-02  0.148E-01    0.25       1.0  T
   6    -65.0402531 -0.166680E-02  0.512E-02    0.27       1.0  T
   7    -65.0405185 -0.265410E-03  0.363E-02    0.26       1.0  T
   8    -65.0406144 -0.959041E-04  0.174E-02    0.27       1.0  T
   9    -65.0406288 -0.143896E-04  0.101E-02    0.27       1.3  T
  10    -65.0406285  0.328726E-06  0.878E-03    0.27       1.5  T
  11    -65.0406235  0.496354E-05  0.909E-03    0.27       1.4  T
  12    -65.0406358 -0.123264E-04  0.344E-03    0.27       3.7  T
  13    -65.0406370 -0.118508E-05  0.169E-03    0.27       7.6  T
  14    -65.0406372 -0.176716E-06  0.969E-04    0.27      13.3  T
  15    -65.0406373 -0.547428E-07  0.658E-04    0.27      19.6  T
     SCC iter.                  ...        0 min,  0.100 sec
     gradient                   ...        0 min,  0.008 sec
 * total energy  :   -64.0023014 Eh     change       -0.7391293E-02 Eh
   gradient norm :     0.0254088 Eh/α   predicted    -0.5457698E-02 ( -26.16%)
   displ. norm   :     0.5995088 α      lambda       -0.7995492E-02
   maximum displ.:     0.2931048 α      in ANC's #25, #30, #33, ...

........................................................................
.............................. CYCLE   23 ..............................
........................................................................

 iter      E             dE          RMSdq      gap      omega  full diag
   1    -65.0486683 -0.650487E+02  0.331E-01    0.26       0.0  T
   2    -65.0397151  0.895326E-02  0.326E-01    0.31       1.0  T
   3    -65.0095990  0.301161E-01  0.541E-01    0.20       1.0  T
   4    -65.0286619 -0.190629E-01  0.492E-01    0.33       1.0  T
   5    -65.0433040 -0.146421E-01  0.241E-01    0.25       1.0  T
   6    -65.0485433 -0.523933E-02  0.761E-02    0.27       1.0  T
   7    -65.0491942 -0.650847E-03  0.474E-02    0.26       1.0  T
   8    -65.0493587 -0.164516E-03  0.254E-02    0.27       1.0  T
   9    -65.0493560  0.269690E-05  0.219E-02    0.27       1.0  T
  10    -65.0493600 -0.401683E-05  0.190E-02    0.27       1.0  T
  11    -65.0493702 -0.102035E-04  0.107E-02    0.27       1.2  T
  12    -65.0493839 -0.136718E-04  0.558E-03    0.27       2.3  T
  13    -65.0493864 -0.254769E-05  0.345E-03    0.27       3.7  T
  14    -65.0493873 -0.821153E-06  0.189E-03    0.27       6.8  T
  15    -65.0493873 -0.447025E-07  0.156E-03    0.27       8.3  T
  16    -65.0493875 -0.183132E-06  0.941E-04    0.27      13.7  T
  17    -65.0493876 -0.591582E-07  0.541E-04    0.27      23.9  T
     SCC iter.                  ...        0 min,  0.116 sec
     gradient                   ...        0 min,  0.008 sec
 * total energy  :   -64.0080063 Eh     change       -0.5704860E-02 Eh
   gradient norm :     0.0218392 Eh/α   predicted    -0.5434578E-02 (  -4.74%)
   displ. norm   :     0.4809302 α      lambda       -0.3795936E-02
   maximum displ.:     0.2458804 α      in ANC's #30, #25, #33, ...

........................................................................
.............................. CYCLE   24 ..............................
........................................................................

 iter      E             dE          RMSdq      gap      omega  full diag
   1    -65.0507208 -0.650507E+02  0.268E-01    0.26       0.0  T
   2    -65.0417675  0.895330E-02  0.318E-01    0.32       1.0  T
   3    -65.0316911  0.100764E-01  0.452E-01    0.23       1.0  T
   4    -65.0394692 -0.777811E-02  0.333E-01    0.29       1.0  T
   5    -65.0469189 -0.744967E-02  0.173E-01    0.26       1.0  T
   6    -65.0506768 -0.375788E-02  0.643E-02    0.28       1.0  T
   7    -65.0512554 -0.578635E-03  0.257E-02    0.27       1.0  T
   8    -65.0512765 -0.210634E-04  0.189E-02    0.27       1.0  T
   9    -65.0512687  0.782666E-05  0.200E-02    0.27       1.0  T
  10    -65.0512634  0.522627E-05  0.173E-02    0.27       1.0  T
  11    -65.0512698 -0.641099E-05  0.954E-03    0.27       1.4  T
  12    -65.0512816 -0.117683E-04  0.447E-03    0.27       2.9  T
  13    -65.0512828 -0.114056E-05  0.272E-03    0.27       4.7  T
  14    -65.0512831 -0.322972E-06  0.155E-03    0.27       8.3  T
  15    -65.0512832 -0.123859E-06  0.898E-04    0.27      14.4  T
  16    -65.0512832 -0.252403E-07  0.625E-04    0.27      20.7  T
     SCC iter.                  ...        0 min,  0.127 sec
     gradient                   ...        0 min,  0.011 sec
 * total energy  :   -64.0109877 Eh     change       -0.2981413E-02 Eh
   gradient norm :     0.0255788 Eh/α   predicted    -0.2336981E-02 ( -21.61%)
   displ. norm   :     0.5137034 α      lambda       -0.3875578E-02
   maximum displ.:     0.2874463 α      in ANC's #30, #25, #33, ...

........................................................................
.............................. CYCLE   25 ..............................
........................................................................

 iter      E             dE          RMSdq      gap      omega  full diag
   1    -65.0515221 -0.650515E+02  0.307E-01    0.27       0.0  T
   2    -65.0353024  0.162197E-01  0.443E-01    0.35       1.0  T
   3    -65.0391999 -0.389754E-02  0.408E-01    0.25       1.0  T
   4    -65.0385070  0.692881E-03  0.380E-01    0.30       1.0  T
   5    -65.0473613 -0.885431E-02  0.179E-01    0.27       1.0  T
   6    -65.0513987 -0.403741E-02  0.869E-02    0.29       1.0  T
   7    -65.0524420 -0.104330E-02  0.350E-02    0.28       1.0  T
   8    -65.0524556 -0.136039E-04  0.305E-02    0.28       1.0  T
   9    -65.0524403  0.153121E-04  0.308E-02    0.28       1.0  T
  10    -65.0524559 -0.156120E-04  0.232E-02    0.28       1.0  T
  11    -65.0524709 -0.149230E-04  0.125E-02    0.28       1.0  T
  12    -65.0524897 -0.188134E-04  0.444E-03    0.28       2.9  T
  13    -65.0524914 -0.173428E-05  0.224E-03    0.28       5.8  T
  14    -65.0524915 -0.109070E-06  0.137E-03    0.28       9.4  T
  15    -65.0524916 -0.106626E-06  0.859E-04    0.28      15.0  T
  16    -65.0524917 -0.405535E-07  0.535E-04    0.28      24.1  T
     SCC iter.                  ...        0 min,  0.132 sec
     gradient                   ...        0 min,  0.009 sec
 * total energy  :   -64.0140858 Eh     change       -0.3098090E-02 Eh
   gradient norm :     0.0211056 Eh/α   predicted    -0.2449174E-02 ( -20.95%)
   displ. norm   :     0.5641462 α      lambda       -0.3826597E-02
   maximum displ.:     0.3166537 α      in ANC's #30, #25, #33, ...

........................................................................
.............................. CYCLE   26 ..............................
........................................................................

 iter      E             dE          RMSdq      gap      omega  full diag
   1    -65.0508830 -0.650509E+02  0.362E-01    0.28       0.0  T
   2    -65.0357770  0.151060E-01  0.447E-01    0.34       1.0  T
   3    -65.0282439  0.753305E-02  0.543E-01    0.26       1.0  T
   4    -65.0316774 -0.343353E-02  0.481E-01    0.34       1.0  T
   5    -65.0462957 -0.146182E-01  0.205E-01    0.28       1.0  T
   6    -65.0504105 -0.411484E-02  0.105E-01    0.31       1.0  T
   7    -65.0519859 -0.157535E-02  0.420E-02    0.29       1.0  T
   8    -65.0520698 -0.839873E-04  0.317E-02    0.29       1.0  T
   9    -65.0520690  0.844762E-06  0.289E-02    0.30       1.0  T
  10    -65.0520667  0.226851E-05  0.242E-02    0.29       1.0  T
  11    -65.0520642  0.255036E-05  0.161E-02    0.29       1.0  T
  12    -65.0520970 -0.327959E-04  0.542E-03    0.29       2.4  T
  13    -65.0520998 -0.284606E-05  0.272E-03    0.29       4.7  T
  14    -65.0521000 -0.178486E-06  0.164E-03    0.29       7.9  T
  15    -65.0521001 -0.145811E-06  0.108E-03    0.29      12.0  T
  16    -65.0521002 -0.415281E-07  0.620E-04    0.29      20.8  T
  17    -65.0521002 -0.330441E-07  0.374E-04    0.29      34.5  T
     SCC iter.                  ...        0 min,  0.124 sec
     gradient                   ...        0 min,  0.009 sec
 * total energy  :   -64.0166525 Eh     change       -0.2566765E-02 Eh
   gradient norm :     0.0193429 Eh/α   predicted    -0.2522270E-02 (  -1.73%)
   displ. norm   :     0.6689493 α      lambda       -0.5507347E-02
   maximum displ.:     0.3416653 α      in ANC's #30, #33, #71, ...

........................................................................
.............................. CYCLE   27 ..............................
........................................................................

 iter      E             dE          RMSdq      gap      omega  full diag
   1    -65.0491286 -0.650491E+02  0.506E-01    0.30       0.0  T
   2    -65.0321031  0.170256E-01  0.518E-01    0.34       1.0  T
   3    -65.0056227  0.264803E-01  0.759E-01    0.28       1.0  T
   4    -65.0111580 -0.553525E-02  0.671E-01    0.38       1.0  T
   5    -65.0446095 -0.334515E-01  0.248E-01    0.29       1.0  T
   6    -65.0492885 -0.467898E-02  0.108E-01    0.32       1.0  T
   7    -65.0506691 -0.138062E-02  0.520E-02    0.30       1.0  T
   8    -65.0508563 -0.187186E-03  0.371E-02    0.30       1.0  T
   9    -65.0508824 -0.261286E-04  0.303E-02    0.31       1.0  T
  10    -65.0508740  0.837547E-05  0.260E-02    0.30       1.0  T
  11    -65.0508946 -0.205988E-04  0.108E-02    0.31       1.2  T
  12    -65.0509066 -0.119649E-04  0.524E-03    0.30       2.5  T
  13    -65.0509093 -0.270254E-05  0.300E-03    0.30       4.3  T
  14    -65.0509097 -0.439961E-06  0.192E-03    0.30       6.7  T
  15    -65.0509100 -0.284436E-06  0.111E-03    0.30      11.6  T
  16    -65.0509100 -0.219948E-07  0.906E-04    0.30      14.3  T
  17    -65.0509101 -0.801136E-07  0.475E-04    0.30      27.2  T
     SCC iter.                  ...        0 min,  0.121 sec
     gradient                   ...        0 min,  0.008 sec
 * total energy  :   -64.0186474 Eh     change       -0.1994814E-02 Eh
   gradient norm :     0.0303713 Eh/α   predicted    -0.3985924E-02 (  99.81%)
   displ. norm   :     0.3363867 α      lambda       -0.3396767E-02
   maximum displ.:     0.1895292 α      in ANC's #30, #52, #71, ...

........................................................................
.............................. CYCLE   28 ..............................
........................................................................

 iter      E             dE          RMSdq      gap      omega  full diag
   1    -65.0513683 -0.650514E+02  0.246E-01    0.30       0.0  T
   2    -65.0490203  0.234797E-02  0.210E-01    0.29       1.0  T
   3    -65.0399574  0.906294E-02  0.348E-01    0.32       1.0  T
   4    -65.0415021 -0.154470E-02  0.284E-01    0.25       1.0  T
   5    -65.0503025 -0.880042E-02  0.130E-01    0.31       1.0  T
   6    -65.0514363 -0.113374E-02  0.514E-02    0.30       1.0  T
   7    -65.0516497 -0.213442E-03  0.196E-02    0.30       1.0  T
   8    -65.0516706 -0.208730E-04  0.159E-02    0.30       1.0  T
   9    -65.0516899 -0.193774E-04  0.663E-03    0.30       1.9  T
  10    -65.0516892  0.742048E-06  0.579E-03    0.30       2.2  T
  11    -65.0516886  0.600143E-06  0.552E-03    0.30       2.3  T
  12    -65.0516922 -0.359156E-05  0.268E-03    0.30       4.8  T
  13    -65.0516930 -0.785657E-06  0.102E-03    0.30      12.6  T
  14    -65.0516930 -0.104961E-07  0.784E-04    0.30      16.5  T
  15    -65.0516930 -0.456176E-07  0.332E-04    0.30      38.9  T
     SCC iter.                  ...        0 min,  0.112 sec
     gradient                   ...        0 min,  0.008 sec
 * total energy  :   -64.0213226 Eh     change       -0.2675235E-02 Eh
   gradient norm :     0.0259466 Eh/α   predicted    -0.1890567E-02 ( -29.33%)
   displ. norm   :     0.5867490 α      lambda       -0.7469424E-02
   maximum displ.:     0.2134158 α      in ANC's #17, #30, #49, ...

........................................................................
.............................. CYCLE   29 ..............................
........................................................................

 iter      E             dE          RMSdq      gap      omega  full diag
   1    -65.0566166 -0.650566E+02  0.543E-01    0.28       0.0  T
   2    -65.0439368  0.126798E-01  0.479E-01    0.23       1.0  T
   3    -64.9956534  0.482834E-01  0.836E-01    0.39       1.0  T
   4    -65.0272752 -0.316218E-01  0.575E-01    0.24       1.0  T
   5    -65.0482888 -0.210136E-01  0.346E-01    0.32       1.0  T
   6    -65.0574434 -0.915464E-02  0.720E-02    0.29       1.0  T
   7    -65.0579182 -0.474741E-03  0.470E-02    0.27       1.0  T
   8    -65.0580112 -0.930075E-04  0.338E-02    0.28       1.0  T
   9    -65.0579891  0.220713E-04  0.329E-02    0.27       1.0  T
  10    -65.0579892 -0.856076E-07  0.294E-02    0.27       1.0  T
  11    -65.0580550 -0.657772E-04  0.903E-03    0.27       1.4  T
  12    -65.0580621 -0.718466E-05  0.506E-03    0.27       2.5  T
  13    -65.0580647 -0.255386E-05  0.276E-03    0.27       4.7  T
  14    -65.0580650 -0.326764E-06  0.204E-03    0.27       6.3  T
  15    -65.0580654 -0.335259E-06  0.972E-04    0.27      13.3  T
  16    -65.0580654 -0.604382E-07  0.659E-04    0.27      19.6  T
     SCC iter.                  ...        0 min,  0.115 sec
     gradient                   ...        0 min,  0.009 sec
 * total energy  :   -64.0246093 Eh     change       -0.3286745E-02 Eh
   gradient norm :     0.0348317 Eh/α   predicted    -0.5020485E-02 (  52.75%)
   displ. norm   :     0.5622550 α      lambda       -0.8776393E-02
   maximum displ.:     0.1667284 α      in ANC's #30, #73, #49, ...

........................................................................
.............................. CYCLE   30 ..............................
........................................................................

 iter      E             dE          RMSdq      gap      omega  full diag
   1    -65.0642013 -0.650642E+02  0.518E-01    0.25       0.0  T
   2    -65.0297226  0.344786E-01  0.652E-01    0.15       1.0  T
   3    -65.0144466  0.152760E-01  0.792E-01    0.41       1.0  T
   4    -65.0391342 -0.246876E-01  0.532E-01    0.31       1.0  T
   5    -65.0502895 -0.111553E-01  0.399E-01    0.23       1.0  T
   6    -65.0653185 -0.150289E-01  0.109E-01    0.23       1.0  T
   7    -65.0659591 -0.640684E-03  0.816E-02    0.24       1.0  T
   8    -65.0660471 -0.879512E-04  0.727E-02    0.24       1.0  T
   9    -65.0659862  0.608573E-04  0.649E-02    0.24       1.0  T
  10    -65.0660747 -0.884090E-04  0.302E-02    0.23       1.0  T
  11    -65.0661450 -0.703536E-04  0.166E-02    0.23       1.0  T
  12    -65.0661648 -0.198044E-04  0.876E-03    0.23       1.5  T
  13    -65.0661665 -0.166387E-05  0.547E-03    0.23       2.4  T
  14    -65.0661677 -0.122194E-05  0.342E-03    0.23       3.8  T
  15    -65.0661677 -0.423679E-07  0.263E-03    0.23       4.9  T
  16    -65.0661683 -0.574734E-06  0.142E-03    0.23       9.1  T
  17    -65.0661686 -0.270019E-06  0.383E-04    0.23      33.7  T
  18    -65.0661686 -0.313231E-08  0.308E-04    0.23      41.9  T
     SCC iter.                  ...        0 min,  0.139 sec
     gradient                   ...        0 min,  0.009 sec
 * total energy  :   -64.0302120 Eh     change       -0.5602652E-02 Eh
   gradient norm :     0.0422370 Eh/α   predicted    -0.5775446E-02 (   3.08%)
   displ. norm   :     0.4971223 α      lambda       -0.8579183E-02
   maximum displ.:     0.2002278 α      in ANC's #22, #30, #52, ...

........................................................................
.............................. CYCLE   31 ..............................
........................................................................

 iter      E             dE          RMSdq      gap      omega  full diag
   1    -65.0579177 -0.650579E+02  0.372E-01    0.22       0.0  T
   2    -64.9361015  0.121816E+00  0.118E+00    0.11       1.0  T
   3    -65.0574078 -0.121306E+00  0.250E-01    0.24       1.0  T
   4    -65.0318044  0.256034E-01  0.504E-01    0.10       1.0  T
   5    -65.0523078 -0.205034E-01  0.296E-01    0.20       1.0  T
   6    -65.0594201 -0.711230E-02  0.831E-02    0.19       1.0  T
   7    -65.0596503 -0.230200E-03  0.649E-02    0.20       1.0  T
   8    -65.0597733 -0.122935E-03  0.544E-02    0.20       1.0  T
   9    -65.0599719 -0.198592E-03  0.337E-02    0.20       1.0  T
  10    -65.0601096 -0.137733E-03  0.189E-02    0.19       1.0  T
  11    -65.0601133 -0.375854E-05  0.144E-02    0.20       1.0  T
  12    -65.0601287 -0.153150E-04  0.872E-03    0.19       1.5  T
  13    -65.0601302 -0.152979E-05  0.802E-03    0.19       1.6  T
  14    -65.0601304 -0.172843E-06  0.736E-03    0.19       1.8  T
  15    -65.0601315 -0.115191E-05  0.655E-03    0.19       2.0  T
  16    -65.0601339 -0.237564E-05  0.326E-03    0.19       4.0  T
  17    -65.0601345 -0.638671E-06  0.174E-03    0.19       7.4  T
  18    -65.0601347 -0.146259E-06  0.968E-04    0.19      13.3  T
  19    -65.0601347 -0.487823E-07  0.468E-04    0.19      27.6  T
     SCC iter.                  ...        0 min,  0.148 sec
     gradient                   ...        0 min,  0.008 sec
 * total energy  :   -64.0327836 Eh     change       -0.2571610E-02 Eh
   gradient norm :     0.0394107 Eh/α   predicted    -0.5349677E-02 ( 108.03%)
   displ. norm   :     0.4451253 α      lambda       -0.7731302E-02
   maximum displ.:     0.1694785 α      in ANC's #25, #52, #62, ...

........................................................................
.............................. CYCLE   32 ..............................
........................................................................

 iter      E             dE          RMSdq      gap      omega  full diag
   1    -65.0749693 -0.650750E+02  0.366E-01    0.21       0.0  T
   2    -65.0670165  0.795276E-02  0.351E-01    0.24       1.0  T
   3    -65.0337219  0.332946E-01  0.671E-01    0.14       1.0  T
   4    -65.0464671 -0.127452E-01  0.563E-01    0.34       1.0  T
   5    -65.0706250 -0.241579E-01  0.182E-01    0.26       1.0  T
   6    -65.0740022 -0.337724E-02  0.125E-01    0.20       1.0  T
   7    -65.0752954 -0.129321E-02  0.724E-02    0.23       1.0  T
   8    -65.0754748 -0.179418E-03  0.589E-02    0.22       1.0  T
   9    -65.0755502 -0.753682E-04  0.519E-02    0.22       1.0  T
  10    -65.0756316 -0.814326E-04  0.298E-02    0.22       1.0  T
  11    -65.0756937 -0.620767E-04  0.101E-02    0.21       1.3  T
  12    -65.0757010 -0.727013E-05  0.667E-03    0.22       1.9  T
  13    -65.0757045 -0.348489E-05  0.351E-03    0.21       3.7  T
  14    -65.0757049 -0.454003E-06  0.169E-03    0.21       7.6  T
  15    -65.0757049 -0.184695E-07  0.125E-03    0.21      10.3  T
  16    -65.0757050 -0.549257E-07  0.793E-04    0.21      16.3  T
  17    -65.0757050 -0.385222E-07  0.452E-04    0.21      28.5  T
     SCC iter.                  ...        0 min,  0.158 sec
     gradient                   ...        0 min,  0.010 sec
 * total energy  :   -64.0361216 Eh     change       -0.3338043E-02 Eh
   gradient norm :     0.0251765 Eh/α   predicted    -0.4631582E-02 (  38.75%)
   displ. norm   :     0.3878970 α      lambda       -0.4138471E-02
   maximum displ.:     0.1823220 α      in ANC's #30, #25, #56, ...

........................................................................
.............................. CYCLE   33 ..............................
........................................................................

 iter      E             dE          RMSdq      gap      omega  full diag
   1    -65.0826999 -0.650827E+02  0.281E-01    0.20       0.0  T
   2    -65.0729016  0.979823E-02  0.430E-01    0.21       1.0  T
   3    -65.0778826 -0.498093E-02  0.285E-01    0.18       1.0  T
   4    -65.0624415  0.154411E-01  0.446E-01    0.32       1.0  T
   5    -65.0803258 -0.178843E-01  0.193E-01    0.21       1.0  T
   6    -65.0828191 -0.249337E-02  0.876E-02    0.20       1.0  T
   7    -65.0829391 -0.119986E-03  0.725E-02    0.21       1.0  T
   8    -65.0831299 -0.190773E-03  0.551E-02    0.21       1.0  T
   9    -65.0832150 -0.851502E-04  0.426E-02    0.21       1.0  T
  10    -65.0832722 -0.571700E-04  0.216E-02    0.21       1.0  T
  11    -65.0833195 -0.472616E-04  0.665E-03    0.20       1.9  T
  12    -65.0833233 -0.384146E-05  0.336E-03    0.20       3.8  T
  13    -65.0833242 -0.927649E-06  0.208E-03    0.20       6.2  T
  14    -65.0833245 -0.261066E-06  0.110E-03    0.20      11.7  T
  15    -65.0833246 -0.889099E-07  0.582E-04    0.20      22.2  T
  16    -65.0833246 -0.160188E-07  0.405E-04    0.20      31.9  T
     SCC iter.                  ...        0 min,  0.156 sec
     gradient                   ...        0 min,  0.008 sec
 * total energy  :   -64.0361640 Eh     change       -0.4230932E-04 Eh
   gradient norm :     0.0395864 Eh/α   predicted    -0.2380588E-02 (5526.63%)
   displ. norm   :     0.2097527 α      lambda       -0.4518386E-02
   maximum displ.:     0.0750163 α      in ANC's #22, #80, #49, ...

........................................................................
.............................. CYCLE   34 ..............................
........................................................................

 iter      E             dE          RMSdq      gap      omega  full diag
   1    -65.0785910 -0.650786E+02  0.187E-01    0.22       0.0  T
   2    -65.0721546  0.643642E-02  0.315E-01    0.21       1.0  T
   3    -65.0760455 -0.389097E-02  0.203E-01    0.24       1.0  T
   4    -65.0679008  0.814474E-02  0.323E-01    0.17       1.0  T
   5    -65.0770440 -0.914325E-02  0.117E-01    0.24       1.0  T
   6    -65.0786099 -0.156581E-02  0.581E-02    0.20       1.0  T
   7    -65.0788261 -0.216208E-03  0.332E-02    0.21       1.0  T
   8    -65.0788851 -0.590560E-04  0.210E-02    0.21       1.0  T
   9    -65.0788911 -0.600985E-05  0.165E-02    0.21       1.0  T
  10    -65.0789027 -0.115736E-04  0.907E-03    0.22       1.4  T
  11    -65.0789097 -0.697813E-05  0.391E-03    0.22       3.3  T
  12    -65.0789112 -0.151094E-05  0.221E-03    0.22       5.8  T
  13    -65.0789115 -0.327186E-06  0.144E-03    0.22       8.9  T
  14    -65.0789116 -0.942960E-07  0.702E-04    0.22      18.4  T
  15    -65.0789117 -0.418563E-07  0.280E-04    0.22      46.2  T
     SCC iter.                  ...        0 min,  0.103 sec
     gradient                   ...        0 min,  0.007 sec
 * total energy  :   -64.0384756 Eh     change       -0.2311678E-02 Eh
   gradient norm :     0.0145305 Eh/α   predicted    -0.2358581E-02 (   2.03%)
   displ. norm   :     0.2414309 α      lambda       -0.1300750E-02
   maximum displ.:     0.1244115 α      in ANC's #25, #22, #33, ...

........................................................................
.............................. CYCLE   35 ..............................
........................................................................

 iter      E             dE          RMSdq      gap      omega  full diag
   1    -65.0819337 -0.650819E+02  0.182E-01    0.23       0.0  T
   2    -65.0727838  0.914983E-02  0.346E-01    0.18       1.0  T
   3    -65.0784924 -0.570861E-02  0.234E-01    0.25       1.0  T
   4    -65.0758977  0.259479E-02  0.243E-01    0.22       1.0  T
   5    -65.0813956 -0.549790E-02  0.832E-02    0.23       1.0  T
   6    -65.0821405 -0.744900E-03  0.294E-02    0.21       1.0  T
   7    -65.0822082 -0.677530E-04  0.149E-02    0.22       1.0  T
   8    -65.0822151 -0.689059E-05  0.110E-02    0.22       1.2  T
   9    -65.0822111  0.403593E-05  0.118E-02    0.22       1.1  T
  10    -65.0822127 -0.169088E-05  0.709E-03    0.22       1.8  T
  11    -65.0822175 -0.470514E-05  0.276E-03    0.22       4.7  T
  12    -65.0822177 -0.293343E-06  0.208E-03    0.22       6.2  T
  13    -65.0822180 -0.231268E-06  0.134E-03    0.22       9.6  T
  14    -65.0822181 -0.102590E-06  0.607E-04    0.22      21.3  T
  15    -65.0822181 -0.201674E-07  0.269E-04    0.22      48.0  T
     SCC iter.                  ...        0 min,  0.112 sec
     gradient                   ...        0 min,  0.009 sec
 * total energy  :   -64.0392937 Eh     change       -0.8180445E-03 Eh
   gradient norm :     0.0130084 Eh/α   predicted    -0.6882821E-03 ( -15.86%)
   displ. norm   :     0.3766286 α      lambda       -0.1669702E-02
   maximum displ.:     0.2031515 α      in ANC's #25, #22, #30, ...

........................................................................
.............................. CYCLE   36 ..............................
........................................................................

 iter      E             dE          RMSdq      gap      omega  full diag
   1    -65.0812389 -0.650812E+02  0.274E-01    0.24       0.0  T
   2    -65.0770449  0.419400E-02  0.262E-01    0.21       1.0  T
   3    -65.0634198  0.136251E-01  0.439E-01    0.29       1.0  T
   4    -65.0705116 -0.709181E-02  0.367E-01    0.23       1.0  T
   5    -65.0793263 -0.881466E-02  0.151E-01    0.26       1.0  T
   6    -65.0814407 -0.211444E-02  0.366E-02    0.22       1.0  T
   7    -65.0815686 -0.127844E-03  0.161E-02    0.23       1.0  T
   8    -65.0815806 -0.120180E-04  0.987E-03    0.23       1.3  T
   9    -65.0815740  0.660283E-05  0.125E-02    0.23       1.0  T
  10    -65.0815763 -0.230085E-05  0.851E-03    0.23       1.5  T
  11    -65.0815819 -0.556532E-05  0.325E-03    0.23       4.0  T
  12    -65.0815828 -0.953023E-06  0.152E-03    0.23       8.5  T
  13    -65.0815830 -0.141514E-06  0.113E-03    0.23      11.4  T
  14    -65.0815830 -0.377092E-07  0.729E-04    0.23      17.7  T
  15    -65.0815831 -0.546573E-07  0.361E-04    0.23      35.8  T
     SCC iter.                  ...        0 min,  0.112 sec
     gradient                   ...        0 min,  0.007 sec
 * total energy  :   -64.0403673 Eh     change       -0.1073631E-02 Eh
   gradient norm :     0.0157181 Eh/α   predicted    -0.9532713E-03 ( -11.21%)
   displ. norm   :     0.4743731 α      lambda       -0.2023619E-02
   maximum displ.:     0.2522415 α      in ANC's #25, #22, #30, ...

........................................................................
.............................. CYCLE   37 ..............................
........................................................................

 iter      E             dE          RMSdq      gap      omega  full diag
   1    -65.0798234 -0.650798E+02  0.350E-01    0.26       0.0  T
   2    -65.0759039  0.391954E-02  0.300E-01    0.26       1.0  T
   3    -65.0523172  0.235867E-01  0.519E-01    0.23       1.0  T
   4    -65.0702840 -0.179668E-01  0.341E-01    0.32       1.0  T
   5    -65.0768135 -0.652950E-02  0.194E-01    0.25       1.0  T
   6    -65.0801321 -0.331857E-02  0.391E-02    0.26       1.0  T
   7    -65.0802668 -0.134698E-03  0.142E-02    0.26       1.0  T
   8    -65.0802718 -0.495892E-05  0.110E-02    0.26       1.2  T
   9    -65.0802709  0.831863E-06  0.105E-02    0.26       1.2  T
  10    -65.0802694  0.150653E-05  0.930E-03    0.26       1.4  T
  11    -65.0802773 -0.788347E-05  0.319E-03    0.26       4.1  T
  12    -65.0802785 -0.115288E-05  0.118E-03    0.26      10.9  T
  13    -65.0802785 -0.656478E-07  0.710E-04    0.26      18.2  T
  14    -65.0802785 -0.278708E-08  0.607E-04    0.26      21.3  T
     SCC iter.                  ...        0 min,  0.101 sec
     gradient                   ...        0 min,  0.008 sec
 * total energy  :   -64.0416872 Eh     change       -0.1319901E-02 Eh
   gradient norm :     0.0178691 Eh/α   predicted    -0.1239481E-02 (  -6.09%)
   displ. norm   :     0.4499562 α      lambda       -0.1848107E-02
   maximum displ.:     0.2341325 α      in ANC's #25, #22, #30, ...

........................................................................
.............................. CYCLE   38 ..............................
........................................................................

 iter      E             dE          RMSdq      gap      omega  full diag
   1    -65.0827939 -0.650828E+02  0.338E-01    0.28       0.0  T
   2    -65.0804371  0.235680E-02  0.258E-01    0.28       1.0  T
   3    -65.0556032  0.248339E-01  0.492E-01    0.29       1.0  T
   4    -65.0774909 -0.218877E-01  0.231E-01    0.28       1.0  T
   5    -65.0823870 -0.489619E-02  0.842E-02    0.29       1.0  T
   6    -65.0830445 -0.657429E-03  0.353E-02    0.28       1.0  T
   7    -65.0831325 -0.880308E-04  0.177E-02    0.28       1.0  T
   8    -65.0831445 -0.119685E-04  0.877E-03    0.28       1.5  T
   9    -65.0831441  0.346002E-06  0.859E-03    0.28       1.5  T
  10    -65.0831482 -0.403654E-05  0.600E-03    0.28       2.2  T
  11    -65.0831519 -0.370044E-05  0.254E-03    0.28       5.1  T
  12    -65.0831525 -0.641743E-06  0.874E-04    0.28      14.8  T
  13    -65.0831525 -0.232228E-07  0.579E-04    0.28      22.3  T
     SCC iter.                  ...        0 min,  0.095 sec
     gradient                   ...        0 min,  0.008 sec
 * total energy  :   -64.0431166 Eh     change       -0.1429427E-02 Eh
   gradient norm :     0.0174776 Eh/α   predicted    -0.1111139E-02 ( -22.27%)
   displ. norm   :     0.5967028 α      lambda       -0.2753613E-02
   maximum displ.:     0.2373215 α      in ANC's #25, #22, #21, ...

........................................................................
.............................. CYCLE   39 ..............................
........................................................................

 iter      E             dE          RMSdq      gap      omega  full diag
   1    -65.0822276 -0.650822E+02  0.475E-01    0.31       0.0  T
   2    -65.0779483  0.427924E-02  0.362E-01    0.32       1.0  T
   3    -65.0311775  0.467708E-01  0.671E-01    0.27       1.0  T
   4    -65.0684962 -0.373187E-01  0.407E-01    0.36       1.0  T
   5    -65.0809399 -0.124437E-01  0.155E-01    0.31       1.0  T
   6    -65.0826840 -0.174411E-02  0.529E-02    0.32       1.0  T
   7    -65.0829161 -0.232073E-03  0.200E-02    0.31       1.0  T
   8    -65.0829323 -0.161972E-04  0.134E-02    0.31       1.0  T
   9    -65.0829323 -0.490317E-09  0.114E-02    0.31       1.1  T
  10    -65.0829326 -0.271666E-06  0.105E-02    0.31       1.2  T
  11    -65.0829472 -0.146013E-04  0.307E-03    0.31       4.2  T
  12    -65.0829481 -0.910793E-06  0.128E-03    0.31      10.1  T
  13    -65.0829481 -0.254654E-07  0.104E-03    0.31      12.5  T
  14    -65.0829482 -0.727214E-07  0.529E-04    0.31      24.4  T
  15    -65.0829482 -0.141403E-07  0.342E-04    0.31      37.7  T
     SCC iter.                  ...        0 min,  0.113 sec
     gradient                   ...        0 min,  0.007 sec
 * total energy  :   -64.0451873 Eh     change       -0.2070630E-02 Eh
   gradient norm :     0.0220545 Eh/α   predicted    -0.1867018E-02 (  -9.83%)
   displ. norm   :     0.5951704 α      lambda       -0.2843037E-02
   maximum displ.:     0.1899002 α      in ANC's #21, #22, #19, ...

........................................................................
.............................. CYCLE   40 ..............................
........................................................................

 iter      E             dE          RMSdq      gap      omega  full diag
   1    -65.0796392 -0.650796E+02  0.460E-01    0.33       0.0  T
   2    -65.0760644  0.357476E-02  0.347E-01    0.34       1.0  T
   3    -65.0432370  0.328275E-01  0.597E-01    0.29       1.0  T
   4    -65.0674495 -0.242125E-01  0.378E-01    0.37       1.0  T
   5    -65.0791410 -0.116915E-01  0.122E-01    0.33       1.0  T
   6    -65.0801664 -0.102538E-02  0.467E-02    0.34       1.0  T
   7    -65.0803071 -0.140730E-03  0.227E-02    0.33       1.0  T
   8    -65.0803432 -0.361455E-04  0.127E-02    0.33       1.0  T
   9    -65.0803491 -0.583876E-05  0.923E-03    0.33       1.4  T
  10    -65.0803486  0.517537E-06  0.948E-03    0.33       1.4  T
  11    -65.0803598 -0.112120E-04  0.287E-03    0.33       4.5  T
  12    -65.0803605 -0.752113E-06  0.118E-03    0.33      10.9  T
  13    -65.0803606 -0.314008E-07  0.947E-04    0.33      13.6  T
  14    -65.0803606 -0.776417E-07  0.403E-04    0.33      32.1  T
     SCC iter.                  ...        0 min,  0.103 sec
     gradient                   ...        0 min,  0.008 sec
 * total energy  :   -64.0474400 Eh     change       -0.2252719E-02 Eh
   gradient norm :     0.0299588 Eh/α   predicted    -0.1925053E-02 ( -14.55%)
   displ. norm   :     0.5714955 α      lambda       -0.3976248E-02
   maximum displ.:     0.1920749 α      in ANC's #19, #21, #23, ...

........................................................................
.............................. CYCLE   41 ..............................
........................................................................

 iter      E             dE          RMSdq      gap      omega  full diag
   1    -65.0862083 -0.650862E+02  0.435E-01    0.34       0.0  T
   2    -65.0823058  0.390247E-02  0.341E-01    0.32       1.0  T
   3    -65.0637660  0.185398E-01  0.539E-01    0.41       1.0  T
   4    -65.0732345 -0.946847E-02  0.385E-01    0.30       1.0  T
   5    -65.0850150 -0.117806E-01  0.135E-01    0.36       1.0  T
   6    -65.0869114 -0.189636E-02  0.358E-02    0.34       1.0  T
   7    -65.0869725 -0.611249E-04  0.263E-02    0.34       1.0  T
   8    -65.0870253 -0.527404E-04  0.130E-02    0.34       1.0  T
   9    -65.0870229  0.240317E-05  0.123E-02    0.34       1.1  T
  10    -65.0870130  0.989398E-05  0.132E-02    0.34       1.0  T
  11    -65.0870341 -0.211697E-04  0.346E-03    0.34       3.7  T
  12    -65.0870354 -0.131584E-05  0.137E-03    0.34       9.4  T
  13    -65.0870354  0.582084E-08  0.111E-03    0.34      11.6  T
  14    -65.0870355 -0.105695E-06  0.492E-04    0.34      26.3  T
  15    -65.0870356 -0.142711E-07  0.306E-04    0.34      42.2  T
     SCC iter.                  ...        0 min,  0.109 sec
     gradient                   ...        0 min,  0.009 sec
 * total energy  :   -64.0505265 Eh     change       -0.3086477E-02 Eh
   gradient norm :     0.0323586 Eh/α   predicted    -0.2637449E-02 ( -14.55%)
   displ. norm   :     0.5943627 α      lambda       -0.4887251E-02
   maximum displ.:     0.1932007 α      in ANC's #30, #19, #21, ...

........................................................................
.............................. CYCLE   42 ..............................
........................................................................

 iter      E             dE          RMSdq      gap      omega  full diag
   1    -65.0876316 -0.650876E+02  0.446E-01    0.35       0.0  T
   2    -65.0815140  0.611755E-02  0.390E-01    0.31       1.0  T
   3    -65.0642348  0.172792E-01  0.567E-01    0.43       1.0  T
   4    -65.0723848 -0.815003E-02  0.392E-01    0.31       1.0  T
   5    -65.0864739 -0.140891E-01  0.156E-01    0.36       1.0  T
   6    -65.0884689 -0.199507E-02  0.366E-02    0.34       1.0  T
   7    -65.0885108 -0.418755E-04  0.277E-02    0.35       1.0  T
   8    -65.0885726 -0.617481E-04  0.153E-02    0.35       1.0  T
   9    -65.0885749 -0.235727E-05  0.129E-02    0.35       1.0  T
  10    -65.0885712  0.373448E-05  0.128E-02    0.34       1.0  T
  11    -65.0885889 -0.177212E-04  0.330E-03    0.35       3.9  T
  12    -65.0885899 -0.988454E-06  0.142E-03    0.35       9.1  T
  13    -65.0885899 -0.413536E-09  0.110E-03    0.35      11.7  T
  14    -65.0885900 -0.107714E-06  0.534E-04    0.35      24.2  T
  15    -65.0885900 -0.203497E-07  0.335E-04    0.35      38.5  T
     SCC iter.                  ...        0 min,  0.121 sec
     gradient                   ...        0 min,  0.009 sec
 * total energy  :   -64.0544731 Eh     change       -0.3946628E-02 Eh
   gradient norm :     0.0331165 Eh/α   predicted    -0.3306885E-02 ( -16.21%)
   displ. norm   :     0.6002827 α      lambda       -0.6375650E-02
   maximum displ.:     0.2029562 α      in ANC's #30, #22, #21, ...
 * RMSD in coord.:     0.7564356 α      energy gain  -0.6528665E-01 Eh

generating ANC from exact Hessian ...
Using Lindh-Hessian (1995)
 Shifting diagonal of input Hessian by   1.067763283822568E-002
 Lowest  eigenvalues of input Hessian
    0.010000    0.010144    0.010145    0.010192    0.010266    0.010311
    0.010396    0.010426    0.010465    0.010519    0.000000    0.010613
    0.000000    0.000000    0.000000    0.000000    0.000000    0.010829
 Highest eigenvalues
    1.417505    1.438452    1.464982    1.499240    1.543179    1.585740
 

........................................................................
.............................. CYCLE   43 ..............................
........................................................................

 iter      E             dE          RMSdq      gap      omega  full diag
   1    -65.0986729 -0.650987E+02  0.490E-01    0.36       0.0  T
   2    -65.0935185  0.515434E-02  0.390E-01    0.33       1.0  T
   3    -65.0703317  0.231869E-01  0.623E-01    0.44       1.0  T
   4    -65.0783949 -0.806319E-02  0.449E-01    0.30       1.0  T
   5    -65.0980371 -0.196423E-01  0.143E-01    0.37       1.0  T
   6    -65.0996280 -0.159087E-02  0.362E-02    0.35       1.0  T
   7    -65.0996954 -0.673689E-04  0.240E-02    0.36       1.0  T
   8    -65.0997257 -0.303463E-04  0.152E-02    0.36       1.0  T
   9    -65.0997218  0.390420E-05  0.144E-02    0.36       1.0  T
  10    -65.0997243 -0.245487E-05  0.123E-02    0.36       1.0  T
  11    -65.0997394 -0.151178E-04  0.411E-03    0.36       3.1  T
  12    -65.0997408 -0.142965E-05  0.168E-03    0.36       7.7  T
  13    -65.0997409 -0.815873E-07  0.126E-03    0.36      10.3  T
  14    -65.0997410 -0.952372E-07  0.790E-04    0.36      16.3  T
  15    -65.0997411 -0.772682E-07  0.285E-04    0.36      45.2  T
     SCC iter.                  ...        0 min,  0.113 sec
     gradient                   ...        0 min,  0.008 sec
 * total energy  :   -64.0590435 Eh     change       -0.4570387E-02 Eh
   gradient norm :     0.0389410 Eh/α   predicted     0.0000000E+00 (-100.00%)
   displ. norm   :     0.3036345 α      lambda       -0.4311169E-02
   maximum displ.:     0.1051372 α      in ANC's #26, #21, #29, ...

........................................................................
.............................. CYCLE   44 ..............................
........................................................................

 iter      E             dE          RMSdq      gap      omega  full diag
   1    -65.1039720 -0.651040E+02  0.275E-01    0.36       0.0  T
   2    -65.1030925  0.879517E-03  0.205E-01    0.38       1.0  T
   3    -65.0934307  0.966179E-02  0.369E-01    0.32       1.0  T
   4    -65.1003118 -0.688109E-02  0.209E-01    0.40       1.0  T
   5    -65.1037820 -0.347024E-02  0.614E-02    0.36       1.0  T
   6    -65.1041321 -0.350079E-03  0.228E-02    0.37       1.0  T
   7    -65.1041631 -0.310567E-04  0.120E-02    0.37       1.1  T
   8    -65.1041660 -0.282798E-05  0.104E-02    0.37       1.2  T
   9    -65.1041755 -0.949294E-05  0.565E-03    0.37       2.3  T
  10    -65.1041769 -0.138272E-05  0.407E-03    0.37       3.2  T
  11    -65.1041788 -0.189977E-05  0.121E-03    0.37      10.7  T
  12    -65.1041788 -0.369563E-07  0.914E-04    0.37      14.1  T
  13    -65.1041789 -0.637088E-07  0.587E-04    0.37      22.0  T
     SCC iter.                  ...        0 min,  0.092 sec
     gradient                   ...        0 min,  0.008 sec
 * total energy  :   -64.0623386 Eh     change       -0.3295137E-02 Eh
   gradient norm :     0.0255475 Eh/α   predicted    -0.2354496E-02 ( -28.55%)
   displ. norm   :     0.6067472 α      lambda       -0.7514514E-02
   maximum displ.:     0.2029389 α      in ANC's #32, #15, #21, ...

........................................................................
.............................. CYCLE   45 ..............................
........................................................................

 iter      E             dE          RMSdq      gap      omega  full diag
   1    -65.1119937 -0.651120E+02  0.539E-01    0.37       0.0  T
   2    -65.1085429  0.345078E-02  0.404E-01    0.42       1.0  T
   3    -65.0757339  0.328091E-01  0.657E-01    0.28       1.0  T
   4    -65.0935385 -0.178047E-01  0.464E-01    0.48       1.0  T
   5    -65.1117301 -0.181916E-01  0.107E-01    0.39       1.0  T
   6    -65.1126204 -0.890292E-03  0.648E-02    0.39       1.0  T
   7    -65.1130240 -0.403617E-03  0.267E-02    0.39       1.0  T
   8    -65.1130377 -0.136406E-04  0.238E-02    0.39       1.0  T
   9    -65.1130450 -0.729117E-05  0.206E-02    0.39       1.0  T
  10    -65.1130729 -0.279523E-04  0.102E-02    0.39       1.3  T
  11    -65.1130843 -0.114013E-04  0.338E-03    0.39       3.8  T
  12    -65.1130847 -0.343492E-06  0.253E-03    0.39       5.1  T
  13    -65.1130851 -0.386784E-06  0.165E-03    0.39       7.8  T
  14    -65.1130853 -0.248341E-06  0.605E-04    0.39      21.3  T
  15    -65.1130853 -0.223485E-07  0.384E-04    0.39      33.6  T
     SCC iter.                  ...        0 min,  0.113 sec
     gradient                   ...        0 min,  0.008 sec
 * total energy  :   -64.0664978 Eh     change       -0.4159230E-02 Eh
   gradient norm :     0.0355142 Eh/α   predicted    -0.5140479E-02 (  23.59%)
   displ. norm   :     0.4972333 α      lambda       -0.5232614E-02
   maximum displ.:     0.1533231 α      in ANC's #29, #26, #15, ...

........................................................................
.............................. CYCLE   46 ..............................
........................................................................

 iter      E             dE          RMSdq      gap      omega  full diag
   1    -65.1151163 -0.651151E+02  0.426E-01    0.39       0.0  T
   2    -65.1119812  0.313511E-02  0.328E-01    0.40       1.0  T
   3    -65.0978808  0.141004E-01  0.455E-01    0.38       1.0  T
   4    -65.1076611 -0.978029E-02  0.292E-01    0.38       1.0  T
   5    -65.1155965 -0.793545E-02  0.654E-02    0.40       1.0  T
   6    -65.1158965 -0.299928E-03  0.382E-02    0.39       1.0  T
   7    -65.1160097 -0.113232E-03  0.150E-02    0.40       1.0  T
   8    -65.1160149 -0.515804E-05  0.108E-02    0.40       1.2  T
   9    -65.1160191 -0.420310E-05  0.814E-03    0.40       1.6  T
  10    -65.1160223 -0.323319E-05  0.675E-03    0.40       1.9  T
  11    -65.1160269 -0.463741E-05  0.243E-03    0.40       5.3  T
  12    -65.1160275 -0.590492E-06  0.113E-03    0.40      11.5  T
  13    -65.1160276 -0.368488E-07  0.847E-04    0.40      15.2  T
  14    -65.1160276 -0.653042E-07  0.351E-04    0.40      36.8  T
     SCC iter.                  ...        0 min,  0.100 sec
     gradient                   ...        0 min,  0.009 sec
 * total energy  :   -64.0705454 Eh     change       -0.4047524E-02 Eh
   gradient norm :     0.0405595 Eh/α   predicted    -0.3263168E-02 ( -19.38%)
   displ. norm   :     0.6092697 α      lambda       -0.7211768E-02
   maximum displ.:     0.1676753 α      in ANC's #29, #15, #24, ...

........................................................................
.............................. CYCLE   47 ..............................
........................................................................

 iter      E             dE          RMSdq      gap      omega  full diag
   1    -65.1120980 -0.651121E+02  0.569E-01    0.37       0.0  T
   2    -65.1037023  0.839572E-02  0.461E-01    0.38       1.0  T
   3    -65.0784143  0.252880E-01  0.624E-01    0.39       1.0  T
   4    -65.0815896 -0.317537E-02  0.564E-01    0.31       1.0  T
   5    -65.1101890 -0.285994E-01  0.216E-01    0.42       1.0  T
   6    -65.1140566 -0.386755E-02  0.517E-02    0.38       1.0  T
   7    -65.1141963 -0.139775E-03  0.261E-02    0.38       1.0  T
   8    -65.1141969 -0.524634E-06  0.217E-02    0.38       1.0  T
   9    -65.1141903  0.658240E-05  0.212E-02    0.39       1.0  T
  10    -65.1142336 -0.433000E-04  0.103E-02    0.38       1.2  T
  11    -65.1142441 -0.105667E-04  0.368E-03    0.38       3.5  T
  12    -65.1142451 -0.993225E-06  0.196E-03    0.38       6.6  T
  13    -65.1142453 -0.144010E-06  0.134E-03    0.38       9.6  T
  14    -65.1142455 -0.178017E-06  0.497E-04    0.38      26.0  T
  15    -65.1142455 -0.143736E-08  0.444E-04    0.38      29.1  T
     SCC iter.                  ...        0 min,  0.105 sec
     gradient                   ...        0 min,  0.009 sec
 * total energy  :   -64.0762991 Eh     change       -0.5753705E-02 Eh
   gradient norm :     0.0374748 Eh/α   predicted    -0.4944425E-02 ( -14.07%)
   displ. norm   :     0.6656816 α      lambda       -0.1071343E-01
   maximum displ.:     0.1560485 α      in ANC's #29, #15, #84, ...

........................................................................
.............................. CYCLE   48 ..............................
........................................................................

 iter      E             dE          RMSdq      gap      omega  full diag
   1    -65.1130635 -0.651131E+02  0.743E-01    0.34       0.0  T
   2    -65.0887532  0.243103E-01  0.666E-01    0.31       1.0  T
   3    -65.0403320  0.484212E-01  0.927E-01    0.41       1.0  T
   4    -65.0717056 -0.313736E-01  0.665E-01    0.27       1.0  T
   5    -65.1127219 -0.410163E-01  0.218E-01    0.38       1.0  T
   6    -65.1163867 -0.366487E-02  0.984E-02    0.35       1.0  T
   7    -65.1168844 -0.497626E-03  0.654E-02    0.35       1.0  T
   8    -65.1169294 -0.450713E-04  0.573E-02    0.36       1.0  T
   9    -65.1167791  0.150382E-03  0.552E-02    0.35       1.0  T
  10    -65.1170553 -0.276259E-03  0.209E-02    0.35       1.0  T
  11    -65.1170887 -0.334106E-04  0.706E-03    0.35       1.8  T
  12    -65.1170902 -0.150174E-05  0.478E-03    0.35       2.7  T
  13    -65.1170903 -0.954162E-07  0.288E-03    0.35       4.5  T
  14    -65.1170912 -0.852804E-06  0.110E-03    0.35      11.7  T
  15    -65.1170912  0.512473E-08  0.948E-04    0.35      13.6  T
  16    -65.1170913 -0.851398E-07  0.490E-04    0.35      26.3  T
     SCC iter.                  ...        0 min,  0.112 sec
     gradient                   ...        0 min,  0.009 sec
 * total energy  :   -64.0847685 Eh     change       -0.8469420E-02 Eh
   gradient norm :     0.0472011 Eh/α   predicted    -0.7730457E-02 (  -8.73%)
   displ. norm   :     0.6892447 α      lambda       -0.1328326E-01
   maximum displ.:     0.1607463 α      in ANC's #95, #98, #29, ...

........................................................................
.............................. CYCLE   49 ..............................
........................................................................

 iter      E             dE          RMSdq      gap      omega  full diag
   1    -65.1218196 -0.651218E+02  0.865E-01    0.30       0.0  T
   2    -65.0766682  0.451514E-01  0.837E-01    0.24       1.0  T
   3    -65.0215078  0.551604E-01  0.108E+00    0.35       1.0  T
   4    -65.0748636 -0.533558E-01  0.666E-01    0.26       1.0  T
   5    -65.1186596 -0.437960E-01  0.285E-01    0.33       1.0  T
   6    -65.1253390 -0.667937E-02  0.151E-01    0.31       1.0  T
   7    -65.1265352 -0.119624E-02  0.989E-02    0.31       1.0  T
   8    -65.1266346 -0.993327E-04  0.930E-02    0.31       1.0  T
   9    -65.1266133  0.212302E-04  0.728E-02    0.31       1.0  T
  10    -65.1269581 -0.344709E-03  0.288E-02    0.30       1.0  T
  11    -65.1270077 -0.496025E-04  0.114E-02    0.30       1.1  T
  12    -65.1270109 -0.319755E-05  0.655E-03    0.30       2.0  T
  13    -65.1270125 -0.169166E-05  0.360E-03    0.30       3.6  T
  14    -65.1270118  0.734306E-06  0.314E-03    0.30       4.1  T
  15    -65.1270126 -0.804869E-06  0.182E-03    0.30       7.1  T
  16    -65.1270129 -0.320674E-06  0.716E-04    0.30      18.0  T
  17    -65.1270130 -0.401358E-07  0.465E-04    0.30      27.8  T
     SCC iter.                  ...        0 min,  0.128 sec
     gradient                   ...        0 min,  0.009 sec
 * total energy  :   -64.0952487 Eh     change       -0.1048017E-01 Eh
   gradient norm :     0.0665212 Eh/α   predicted    -0.9796794E-02 (  -6.52%)
   displ. norm   :     0.5765260 α      lambda       -0.1352907E-01
   maximum displ.:     0.1584280 α      in ANC's #95, #98, #16, ...

........................................................................
.............................. CYCLE   50 ..............................
........................................................................

 iter      E             dE          RMSdq      gap      omega  full diag
   1    -65.1384712 -0.651385E+02  0.704E-01    0.28       0.0  T
   2    -65.0967878  0.416834E-01  0.767E-01    0.17       1.0  T
   3    -65.0805035  0.162843E-01  0.874E-01    0.34       1.0  T
   4    -65.1150245 -0.345210E-01  0.464E-01    0.29       1.0  T
   5    -65.1313636 -0.163390E-01  0.291E-01    0.28       1.0  T
   6    -65.1394243 -0.806080E-02  0.160E-01    0.28       1.0  T
   7    -65.1407765 -0.135214E-02  0.106E-01    0.27       1.0  T
   8    -65.1407720  0.451891E-05  0.997E-02    0.27       1.0  T
   9    -65.1408650 -0.930365E-04  0.773E-02    0.28       1.0  T
  10    -65.1411921 -0.327102E-03  0.266E-02    0.26       1.0  T
  11    -65.1412429 -0.508161E-04  0.152E-02    0.27       1.0  T
  12    -65.1412518 -0.889646E-05  0.736E-03    0.26       1.8  T
  13    -65.1412537 -0.191154E-05  0.464E-03    0.26       2.8  T
  14    -65.1412533  0.418732E-06  0.374E-03    0.26       3.5  T
  15    -65.1412539 -0.595988E-06  0.174E-03    0.26       7.4  T
  16    -65.1412542 -0.287586E-06  0.655E-04    0.26      19.7  T
  17    -65.1412542 -0.221371E-07  0.484E-04    0.26      26.7  T
     SCC iter.                  ...        0 min,  0.135 sec
     gradient                   ...        0 min,  0.007 sec
 * total energy  :   -64.1035928 Eh     change       -0.8344170E-02 Eh
   gradient norm :     0.0627611 Eh/α   predicted    -0.9012954E-02 (   8.01%)
   displ. norm   :     0.4047623 α      lambda       -0.1180593E-01
   maximum displ.:     0.0989556 α      in ANC's #56, #36, #15, ...

........................................................................
.............................. CYCLE   51 ..............................
........................................................................

 iter      E             dE          RMSdq      gap      omega  full diag
   1    -65.1584390 -0.651584E+02  0.387E-01    0.28       0.0  T
   2    -65.1530364  0.540266E-02  0.310E-01    0.29       1.0  T
   3    -65.1195200  0.335164E-01  0.576E-01    0.27       1.0  T
   4    -65.1483146 -0.287946E-01  0.303E-01    0.33       1.0  T
   5    -65.1582906 -0.997600E-02  0.849E-02    0.28       1.0  T
   6    -65.1589386 -0.648052E-03  0.437E-02    0.29       1.0  T
   7    -65.1590693 -0.130741E-03  0.178E-02    0.29       1.0  T
   8    -65.1590792 -0.980615E-05  0.163E-02    0.29       1.0  T
   9    -65.1590655  0.136466E-04  0.150E-02    0.29       1.0  T
  10    -65.1590849 -0.194137E-04  0.911E-03    0.29       1.4  T
  11    -65.1590937 -0.877382E-05  0.284E-03    0.29       4.5  T
  12    -65.1590943 -0.585950E-06  0.167E-03    0.29       7.7  T
  13    -65.1590944 -0.142047E-06  0.935E-04    0.29      13.8  T
  14    -65.1590945 -0.667107E-07  0.314E-04    0.29      41.1  T
     SCC iter.                  ...        0 min,  0.114 sec
     gradient                   ...        0 min,  0.009 sec
 * total energy  :   -64.1099848 Eh     change       -0.6391976E-02 Eh
   gradient norm :     0.0477564 Eh/α   predicted    -0.6870055E-02 (   7.48%)
   displ. norm   :     0.6231756 α      lambda       -0.1089129E-01
   maximum displ.:     0.1865960 α      in ANC's #15, #18, #16, ...

........................................................................
.............................. CYCLE   52 ..............................
........................................................................

 iter      E             dE          RMSdq      gap      omega  full diag
   1    -65.1487766 -0.651488E+02  0.546E-01    0.25       0.0  T
   2    -65.1368452  0.119314E-01  0.498E-01    0.29       1.0  T
   3    -65.1137470  0.230982E-01  0.601E-01    0.23       1.0  T
   4    -65.1206946 -0.694760E-02  0.474E-01    0.25       1.0  T
   5    -65.1489354 -0.282408E-01  0.126E-01    0.29       1.0  T
   6    -65.1502700 -0.133456E-02  0.542E-02    0.27       1.0  T
   7    -65.1503846 -0.114594E-03  0.378E-02    0.28       1.0  T
   8    -65.1504368 -0.521835E-04  0.279E-02    0.27       1.0  T
   9    -65.1503850  0.518034E-04  0.315E-02    0.28       1.0  T
  10    -65.1504474 -0.624494E-04  0.156E-02    0.27       1.0  T
  11    -65.1504728 -0.253961E-04  0.663E-03    0.27       1.9  T
  12    -65.1504757 -0.288349E-05  0.334E-03    0.27       3.9  T
  13    -65.1504757 -0.229106E-07  0.209E-03    0.27       6.2  T
  14    -65.1504762 -0.443708E-06  0.656E-04    0.27      19.7  T
  15    -65.1504762 -0.213288E-07  0.470E-04    0.27      27.5  T
     SCC iter.                  ...        0 min,  0.127 sec
     gradient                   ...        0 min,  0.008 sec
 * total energy  :   -64.1166109 Eh     change       -0.6626129E-02 Eh
   gradient norm :     0.0397539 Eh/α   predicted    -0.7560447E-02 (  14.10%)
   displ. norm   :     0.5622570 α      lambda       -0.8121374E-02
   maximum displ.:     0.1758254 α      in ANC's #16, #34, #38, ...

........................................................................
.............................. CYCLE   53 ..............................
........................................................................

 iter      E             dE          RMSdq      gap      omega  full diag
   1    -65.1569134 -0.651569E+02  0.557E-01    0.28       0.0  T
   2    -65.1514268  0.548660E-02  0.409E-01    0.26       1.0  T
   3    -65.1290758  0.223511E-01  0.603E-01    0.31       1.0  T
   4    -65.1360226 -0.694680E-02  0.402E-01    0.25       1.0  T
   5    -65.1567743 -0.207517E-01  0.117E-01    0.27       1.0  T
   6    -65.1580394 -0.126517E-02  0.486E-02    0.29       1.0  T
   7    -65.1582017 -0.162231E-03  0.259E-02    0.27       1.0  T
   8    -65.1582285 -0.268133E-04  0.162E-02    0.28       1.0  T
   9    -65.1582169  0.115986E-04  0.156E-02    0.28       1.0  T
  10    -65.1582269 -0.999103E-05  0.119E-02    0.28       1.1  T
  11    -65.1582416 -0.146934E-04  0.406E-03    0.28       3.2  T
  12    -65.1582432 -0.166722E-05  0.182E-03    0.28       7.1  T
  13    -65.1582433 -0.824902E-07  0.122E-03    0.28      10.6  T
  14    -65.1582435 -0.128386E-06  0.480E-04    0.28      26.9  T
  15    -65.1582435 -0.186095E-07  0.258E-04    0.28      50.0  T
     SCC iter.                  ...        0 min,  0.106 sec
     gradient                   ...        0 min,  0.008 sec
 * total energy  :   -64.1202654 Eh     change       -0.3654489E-02 Eh
   gradient norm :     0.0412529 Eh/α   predicted    -0.5344410E-02 (  46.24%)
   displ. norm   :     0.5928383 α      lambda       -0.8417251E-02
   maximum displ.:     0.1830689 α      in ANC's #15, #29, #16, ...

........................................................................
.............................. CYCLE   54 ..............................
........................................................................

 iter      E             dE          RMSdq      gap      omega  full diag
   1    -65.1474167 -0.651474E+02  0.510E-01    0.26       0.0  T
   2    -65.1338049  0.136118E-01  0.490E-01    0.25       1.0  T
   3    -65.1239339  0.987091E-02  0.541E-01    0.29       1.0  T
   4    -65.1169355  0.699846E-02  0.550E-01    0.19       1.0  T
   5    -65.1481308 -0.311954E-01  0.122E-01    0.29       1.0  T
   6    -65.1492427 -0.111181E-02  0.617E-02    0.26       1.0  T
   7    -65.1494186 -0.175896E-03  0.415E-02    0.27       1.0  T
   8    -65.1495348 -0.116265E-03  0.239E-02    0.27       1.0  T
   9    -65.1494910  0.438323E-04  0.248E-02    0.27       1.0  T
  10    -65.1495383 -0.473195E-04  0.135E-02    0.27       1.0  T
  11    -65.1495581 -0.197497E-04  0.455E-03    0.27       2.8  T
  12    -65.1495592 -0.117388E-05  0.266E-03    0.27       4.8  T
  13    -65.1495594 -0.150128E-06  0.161E-03    0.27       8.0  T
  14    -65.1495596 -0.261802E-06  0.632E-04    0.27      20.4  T
  15    -65.1495597 -0.211295E-07  0.462E-04    0.27      27.9  T
     SCC iter.                  ...        0 min,  0.107 sec
     gradient                   ...        0 min,  0.008 sec
 * total energy  :   -64.1250600 Eh     change       -0.4794589E-02 Eh
   gradient norm :     0.0322978 Eh/α   predicted    -0.5687775E-02 (  18.63%)
   displ. norm   :     0.5466870 α      lambda       -0.6779697E-02
   maximum displ.:     0.2186392 α      in ANC's #15, #18, #27, ...

........................................................................
.............................. CYCLE   55 ..............................
........................................................................

 iter      E             dE          RMSdq      gap      omega  full diag
   1    -65.1501168 -0.651501E+02  0.438E-01    0.26       0.0  T
   2    -65.1411314  0.898537E-02  0.389E-01    0.29       1.0  T
   3    -65.1243040  0.168274E-01  0.514E-01    0.26       1.0  T
   4    -65.1265213 -0.221724E-02  0.447E-01    0.28       1.0  T
   5    -65.1506953 -0.241740E-01  0.780E-02    0.26       1.0  T
   6    -65.1511806 -0.485299E-03  0.469E-02    0.28       1.0  T
   7    -65.1513609 -0.180275E-03  0.257E-02    0.27       1.0  T
   8    -65.1513952 -0.343587E-04  0.174E-02    0.27       1.0  T
   9    -65.1513913  0.393938E-05  0.152E-02    0.27       1.0  T
  10    -65.1514036 -0.123419E-04  0.673E-03    0.27       1.9  T
  11    -65.1514080 -0.432956E-05  0.273E-03    0.27       4.7  T
  12    -65.1514082 -0.227246E-06  0.187E-03    0.27       6.9  T
  13    -65.1514084 -0.214669E-06  0.917E-04    0.27      14.1  T
  14    -65.1514085 -0.820254E-07  0.429E-04    0.27      30.1  T
     SCC iter.                  ...        0 min,  0.098 sec
     gradient                   ...        0 min,  0.008 sec
 * total energy  :   -64.1281171 Eh     change       -0.3057040E-02 Eh
   gradient norm :     0.0396096 Eh/α   predicted    -0.4402971E-02 (  44.03%)
   displ. norm   :     0.5211484 α      lambda       -0.6663716E-02
   maximum displ.:     0.2085735 α      in ANC's #15, #16, #22, ...

........................................................................
.............................. CYCLE   56 ..............................
........................................................................

 iter      E             dE          RMSdq      gap      omega  full diag
   1    -65.1589689 -0.651590E+02  0.392E-01    0.27       0.0  T
   2    -65.1494717  0.949719E-02  0.375E-01    0.29       1.0  T
   3    -65.1383543  0.111174E-01  0.448E-01    0.27       1.0  T
   4    -65.1445407 -0.618636E-02  0.351E-01    0.27       1.0  T
   5    -65.1594015 -0.148609E-01  0.754E-02    0.27       1.0  T
   6    -65.1599814 -0.579920E-03  0.391E-02    0.28       1.0  T
   7    -65.1601332 -0.151718E-03  0.167E-02    0.28       1.0  T
   8    -65.1601398 -0.662957E-05  0.132E-02    0.28       1.0  T
   9    -65.1601376  0.220393E-05  0.119E-02    0.28       1.1  T
  10    -65.1601383 -0.746547E-06  0.711E-03    0.28       1.8  T
  11    -65.1601435 -0.518247E-05  0.234E-03    0.28       5.5  T
  12    -65.1601439 -0.414931E-06  0.133E-03    0.28       9.7  T
  13    -65.1601440 -0.139866E-07  0.809E-04    0.28      16.0  T
  14    -65.1601440 -0.520625E-07  0.383E-04    0.28      33.7  T
     SCC iter.                  ...        0 min,  0.100 sec
     gradient                   ...        0 min,  0.008 sec
 * total energy  :   -64.1323277 Eh     change       -0.4210684E-02 Eh
   gradient norm :     0.0323061 Eh/α   predicted    -0.4236775E-02 (   0.62%)
   displ. norm   :     0.6361187 α      lambda       -0.7676156E-02
   maximum displ.:     0.2457929 α      in ANC's #15, #16, #18, ...

........................................................................
.............................. CYCLE   57 ..............................
........................................................................

 iter      E             dE          RMSdq      gap      omega  full diag
   1    -65.1653653 -0.651654E+02  0.508E-01    0.28       0.0  T
   2    -65.1582494  0.711585E-02  0.400E-01    0.26       1.0  T
   3    -65.1184026  0.398468E-01  0.663E-01    0.32       1.0  T
   4    -65.1534594 -0.350568E-01  0.321E-01    0.26       1.0  T
   5    -65.1659760 -0.125166E-01  0.559E-02    0.28       1.0  T
   6    -65.1662441 -0.268176E-03  0.308E-02    0.28       1.0  T
   7    -65.1663060 -0.618096E-04  0.172E-02    0.28       1.0  T
   8    -65.1662976  0.837956E-05  0.172E-02    0.28       1.0  T
   9    -65.1662544  0.432268E-04  0.216E-02    0.28       1.0  T
  10    -65.1663053 -0.509855E-04  0.760E-03    0.28       1.7  T
  11    -65.1663108 -0.550180E-05  0.300E-03    0.28       4.3  T
  12    -65.1663114 -0.553555E-06  0.165E-03    0.28       7.8  T
  13    -65.1663115 -0.835297E-07  0.105E-03    0.28      12.3  T
  14    -65.1663116 -0.115426E-06  0.325E-04    0.28      39.7  T
  15    -65.1663116 -0.221775E-09  0.290E-04    0.28      44.5  T
     SCC iter.                  ...        0 min,  0.102 sec
     gradient                   ...        0 min,  0.009 sec
 * total energy  :   -64.1359887 Eh     change       -0.3660963E-02 Eh
   gradient norm :     0.0354202 Eh/α   predicted    -0.5391144E-02 (  47.26%)
   displ. norm   :     0.5563986 α      lambda       -0.6703458E-02
   maximum displ.:     0.2210734 α      in ANC's #15, #16, #18, ...

........................................................................
.............................. CYCLE   58 ..............................
........................................................................

 iter      E             dE          RMSdq      gap      omega  full diag
   1    -65.1735323 -0.651735E+02  0.411E-01    0.29       0.0  T
   2    -65.1667919  0.674035E-02  0.344E-01    0.29       1.0  T
   3    -65.1461644  0.206276E-01  0.487E-01    0.32       1.0  T
   4    -65.1629203 -0.167559E-01  0.287E-01    0.27       1.0  T
   5    -65.1738770 -0.109567E-01  0.716E-02    0.28       1.0  T
   6    -65.1743724 -0.495396E-03  0.348E-02    0.30       1.0  T
   7    -65.1744543 -0.818775E-04  0.190E-02    0.29       1.0  T
   8    -65.1744685 -0.142584E-04  0.128E-02    0.30       1.0  T
   9    -65.1744547  0.138010E-04  0.145E-02    0.30       1.0  T
  10    -65.1744647 -0.100173E-04  0.791E-03    0.29       1.6  T
  11    -65.1744727 -0.797079E-05  0.235E-03    0.30       5.5  T
  12    -65.1744731 -0.358233E-06  0.142E-03    0.30       9.1  T
  13    -65.1744732 -0.878923E-07  0.851E-04    0.30      15.2  T
  14    -65.1744732 -0.583051E-07  0.292E-04    0.30      44.2  T
     SCC iter.                  ...        0 min,  0.094 sec
     gradient                   ...        0 min,  0.009 sec
 * total energy  :   -64.1411158 Eh     change       -0.5127120E-02 Eh
   gradient norm :     0.0277471 Eh/α   predicted    -0.4389357E-02 ( -14.39%)
   displ. norm   :     0.6630665 α      lambda       -0.6608827E-02
   maximum displ.:     0.2799504 α      in ANC's #15, #18, #16, ...

........................................................................
.............................. CYCLE   59 ..............................
........................................................................

 iter      E             dE          RMSdq      gap      omega  full diag
   1    -65.1761691 -0.651762E+02  0.473E-01    0.31       0.0  T
   2    -65.1633871  0.127821E-01  0.435E-01    0.31       1.0  T
   3    -65.1499470  0.134401E-01  0.488E-01    0.34       1.0  T
   4    -65.1594748 -0.952786E-02  0.351E-01    0.29       1.0  T
   5    -65.1768448 -0.173700E-01  0.952E-02    0.30       1.0  T
   6    -65.1779247 -0.107991E-02  0.347E-02    0.32       1.0  T
   7    -65.1780014 -0.766985E-04  0.216E-02    0.31       1.0  T
   8    -65.1780170 -0.155866E-04  0.166E-02    0.32       1.0  T
   9    -65.1779980  0.189785E-04  0.187E-02    0.32       1.0  T
  10    -65.1780119 -0.139012E-04  0.906E-03    0.32       1.4  T
  11    -65.1780213 -0.935724E-05  0.266E-03    0.32       4.8  T
  12    -65.1780218 -0.507387E-06  0.167E-03    0.32       7.8  T
  13    -65.1780219 -0.109168E-06  0.916E-04    0.32      14.1  T
  14    -65.1780220 -0.549853E-07  0.357E-04    0.32      36.2  T
     SCC iter.                  ...        0 min,  0.108 sec
     gradient                   ...        0 min,  0.008 sec
 * total energy  :   -64.1462027 Eh     change       -0.5086914E-02 Eh
   gradient norm :     0.0216944 Eh/α   predicted    -0.4757226E-02 (  -6.48%)
   displ. norm   :     0.7161576 α      lambda       -0.5387726E-02
   maximum displ.:     0.3256846 α      in ANC's #15, #18, #20, ...

........................................................................
.............................. CYCLE   60 ..............................
........................................................................

 iter      E             dE          RMSdq      gap      omega  full diag
   1    -65.1736926 -0.651737E+02  0.536E-01    0.34       0.0  T
   2    -65.1576792  0.160134E-01  0.490E-01    0.32       1.0  T
   3    -65.1433149  0.143643E-01  0.536E-01    0.38       1.0  T
   4    -65.1550258 -0.117109E-01  0.380E-01    0.27       1.0  T
   5    -65.1748707 -0.198449E-01  0.985E-02    0.33       1.0  T
   6    -65.1760498 -0.117910E-02  0.381E-02    0.35       1.0  T
   7    -65.1761373 -0.874550E-04  0.233E-02    0.34       1.0  T
   8    -65.1761430 -0.572643E-05  0.204E-02    0.34       1.0  T
   9    -65.1761095  0.334326E-04  0.225E-02    0.34       1.0  T
  10    -65.1761396 -0.300345E-04  0.103E-02    0.34       1.3  T
  11    -65.1761517 -0.120696E-04  0.302E-03    0.34       4.3  T
  12    -65.1761521 -0.434945E-06  0.199E-03    0.34       6.5  T
  13    -65.1761522 -0.131079E-06  0.995E-04    0.34      13.0  T
  14    -65.1761523 -0.676716E-07  0.415E-04    0.34      31.1  T
     SCC iter.                  ...        0 min,  0.118 sec
     gradient                   ...        0 min,  0.011 sec
 * total energy  :   -64.1501855 Eh     change       -0.3982767E-02 Eh
   gradient norm :     0.0258335 Eh/α   predicted    -0.4075485E-02 (   2.33%)
   displ. norm   :     0.6289127 α      lambda       -0.5365670E-02
   maximum displ.:     0.2304315 α      in ANC's #15, #18, #16, ...

........................................................................
.............................. CYCLE   61 ..............................
........................................................................

 iter      E             dE          RMSdq      gap      omega  full diag
   1    -65.1842660 -0.651843E+02  0.512E-01    0.37       0.0  T
   2    -65.1745119  0.975415E-02  0.414E-01    0.35       1.0  T
   3    -65.1522540  0.222579E-01  0.535E-01    0.42       1.0  T
   4    -65.1752643 -0.230103E-01  0.290E-01    0.32       1.0  T
   5    -65.1848778 -0.961352E-02  0.911E-02    0.37       1.0  T
   6    -65.1859741 -0.109635E-02  0.312E-02    0.37       1.0  T
   7    -65.1860449 -0.707638E-04  0.165E-02    0.37       1.0  T
   8    -65.1860464 -0.148882E-05  0.146E-02    0.37       1.0  T
   9    -65.1860302  0.161594E-04  0.155E-02    0.37       1.0  T
  10    -65.1860434 -0.131988E-04  0.724E-03    0.37       1.8  T
  11    -65.1860496 -0.618515E-05  0.246E-03    0.37       5.3  T
  12    -65.1860501 -0.515871E-06  0.125E-03    0.37      10.3  T
  13    -65.1860502 -0.296894E-07  0.849E-04    0.37      15.2  T
  14    -65.1860502 -0.526319E-07  0.359E-04    0.37      35.9  T
     SCC iter.                  ...        0 min,  0.131 sec
     gradient                   ...        0 min,  0.008 sec
 * total energy  :   -64.1535837 Eh     change       -0.3398166E-02 Eh
   gradient norm :     0.0323224 Eh/α   predicted    -0.3743978E-02 (  10.18%)
   displ. norm   :     0.5829793 α      lambda       -0.5975090E-02
   maximum displ.:     0.1984299 α      in ANC's #15, #16, #18, ...

........................................................................
.............................. CYCLE   62 ..............................
........................................................................

 iter      E             dE          RMSdq      gap      omega  full diag
   1    -65.1874186 -0.651874E+02  0.520E-01    0.39       0.0  T
   2    -65.1748017  0.126169E-01  0.459E-01    0.38       1.0  T
   3    -65.1612369  0.135648E-01  0.507E-01    0.42       1.0  T
   4    -65.1793679 -0.181309E-01  0.293E-01    0.36       1.0  T
   5    -65.1884367 -0.906882E-02  0.864E-02    0.40       1.0  T
   6    -65.1894104 -0.973745E-03  0.334E-02    0.40       1.0  T
   7    -65.1894905 -0.800677E-04  0.172E-02    0.40       1.0  T
   8    -65.1894909 -0.418286E-06  0.153E-02    0.40       1.0  T
   9    -65.1894811  0.981960E-05  0.143E-02    0.40       1.0  T
  10    -65.1894954 -0.143306E-04  0.548E-03    0.40       2.4  T
  11    -65.1894987 -0.327274E-05  0.248E-03    0.40       5.2  T
  12    -65.1894991 -0.424342E-06  0.136E-03    0.40       9.5  T
  13    -65.1894992 -0.653439E-07  0.773E-04    0.40      16.7  T
  14    -65.1894992 -0.547401E-07  0.317E-04    0.40      40.7  T
     SCC iter.                  ...        0 min,  0.115 sec
     gradient                   ...        0 min,  0.008 sec
 * total energy  :   -64.1574559 Eh     change       -0.3872236E-02 Eh
   gradient norm :     0.0391871 Eh/α   predicted    -0.4002908E-02 (   3.37%)
   displ. norm   :     0.5775677 α      lambda       -0.8163095E-02
   maximum displ.:     0.2053381 α      in ANC's #15, #20, #33, ...

........................................................................
.............................. CYCLE   63 ..............................
........................................................................

 iter      E             dE          RMSdq      gap      omega  full diag
   1    -65.1953914 -0.651954E+02  0.555E-01    0.42       0.0  T
   2    -65.1857009  0.969049E-02  0.447E-01    0.40       1.0  T
   3    -65.1608948  0.248061E-01  0.582E-01    0.43       1.0  T
   4    -65.1884888 -0.275940E-01  0.281E-01    0.40       1.0  T
   5    -65.1963175 -0.782875E-02  0.802E-02    0.42       1.0  T
   6    -65.1970147 -0.697198E-03  0.436E-02    0.42       1.0  T
   7    -65.1972001 -0.185334E-03  0.194E-02    0.42       1.0  T
   8    -65.1971894  0.106423E-04  0.190E-02    0.42       1.0  T
   9    -65.1971771  0.123388E-04  0.176E-02    0.42       1.0  T
  10    -65.1972035 -0.264576E-04  0.652E-03    0.42       2.0  T
  11    -65.1972080 -0.449369E-05  0.259E-03    0.42       5.0  T
  12    -65.1972086 -0.572015E-06  0.138E-03    0.42       9.4  T
  13    -65.1972086 -0.409145E-08  0.921E-04    0.42      14.0  T
  14    -65.1972087 -0.726709E-07  0.361E-04    0.42      35.7  T
     SCC iter.                  ...        0 min,  0.099 sec
     gradient                   ...        0 min,  0.009 sec
 * total energy  :   -64.1620142 Eh     change       -0.4558330E-02 Eh
   gradient norm :     0.0395751 Eh/α   predicted    -0.5443076E-02 (  19.41%)
   displ. norm   :     0.6355336 α      lambda       -0.7646763E-02
   maximum displ.:     0.2863092 α      in ANC's #15, #18, #34, ...

........................................................................
.............................. CYCLE   64 ..............................
........................................................................

 iter      E             dE          RMSdq      gap      omega  full diag
   1    -65.1880209 -0.651880E+02  0.544E-01    0.44       0.0  T
   2    -65.1816876  0.633326E-02  0.411E-01    0.41       1.0  T
   3    -65.1521580  0.295296E-01  0.587E-01    0.45       1.0  T
   4    -65.1797807 -0.276227E-01  0.279E-01    0.41       1.0  T
   5    -65.1881096 -0.832889E-02  0.909E-02    0.44       1.0  T
   6    -65.1892183 -0.110874E-02  0.402E-02    0.43       1.0  T
   7    -65.1893431 -0.124770E-03  0.179E-02    0.43       1.0  T
   8    -65.1893399  0.322207E-05  0.171E-02    0.43       1.0  T
   9    -65.1893321  0.780948E-05  0.136E-02    0.43       1.0  T
  10    -65.1893472 -0.151389E-04  0.675E-03    0.43       1.9  T
  11    -65.1893517 -0.449799E-05  0.208E-03    0.43       6.2  T
  12    -65.1893519 -0.213196E-06  0.160E-03    0.43       8.1  T
  13    -65.1893520 -0.106640E-06  0.817E-04    0.43      15.8  T
  14    -65.1893521 -0.553807E-07  0.341E-04    0.43      37.8  T
     SCC iter.                  ...        0 min,  0.098 sec
     gradient                   ...        0 min,  0.009 sec
 * total energy  :   -64.1666842 Eh     change       -0.4669931E-02 Eh
   gradient norm :     0.0342702 Eh/α   predicted    -0.5367646E-02 (  14.94%)
   displ. norm   :     0.6102698 α      lambda       -0.8044202E-02
   maximum displ.:     0.1747608 α      in ANC's #15, #91, #34, ...

........................................................................
.............................. CYCLE   65 ..............................
........................................................................

 iter      E             dE          RMSdq      gap      omega  full diag
   1    -65.2003283 -0.652003E+02  0.610E-01    0.44       0.0  T
   2    -65.1926612  0.766704E-02  0.451E-01    0.41       1.0  T
   3    -65.1664399  0.262214E-01  0.616E-01    0.42       1.0  T
   4    -65.1911543 -0.247145E-01  0.339E-01    0.45       1.0  T
   5    -65.2020045 -0.108502E-01  0.682E-02    0.43       1.0  T
   6    -65.2023996 -0.395041E-03  0.306E-02    0.43       1.0  T
   7    -65.2024624 -0.628429E-04  0.182E-02    0.43       1.0  T
   8    -65.2024675 -0.510316E-05  0.151E-02    0.44       1.0  T
   9    -65.2024563  0.111898E-04  0.149E-02    0.44       1.0  T
  10    -65.2024739 -0.175722E-04  0.804E-03    0.43       1.6  T
  11    -65.2024814 -0.750942E-05  0.265E-03    0.44       4.9  T
  12    -65.2024822 -0.753939E-06  0.139E-03    0.44       9.3  T
  13    -65.2024822 -0.242938E-07  0.100E-03    0.44      12.9  T
  14    -65.2024823 -0.743562E-07  0.431E-04    0.44      29.9  T
  15    -65.2024823 -0.173337E-07  0.191E-04    0.44      67.7  T
     SCC iter.                  ...        0 min,  0.105 sec
     gradient                   ...        0 min,  0.008 sec
 * total energy  :   -64.1718278 Eh     change       -0.5143604E-02 Eh
   gradient norm :     0.0492015 Eh/α   predicted    -0.5520031E-02 (   7.32%)
   displ. norm   :     0.6733283 α      lambda       -0.9140684E-02
   maximum displ.:     0.2234829 α      in ANC's #16, #15, #33, ...

........................................................................
.............................. CYCLE   66 ..............................
........................................................................

 iter      E             dE          RMSdq      gap      omega  full diag
   1    -65.1922792 -0.651923E+02  0.554E-01    0.45       0.0  T
   2    -65.1840061  0.827313E-02  0.439E-01    0.40       1.0  T
   3    -65.1646714  0.193347E-01  0.554E-01    0.49       1.0  T
   4    -65.1821102 -0.174388E-01  0.304E-01    0.41       1.0  T
   5    -65.1920864 -0.997618E-02  0.122E-01    0.46       1.0  T
   6    -65.1940441 -0.195771E-02  0.409E-02    0.43       1.0  T
   7    -65.1941579 -0.113798E-03  0.235E-02    0.44       1.0  T
   8    -65.1941908 -0.328817E-04  0.172E-02    0.44       1.0  T
   9    -65.1941921 -0.127503E-05  0.145E-02    0.44       1.0  T
  10    -65.1941984 -0.630097E-05  0.101E-02    0.44       1.3  T
  11    -65.1942078 -0.945164E-05  0.272E-03    0.44       4.7  T
  12    -65.1942083 -0.504984E-06  0.149E-03    0.44       8.7  T
  13    -65.1942084 -0.338561E-07  0.120E-03    0.44      10.8  T
  14    -65.1942085 -0.139793E-06  0.390E-04    0.44      33.1  T
  15    -65.1942085 -0.818720E-08  0.244E-04    0.44      53.0  T
     SCC iter.                  ...        0 min,  0.103 sec
     gradient                   ...        0 min,  0.008 sec
 * total energy  :   -64.1786034 Eh     change       -0.6775578E-02 Eh
   gradient norm :     0.0484556 Eh/α   predicted    -0.6642397E-02 (  -1.97%)
   displ. norm   :     0.6202280 α      lambda       -0.1193219E-01
   maximum displ.:     0.1727695 α      in ANC's #84, #22, #47, ...
 * RMSD in coord.:     1.3030572 α      energy gain  -0.1241303E+00 Eh

generating ANC from exact Hessian ...
Using Lindh-Hessian (1995)
 Shifting diagonal of input Hessian by   1.043437684481773E-002
 Lowest  eigenvalues of input Hessian
    0.010000    0.010043    0.010112    0.010159    0.010234    0.010242
    0.010255    0.010302    0.000000    0.000000    0.000000    0.000000
    0.000000    0.000000    0.010488    0.010533    0.010862    0.010989
 Highest eigenvalues
    1.394212    1.430376    1.445198    1.479280    1.495748    1.533157
 

........................................................................
.............................. CYCLE   67 ..............................
........................................................................

 iter      E             dE          RMSdq      gap      omega  full diag
   1    -65.2099528 -0.652100E+02  0.644E-01    0.41       0.0  T
   2    -65.2025306  0.742225E-02  0.460E-01    0.38       1.0  T
   3    -65.1594714  0.430591E-01  0.691E-01    0.44       1.0  T
   4    -65.1940077 -0.345362E-01  0.364E-01    0.43       1.0  T
   5    -65.2100899 -0.160822E-01  0.118E-01    0.39       1.0  T
   6    -65.2117265 -0.163664E-02  0.504E-02    0.41       1.0  T
   7    -65.2119661 -0.239600E-03  0.265E-02    0.40       1.0  T
   8    -65.2120052 -0.390969E-04  0.207E-02    0.40       1.0  T
   9    -65.2120324 -0.271919E-04  0.113E-02    0.40       1.1  T
  10    -65.2120270  0.542715E-05  0.120E-02    0.40       1.1  T
  11    -65.2120423 -0.153021E-04  0.363E-03    0.40       3.6  T
  12    -65.2120435 -0.119765E-05  0.161E-03    0.40       8.0  T
  13    -65.2120435 -0.829347E-07  0.115E-03    0.40      11.2  T
  14    -65.2120436 -0.998277E-07  0.533E-04    0.40      24.2  T
  15    -65.2120437 -0.260026E-07  0.246E-04    0.40      52.5  T
     SCC iter.                  ...        0 min,  0.106 sec
     gradient                   ...        0 min,  0.008 sec
 * total energy  :   -64.1853262 Eh     change       -0.6722835E-02 Eh
   gradient norm :     0.0552883 Eh/α   predicted     0.0000000E+00 (-100.00%)
   displ. norm   :     0.4092023 α      lambda       -0.9397539E-02
   maximum displ.:     0.1281882 α      in ANC's #20, #16, #6, ...

........................................................................
.............................. CYCLE   68 ..............................
........................................................................

 iter      E             dE          RMSdq      gap      omega  full diag
   1    -65.2122930 -0.652123E+02  0.445E-01    0.41       0.0  T
   2    -65.2091244  0.316854E-02  0.305E-01    0.40       1.0  T
   3    -65.1775006  0.316238E-01  0.578E-01    0.42       1.0  T
   4    -65.2071445 -0.296439E-01  0.195E-01    0.44       1.0  T
   5    -65.2120863 -0.494182E-02  0.708E-02    0.39       1.0  T
   6    -65.2127163 -0.629988E-03  0.282E-02    0.41       1.0  T
   7    -65.2127866 -0.702985E-04  0.152E-02    0.40       1.0  T
   8    -65.2128009 -0.143061E-04  0.962E-03    0.41       1.3  T
   9    -65.2127936  0.727830E-05  0.103E-02    0.40       1.3  T
  10    -65.2127992 -0.555176E-05  0.613E-03    0.41       2.1  T
  11    -65.2128035 -0.428940E-05  0.167E-03    0.40       7.7  T
  12    -65.2128037 -0.204827E-06  0.100E-03    0.40      12.9  T
  13    -65.2128037 -0.383932E-07  0.674E-04    0.40      19.1  T
  14    -65.2128038 -0.352668E-07  0.297E-04    0.40      43.4  T
     SCC iter.                  ...        0 min,  0.104 sec
     gradient                   ...        0 min,  0.008 sec
 * total energy  :   -64.1916869 Eh     change       -0.6360663E-02 Eh
   gradient norm :     0.0374590 Eh/α   predicted    -0.5486258E-02 ( -13.75%)
   displ. norm   :     0.6783365 α      lambda       -0.1535718E-01
   maximum displ.:     0.2499067 α      in ANC's #30, #6, #22, ...

........................................................................
.............................. CYCLE   69 ..............................
........................................................................

 iter      E             dE          RMSdq      gap      omega  full diag
   1    -65.2075347 -0.652075E+02  0.734E-01    0.42       0.0  T
   2    -65.1914722  0.160625E-01  0.548E-01    0.41       1.0  T
   3    -65.1320303  0.594419E-01  0.885E-01    0.42       1.0  T
   4    -65.1731646 -0.411343E-01  0.512E-01    0.52       1.0  T
   5    -65.2066350 -0.334704E-01  0.160E-01    0.39       1.0  T
   6    -65.2094512 -0.281624E-02  0.763E-02    0.41       1.0  T
   7    -65.2100266 -0.575384E-03  0.355E-02    0.41       1.0  T
   8    -65.2100442 -0.175815E-04  0.322E-02    0.41       1.0  T
   9    -65.2100107  0.335079E-04  0.288E-02    0.41       1.0  T
  10    -65.2100360 -0.253631E-04  0.156E-02    0.41       1.0  T
  11    -65.2100611 -0.250437E-04  0.508E-03    0.41       2.5  T
  12    -65.2100631 -0.206937E-05  0.273E-03    0.41       4.7  T
  13    -65.2100633 -0.183039E-06  0.191E-03    0.41       6.8  T
  14    -65.2100634 -0.520003E-07  0.132E-03    0.41       9.8  T
  15    -65.2100635 -0.120914E-06  0.722E-04    0.41      17.9  T
  16    -65.2100635 -0.483487E-07  0.294E-04    0.41      44.0  T
     SCC iter.                  ...        0 min,  0.116 sec
     gradient                   ...        0 min,  0.008 sec
 * total energy  :   -64.1984253 Eh     change       -0.6738446E-02 Eh
   gradient norm :     0.0506957 Eh/α   predicted    -0.1121183E-01 (  66.39%)
   displ. norm   :     0.4947648 α      lambda       -0.9946810E-02
   maximum displ.:     0.1844589 α      in ANC's #16, #6, #33, ...

........................................................................
.............................. CYCLE   70 ..............................
........................................................................

 iter      E             dE          RMSdq      gap      omega  full diag
   1    -65.2138249 -0.652138E+02  0.559E-01    0.41       0.0  T
   2    -65.2057323  0.809258E-02  0.421E-01    0.40       1.0  T
   3    -65.1591344  0.465979E-01  0.719E-01    0.40       1.0  T
   4    -65.1867656 -0.276312E-01  0.456E-01    0.50       1.0  T
   5    -65.2135973 -0.268316E-01  0.103E-01    0.40       1.0  T
   6    -65.2146503 -0.105303E-02  0.537E-02    0.40       1.0  T
   7    -65.2149550 -0.304703E-03  0.234E-02    0.40       1.0  T
   8    -65.2149700 -0.149663E-04  0.206E-02    0.40       1.0  T
   9    -65.2149553  0.146150E-04  0.176E-02    0.40       1.0  T
  10    -65.2149696 -0.142988E-04  0.886E-03    0.40       1.5  T
  11    -65.2149782 -0.858189E-05  0.294E-03    0.40       4.4  T
  12    -65.2149790 -0.817474E-06  0.151E-03    0.40       8.6  T
  13    -65.2149791 -0.287561E-07  0.112E-03    0.40      11.5  T
  14    -65.2149792 -0.103378E-06  0.486E-04    0.40      26.6  T
  15    -65.2149792 -0.172148E-07  0.244E-04    0.40      52.9  T
     SCC iter.                  ...        0 min,  0.138 sec
     gradient                   ...        0 min,  0.010 sec
 * total energy  :   -64.2040733 Eh     change       -0.5648003E-02 Eh
   gradient norm :     0.0466461 Eh/α   predicted    -0.6190857E-02 (   9.61%)
   displ. norm   :     0.4261492 α      lambda       -0.7365287E-02
   maximum displ.:     0.1356960 α      in ANC's #15, #7, #5, ...

........................................................................
.............................. CYCLE   71 ..............................
........................................................................

 iter      E             dE          RMSdq      gap      omega  full diag
   1    -65.2229748 -0.652230E+02  0.417E-01    0.39       0.0  T
   2    -65.2186276  0.434723E-02  0.324E-01    0.40       1.0  T
   3    -65.1763993  0.422283E-01  0.619E-01    0.35       1.0  T
   4    -65.2026047 -0.262054E-01  0.407E-01    0.49       1.0  T
   5    -65.2224588 -0.198542E-01  0.940E-02    0.40       1.0  T
   6    -65.2232051 -0.746230E-03  0.534E-02    0.39       1.0  T
   7    -65.2234990 -0.293953E-03  0.263E-02    0.39       1.0  T
   8    -65.2235285 -0.294676E-04  0.211E-02    0.39       1.0  T
   9    -65.2235231  0.534983E-05  0.176E-02    0.39       1.0  T
  10    -65.2235422 -0.190142E-04  0.585E-03    0.39       2.2  T
  11    -65.2235457 -0.350828E-05  0.216E-03    0.39       6.0  T
  12    -65.2235458 -0.139660E-06  0.160E-03    0.39       8.1  T
  13    -65.2235459 -0.786660E-07  0.111E-03    0.39      11.7  T
  14    -65.2235460 -0.124842E-06  0.472E-04    0.39      27.4  T
  15    -65.2235460 -0.194642E-07  0.233E-04    0.39      55.4  T
     SCC iter.                  ...        0 min,  0.159 sec
     gradient                   ...        0 min,  0.010 sec
 * total energy  :   -64.2085774 Eh     change       -0.4504087E-02 Eh
   gradient norm :     0.0256675 Eh/α   predicted    -0.4351434E-02 (  -3.39%)
   displ. norm   :     0.4273285 α      lambda       -0.4814515E-02
   maximum displ.:     0.1467788 α      in ANC's #16, #15, #6, ...

........................................................................
.............................. CYCLE   72 ..............................
........................................................................

 iter      E             dE          RMSdq      gap      omega  full diag
   1    -65.2319920 -0.652320E+02  0.413E-01    0.38       0.0  T
   2    -65.2301150  0.187694E-02  0.285E-01    0.38       1.0  T
   3    -65.2052304  0.248846E-01  0.490E-01    0.37       1.0  T
   4    -65.2279134 -0.226829E-01  0.188E-01    0.42       1.0  T
   5    -65.2316376 -0.372419E-02  0.740E-02    0.36       1.0  T
   6    -65.2323016 -0.664049E-03  0.271E-02    0.38       1.0  T
   7    -65.2323822 -0.805537E-04  0.131E-02    0.38       1.0  T
   8    -65.2323944 -0.121923E-04  0.748E-03    0.38       1.7  T
   9    -65.2323956 -0.121033E-05  0.607E-03    0.38       2.1  T
  10    -65.2323952  0.346183E-06  0.539E-03    0.38       2.4  T
  11    -65.2323990 -0.376446E-05  0.163E-03    0.38       7.9  T
  12    -65.2323993 -0.325989E-06  0.688E-04    0.38      18.8  T
  13    -65.2323993 -0.110812E-08  0.606E-04    0.38      21.3  T
     SCC iter.                  ...        0 min,  0.138 sec
     gradient                   ...        0 min,  0.010 sec
 * total energy  :   -64.2114753 Eh     change       -0.2897949E-02 Eh
   gradient norm :     0.0206931 Eh/α   predicted    -0.2846854E-02 (  -1.76%)
   displ. norm   :     0.4402899 α      lambda       -0.3058384E-02
   maximum displ.:     0.1491354 α      in ANC's #16, #15, #5, ...

........................................................................
.............................. CYCLE   73 ..............................
........................................................................

 iter      E             dE          RMSdq      gap      omega  full diag
   1    -65.2381485 -0.652381E+02  0.398E-01    0.37       0.0  T
   2    -65.2360547  0.209381E-02  0.278E-01    0.38       1.0  T
   3    -65.2019032  0.341515E-01  0.534E-01    0.31       1.0  T
   4    -65.2329055 -0.310023E-01  0.202E-01    0.40       1.0  T
   5    -65.2380799 -0.517437E-02  0.599E-02    0.38       1.0  T
   6    -65.2383854 -0.305474E-03  0.322E-02    0.37       1.0  T
   7    -65.2384904 -0.105072E-03  0.154E-02    0.38       1.0  T
   8    -65.2385159 -0.254199E-04  0.720E-03    0.37       1.8  T
   9    -65.2385145  0.138901E-05  0.647E-03    0.37       2.0  T
  10    -65.2385124  0.208552E-05  0.650E-03    0.37       2.0  T
  11    -65.2385177 -0.528087E-05  0.188E-03    0.37       6.9  T
  12    -65.2385181 -0.407622E-06  0.750E-04    0.37      17.2  T
  13    -65.2385181 -0.195312E-07  0.577E-04    0.37      22.4  T
     SCC iter.                  ...        0 min,  0.099 sec
     gradient                   ...        0 min,  0.008 sec
 * total energy  :   -64.2132232 Eh     change       -0.1747905E-02 Eh
   gradient norm :     0.0235841 Eh/α   predicted    -0.1825638E-02 (   4.45%)
   displ. norm   :     0.4458590 α      lambda       -0.2722455E-02
   maximum displ.:     0.1691633 α      in ANC's #15, #16, #33, ...

........................................................................
.............................. CYCLE   74 ..............................
........................................................................

 iter      E             dE          RMSdq      gap      omega  full diag
   1    -65.2411320 -0.652411E+02  0.421E-01    0.36       0.0  T
   2    -65.2374260  0.370604E-02  0.297E-01    0.38       1.0  T
   3    -65.1815420  0.558840E-01  0.661E-01    0.34       1.0  T
   4    -65.2340764 -0.525344E-01  0.232E-01    0.35       1.0  T
   5    -65.2401545 -0.607808E-02  0.105E-01    0.39       1.0  T
   6    -65.2414410 -0.128649E-02  0.334E-02    0.36       1.0  T
   7    -65.2415510 -0.110083E-03  0.191E-02    0.37       1.0  T
   8    -65.2415766 -0.255202E-04  0.125E-02    0.37       1.0  T
   9    -65.2415733  0.328753E-05  0.117E-02    0.37       1.1  T
  10    -65.2415778 -0.450519E-05  0.731E-03    0.36       1.8  T
  11    -65.2415831 -0.528847E-05  0.181E-03    0.37       7.1  T
  12    -65.2415833 -0.246817E-06  0.100E-03    0.37      12.9  T
  13    -65.2415834 -0.588729E-07  0.568E-04    0.37      22.7  T
  14    -65.2415834 -0.356592E-08  0.451E-04    0.37      28.6  T
     SCC iter.                  ...        0 min,  0.112 sec
     gradient                   ...        0 min,  0.010 sec
 * total energy  :   -64.2151048 Eh     change       -0.1881517E-02 Eh
   gradient norm :     0.0184789 Eh/α   predicted    -0.1631829E-02 ( -13.27%)
   displ. norm   :     0.4687406 α      lambda       -0.2634315E-02
   maximum displ.:     0.1890223 α      in ANC's #16, #15, #5, ...

........................................................................
.............................. CYCLE   75 ..............................
........................................................................

 iter      E             dE          RMSdq      gap      omega  full diag
   1    -65.2441815 -0.652442E+02  0.418E-01    0.34       0.0  T
   2    -65.2380478  0.613376E-02  0.323E-01    0.38       1.0  T
   3    -65.1879339  0.501139E-01  0.686E-01    0.26       1.0  T
   4    -65.2378242 -0.498903E-01  0.231E-01    0.40       1.0  T
   5    -65.2435332 -0.570903E-02  0.898E-02    0.33       1.0  T
   6    -65.2443788 -0.845602E-03  0.620E-02    0.37       1.0  T
   7    -65.2447984 -0.419621E-03  0.315E-02    0.35       1.0  T
   8    -65.2447994 -0.937169E-06  0.291E-02    0.36       1.0  T
   9    -65.2448130 -0.136305E-04  0.260E-02    0.36       1.0  T
  10    -65.2448444 -0.313625E-04  0.118E-02    0.35       1.1  T
  11    -65.2448535 -0.915924E-05  0.411E-03    0.35       3.1  T
  12    -65.2448540 -0.453999E-06  0.246E-03    0.35       5.2  T
  13    -65.2448541 -0.168882E-06  0.149E-03    0.35       8.7  T
  14    -65.2448541  0.671580E-07  0.135E-03    0.35       9.5  T
  15    -65.2448542 -0.980657E-07  0.391E-04    0.35      33.0  T
  16    -65.2448542 -0.132443E-07  0.146E-04    0.35      88.2  T
     SCC iter.                  ...        0 min,  0.135 sec
     gradient                   ...        0 min,  0.009 sec
 * total energy  :   -64.2166438 Eh     change       -0.1539051E-02 Eh
   gradient norm :     0.0161831 Eh/α   predicted    -0.1606561E-02 (   4.39%)
   displ. norm   :     0.4851430 α      lambda       -0.1829907E-02
   maximum displ.:     0.1512093 α      in ANC's #5, #15, #7, ...

........................................................................
.............................. CYCLE   76 ..............................
........................................................................

 iter      E             dE          RMSdq      gap      omega  full diag
   1    -65.2419578 -0.652420E+02  0.459E-01    0.33       0.0  T
   2    -65.2369942  0.496356E-02  0.336E-01    0.39       1.0  T
   3    -65.0812739  0.155720E+00  0.133E+00    0.19       1.0  T
   4    -65.2113357 -0.130062E+00  0.466E-01    0.40       1.0  T
   5    -65.2207819 -0.944616E-02  0.368E-01    0.24       1.0  T
   6    -65.2406732 -0.198913E-01  0.118E-01    0.35       1.0  T
   7    -65.2421447 -0.147152E-02  0.755E-02    0.36       1.0  T
   8    -65.2421827 -0.379777E-04  0.700E-02    0.36       1.0  T
   9    -65.2422874 -0.104727E-03  0.628E-02    0.35       1.0  T
  10    -65.2423418 -0.543443E-04  0.563E-02    0.35       1.0  T
  11    -65.2424277 -0.859370E-04  0.432E-02    0.35       1.0  T
  12    -65.2424584 -0.306897E-04  0.373E-02    0.35       1.0  T
  13    -65.2424767 -0.183330E-04  0.302E-02    0.34       1.0  T
  14    -65.2425038 -0.270786E-04  0.194E-02    0.34       1.0  T
  15    -65.2425101 -0.627430E-05  0.145E-02    0.34       1.0  T
  16    -65.2425167 -0.665421E-05  0.778E-03    0.34       1.7  T
  17    -65.2425188 -0.203397E-05  0.302E-03    0.34       4.3  T
  18    -65.2425191 -0.322755E-06  0.578E-04    0.34      22.3  T
  19    -65.2425191 -0.163395E-07  0.337E-04    0.34      38.3  T
     SCC iter.                  ...        0 min,  0.143 sec
     gradient                   ...        0 min,  0.008 sec
 * total energy  :   -64.2175055 Eh     change       -0.8617341E-03 Eh
   gradient norm :     0.0191296 Eh/α   predicted    -0.1130304E-02 (  31.17%)
   displ. norm   :     0.3651978 α      lambda       -0.1832084E-02
   maximum displ.:     0.1360659 α      in ANC's #18, #16, #2, ...

........................................................................
.............................. CYCLE   77 ..............................
........................................................................

 iter      E             dE          RMSdq      gap      omega  full diag
   1    -65.2468783 -0.652469E+02  0.307E-01    0.32       0.0  T
   2    -65.2423643  0.451396E-02  0.253E-01    0.38       1.0  T
   3    -65.1969167  0.454476E-01  0.737E-01    0.22       1.0  T
   4    -65.2365509 -0.396342E-01  0.284E-01    0.36       1.0  T
   5    -65.2384913 -0.194038E-02  0.235E-01    0.27       1.0  T
   6    -65.2464247 -0.793335E-02  0.859E-02    0.34       1.0  T
   7    -65.2471508 -0.726176E-03  0.592E-02    0.34       1.0  T
   8    -65.2471498  0.106044E-05  0.565E-02    0.34       1.0  T
   9    -65.2472421 -0.923774E-04  0.459E-02    0.34       1.0  T
  10    -65.2473035 -0.613638E-04  0.331E-02    0.33       1.0  T
  11    -65.2473396 -0.360723E-04  0.232E-02    0.33       1.0  T
  12    -65.2473467 -0.714307E-05  0.196E-02    0.33       1.0  T
  13    -65.2473480 -0.129095E-05  0.179E-02    0.33       1.0  T
  14    -65.2473584 -0.103537E-04  0.836E-03    0.33       1.5  T
  15    -65.2473604 -0.200180E-05  0.449E-03    0.33       2.9  T
  16    -65.2473610 -0.617904E-06  0.263E-03    0.33       4.9  T
  17    -65.2473613 -0.269486E-06  0.419E-04    0.33      30.8  T
  18    -65.2473613 -0.762199E-08  0.169E-04    0.33      76.3  T
     SCC iter.                  ...        0 min,  0.129 sec
     gradient                   ...        0 min,  0.009 sec
 * total energy  :   -64.2182873 Eh     change       -0.7817702E-03 Eh
   gradient norm :     0.0137454 Eh/α   predicted    -0.1038210E-02 (  32.80%)
   displ. norm   :     0.3511024 α      lambda       -0.1476114E-02
   maximum displ.:     0.1179492 α      in ANC's #18, #16, #5, ...

........................................................................
.............................. CYCLE   78 ..............................
........................................................................

 iter      E             dE          RMSdq      gap      omega  full diag
   1    -65.2453804 -0.652454E+02  0.346E-01    0.30       0.0  T
   2    -65.2388483  0.653212E-02  0.301E-01    0.39       1.0  T
   3    -65.1411264  0.977218E-01  0.113E+00    0.19       1.0  T
   4    -65.2333489 -0.922225E-01  0.333E-01    0.29       1.0  T
   5    -65.2329596  0.389286E-03  0.284E-01    0.26       1.0  T
   6    -65.2446735 -0.117138E-01  0.108E-01    0.33       1.0  T
   7    -65.2455222 -0.848709E-03  0.910E-02    0.34       1.0  T
   8    -65.2455714 -0.492058E-04  0.846E-02    0.34       1.0  T
   9    -65.2457192 -0.147825E-03  0.728E-02    0.33       1.0  T
  10    -65.2457778 -0.585777E-04  0.648E-02    0.33       1.0  T
  11    -65.2458731 -0.952857E-04  0.524E-02    0.33       1.0  T
  12    -65.2458956 -0.225189E-04  0.476E-02    0.33       1.0  T
  13    -65.2459121 -0.164780E-04  0.427E-02    0.33       1.0  T
  14    -65.2459735 -0.614603E-04  0.227E-02    0.32       1.0  T
  15    -65.2459871 -0.135483E-04  0.145E-02    0.32       1.0  T
  16    -65.2459950 -0.796699E-05  0.702E-03    0.32       1.8  T
  17    -65.2459972 -0.218190E-05  0.109E-03    0.32      11.9  T
  18    -65.2459973 -0.532031E-07  0.659E-04    0.32      19.6  T
  19    -65.2459973 -0.228976E-07  0.164E-04    0.32      78.7  T
     SCC iter.                  ...        0 min,  0.201 sec
     gradient                   ...        0 min,  0.011 sec
 * total energy  :   -64.2190348 Eh     change       -0.7474988E-03 Eh
   gradient norm :     0.0129612 Eh/α   predicted    -0.8290353E-03 (  10.91%)
   displ. norm   :     0.3158620 α      lambda       -0.1094584E-02
   maximum displ.:     0.1255468 α      in ANC's #18, #17, #20, ...

........................................................................
.............................. CYCLE   79 ..............................
........................................................................

 iter      E             dE          RMSdq      gap      omega  full diag
   1    -65.2490785 -0.652491E+02  0.236E-01    0.31       0.0  T
   2    -65.2454457  0.363282E-02  0.217E-01    0.36       1.0  T
   3    -65.2241711  0.212745E-01  0.527E-01    0.23       1.0  T
   4    -65.2444694 -0.202982E-01  0.200E-01    0.34       1.0  T
   5    -65.2457434 -0.127400E-02  0.154E-01    0.29       1.0  T
   6    -65.2490446 -0.330122E-02  0.566E-02    0.32       1.0  T
   7    -65.2493398 -0.295255E-03  0.450E-02    0.32       1.0  T
   8    -65.2493398  0.452146E-07  0.437E-02    0.33       1.0  T
   9    -65.2493560 -0.161853E-04  0.406E-02    0.33       1.0  T
  10    -65.2494107 -0.546628E-04  0.263E-02    0.32       1.0  T
  11    -65.2494411 -0.304012E-04  0.155E-02    0.32       1.0  T
  12    -65.2494444 -0.338390E-05  0.118E-02    0.32       1.1  T
  13    -65.2494456 -0.120855E-05  0.104E-02    0.32       1.2  T
  14    -65.2494480 -0.239853E-05  0.598E-03    0.32       2.2  T
  15    -65.2494494 -0.131678E-05  0.238E-03    0.32       5.4  T
  16    -65.2494495 -0.167281E-06  0.164E-03    0.32       7.9  T
  17    -65.2494496 -0.951773E-07  0.731E-04    0.32      17.7  T
  18    -65.2494496 -0.267399E-07  0.859E-05    0.32     150.3  T
     SCC iter.                  ...        0 min,  0.231 sec
     gradient                   ...        0 min,  0.012 sec
 * total energy  :   -64.2198150 Eh     change       -0.7802306E-03 Eh
   gradient norm :     0.0129029 Eh/α   predicted    -0.6018924E-03 ( -22.86%)
   displ. norm   :     0.5384383 α      lambda       -0.1569881E-02
   maximum displ.:     0.2488586 α      in ANC's #18, #17, #20, ...

........................................................................
.............................. CYCLE   80 ..............................
........................................................................

 iter      E             dE          RMSdq      gap      omega  full diag
   1    -65.2492246 -0.652492E+02  0.373E-01    0.31       0.0  T
   2    -65.2375537  0.116710E-01  0.372E-01    0.40       1.0  T
   3    -65.1910846  0.464691E-01  0.852E-01    0.22       1.0  T
   4    -65.2387359 -0.476514E-01  0.312E-01    0.35       1.0  T
   5    -65.2376504  0.108553E-02  0.282E-01    0.27       1.0  T
   6    -65.2490420 -0.113915E-01  0.118E-01    0.34       1.0  T
   7    -65.2499999 -0.957976E-03  0.103E-01    0.34       1.0  T
   8    -65.2499886  0.113689E-04  0.101E-01    0.34       1.0  T
   9    -65.2500932 -0.104603E-03  0.925E-02    0.34       1.0  T
  10    -65.2503064 -0.213241E-03  0.703E-02    0.34       1.0  T
  11    -65.2504683 -0.161876E-03  0.460E-02    0.33       1.0  T
  12    -65.2504899 -0.216458E-04  0.392E-02    0.33       1.0  T
  13    -65.2505069 -0.170215E-04  0.328E-02    0.33       1.0  T
  14    -65.2505442 -0.372748E-04  0.128E-02    0.33       1.0  T
  15    -65.2505503 -0.609159E-05  0.636E-03    0.32       2.0  T
  16    -65.2505516 -0.128665E-05  0.420E-03    0.32       3.1  T
  17    -65.2505523 -0.716905E-06  0.984E-04    0.32      13.1  T
  18    -65.2505524 -0.575320E-07  0.251E-04    0.32      51.5  T
     SCC iter.                  ...        0 min,  0.189 sec
     gradient                   ...        0 min,  0.012 sec
 * total energy  :   -64.2210451 Eh     change       -0.1230101E-02 Eh
   gradient norm :     0.0177429 Eh/α   predicted    -0.1012501E-02 ( -17.69%)
   displ. norm   :     0.6645855 α      lambda       -0.2415845E-02
   maximum displ.:     0.2859892 α      in ANC's #18, #17, #14, ...

........................................................................
.............................. CYCLE   81 ..............................
........................................................................

 iter      E             dE          RMSdq      gap      omega  full diag
   1    -65.2515648 -0.652516E+02  0.457E-01    0.32       0.0  T
   2    -65.2317148  0.198500E-01  0.475E-01    0.42       1.0  T
   3    -65.1906463  0.410685E-01  0.888E-01    0.24       1.0  T
   4    -65.2391430 -0.484967E-01  0.357E-01    0.38       1.0  T
   5    -65.2420592 -0.291620E-02  0.279E-01    0.29       1.0  T
   6    -65.2517410 -0.968179E-02  0.152E-01    0.36       1.0  T
   7    -65.2532080 -0.146702E-02  0.135E-01    0.36       1.0  T
   8    -65.2532252 -0.172334E-04  0.130E-01    0.37       1.0  T
   9    -65.2533780 -0.152754E-03  0.118E-01    0.36       1.0  T
  10    -65.2537664 -0.388422E-03  0.835E-02    0.35       1.0  T
  11    -65.2539890 -0.222573E-03  0.541E-02    0.35       1.0  T
  12    -65.2540160 -0.270336E-04  0.453E-02    0.35       1.0  T
  13    -65.2540347 -0.187059E-04  0.394E-02    0.35       1.0  T
  14    -65.2540794 -0.447262E-04  0.160E-02    0.34       1.0  T
  15    -65.2540895 -0.100791E-04  0.735E-03    0.34       1.8  T
  16    -65.2540913 -0.176206E-05  0.383E-03    0.34       3.4  T
  17    -65.2540918 -0.551810E-06  0.126E-03    0.34      10.2  T
  18    -65.2540919 -0.833292E-07  0.283E-04    0.34      45.7  T
  19    -65.2540919  0.255383E-08  0.433E-04    0.34      29.8  T
     SCC iter.                  ...        0 min,  0.146 sec
     gradient                   ...        0 min,  0.009 sec
 * total energy  :   -64.2232155 Eh     change       -0.2170401E-02 Eh
   gradient norm :     0.0287867 Eh/α   predicted    -0.1741440E-02 ( -19.76%)
   displ. norm   :     0.6965015 α      lambda       -0.4233495E-02
   maximum displ.:     0.2581418 α      in ANC's #18, #17, #15, ...

........................................................................
.............................. CYCLE   82 ..............................
........................................................................

 iter      E             dE          RMSdq      gap      omega  full diag
   1    -65.2553049 -0.652553E+02  0.571E-01    0.35       0.0  T
   2    -65.2260088  0.292962E-01  0.579E-01    0.44       1.0  T
   3    -65.1887790  0.372297E-01  0.936E-01    0.29       1.0  T
   4    -65.2406676 -0.518886E-01  0.406E-01    0.44       1.0  T
   5    -65.2483684 -0.770079E-02  0.278E-01    0.32       1.0  T
   6    -65.2563825 -0.801416E-02  0.180E-01    0.40       1.0  T
   7    -65.2584867 -0.210413E-02  0.155E-01    0.40       1.0  T
   8    -65.2585649 -0.782851E-04  0.147E-01    0.40       1.0  T
   9    -65.2587155 -0.150571E-03  0.129E-01    0.40       1.0  T
  10    -65.2592808 -0.565317E-03  0.810E-02    0.39       1.0  T
  11    -65.2594730 -0.192199E-03  0.523E-02    0.38       1.0  T
  12    -65.2595016 -0.286064E-04  0.409E-02    0.38       1.0  T
  13    -65.2595156 -0.139805E-04  0.353E-02    0.38       1.0  T
  14    -65.2595446 -0.290280E-04  0.151E-02    0.38       1.0  T
  15    -65.2595531 -0.843482E-05  0.627E-03    0.38       2.1  T
  16    -65.2595543 -0.122472E-05  0.316E-03    0.38       4.1  T
  17    -65.2595546 -0.336797E-06  0.109E-03    0.38      11.8  T
  18    -65.2595547 -0.707157E-07  0.303E-04    0.38      42.6  T
  19    -65.2595547  0.438480E-08  0.506E-04    0.38      25.5  T
     SCC iter.                  ...        0 min,  0.136 sec
     gradient                   ...        0 min,  0.008 sec
 * total energy  :   -64.2269522 Eh     change       -0.3736692E-02 Eh
   gradient norm :     0.0441882 Eh/α   predicted    -0.3143634E-02 ( -15.87%)
   displ. norm   :     0.6412105 α      lambda       -0.7311362E-02
   maximum displ.:     0.1523662 α      in ANC's #74, #88, #85, ...

........................................................................
.............................. CYCLE   83 ..............................
........................................................................

 iter      E             dE          RMSdq      gap      omega  full diag
   1    -65.2576871 -0.652577E+02  0.745E-01    0.41       0.0  T
   2    -65.2060675  0.516196E-01  0.765E-01    0.47       1.0  T
   3    -65.1838163  0.222512E-01  0.991E-01    0.36       1.0  T
   4    -65.2425400 -0.587237E-01  0.452E-01    0.52       1.0  T
   5    -65.2405197  0.202032E-02  0.423E-01    0.38       1.0  T
   6    -65.2623522 -0.218326E-01  0.206E-01    0.46       1.0  T
   7    -65.2645102 -0.215800E-02  0.186E-01    0.46       1.0  T
   8    -65.2647764 -0.266191E-03  0.173E-01    0.46       1.0  T
   9    -65.2648702 -0.938189E-04  0.146E-01    0.45       1.0  T
  10    -65.2657765 -0.906249E-03  0.831E-02    0.45       1.0  T
  11    -65.2659835 -0.206992E-03  0.455E-02    0.44       1.0  T
  12    -65.2660003 -0.168200E-04  0.348E-02    0.44       1.0  T
  13    -65.2660108 -0.105392E-04  0.286E-02    0.44       1.0  T
  14    -65.2660287 -0.178158E-04  0.960E-03    0.44       1.3  T
  15    -65.2660324 -0.378286E-05  0.415E-03    0.44       3.1  T
  16    -65.2660329 -0.455060E-06  0.232E-03    0.44       5.6  T
  17    -65.2660331 -0.201194E-06  0.724E-04    0.44      17.8  T
  18    -65.2660331 -0.115917E-08  0.499E-04    0.44      25.9  T
     SCC iter.                  ...        0 min,  0.138 sec
     gradient                   ...        0 min,  0.009 sec
 * total energy  :   -64.2319130 Eh     change       -0.4960786E-02 Eh
   gradient norm :     0.0577179 Eh/α   predicted    -0.5158749E-02 (   3.99%)
   displ. norm   :     0.4547277 α      lambda       -0.5920082E-02
   maximum displ.:     0.1756050 α      in ANC's #18, #17, #36, ...

........................................................................
.............................. CYCLE   84 ..............................
........................................................................

 iter      E             dE          RMSdq      gap      omega  full diag
   1    -65.2577349 -0.652577E+02  0.458E-01    0.47       0.0  T
   2    -65.2378049  0.199299E-01  0.454E-01    0.50       1.0  T
   3    -65.2145621  0.232429E-01  0.644E-01    0.40       1.0  T
   4    -65.2331831 -0.186210E-01  0.435E-01    0.55       1.0  T
   5    -65.2554690 -0.222859E-01  0.198E-01    0.48       1.0  T
   6    -65.2597076 -0.423859E-02  0.718E-02    0.48       1.0  T
   7    -65.2599693 -0.261695E-03  0.641E-02    0.49       1.0  T
   8    -65.2600649 -0.956369E-04  0.569E-02    0.49       1.0  T
   9    -65.2600692 -0.434960E-05  0.461E-02    0.48       1.0  T
  10    -65.2601870 -0.117752E-03  0.197E-02    0.48       1.0  T
  11    -65.2602068 -0.198256E-04  0.923E-03    0.48       1.4  T
  12    -65.2602079 -0.106929E-05  0.634E-03    0.48       2.0  T
  13    -65.2602078  0.727565E-07  0.554E-03    0.48       2.3  T
  14    -65.2602080 -0.174302E-06  0.288E-03    0.48       4.5  T
  15    -65.2602084 -0.435316E-06  0.996E-04    0.48      13.0  T
  16    -65.2602085 -0.702300E-07  0.424E-04    0.48      30.4  T
     SCC iter.                  ...        0 min,  0.115 sec
     gradient                   ...        0 min,  0.007 sec
 * total energy  :   -64.2352895 Eh     change       -0.3376446E-02 Eh
   gradient norm :     0.0538118 Eh/α   predicted    -0.3572122E-02 (   5.80%)
   displ. norm   :     0.6753283 α      lambda       -0.1901967E-01
   maximum displ.:     0.2287392 α      in ANC's #33, #36, #87, ...

........................................................................
.............................. CYCLE   85 ..............................
........................................................................

 iter      E             dE          RMSdq      gap      omega  full diag
   1    -65.2492027 -0.652492E+02  0.735E-01    0.48       0.0  T
   2    -65.1975135  0.516892E-01  0.687E-01    0.53       1.0  T
   3    -65.0278728  0.169641E+00  0.123E+00    0.41       1.0  T
   4    -65.2194899 -0.191617E+00  0.525E-01    0.52       1.0  T
   5    -65.2382993 -0.188094E-01  0.320E-01    0.50       1.0  T
   6    -65.2517370 -0.134377E-01  0.148E-01    0.51       1.0  T
   7    -65.2531148 -0.137778E-02  0.107E-01    0.51       1.0  T
   8    -65.2533067 -0.191930E-03  0.974E-02    0.51       1.0  T
   9    -65.2536463 -0.339658E-03  0.649E-02    0.50       1.0  T
  10    -65.2538276 -0.181270E-03  0.310E-02    0.50       1.0  T
  11    -65.2538622 -0.345991E-04  0.190E-02    0.50       1.0  T
  12    -65.2538735 -0.113084E-04  0.123E-02    0.50       1.0  T
  13    -65.2538739 -0.405725E-06  0.941E-03    0.50       1.4  T
  14    -65.2538750 -0.111049E-05  0.371E-03    0.50       3.5  T
  15    -65.2538758 -0.734109E-06  0.114E-03    0.50      11.3  T
  16    -65.2538759 -0.107764E-06  0.583E-04    0.50      22.2  T
  17    -65.2538759 -0.126507E-07  0.385E-04    0.50      33.5  T
     SCC iter.                  ...        0 min,  0.125 sec
     gradient                   ...        0 min,  0.011 sec
 * total energy  :   -64.2355780 Eh     change       -0.2885190E-03 Eh
   gradient norm :     0.0825869 Eh/α   predicted    -0.1384699E-01 (4699.33%)
   displ. norm   :     0.3853116 α      lambda       -0.1424285E-01
   maximum displ.:     0.1170354 α      in ANC's #17, #18, #38, ...

........................................................................
.............................. CYCLE   86 ..............................
........................................................................

 iter      E             dE          RMSdq      gap      omega  full diag
   1    -65.2532649 -0.652533E+02  0.388E-01    0.50       0.0  T
   2    -65.2509603  0.230469E-02  0.261E-01    0.51       1.0  T
   3    -65.2054861  0.454742E-01  0.604E-01    0.47       1.0  T
   4    -65.2438025 -0.383164E-01  0.255E-01    0.53       1.0  T
   5    -65.2522749 -0.847237E-02  0.102E-01    0.50       1.0  T
   6    -65.2535607 -0.128582E-02  0.303E-02    0.50       1.0  T
   7    -65.2535992 -0.384540E-04  0.251E-02    0.50       1.0  T
   8    -65.2536369 -0.376894E-04  0.188E-02    0.50       1.0  T
   9    -65.2536428 -0.596908E-05  0.138E-02    0.50       1.0  T
  10    -65.2536560 -0.131846E-04  0.827E-03    0.50       1.6  T
  11    -65.2536627 -0.667877E-05  0.274E-03    0.50       4.7  T
  12    -65.2536633 -0.546529E-06  0.150E-03    0.50       8.6  T
  13    -65.2536633 -0.182593E-07  0.912E-04    0.50      14.2  T
  14    -65.2536633 -0.571625E-07  0.364E-04    0.50      35.5  T
     SCC iter.                  ...        0 min,  0.178 sec
     gradient                   ...        0 min,  0.010 sec
 * total energy  :   -64.2425327 Eh     change       -0.6954699E-02 Eh
   gradient norm :     0.0316304 Eh/α   predicted    -0.8178720E-02 (  17.60%)
   displ. norm   :     0.4526596 α      lambda       -0.6468356E-02
   maximum displ.:     0.1446948 α      in ANC's #5, #11, #28, ...

........................................................................
.............................. CYCLE   87 ..............................
........................................................................

 iter      E             dE          RMSdq      gap      omega  full diag
   1    -65.2676832 -0.652677E+02  0.411E-01    0.50       0.0  T
   2    -65.2597345  0.794871E-02  0.355E-01    0.49       1.0  T
   3    -65.2463815  0.133530E-01  0.475E-01    0.49       1.0  T
   4    -65.2653061 -0.189246E-01  0.181E-01    0.51       1.0  T
   5    -65.2679373 -0.263124E-02  0.816E-02    0.49       1.0  T
   6    -65.2687362 -0.798860E-03  0.432E-02    0.50       1.0  T
   7    -65.2689241 -0.187887E-03  0.273E-02    0.49       1.0  T
   8    -65.2689649 -0.408179E-04  0.194E-02    0.50       1.0  T
   9    -65.2689450  0.198956E-04  0.196E-02    0.49       1.0  T
  10    -65.2689704 -0.254277E-04  0.104E-02    0.50       1.2  T
  11    -65.2689805 -0.100599E-04  0.271E-03    0.49       4.8  T
  12    -65.2689808 -0.348512E-06  0.156E-03    0.49       8.3  T
  13    -65.2689809 -0.392206E-07  0.891E-04    0.49      14.5  T
  14    -65.2689809 -0.551598E-07  0.447E-04    0.49      28.9  T
     SCC iter.                  ...        0 min,  0.120 sec
     gradient                   ...        0 min,  0.011 sec
 * total energy  :   -64.2426900 Eh     change       -0.1572991E-03 Eh
   gradient norm :     0.0488768 Eh/α   predicted    -0.3896860E-02 (2377.36%)
   displ. norm   :     0.2520705 α      lambda       -0.5420685E-02
   maximum displ.:     0.0821144 α      in ANC's #8, #20, #33, ...

........................................................................
.............................. CYCLE   88 ..............................
........................................................................

 iter      E             dE          RMSdq      gap      omega  full diag
   1    -65.2662681 -0.652663E+02  0.199E-01    0.49       0.0  T
   2    -65.2645739  0.169419E-02  0.171E-01    0.49       1.0  T
   3    -65.2622346  0.233936E-02  0.204E-01    0.50       1.0  T
   4    -65.2657121 -0.347755E-02  0.854E-02    0.49       1.0  T
   5    -65.2663664 -0.654304E-03  0.361E-02    0.49       1.0  T
   6    -65.2665348 -0.168384E-03  0.142E-02    0.49       1.0  T
   7    -65.2665434 -0.859241E-05  0.112E-02    0.49       1.2  T
   8    -65.2665443 -0.864344E-06  0.938E-03    0.49       1.4  T
   9    -65.2665442  0.446890E-07  0.849E-03    0.49       1.5  T
  10    -65.2665513 -0.706688E-05  0.449E-03    0.49       2.9  T
  11    -65.2665534 -0.211067E-05  0.150E-03    0.49       8.6  T
  12    -65.2665536 -0.157266E-06  0.778E-04    0.49      16.6  T
  13    -65.2665536 -0.226947E-07  0.461E-04    0.49      28.0  T
     SCC iter.                  ...        0 min,  0.187 sec
     gradient                   ...        0 min,  0.009 sec
 * total energy  :   -64.2457950 Eh     change       -0.3105031E-02 Eh
   gradient norm :     0.0196049 Eh/α   predicted    -0.2882556E-02 (  -7.16%)
   displ. norm   :     0.3537883 α      lambda       -0.2417386E-02
   maximum displ.:     0.1248279 α      in ANC's #8, #11, #33, ...

........................................................................
.............................. CYCLE   89 ..............................
........................................................................

 iter      E             dE          RMSdq      gap      omega  full diag
   1    -65.2625691 -0.652626E+02  0.322E-01    0.48       0.0  T
   2    -65.2552243  0.734477E-02  0.291E-01    0.50       1.0  T
   3    -65.2341457  0.210786E-01  0.490E-01    0.47       1.0  T
   4    -65.2486311 -0.144854E-01  0.325E-01    0.51       1.0  T
   5    -65.2625913 -0.139602E-01  0.801E-02    0.48       1.0  T
   6    -65.2632293 -0.638094E-03  0.289E-02    0.48       1.0  T
   7    -65.2632582 -0.288066E-04  0.247E-02    0.48       1.0  T
   8    -65.2632846 -0.264553E-04  0.206E-02    0.48       1.0  T
   9    -65.2632888 -0.423667E-05  0.156E-02    0.48       1.0  T
  10    -65.2632975 -0.864902E-05  0.811E-03    0.48       1.6  T
  11    -65.2633036 -0.612122E-05  0.243E-03    0.48       5.3  T
  12    -65.2633038 -0.197408E-06  0.145E-03    0.48       8.9  T
  13    -65.2633038 -0.852498E-08  0.849E-04    0.48      15.2  T
  14    -65.2633039 -0.466711E-07  0.320E-04    0.48      40.4  T
     SCC iter.                  ...        0 min,  0.112 sec
     gradient                   ...        0 min,  0.008 sec
 * total energy  :   -64.2470997 Eh     change       -0.1304717E-02 Eh
   gradient norm :     0.0204893 Eh/α   predicted    -0.1359970E-02 (   4.23%)
   displ. norm   :     0.4692392 α      lambda       -0.2673671E-02
   maximum displ.:     0.2036616 α      in ANC's #8, #11, #17, ...

........................................................................
.............................. CYCLE   90 ..............................
........................................................................

 iter      E             dE          RMSdq      gap      omega  full diag
   1    -65.2629678 -0.652630E+02  0.362E-01    0.48       0.0  T
   2    -65.2590317  0.393607E-02  0.277E-01    0.45       1.0  T
   3    -65.2345884  0.244433E-01  0.464E-01    0.50       1.0  T
   4    -65.2495145 -0.149261E-01  0.302E-01    0.47       1.0  T
   5    -65.2623381 -0.128237E-01  0.961E-02    0.48       1.0  T
   6    -65.2634516 -0.111344E-02  0.284E-02    0.47       1.0  T
   7    -65.2635061 -0.545143E-04  0.220E-02    0.47       1.0  T
   8    -65.2635496 -0.435200E-04  0.126E-02    0.47       1.0  T
   9    -65.2635447  0.492105E-05  0.113E-02    0.47       1.1  T
  10    -65.2635516 -0.690901E-05  0.780E-03    0.47       1.7  T
  11    -65.2635581 -0.651260E-05  0.211E-03    0.47       6.1  T
  12    -65.2635585 -0.369505E-06  0.915E-04    0.47      14.1  T
  13    -65.2635585 -0.555650E-08  0.715E-04    0.47      18.0  T
     SCC iter.                  ...        0 min,  0.095 sec
     gradient                   ...        0 min,  0.009 sec
 * total energy  :   -64.2489723 Eh     change       -0.1872585E-02 Eh
   gradient norm :     0.0233305 Eh/α   predicted    -0.1631193E-02 ( -12.89%)
   displ. norm   :     0.5968105 α      lambda       -0.3470659E-02
   maximum displ.:     0.2089609 α      in ANC's #5, #8, #11, ...

........................................................................
.............................. CYCLE   91 ..............................
........................................................................

 iter      E             dE          RMSdq      gap      omega  full diag
   1    -65.2676988 -0.652677E+02  0.442E-01    0.47       0.0  T
   2    -65.2579361  0.976264E-02  0.382E-01    0.43       1.0  T
   3    -65.2318891  0.260471E-01  0.526E-01    0.51       1.0  T
   4    -65.2407253 -0.883624E-02  0.433E-01    0.45       1.0  T
   5    -65.2669430 -0.262176E-01  0.129E-01    0.47       1.0  T
   6    -65.2687854 -0.184240E-02  0.367E-02    0.46       1.0  T
   7    -65.2688215 -0.361197E-04  0.323E-02    0.46       1.0  T
   8    -65.2689001 -0.786399E-04  0.219E-02    0.46       1.0  T
   9    -65.2688897  0.103767E-04  0.189E-02    0.46       1.0  T
  10    -65.2689125 -0.227279E-04  0.106E-02    0.46       1.2  T
  11    -65.2689242 -0.117557E-04  0.299E-03    0.46       4.3  T
  12    -65.2689247 -0.510729E-06  0.155E-03    0.46       8.4  T
  13    -65.2689248 -0.189353E-07  0.999E-04    0.46      12.9  T
  14    -65.2689248 -0.704177E-07  0.464E-04    0.46      27.8  T
     SCC iter.                  ...        0 min,  0.104 sec
     gradient                   ...        0 min,  0.009 sec
 * total energy  :   -64.2506563 Eh     change       -0.1683952E-02 Eh
   gradient norm :     0.0229992 Eh/α   predicted    -0.2353422E-02 (  39.76%)
   displ. norm   :     0.5119259 α      lambda       -0.2740056E-02
   maximum displ.:     0.1902298 α      in ANC's #8, #1, #17, ...

........................................................................
.............................. CYCLE   92 ..............................
........................................................................

 iter      E             dE          RMSdq      gap      omega  full diag
   1    -65.2679344 -0.652679E+02  0.460E-01    0.47       0.0  T
   2    -65.2363110  0.316234E-01  0.509E-01    0.36       1.0  T
   3    -65.2218243  0.144867E-01  0.588E-01    0.56       1.0  T
   4    -65.2436629 -0.218386E-01  0.422E-01    0.47       1.0  T
   5    -65.2660007 -0.223378E-01  0.178E-01    0.46       1.0  T
   6    -65.2695845 -0.358382E-02  0.707E-02    0.45       1.0  T
   7    -65.2699421 -0.357587E-03  0.515E-02    0.45       1.0  T
   8    -65.2700041 -0.620458E-04  0.451E-02    0.45       1.0  T
   9    -65.2700314 -0.272499E-04  0.332E-02    0.45       1.0  T
  10    -65.2700741 -0.427004E-04  0.139E-02    0.45       1.0  T
  11    -65.2700914 -0.172925E-04  0.521E-03    0.45       2.5  T
  12    -65.2700923 -0.951019E-06  0.345E-03    0.45       3.7  T
  13    -65.2700926 -0.233305E-06  0.199E-03    0.45       6.5  T
  14    -65.2700926 -0.124827E-07  0.123E-03    0.45      10.5  T
  15    -65.2700927 -0.128027E-06  0.710E-04    0.45      18.2  T
  16    -65.2700928 -0.574530E-07  0.212E-04    0.45      60.9  T
     SCC iter.                  ...        0 min,  0.118 sec
     gradient                   ...        0 min,  0.008 sec
 * total energy  :   -64.2517737 Eh     change       -0.1117449E-02 Eh
   gradient norm :     0.0264301 Eh/α   predicted    -0.1729067E-02 (  54.73%)
   displ. norm   :     0.3764177 α      lambda       -0.2760672E-02
   maximum displ.:     0.1344253 α      in ANC's #8, #9, #1, ...
 * RMSD in coord.:     0.8592349 α      energy gain  -0.7317037E-01 Eh

generating ANC from exact Hessian ...
Using Lindh-Hessian (1995)
 Shifting diagonal of input Hessian by   1.030708764002554E-002
 Lowest  eigenvalues of input Hessian
    0.010000    0.010091    0.010118    0.010123    0.010192    0.000000
    0.000000    0.000000    0.000000    0.000000    0.000000    0.010389
    0.010541    0.010749    0.010899    0.010983    0.011221    0.011379
 Highest eigenvalues
    1.394219    1.427911    1.461964    1.487805    1.511556    1.535315
 

........................................................................
.............................. CYCLE   93 ..............................
........................................................................

 iter      E             dE          RMSdq      gap      omega  full diag
   1    -65.2679467 -0.652679E+02  0.357E-01    0.45       0.0  T
   2    -65.2648092  0.313749E-02  0.253E-01    0.42       1.0  T
   3    -65.2241450  0.406642E-01  0.509E-01    0.53       1.0  T
   4    -65.2635957 -0.394507E-01  0.177E-01    0.42       1.0  T
   5    -65.2674062 -0.381053E-02  0.798E-02    0.45       1.0  T
   6    -65.2682569 -0.850651E-03  0.281E-02    0.44       1.0  T
   7    -65.2683433 -0.864856E-04  0.154E-02    0.44       1.0  T
   8    -65.2683620 -0.186627E-04  0.786E-03    0.44       1.6  T
   9    -65.2683559  0.607173E-05  0.942E-03    0.44       1.4  T
  10    -65.2683614 -0.542410E-05  0.481E-03    0.44       2.7  T
  11    -65.2683637 -0.234586E-05  0.169E-03    0.44       7.6  T
  12    -65.2683640 -0.300444E-06  0.765E-04    0.44      16.9  T
  13    -65.2683640 -0.101213E-07  0.551E-04    0.44      23.4  T
     SCC iter.                  ...        0 min,  0.093 sec
     gradient                   ...        0 min,  0.008 sec
 * total energy  :   -64.2529936 Eh     change       -0.1219883E-02 Eh
   gradient norm :     0.0240459 Eh/α   predicted     0.0000000E+00 (-100.00%)
   displ. norm   :     0.2225367 α      lambda       -0.2120211E-02
   maximum displ.:     0.0739653 α      in ANC's #37, #35, #38, ...

........................................................................
.............................. CYCLE   94 ..............................
........................................................................

 iter      E             dE          RMSdq      gap      omega  full diag
   1    -65.2717945 -0.652718E+02  0.262E-01    0.46       0.0  T
   2    -65.2708591  0.935433E-03  0.180E-01    0.44       1.0  T
   3    -65.2534885  0.173706E-01  0.368E-01    0.52       1.0  T
   4    -65.2668747 -0.133862E-01  0.181E-01    0.43       1.0  T
   5    -65.2717552 -0.488048E-02  0.376E-02    0.46       1.0  T
   6    -65.2719085 -0.153369E-03  0.128E-02    0.45       1.0  T
   7    -65.2719207 -0.121454E-04  0.770E-03    0.45       1.7  T
   8    -65.2719231 -0.242622E-05  0.564E-03    0.45       2.3  T
   9    -65.2719217  0.140047E-05  0.517E-03    0.45       2.5  T
  10    -65.2719238 -0.213300E-05  0.177E-03    0.45       7.3  T
  11    -65.2719242 -0.350695E-06  0.693E-04    0.45      18.6  T
  12    -65.2719242 -0.297882E-07  0.548E-04    0.45      23.5  T
     SCC iter.                  ...        0 min,  0.098 sec
     gradient                   ...        0 min,  0.008 sec
 * total energy  :   -64.2542376 Eh     change       -0.1243996E-02 Eh
   gradient norm :     0.0157442 Eh/α   predicted    -0.1112629E-02 ( -10.56%)
   displ. norm   :     0.3240323 α      lambda       -0.2351301E-02
   maximum displ.:     0.1083477 α      in ANC's #2, #11, #23, ...

........................................................................
.............................. CYCLE   95 ..............................
........................................................................

 iter      E             dE          RMSdq      gap      omega  full diag
   1    -65.2767491 -0.652767E+02  0.328E-01    0.49       0.0  T
   2    -65.2743357  0.241344E-02  0.232E-01    0.45       1.0  T
   3    -65.2473132  0.270224E-01  0.465E-01    0.56       1.0  T
   4    -65.2698035 -0.224902E-01  0.226E-01    0.47       1.0  T
   5    -65.2765776 -0.677417E-02  0.604E-02    0.48       1.0  T
   6    -65.2770028 -0.425226E-03  0.221E-02    0.48       1.0  T
   7    -65.2770523 -0.494618E-04  0.120E-02    0.48       1.1  T
   8    -65.2770582 -0.587321E-05  0.869E-03    0.48       1.5  T
   9    -65.2770530  0.513473E-05  0.888E-03    0.48       1.5  T
  10    -65.2770571 -0.401264E-05  0.509E-03    0.48       2.5  T
  11    -65.2770601 -0.308820E-05  0.130E-03    0.48      10.0  T
  12    -65.2770603 -0.162885E-06  0.714E-04    0.48      18.1  T
  13    -65.2770603 -0.141094E-07  0.439E-04    0.48      29.4  T
     SCC iter.                  ...        0 min,  0.112 sec
     gradient                   ...        0 min,  0.009 sec
 * total energy  :   -64.2554790 Eh     change       -0.1241426E-02 Eh
   gradient norm :     0.0173077 Eh/α   predicted    -0.1299092E-02 (   4.65%)
   displ. norm   :     0.3602176 α      lambda       -0.1980290E-02
   maximum displ.:     0.1223161 α      in ANC's #12, #20, #6, ...

........................................................................
.............................. CYCLE   96 ..............................
........................................................................

 iter      E             dE          RMSdq      gap      omega  full diag
   1    -65.2784750 -0.652785E+02  0.342E-01    0.49       0.0  T
   2    -65.2769024  0.157254E-02  0.231E-01    0.46       1.0  T
   3    -65.2527677  0.241347E-01  0.423E-01    0.55       1.0  T
   4    -65.2760342 -0.232665E-01  0.140E-01    0.47       1.0  T
   5    -65.2786289 -0.259469E-02  0.313E-02    0.49       1.0  T
   6    -65.2787405 -0.111630E-03  0.151E-02    0.48       1.0  T
   7    -65.2787566 -0.161427E-04  0.977E-03    0.48       1.3  T
   8    -65.2787639 -0.727911E-05  0.584E-03    0.48       2.2  T
   9    -65.2787626  0.133163E-05  0.614E-03    0.48       2.1  T
  10    -65.2787653 -0.270923E-05  0.361E-03    0.48       3.6  T
  11    -65.2787666 -0.128079E-05  0.110E-03    0.48      11.7  T
  12    -65.2787667 -0.118055E-06  0.548E-04    0.48      23.6  T
  13    -65.2787667 -0.294985E-08  0.406E-04    0.48      31.8  T
     SCC iter.                  ...        0 min,  0.102 sec
     gradient                   ...        0 min,  0.009 sec
 * total energy  :   -64.2566698 Eh     change       -0.1190818E-02 Eh
   gradient norm :     0.0237013 Eh/α   predicted    -0.1118707E-02 (  -6.06%)
   displ. norm   :     0.4226322 α      lambda       -0.2236969E-02
   maximum displ.:     0.1154574 α      in ANC's #20, #7, #2, ...

........................................................................
.............................. CYCLE   97 ..............................
........................................................................

 iter      E             dE          RMSdq      gap      omega  full diag
   1    -65.2754092 -0.652754E+02  0.368E-01    0.47       0.0  T
   2    -65.2731535  0.225574E-02  0.255E-01    0.44       1.0  T
   3    -65.2468266  0.263269E-01  0.443E-01    0.52       1.0  T
   4    -65.2710467 -0.242201E-01  0.186E-01    0.45       1.0  T
   5    -65.2754357 -0.438897E-02  0.567E-02    0.47       1.0  T
   6    -65.2758055 -0.369821E-03  0.205E-02    0.47       1.0  T
   7    -65.2758528 -0.472982E-04  0.944E-03    0.46       1.4  T
   8    -65.2758586 -0.582189E-05  0.535E-03    0.47       2.4  T
   9    -65.2758570  0.156817E-05  0.606E-03    0.46       2.1  T
  10    -65.2758588 -0.178469E-05  0.390E-03    0.47       3.3  T
  11    -65.2758603 -0.143337E-05  0.135E-03    0.46       9.6  T
  12    -65.2758604 -0.171023E-06  0.604E-04    0.46      21.4  T
  13    -65.2758604 -0.474341E-08  0.455E-04    0.46      28.4  T
     SCC iter.                  ...        0 min,  0.099 sec
     gradient                   ...        0 min,  0.010 sec
 * total energy  :   -64.2583566 Eh     change       -0.1686764E-02 Eh
   gradient norm :     0.0206475 Eh/α   predicted    -0.1318265E-02 ( -21.85%)
   displ. norm   :     0.4899338 α      lambda       -0.2469718E-02
   maximum displ.:     0.1554203 α      in ANC's #7, #6, #20, ...

........................................................................
.............................. CYCLE   98 ..............................
........................................................................

 iter      E             dE          RMSdq      gap      omega  full diag
   1    -65.2706573 -0.652707E+02  0.437E-01    0.44       0.0  T
   2    -65.2681495  0.250778E-02  0.300E-01    0.42       1.0  T
   3    -65.2351636  0.329859E-01  0.501E-01    0.49       1.0  T
   4    -65.2663667 -0.312030E-01  0.185E-01    0.41       1.0  T
   5    -65.2709292 -0.456256E-02  0.465E-02    0.44       1.0  T
   6    -65.2711801 -0.250921E-03  0.200E-02    0.44       1.0  T
   7    -65.2712084 -0.282164E-04  0.113E-02    0.44       1.1  T
   8    -65.2712147 -0.636242E-05  0.799E-03    0.44       1.6  T
   9    -65.2712155 -0.763874E-06  0.751E-03    0.44       1.7  T
  10    -65.2712184 -0.287746E-05  0.478E-03    0.44       2.7  T
  11    -65.2712207 -0.238392E-05  0.151E-03    0.44       8.6  T
  12    -65.2712209 -0.196827E-06  0.767E-04    0.44      16.8  T
  13    -65.2712210 -0.169552E-07  0.571E-04    0.44      22.6  T
     SCC iter.                  ...        0 min,  0.093 sec
     gradient                   ...        0 min,  0.008 sec
 * total energy  :   -64.2599558 Eh     change       -0.1599216E-02 Eh
   gradient norm :     0.0165023 Eh/α   predicted    -0.1531270E-02 (  -4.25%)
   displ. norm   :     0.4043821 α      lambda       -0.1857573E-02
   maximum displ.:     0.1230781 α      in ANC's #7, #23, #2, ...

........................................................................
.............................. CYCLE   99 ..............................
........................................................................

 iter      E             dE          RMSdq      gap      omega  full diag
   1    -65.2712222 -0.652712E+02  0.368E-01    0.41       0.0  T
   2    -65.2706403  0.581855E-03  0.236E-01    0.40       1.0  T
   3    -65.2538682  0.167721E-01  0.355E-01    0.45       1.0  T
   4    -65.2695306 -0.156623E-01  0.120E-01    0.40       1.0  T
   5    -65.2712503 -0.171973E-02  0.342E-02    0.41       1.0  T
   6    -65.2714026 -0.152329E-03  0.132E-02    0.41       1.0  T
   7    -65.2714129 -0.102343E-04  0.999E-03    0.41       1.3  T
   8    -65.2714219 -0.898218E-05  0.556E-03    0.41       2.3  T
   9    -65.2714241 -0.224515E-05  0.333E-03    0.41       3.9  T
  10    -65.2714248 -0.677674E-06  0.231E-03    0.41       5.6  T
  11    -65.2714253 -0.477375E-06  0.876E-04    0.41      14.7  T
  12    -65.2714253 -0.479648E-07  0.634E-04    0.41      20.4  T
     SCC iter.                  ...        0 min,  0.087 sec
     gradient                   ...        0 min,  0.009 sec
 * total energy  :   -64.2607761 Eh     change       -0.8203059E-03 Eh
   gradient norm :     0.0196897 Eh/α   predicted    -0.1080667E-02 (  31.74%)
   displ. norm   :     0.3368675 α      lambda       -0.1890342E-02
   maximum displ.:     0.1189904 α      in ANC's #8, #6, #14, ...

........................................................................
.............................. CYCLE  100 ..............................
........................................................................

 iter      E             dE          RMSdq      gap      omega  full diag
   1    -65.2767125 -0.652767E+02  0.302E-01    0.39       0.0  T
   2    -65.2765354  0.177137E-03  0.193E-01    0.39       1.0  T
   3    -65.2694126  0.712276E-02  0.243E-01    0.39       1.0  T
   4    -65.2762136 -0.680099E-02  0.700E-02    0.40       1.0  T
   5    -65.2767638 -0.550232E-03  0.180E-02    0.39       1.0  T
   6    -65.2767924 -0.285657E-04  0.836E-03    0.39       1.5  T
   7    -65.2767881  0.431716E-05  0.988E-03    0.39       1.3  T
   8    -65.2767986 -0.105685E-04  0.430E-03    0.39       3.0  T
   9    -65.2768005 -0.189059E-05  0.202E-03    0.39       6.4  T
  10    -65.2768008 -0.283193E-06  0.134E-03    0.39       9.6  T
  11    -65.2768010 -0.155040E-06  0.634E-04    0.39      20.4  T
  12    -65.2768010 -0.237897E-07  0.390E-04    0.39      33.1  T
     SCC iter.                  ...        0 min,  0.092 sec
     gradient                   ...        0 min,  0.009 sec
 * total energy  :   -64.2618768 Eh     change       -0.1100698E-02 Eh
   gradient norm :     0.0180190 Eh/α   predicted    -0.1052434E-02 (  -4.38%)
   displ. norm   :     0.3758269 α      lambda       -0.1556606E-02
   maximum displ.:     0.1261974 α      in ANC's #20, #8, #6, ...

........................................................................
.............................. CYCLE  101 ..............................
........................................................................

 iter      E             dE          RMSdq      gap      omega  full diag
   1    -65.2785824 -0.652786E+02  0.301E-01    0.37       0.0  T
   2    -65.2780793  0.503116E-03  0.201E-01    0.39       1.0  T
   3    -65.2583753  0.197041E-01  0.380E-01    0.31       1.0  T
   4    -65.2775385 -0.191633E-01  0.926E-02    0.40       1.0  T
   5    -65.2786187 -0.108016E-02  0.251E-02    0.37       1.0  T
   6    -65.2786770 -0.583380E-04  0.121E-02    0.38       1.1  T
   7    -65.2786868 -0.976510E-05  0.796E-03    0.38       1.6  T
   8    -65.2786917 -0.491949E-05  0.527E-03    0.37       2.5  T
   9    -65.2786929 -0.116758E-05  0.347E-03    0.38       3.7  T
  10    -65.2786935 -0.637426E-06  0.241E-03    0.38       5.4  T
  11    -65.2786943 -0.747307E-06  0.735E-04    0.38      17.6  T
  12    -65.2786943 -0.385833E-07  0.459E-04    0.38      28.1  T
     SCC iter.                  ...        0 min,  0.098 sec
     gradient                   ...        0 min,  0.008 sec
 * total energy  :   -64.2627031 Eh     change       -0.8262644E-03 Eh
   gradient norm :     0.0129647 Eh/α   predicted    -0.8882306E-03 (   7.50%)
   displ. norm   :     0.3857144 α      lambda       -0.1157628E-02
   maximum displ.:     0.1448415 α      in ANC's #8, #14, #6, ...

........................................................................
.............................. CYCLE  102 ..............................
........................................................................

 iter      E             dE          RMSdq      gap      omega  full diag
   1    -65.2788609 -0.652789E+02  0.312E-01    0.35       0.0  T
   2    -65.2781973  0.663657E-03  0.209E-01    0.38       1.0  T
   3    -65.2527187  0.254785E-01  0.430E-01    0.26       1.0  T
   4    -65.2776602 -0.249414E-01  0.101E-01    0.38       1.0  T
   5    -65.2788745 -0.121430E-02  0.293E-02    0.36       1.0  T
   6    -65.2789476 -0.731761E-04  0.166E-02    0.36       1.0  T
   7    -65.2789795 -0.319019E-04  0.656E-03    0.36       2.0  T
   8    -65.2789806 -0.104565E-05  0.535E-03    0.36       2.4  T
   9    -65.2789796  0.975534E-06  0.465E-03    0.36       2.8  T
  10    -65.2789814 -0.174860E-05  0.203E-03    0.36       6.4  T
  11    -65.2789818 -0.469607E-06  0.578E-04    0.36      22.3  T
  12    -65.2789818 -0.632818E-08  0.467E-04    0.36      27.6  T
     SCC iter.                  ...        0 min,  0.093 sec
     gradient                   ...        0 min,  0.009 sec
 * total energy  :   -64.2634255 Eh     change       -0.7223784E-03 Eh
   gradient norm :     0.0122708 Eh/α   predicted    -0.6649299E-03 (  -7.95%)
   displ. norm   :     0.4046600 α      lambda       -0.1009811E-02
   maximum displ.:     0.1877049 α      in ANC's #8, #6, #14, ...

........................................................................
.............................. CYCLE  103 ..............................
........................................................................

 iter      E             dE          RMSdq      gap      omega  full diag
   1    -65.2803838 -0.652804E+02  0.345E-01    0.34       0.0  T
   2    -65.2789075  0.147633E-02  0.244E-01    0.36       1.0  T
   3    -65.2500810  0.288265E-01  0.475E-01    0.26       1.0  T
   4    -65.2780309 -0.279498E-01  0.140E-01    0.38       1.0  T
   5    -65.2805149 -0.248408E-02  0.285E-02    0.34       1.0  T
   6    -65.2805601 -0.452071E-04  0.181E-02    0.35       1.0  T
   7    -65.2805965 -0.363109E-04  0.826E-03    0.35       1.6  T
   8    -65.2806007 -0.428448E-05  0.587E-03    0.34       2.2  T
   9    -65.2805998  0.979451E-06  0.564E-03    0.35       2.3  T
  10    -65.2806015 -0.177022E-05  0.237E-03    0.34       5.4  T
  11    -65.2806022 -0.624093E-06  0.771E-04    0.34      16.7  T
  12    -65.2806022 -0.279604E-07  0.526E-04    0.34      24.5  T
     SCC iter.                  ...        0 min,  0.101 sec
     gradient                   ...        0 min,  0.008 sec
 * total energy  :   -64.2640469 Eh     change       -0.6214126E-03 Eh
   gradient norm :     0.0105595 Eh/α   predicted    -0.5875855E-03 (  -5.44%)
   displ. norm   :     0.4071900 α      lambda       -0.7064275E-03
   maximum displ.:     0.1772086 α      in ANC's #8, #6, #14, ...

........................................................................
.............................. CYCLE  104 ..............................
........................................................................

 iter      E             dE          RMSdq      gap      omega  full diag
   1    -65.2783269 -0.652783E+02  0.289E-01    0.33       0.0  T
   2    -65.2772626  0.106431E-02  0.205E-01    0.36       1.0  T
   3    -65.2514752  0.257874E-01  0.431E-01    0.25       1.0  T
   4    -65.2772259 -0.257507E-01  0.976E-02    0.36       1.0  T
   5    -65.2783105 -0.108459E-02  0.340E-02    0.34       1.0  T
   6    -65.2784305 -0.120006E-03  0.159E-02    0.34       1.0  T
   7    -65.2784593 -0.288499E-04  0.730E-03    0.34       1.8  T
   8    -65.2784627 -0.341320E-05  0.465E-03    0.34       2.8  T
   9    -65.2784618  0.977365E-06  0.456E-03    0.34       2.8  T
  10    -65.2784627 -0.938551E-06  0.199E-03    0.34       6.5  T
  11    -65.2784632 -0.460914E-06  0.523E-04    0.34      24.7  T
  12    -65.2784632 -0.156434E-07  0.339E-04    0.34      38.1  T
     SCC iter.                  ...        0 min,  0.107 sec
     gradient                   ...        0 min,  0.009 sec
 * total energy  :   -64.2645705 Eh     change       -0.5235682E-03 Eh
   gradient norm :     0.0086005 Eh/α   predicted    -0.4117914E-03 ( -21.35%)
   displ. norm   :     0.4250138 α      lambda       -0.7298506E-03
   maximum displ.:     0.1952032 α      in ANC's #8, #6, #14, ...

........................................................................
.............................. CYCLE  105 ..............................
........................................................................

 iter      E             dE          RMSdq      gap      omega  full diag
   1    -65.2783713 -0.652784E+02  0.277E-01    0.32       0.0  T
   2    -65.2767557  0.161555E-02  0.208E-01    0.36       1.0  T
   3    -65.2551229  0.216328E-01  0.403E-01    0.25       1.0  T
   4    -65.2772188 -0.220959E-01  0.101E-01    0.35       1.0  T
   5    -65.2783609 -0.114211E-02  0.377E-02    0.34       1.0  T
   6    -65.2785256 -0.164660E-03  0.156E-02    0.33       1.0  T
   7    -65.2785500 -0.244479E-04  0.836E-03    0.33       1.5  T
   8    -65.2785552 -0.518777E-05  0.475E-03    0.33       2.7  T
   9    -65.2785537  0.147864E-05  0.484E-03    0.33       2.7  T
  10    -65.2785552 -0.145533E-05  0.170E-03    0.33       7.6  T
  11    -65.2785555 -0.307083E-06  0.614E-04    0.33      21.0  T
  12    -65.2785555 -0.202331E-07  0.415E-04    0.33      31.1  T
     SCC iter.                  ...        0 min,  0.148 sec
     gradient                   ...        0 min,  0.009 sec
 * total energy  :   -64.2650246 Eh     change       -0.4541602E-03 Eh
   gradient norm :     0.0088110 Eh/α   predicted    -0.4308492E-03 (  -5.13%)
   displ. norm   :     0.4868052 α      lambda       -0.5810214E-03
   maximum displ.:     0.2499637 α      in ANC's #8, #6, #7, ...

........................................................................
.............................. CYCLE  106 ..............................
........................................................................

 iter      E             dE          RMSdq      gap      omega  full diag
   1    -65.2747159 -0.652747E+02  0.375E-01    0.32       0.0  T
   2    -65.2738778  0.838157E-03  0.247E-01    0.34       1.0  T
   3    -65.2286366  0.452412E-01  0.552E-01    0.21       1.0  T
   4    -65.2737417 -0.451052E-01  0.915E-02    0.34       1.0  T
   5    -65.2746502 -0.908474E-03  0.356E-02    0.33       1.0  T
   6    -65.2747861 -0.135887E-03  0.178E-02    0.32       1.0  T
   7    -65.2748174 -0.312562E-04  0.102E-02    0.32       1.3  T
   8    -65.2748251 -0.769348E-05  0.567E-03    0.32       2.3  T
   9    -65.2748219  0.314147E-05  0.604E-03    0.32       2.1  T
  10    -65.2748248 -0.290906E-05  0.226E-03    0.32       5.7  T
  11    -65.2748254 -0.594013E-06  0.866E-04    0.32      14.9  T
  12    -65.2748255 -0.349593E-07  0.642E-04    0.32      20.1  T
     SCC iter.                  ...        0 min,  0.107 sec
     gradient                   ...        0 min,  0.010 sec
 * total energy  :   -64.2653050 Eh     change       -0.2804103E-03 Eh
   gradient norm :     0.0110597 Eh/α   predicted    -0.3593564E-03 (  28.15%)
   displ. norm   :     0.2692831 α      lambda       -0.5426579E-03
   maximum displ.:     0.1151456 α      in ANC's #8, #6, #9, ...

........................................................................
.............................. CYCLE  107 ..............................
........................................................................

 iter      E             dE          RMSdq      gap      omega  full diag
   1    -65.2803484 -0.652803E+02  0.169E-01    0.32       0.0  T
   2    -65.2801428  0.205603E-03  0.111E-01    0.33       1.0  T
   3    -65.2708047  0.933810E-02  0.257E-01    0.28       1.0  T
   4    -65.2799543 -0.914955E-02  0.559E-02    0.32       1.0  T
   5    -65.2803032 -0.348958E-03  0.228E-02    0.32       1.0  T
   6    -65.2803742 -0.709461E-04  0.657E-03    0.32       2.0  T
   7    -65.2803772 -0.300360E-05  0.424E-03    0.32       3.0  T
   8    -65.2803782 -0.105986E-05  0.269E-03    0.32       4.8  T
   9    -65.2803788 -0.548119E-06  0.147E-03    0.32       8.8  T
  10    -65.2803789 -0.985411E-07  0.107E-03    0.32      12.1  T
  11    -65.2803790 -0.121941E-06  0.467E-04    0.32      27.7  T
  12    -65.2803790 -0.162972E-07  0.256E-04    0.32      50.4  T
     SCC iter.                  ...        0 min,  0.087 sec
     gradient                   ...        0 min,  0.009 sec
 * total energy  :   -64.2656069 Eh     change       -0.3018508E-03 Eh
   gradient norm :     0.0087441 Eh/α   predicted    -0.2910037E-03 (  -3.59%)
   displ. norm   :     0.3500582 α      lambda       -0.5317698E-03
   maximum displ.:     0.1595977 α      in ANC's #8, #6, #9, ...

........................................................................
.............................. CYCLE  108 ..............................
........................................................................

 iter      E             dE          RMSdq      gap      omega  full diag
   1    -65.2798741 -0.652799E+02  0.197E-01    0.31       0.0  T
   2    -65.2796680  0.206082E-03  0.125E-01    0.32       1.0  T
   3    -65.2687807  0.108873E-01  0.281E-01    0.31       1.0  T
   4    -65.2790022 -0.102215E-01  0.817E-02    0.31       1.0  T
   5    -65.2798775 -0.875288E-03  0.173E-02    0.32       1.0  T
   6    -65.2799088 -0.313198E-04  0.511E-03    0.31       2.5  T
   7    -65.2799095 -0.703028E-06  0.382E-03    0.31       3.4  T
   8    -65.2799105 -0.994613E-06  0.233E-03    0.31       5.5  T
   9    -65.2799108 -0.240353E-06  0.164E-03    0.31       7.9  T
  10    -65.2799109 -0.177184E-06  0.110E-03    0.31      11.8  T
  11    -65.2799111 -0.150208E-06  0.401E-04    0.31      32.2  T
  12    -65.2799111 -0.118769E-07  0.256E-04    0.31      50.4  T
     SCC iter.                  ...        0 min,  0.087 sec
     gradient                   ...        0 min,  0.008 sec
 * total energy  :   -64.2658997 Eh     change       -0.2928537E-03 Eh
   gradient norm :     0.0069993 Eh/α   predicted    -0.2984515E-03 (   1.91%)
   displ. norm   :     0.3771001 α      lambda       -0.3512260E-03
   maximum displ.:     0.2096417 α      in ANC's #8, #6, #9, ...

........................................................................
.............................. CYCLE  109 ..............................
........................................................................

 iter      E             dE          RMSdq      gap      omega  full diag
   1    -65.2804028 -0.652804E+02  0.251E-01    0.30       0.0  T
   2    -65.2800645  0.338309E-03  0.163E-01    0.32       1.0  T
   3    -65.2602023  0.198622E-01  0.369E-01    0.25       1.0  T
   4    -65.2798546 -0.196523E-01  0.659E-02    0.31       1.0  T
   5    -65.2803692 -0.514668E-03  0.236E-02    0.31       1.0  T
   6    -65.2804405 -0.712287E-04  0.725E-03    0.31       1.8  T
   7    -65.2804431 -0.266017E-05  0.557E-03    0.31       2.3  T
   8    -65.2804457 -0.259465E-05  0.273E-03    0.31       4.7  T
   9    -65.2804455  0.174098E-06  0.256E-03    0.31       5.0  T
  10    -65.2804460 -0.466030E-06  0.116E-03    0.31      11.2  T
  11    -65.2804461 -0.137087E-06  0.432E-04    0.31      29.9  T
  12    -65.2804462 -0.101533E-07  0.270E-04    0.31      47.8  T
     SCC iter.                  ...        0 min,  0.080 sec
     gradient                   ...        0 min,  0.009 sec
 * total energy  :   -64.2661333 Eh     change       -0.2335386E-03 Eh
   gradient norm :     0.0064481 Eh/α   predicted    -0.2005909E-03 ( -14.11%)
   displ. norm   :     0.3928409 α      lambda       -0.2843508E-03
   maximum displ.:     0.1954974 α      in ANC's #8, #6, #2, ...

........................................................................
.............................. CYCLE  110 ..............................
........................................................................

 iter      E             dE          RMSdq      gap      omega  full diag
   1    -65.2793994 -0.652794E+02  0.232E-01    0.30       0.0  T
   2    -65.2792169  0.182568E-03  0.147E-01    0.31       1.0  T
   3    -65.2664078  0.128091E-01  0.299E-01    0.26       1.0  T
   4    -65.2786997 -0.122919E-01  0.727E-02    0.30       1.0  T
   5    -65.2793889 -0.689197E-03  0.178E-02    0.31       1.0  T
   6    -65.2794266 -0.376825E-04  0.565E-03    0.30       2.3  T
   7    -65.2794283 -0.170425E-05  0.404E-03    0.30       3.2  T
   8    -65.2794296 -0.137104E-05  0.203E-03    0.30       6.3  T
   9    -65.2794296  0.814848E-07  0.187E-03    0.30       6.9  T
  10    -65.2794298 -0.269344E-06  0.876E-04    0.30      14.7  T
  11    -65.2794299 -0.743307E-07  0.366E-04    0.30      35.3  T
     SCC iter.                  ...        0 min,  0.073 sec
     gradient                   ...        0 min,  0.009 sec
 * total energy  :   -64.2663370 Eh     change       -0.2037584E-03 Eh
   gradient norm :     0.0066769 Eh/α   predicted    -0.1641136E-03 ( -19.46%)
   displ. norm   :     0.3649925 α      lambda       -0.3259212E-03
   maximum displ.:     0.1830452 α      in ANC's #6, #8, #2, ...

........................................................................
.............................. CYCLE  111 ..............................
........................................................................

 iter      E             dE          RMSdq      gap      omega  full diag
   1    -65.2817909 -0.652818E+02  0.211E-01    0.30       0.0  T
   2    -65.2815627  0.228228E-03  0.136E-01    0.30       1.0  T
   3    -65.2709561  0.106066E-01  0.282E-01    0.32       1.0  T
   4    -65.2805777 -0.962164E-02  0.941E-02    0.29       1.0  T
   5    -65.2817977 -0.122002E-02  0.164E-02    0.30       1.0  T
   6    -65.2818275 -0.297372E-04  0.687E-03    0.30       1.9  T
   7    -65.2818309 -0.341737E-05  0.430E-03    0.30       3.0  T
   8    -65.2818322 -0.129932E-05  0.277E-03    0.30       4.7  T
   9    -65.2818326 -0.393404E-06  0.166E-03    0.30       7.8  T
  10    -65.2818327 -0.974810E-07  0.130E-03    0.30       9.9  T
  11    -65.2818329 -0.215318E-06  0.423E-04    0.30      30.5  T
  12    -65.2818329 -0.158539E-07  0.233E-04    0.30      55.3  T
     SCC iter.                  ...        0 min,  0.084 sec
     gradient                   ...        0 min,  0.008 sec
 * total energy  :   -64.2665433 Eh     change       -0.2062805E-03 Eh
   gradient norm :     0.0062140 Eh/α   predicted    -0.1846727E-03 ( -10.47%)
   displ. norm   :     0.4243579 α      lambda       -0.2415466E-03
   maximum displ.:     0.2149100 α      in ANC's #6, #8, #2, ...

........................................................................
.............................. CYCLE  112 ..............................
........................................................................

 iter      E             dE          RMSdq      gap      omega  full diag
   1    -65.2788410 -0.652788E+02  0.237E-01    0.29       0.0  T
   2    -65.2786839  0.157024E-03  0.149E-01    0.29       1.0  T
   3    -65.2675868  0.110971E-01  0.293E-01    0.30       1.0  T
   4    -65.2778530 -0.102662E-01  0.841E-02    0.29       1.0  T
   5    -65.2788459 -0.992893E-03  0.130E-02    0.29       1.0  T
   6    -65.2788673 -0.213769E-04  0.506E-03    0.29       2.6  T
   7    -65.2788690 -0.174813E-05  0.353E-03    0.29       3.7  T
   8    -65.2788700 -0.966041E-06  0.187E-03    0.29       6.9  T
   9    -65.2788700  0.388261E-07  0.177E-03    0.29       7.3  T
  10    -65.2788702 -0.247823E-06  0.956E-04    0.29      13.5  T
  11    -65.2788703 -0.101528E-06  0.309E-04    0.29      41.8  T
     SCC iter.                  ...        0 min,  0.079 sec
     gradient                   ...        0 min,  0.006 sec
 * total energy  :   -64.2667229 Eh     change       -0.1795837E-03 Eh
   gradient norm :     0.0054023 Eh/α   predicted    -0.1425203E-03 ( -20.64%)
   displ. norm   :     0.3673597 α      lambda       -0.2417495E-03
   maximum displ.:     0.1939882 α      in ANC's #6, #2, #8, ...

........................................................................
.............................. CYCLE  113 ..............................
........................................................................

 iter      E             dE          RMSdq      gap      omega  full diag
   1    -65.2796682 -0.652797E+02  0.208E-01    0.29       0.0  T
   2    -65.2794612  0.207004E-03  0.132E-01    0.28       1.0  T
   3    -65.2702809  0.918039E-02  0.269E-01    0.34       1.0  T
   4    -65.2790370 -0.875613E-02  0.692E-02    0.28       1.0  T
   5    -65.2796389 -0.601869E-03  0.217E-02    0.29       1.0  T
   6    -65.2796986 -0.597508E-04  0.628E-03    0.29       2.1  T
   7    -65.2797022 -0.358609E-05  0.341E-03    0.29       3.8  T
   8    -65.2797028 -0.640836E-06  0.237E-03    0.29       5.4  T
   9    -65.2797029 -0.602477E-07  0.195E-03    0.29       6.6  T
  10    -65.2797031 -0.182480E-06  0.121E-03    0.29      10.7  T
  11    -65.2797033 -0.179430E-06  0.309E-04    0.29      41.8  T
  12    -65.2797033 -0.657190E-08  0.193E-04    0.29      67.0  T
     SCC iter.                  ...        0 min,  0.086 sec
     gradient                   ...        0 min,  0.009 sec
 * total energy  :   -64.2668970 Eh     change       -0.1741506E-03 Eh
   gradient norm :     0.0042492 Eh/α   predicted    -0.1371826E-03 ( -21.23%)
   displ. norm   :     0.4500597 α      lambda       -0.2042918E-03
   maximum displ.:     0.2396079 α      in ANC's #6, #8, #2, ...

........................................................................
.............................. CYCLE  114 ..............................
........................................................................

 iter      E             dE          RMSdq      gap      omega  full diag
   1    -65.2774561 -0.652775E+02  0.265E-01    0.29       0.0  T
   2    -65.2772682  0.187900E-03  0.165E-01    0.28       1.0  T
   3    -65.2658648  0.114034E-01  0.309E-01    0.34       1.0  T
   4    -65.2764632 -0.105984E-01  0.849E-02    0.28       1.0  T
   5    -65.2774178 -0.954624E-03  0.235E-02    0.28       1.0  T
   6    -65.2774884 -0.705846E-04  0.709E-03    0.28       1.8  T
   7    -65.2774921 -0.368552E-05  0.422E-03    0.28       3.1  T
   8    -65.2774929 -0.785728E-06  0.301E-03    0.28       4.3  T
   9    -65.2774931 -0.278255E-06  0.232E-03    0.28       5.6  T
  10    -65.2774934 -0.254650E-06  0.129E-03    0.28      10.0  T
  11    -65.2774936 -0.228231E-06  0.355E-04    0.28      36.3  T
  12    -65.2774936 -0.930703E-08  0.245E-04    0.28      52.7  T
     SCC iter.                  ...        0 min,  0.083 sec
     gradient                   ...        0 min,  0.009 sec
 * total energy  :   -64.2670274 Eh     change       -0.1303780E-03 Eh
   gradient norm :     0.0055576 Eh/α   predicted    -0.1228397E-03 (  -5.78%)
   displ. norm   :     0.2766315 α      lambda       -0.2024558E-03
   maximum displ.:     0.1471358 α      in ANC's #2, #6, #17, ...

........................................................................
.............................. CYCLE  115 ..............................
........................................................................

 iter      E             dE          RMSdq      gap      omega  full diag
   1    -65.2819385 -0.652819E+02  0.169E-01    0.29       0.0  T
   2    -65.2815211  0.417447E-03  0.118E-01    0.27       1.0  T
   3    -65.2742159  0.730520E-02  0.240E-01    0.34       1.0  T
   4    -65.2816719 -0.745604E-02  0.530E-02    0.28       1.0  T
   5    -65.2819259 -0.253954E-03  0.216E-02    0.28       1.0  T
   6    -65.2819874 -0.615183E-04  0.721E-03    0.28       1.8  T
   7    -65.2819926 -0.524429E-05  0.409E-03    0.28       3.2  T
   8    -65.2819936 -0.101525E-05  0.225E-03    0.28       5.7  T
   9    -65.2819934  0.248380E-06  0.228E-03    0.28       5.7  T
  10    -65.2819937 -0.317209E-06  0.106E-03    0.28      12.2  T
  11    -65.2819938 -0.139986E-06  0.361E-04    0.28      35.7  T
  12    -65.2819938 -0.827211E-08  0.207E-04    0.28      62.5  T
     SCC iter.                  ...        0 min,  0.096 sec
     gradient                   ...        0 min,  0.016 sec
 * total energy  :   -64.2671321 Eh     change       -0.1046909E-03 Eh
   gradient norm :     0.0051148 Eh/α   predicted    -0.1089746E-03 (   4.09%)
   displ. norm   :     0.2982176 α      lambda       -0.1196931E-03
   maximum displ.:     0.1613850 α      in ANC's #6, #2, #8, ...

........................................................................
.............................. CYCLE  116 ..............................
........................................................................

 iter      E             dE          RMSdq      gap      omega  full diag
   1    -65.2801829 -0.652802E+02  0.181E-01    0.28       0.0  T
   2    -65.2801278  0.551185E-04  0.111E-01    0.28       1.0  T
   3    -65.2768239  0.330386E-02  0.172E-01    0.30       1.0  T
   4    -65.2797130 -0.288905E-02  0.578E-02    0.28       1.0  T
   5    -65.2801775 -0.464517E-03  0.124E-02    0.28       1.0  T
   6    -65.2801966 -0.191036E-04  0.445E-03    0.29       2.9  T
   7    -65.2801977 -0.109703E-05  0.289E-03    0.28       4.5  T
   8    -65.2801981 -0.391014E-06  0.204E-03    0.29       6.3  T
   9    -65.2801985 -0.392827E-06  0.100E-03    0.28      12.9  T
  10    -65.2801985 -0.268573E-07  0.758E-04    0.28      17.0  T
  11    -65.2801986 -0.734198E-07  0.232E-04    0.28      55.7  T
     SCC iter.                  ...        0 min,  0.121 sec
     gradient                   ...        0 min,  0.020 sec
 * total energy  :   -64.2672191 Eh     change       -0.8695839E-04 Eh
   gradient norm :     0.0045329 Eh/α   predicted    -0.6516749E-04 ( -25.06%)
   displ. norm   :     0.3016788 α      lambda       -0.1709473E-03
   maximum displ.:     0.1647599 α      in ANC's #6, #2, #7, ...

........................................................................
.............................. CYCLE  117 ..............................
........................................................................

 iter      E             dE          RMSdq      gap      omega  full diag
   1    -65.2796082 -0.652796E+02  0.195E-01    0.29       0.0  T
   2    -65.2795529  0.553096E-04  0.120E-01    0.29       1.0  T
   3    -65.2770537  0.249917E-02  0.152E-01    0.29       1.0  T
   4    -65.2795149 -0.246121E-02  0.305E-02    0.29       1.0  T
   5    -65.2796221 -0.107159E-03  0.719E-03    0.29       1.8  T
   6    -65.2796271 -0.506599E-05  0.377E-03    0.29       3.4  T
   7    -65.2796274 -0.262033E-06  0.307E-03    0.29       4.2  T
   8    -65.2796283 -0.909590E-06  0.162E-03    0.29       8.0  T
   9    -65.2796285 -0.200340E-06  0.891E-04    0.29      14.5  T
  10    -65.2796285 -0.954319E-08  0.806E-04    0.29      16.0  T
     SCC iter.                  ...        0 min,  0.125 sec
     gradient                   ...        0 min,  0.010 sec
 * total energy  :   -64.2673298 Eh     change       -0.1107163E-03 Eh
   gradient norm :     0.0049552 Eh/α   predicted    -0.9325536E-04 ( -15.77%)
   displ. norm   :     0.2229715 α      lambda       -0.1355683E-03
   maximum displ.:     0.1079248 α      in ANC's #6, #2, #7, ...

........................................................................
.............................. CYCLE  118 ..............................
........................................................................

 iter      E             dE          RMSdq      gap      omega  full diag
   1    -65.2812964 -0.652813E+02  0.145E-01    0.30       0.0  T
   2    -65.2812304  0.660050E-04  0.910E-02    0.30       1.0  T
   3    -65.2786448  0.258558E-02  0.147E-01    0.29       1.0  T
   4    -65.2809113 -0.226645E-02  0.529E-02    0.30       1.0  T
   5    -65.2812943 -0.383064E-03  0.125E-02    0.30       1.0  T
   6    -65.2813136 -0.193023E-04  0.340E-03    0.30       3.8  T
   7    -65.2813139 -0.236047E-06  0.281E-03    0.30       4.6  T
   8    -65.2813145 -0.606517E-06  0.139E-03    0.30       9.3  T
   9    -65.2813146 -0.135943E-06  0.926E-04    0.30      13.9  T
  10    -65.2813147 -0.541533E-07  0.626E-04    0.30      20.6  T
     SCC iter.                  ...        0 min,  0.076 sec
     gradient                   ...        0 min,  0.009 sec
 * total energy  :   -64.2674113 Eh     change       -0.8151386E-04 Eh
   gradient norm :     0.0058855 Eh/α   predicted    -0.7115581E-04 ( -12.71%)
   displ. norm   :     0.3492207 α      lambda       -0.1435028E-03
   maximum displ.:     0.1854859 α      in ANC's #6, #2, #7, ...

........................................................................
.............................. CYCLE  119 ..............................
........................................................................

 iter      E             dE          RMSdq      gap      omega  full diag
   1    -65.2802770 -0.652803E+02  0.218E-01    0.31       0.0  T
   2    -65.2801778  0.992125E-04  0.136E-01    0.31       1.0  T
   3    -65.2748960  0.528178E-02  0.209E-01    0.30       1.0  T
   4    -65.2797097 -0.481370E-02  0.647E-02    0.31       1.0  T
   5    -65.2802640 -0.554291E-03  0.171E-02    0.31       1.0  T
   6    -65.2803016 -0.375821E-04  0.457E-03    0.31       2.8  T
   7    -65.2803025 -0.888758E-06  0.345E-03    0.31       3.7  T
   8    -65.2803031 -0.635467E-06  0.216E-03    0.31       6.0  T
   9    -65.2803036 -0.440984E-06  0.128E-03    0.31      10.1  T
  10    -65.2803037 -0.118348E-06  0.796E-04    0.31      16.2  T
  11    -65.2803038 -0.707368E-07  0.298E-04    0.31      43.3  T
     SCC iter.                  ...        0 min,  0.077 sec
     gradient                   ...        0 min,  0.007 sec
 * total energy  :   -64.2675000 Eh     change       -0.8866260E-04 Eh
   gradient norm :     0.0057418 Eh/α   predicted    -0.8050066E-04 (  -9.21%)
   displ. norm   :     0.2223387 α      lambda       -0.1463204E-03
   maximum displ.:     0.1023103 α      in ANC's #2, #6, #7, ...

........................................................................
.............................. CYCLE  120 ..............................
........................................................................

 iter      E             dE          RMSdq      gap      omega  full diag
   1    -65.2822568 -0.652823E+02  0.146E-01    0.31       0.0  T
   2    -65.2821624  0.944251E-04  0.923E-02    0.32       1.0  T
   3    -65.2782138  0.394856E-02  0.177E-01    0.30       1.0  T
   4    -65.2818116 -0.359776E-02  0.569E-02    0.32       1.0  T
   5    -65.2822480 -0.436438E-03  0.144E-02    0.31       1.0  T
   6    -65.2822750 -0.269817E-04  0.412E-03    0.32       3.1  T
   7    -65.2822762 -0.117256E-05  0.255E-03    0.32       5.1  T
   8    -65.2822764 -0.245031E-06  0.195E-03    0.32       6.6  T
   9    -65.2822768 -0.361545E-06  0.899E-04    0.32      14.4  T
  10    -65.2822768 -0.542844E-07  0.544E-04    0.32      23.7  T
     SCC iter.                  ...        0 min,  0.067 sec
     gradient                   ...        0 min,  0.010 sec
 * total energy  :   -64.2676044 Eh     change       -0.1044519E-03 Eh
   gradient norm :     0.0049915 Eh/α   predicted    -0.7678009E-04 ( -26.49%)
   displ. norm   :     0.2916818 α      lambda       -0.1567947E-03
   maximum displ.:     0.1414195 α      in ANC's #6, #2, #7, ...

   *** FAILED TO CONVERGE GEOMETRY OPTIMIZATION IN 120 ITERATIONS ***


 ANCopt (total)                0 d,  0 h,  0 min, 16.682 sec
 optimizer setup                ...        0 min,  0.003 sec (  0.018%)
 model hessian                  ...        0 min,  0.050 sec (  0.300%)
 ANC generation                 ...        0 min,  0.022 sec (  0.132%)
 coordinate transformation      ...        0 min,  0.003 sec (  0.018%)
 single point calculation       ...        0 min, 16.411 sec ( 98.375%)
 optimization log               ...        0 min,  0.107 sec (  0.641%)
 hessian update                 ...        0 min,  0.014 sec (  0.084%)
 rational function              ...        0 min,  0.046 sec (  0.276%)

================
 final structure:
================
60
 xtb: 6.7.1pre (5071a88)
B           -6.92557418013437       -4.65111285701945        0.25865123088668
B           -5.10977232376479       -2.24929264316292        0.32220234114496
B           -3.59150010259097       -2.18136535382273        0.21279871305969
B            0.99925948065896       -2.87544754424000        0.06378671163572
B            2.47585268337645       -3.01222267199326       -0.27085921073280
B            5.29935304842843       -3.83137269972700       -0.66717658873365
B            6.31828646287550       -4.83594788664501       -1.15579540285188
B           -6.43481052885203       -3.15827630333697        0.28637407144731
B           -6.75198645598107       -1.63383436738413        0.31644637992563
B           -2.05257245438518       -2.31732534613622        0.33493775009704
B           -0.48410541129914       -2.46190111525304        0.25744351850342
B            4.01843212140070       -2.90105924893290       -0.28723402528550
B            5.75319488091026       -2.28152332910589       -0.30282505975380
B            6.83007152910288       -3.22878821144755       -1.09290302783111
B           -7.65644603319309       -0.25496852552891        0.34308788362867
B           -6.03740388903241       -0.13947205013057        0.19128153596670
B           -4.43155544101114       -0.53569284064354        0.22393460897969
B           -2.73786368096375       -0.66039475297275        0.32898683973930
B           -1.05179656146614       -0.91569483167390        0.64186667401432
B            0.51706724290201       -1.17215376845656        0.72573155695941
B            3.12314019220334       -1.48307598304204       -0.06347657975380
B            4.70007204422555       -1.13396919739096        0.34015693702420
B            6.26670128470849       -0.78716471532522        0.25170212770615
B            7.67197949228745       -0.35166584711535        1.03271439864219
B           -6.91808155689626        1.21209375277531        0.19154299220817
B           -3.41844903309713        0.78008354064533        0.08092772084569
B           -1.65424810854038        0.53262632332243        0.12393635578457
B            1.86218726384791       -0.40373807879930        0.32458745765261
B            3.58471675842042       -0.15037703480756        0.78515080929133
B            6.99097337595850        0.61106227907230       -0.10682522728532
B            8.30736848650065        1.06286519779494        0.63157689421904
B           -7.61944566581539        2.80402157740581        0.29859152348958
B           -6.12384722068565        2.51850586972337       -0.17653424973556
B           -3.58859844143749        2.32765602208161       -0.23679294608385
B           -0.90612989812318        1.81950205930166       -0.41975395891944
B            1.62342977363880        1.01991208268033       -0.41081680252553
B            3.01084099393645        1.30900988203453        0.52967817182757
B            6.37286634736980        1.85818783399478       -0.91598642504515
B           -6.52766007006264        4.04562033302387       -0.16080668821819
B           -4.87358751586545        3.49481003036817       -0.38844945006191
B           -3.41552108416072        3.88012282595629       -0.60638389208888
B           -2.02346822442523        3.22055914976642       -0.67671506548433
B           -0.49736338034361        3.27955250659040       -0.89698526850280
B            0.71071495607223        2.33244108238617       -0.74567761494667
B            2.33533808214271        2.47809099900207       -0.47543803838717
B            3.81608245372572        2.61947036384589       -0.09409933056572
B            5.36981062721404        2.86458751744619       -0.14886523884359
B            6.05513554196246        4.08000659843704        0.63121159488273
H            6.20410107557219        5.14767506348428        0.14633637655400
H            8.21838871729639       -1.12103214722317        1.72684008313654
H            6.62243617260655        1.98179134900885       -2.06738768169753
H           -7.08996137015982       -5.25063413746318       -0.75377477597234
H           -6.79116064439192        5.18147020407856       -0.28518602691156
H            9.15691885295849        1.84657326201015        0.78998376080979
H           -8.82769016353205       -0.37575683231928        0.32855836443783
H            6.78387947740729       -5.86898828017486       -1.44653834900186
H           -8.72471045930643        3.00122014572763        0.63884236733979
H            7.89180288597184       -2.88353904441010       -1.47372714651482
H            6.42816432819356        3.99964440796634        1.74845797185926
H           -7.22487773436318       -5.28231361424555        1.21868834804010
 
 Bond Distances (Angstroems)
 ---------------------------
B1-B8=1.5717         B1-H52=1.1880        B1-H60=1.1873        B2-B3=1.5237         B2-B8=1.6073         B2-B9=1.7538         
B2-B17=1.8456        B3-B2=1.5237         B3-B10=1.5497        B3-B17=1.8477        B3-B18=1.7480        B4-B5=1.5202         
B4-B11=1.5521        B4-B20=1.8899        B5-B4=1.5202         B5-B12=1.5467        B5-B21=1.6734        B6-B7=1.5120         
B6-B12=1.6281        B6-B13=1.6555        B6-B14=1.6993        B7-B6=1.5120         B7-B14=1.6879        B7-H56=1.1698        
B8-B1=1.5717         B8-B2=1.6073         B8-B9=1.5574         B9-B2=1.7538         B9-B8=1.5574         B9-B15=1.6493        
B9-B16=1.6611        B10-B3=1.5497        B10-B11=1.5770       B10-B18=1.7931       B10-B19=1.7494       B11-B4=1.5521        
B11-B10=1.5770       B11-B19=1.6914       B11-B20=1.6986       B12-B5=1.5467        B12-B6=1.6281        B12-B13=1.8421       
B12-B21=1.6918       B12-B22=1.9952       B13-B6=1.6555        B13-B12=1.8421       B13-B14=1.6374       B13-B22=1.6850       
B13-B23=1.6746       B14-B6=1.6993        B14-B7=1.6879        B14-B13=1.6374       B14-H58=1.1796       B15-B9=1.6493        
B15-B16=1.6302       B15-B25=1.6494       B15-H55=1.1775       B16-B9=1.6611        B16-B15=1.6302       B16-B17=1.6543       
B16-B25=1.6132       B17-B2=1.8456        B17-B3=1.8477        B17-B16=1.6543       B17-B18=1.7015       B17-B26=1.6668       
B18-B3=1.7480        B18-B10=1.7931       B18-B17=1.7015       B18-B19=1.7338       B18-B26=1.6124       B18-B27=1.6247       
B19-B10=1.7494       B19-B11=1.6914       B19-B18=1.7338       B19-B20=1.5919       B19-B27=1.6519       B20-B4=1.8899        
B20-B11=1.6986       B20-B19=1.5919       B20-B28=1.6002       B21-B5=1.6734        B21-B12=1.6918       B21-B22=1.6648       
B21-B28=1.7046       B21-B29=1.6460       B22-B12=1.9952       B22-B13=1.6850       B22-B21=1.6648       B22-B23=1.6070       
B22-B29=1.5523       B23-B13=1.6746       B23-B22=1.6070       B23-B24=1.6657       B23-B30=1.6150       B24-B23=1.6657       
B24-B30=1.6399       B24-B31=1.6017       B24-H50=1.1715       B25-B15=1.6494       B25-B16=1.6132       B25-B32=1.7429       
B25-B33=1.5726       B26-B17=1.6668       B26-B18=1.6124       B26-B27=1.7820       B26-B34=1.5890       B27-B18=1.6247       
B27-B19=1.6519       B27-B26=1.7820       B27-B35=1.5847       B28-B20=1.6002       B28-B21=1.7046       B28-B29=1.8009       
B28-B36=1.6201       B28-B37=2.0724       B29-B21=1.6460       B29-B22=1.5523       B29-B28=1.8009       B29-B37=1.5888       
B30-B23=1.6150       B30-B24=1.6399       B30-B31=1.5755       B30-B38=1.6100       B31-B24=1.6017       B31-B30=1.5755       
B31-H54=1.1666       B32-B25=1.7429       B32-B33=1.5950       B32-B39=1.7160       B32-H57=1.1731       B33-B25=1.5726       
B33-B32=1.5950       B33-B39=1.5797       B33-B40=1.6004       B34-B26=1.5890       B34-B40=1.7425       B34-B41=1.6052       
B34-B42=1.8548       B35-B27=1.5847       B35-B42=1.8104       B35-B43=1.5895       B35-B44=1.7273       B36-B28=1.6201       
B36-B37=1.7009       B36-B44=1.6334       B36-B45=1.6240       B37-B28=2.0724       B37-B29=1.5888       B37-B36=1.7009       
B37-B45=1.6832       B37-B46=1.6598       B38-B30=1.6100       B38-B47=1.6148       B38-H51=1.1846       B39-B32=1.7160       
B39-B33=1.5797       B39-B40=1.7582       B39-H53=1.1726       B40-B33=1.6004       B40-B34=1.7425       B40-B39=1.7582       
B40-B41=1.5238       B41-B34=1.6052       B41-B40=1.5238       B41-B42=1.5420       B42-B34=1.8548       B42-B35=1.8104       
B42-B41=1.5420       B42-B43=1.5430       B43-B35=1.5895       B43-B42=1.5430       B43-B44=1.5425       B44-B35=1.7273       
B44-B36=1.6334       B44-B43=1.5425       B44-B45=1.6534       B45-B36=1.6240       B45-B37=1.6832       B45-B44=1.6534       
B45-B46=1.5356       B46-B37=1.6598       B46-B45=1.5356       B46-B47=1.5739       B47-B38=1.6148       B47-B46=1.5739       
B47-B48=1.5986       B48-B47=1.5986       B48-H49=1.1820       B48-H59=1.1806       H49-B48=1.1820       H50-B24=1.1715       
H51-B38=1.1846       H52-B1=1.1880        H53-B39=1.1726       H54-B31=1.1666       H55-B15=1.1775       H56-B7=1.1698        
H57-B32=1.1731       H58-B14=1.1796       H59-B48=1.1806       H60-B1=1.1873        
 B  H  Rav=1.1778 sigma=0.0068  Rmin=1.1666  Rmax=1.1880    12
 B  B  Rav=1.6594 sigma=0.1025  Rmin=1.5120  Rmax=2.0724    89
 
 selected bond angles (degree)
 --------------------
H52-B1-B8=122.52               H60-B1-B8=124.71               H60-B1-H52=112.70              B8-B2-B3=147.68                
B9-B2-B3=156.51                B9-B2-B8= 55.00                B17-B2-B3= 65.71               B17-B2-B8=145.78               
B17-B2-B9= 91.04               B10-B3-B2=168.49               B17-B3-B2= 65.56               B17-B3-B10=121.95              
B18-B3-B2=121.37               B18-B3-B10= 65.55              B18-B3-B17= 56.40              B11-B4-B5=168.45               
B20-B4-B5=113.95               B20-B4-B11= 58.15              B12-B5-B4=164.71               B21-B5-B4=105.44               
B21-B5-B12= 63.25              B12-B6-B7=170.16               B13-B6-B7=120.56               B13-B6-B12= 68.25              
B14-B6-B7= 63.10               B14-B6-B12=124.37              B14-B6-B13= 58.41              B14-B7-B6= 63.87               
H56-B7-B6=159.27               H56-B7-B14=136.84              B2-B8-B1=142.66                B9-B8-B1=150.05                
B9-B8-B2= 67.29                B8-B9-B2= 57.71                B15-B9-B2=143.79               B15-B9-B8=158.49               
B16-B9-B2= 85.02               B16-B9-B8=142.33               B16-B9-B15= 59.00              B11-B10-B3=172.66              
B18-B10-B3= 62.56              B18-B10-B11=117.69             B19-B10-B3=120.77              B19-B10-B11= 60.86             
B19-B10-B18= 58.59             
 
 selected dihedral angles (degree)
 ---------------------------------
B10-B3-B2-B8=302.49           B10-B3-B2-B9=141.45           B10-B3-B2-B17=132.93          B17-B3-B2-B8=169.55           
B17-B3-B2-B9=  8.52           B18-B3-B2-B8=178.05           B18-B3-B2-B9= 17.02           B18-B3-B2-B17=  8.50          
B12-B5-B4-B11= 79.41          B12-B5-B4-B20= 34.65          B21-B5-B4-B11= 38.94          B21-B5-B4-B20=354.18          
B14-B7-B6-B12=141.19          B14-B7-B6-B13=348.97          H56-B7-B6-B12=319.07          H56-B7-B6-B13=166.85          
H56-B7-B6-B14=177.88          B2-B8-B1-H52=271.00           B2-B8-B1-H60= 94.35           B9-B8-B1-H52= 92.24           
B9-B8-B1-H60=275.59           B1-B8-B2-B3=  9.77            B1-B8-B2-B9=180.67            B1-B8-B2-B17=172.68           
B9-B8-B2-B3=189.10            B9-B8-B2-B17=352.01           B8-B9-B2-B3=167.75            B8-B9-B2-B17=175.52           
B15-B9-B2-B3=347.36           B15-B9-B2-B8=179.60           B15-B9-B2-B17=355.12          B16-B9-B2-B3=353.53           
B16-B9-B2-B8=185.78           B16-B9-B2-B17=  1.30          B2-B9-B8-B1=179.18            B15-B9-B8-B1=359.82           
B15-B9-B8-B2=180.64           B16-B9-B8-B1=188.63           B16-B9-B8-B2=  9.45           B11-B10-B3-B2=136.83          
B11-B10-B3-B17=265.06         B11-B10-B3-B18=266.16         B18-B10-B3-B2=230.67          B18-B10-B3-B17=358.90         
B19-B10-B3-B2=237.61          B19-B10-B3-B17=  5.84         B19-B10-B3-B18=  6.94         
           -------------------------------------------------
          |                Final Singlepoint                |
           -------------------------------------------------

          ...................................................
          :                      SETUP                      :
          :.................................................:
          :  # basis functions                 204          :
          :  # atomic orbitals                 204          :
          :  # shells                          108          :
          :  # electrons                       156          :
          :  max. iterations                   500          :
          :  Hamiltonian                  GFN2-xTB          :
          :  restarted?                      false          :
          :  GBSA solvation                  false          :
          :  PC potential                    false          :
          :  electronic temp.          300.0000000     K    :
          :  accuracy                    1.0000000          :
          :  -> integral cutoff          0.2500000E+02      :
          :  -> integral neglect         0.1000000E-07      :
          :  -> SCF convergence          0.1000000E-05 Eh   :
          :  -> wf. convergence          0.1000000E-03 e    :
          :  Broyden damping             0.4000000          :
          :  net charge                          0          :
          :  unpaired electrons                  0          :
          ...................................................

 iter      E             dE          RMSdq      gap      omega  full diag
   1    -65.2829141 -0.652829E+02  0.191E-01    0.32       0.0  T
   2    -65.2827910  0.123126E-03  0.120E-01    0.33       1.0  T
   3    -65.2785572  0.423377E-02  0.196E-01    0.31       1.0  T
   4    -65.2825626 -0.400540E-02  0.539E-02    0.32       1.0  T
   5    -65.2828958 -0.333200E-03  0.187E-02    0.32       1.0  T
   6    -65.2829461 -0.502774E-04  0.460E-03    0.32       2.8  T
   7    -65.2829473 -0.124358E-05  0.313E-03    0.32       4.1  T
   8    -65.2829476 -0.316361E-06  0.237E-03    0.32       5.4  T
   9    -65.2829482 -0.556561E-06  0.112E-03    0.32      11.6  T
  10    -65.2829483 -0.855186E-07  0.729E-04    0.32      17.7  T
  11    -65.2829483 -0.536373E-07  0.296E-04    0.32      43.6  T

   *** convergence criteria satisfied after 11 iterations ***

         #    Occupation            Energy/Eh            Energy/eV
      -------------------------------------------------------------
         1        2.0000           -0.4605465             -12.5321
       ...           ...                  ...                  ...
        72        2.0000           -0.2733372              -7.4379
        73        2.0000           -0.2698403              -7.3427
        74        2.0000           -0.2691961              -7.3252
        75        2.0000           -0.2650675              -7.2129
        76        2.0000           -0.2625972              -7.1456
        77        2.0000           -0.2591582              -7.0521
        78        1.9962           -0.2475676              -6.7367 (HOMO)
        79        0.0038           -0.2356571              -6.4126 (LUMO)
        80                         -0.2210084              -6.0139
        81                         -0.2173214              -5.9136
        82                         -0.2143365              -5.8324
        83                         -0.2083647              -5.6699
       ...                                ...                  ...
       204                          1.2241932              33.3120
      -------------------------------------------------------------
                  HL-Gap            0.0119105 Eh            0.3241 eV
             Fermi-level           -0.2416123 Eh           -6.5746 eV

 SCC (total)                   0 d,  0 h,  0 min,  0.090 sec
 SCC setup                      ...        0 min,  0.000 sec (  0.000%)
 Dispersion                     ...        0 min,  0.001 sec (  1.111%)
 classical contributions        ...        0 min,  0.000 sec (  0.000%)
 integral evaluation            ...        0 min,  0.003 sec (  3.333%)
 iterations                     ...        0 min,  0.077 sec ( 85.556%)
 molecular gradient             ...        0 min,  0.008 sec (  8.889%)
 printout                       ...        0 min,  0.001 sec (  1.111%)

         :::::::::::::::::::::::::::::::::::::::::::::::::::::
         ::                     SUMMARY                     ::
         :::::::::::::::::::::::::::::::::::::::::::::::::::::
         :: total energy             -64.267717178335 Eh    ::
         :: gradient norm              0.004809058652 Eh/a0 ::
         :: HOMO-LUMO gap              0.324101189734 eV    ::
         ::.................................................::
         :: SCC energy               -65.283214366301 Eh    ::
         :: -> isotropic ES            0.292564397230 Eh    ::
         :: -> anisotropic ES          0.003011135381 Eh    ::
         :: -> anisotropic XC         -0.038690767630 Eh    ::
         :: -> dispersion             -0.069900473746 Eh    ::
         :: repulsion energy           1.015497187966 Eh    ::
         :: add. restraining           0.000000000000 Eh    ::
         :: total charge              -0.000000000000 e     ::
         :::::::::::::::::::::::::::::::::::::::::::::::::::::

           -------------------------------------------------
          |                Property Printout                |
           -------------------------------------------------

    * Orbital Energies and Occupations

         #    Occupation            Energy/Eh            Energy/eV
      -------------------------------------------------------------
         1        2.0000           -0.4605465             -12.5321
       ...           ...                  ...                  ...
        66        2.0000           -0.2916192              -7.9354
        67        2.0000           -0.2888786              -7.8608
        68        2.0000           -0.2859819              -7.7820
        69        2.0000           -0.2848830              -7.7521
        70        2.0000           -0.2811361              -7.6501
        71        2.0000           -0.2782324              -7.5711
        72        2.0000           -0.2733372              -7.4379
        73        2.0000           -0.2698403              -7.3427
        74        2.0000           -0.2691961              -7.3252
        75        2.0000           -0.2650675              -7.2129
        76        2.0000           -0.2625972              -7.1456
        77        2.0000           -0.2591582              -7.0521
        78        1.9962           -0.2475676              -6.7367 (HOMO)
        79        0.0038           -0.2356571              -6.4126 (LUMO)
        80                         -0.2210084              -6.0139
        81                         -0.2173214              -5.9136
        82                         -0.2143365              -5.8324
        83                         -0.2083647              -5.6699
        84                         -0.1947352              -5.2990
        85                         -0.1907940              -5.1918
        86                         -0.1888765              -5.1396
        87                         -0.1824681              -4.9652
        88                         -0.1791210              -4.8741
        89                         -0.1740596              -4.7364
       ...                                ...                  ...
       204                          1.2241932              33.3120
      -------------------------------------------------------------
                  HL-Gap            0.0119105 Eh            0.3241 eV
             Fermi-level           -0.2416123 Eh           -6.5746 eV

     #   Z          covCN         q      C6AA      α(0)
     1   5 B        2.839     0.115    19.525     7.379
     2   5 B        3.803     0.027    22.215     7.599
     3   5 B        3.718    -0.021    22.997     7.752
     4   5 B        2.746     0.010    21.368     7.738
     5   5 B        2.911    -0.051    22.336     7.887
     6   5 B        3.855     0.012    22.503     7.645
     7   5 B        2.869     0.058    20.433     7.546
     8   5 B        2.921    -0.003    21.460     7.730
     9   5 B        3.823     0.056    21.712     7.511
    10   5 B        3.767     0.017    22.368     7.631
    11   5 B        3.849     0.001    22.713     7.681
    12   5 B        4.346     0.051    21.814     7.526
    13   5 B        4.682     0.087    21.186     7.416
    14   5 B        3.801     0.066    21.528     7.481
    15   5 B        3.829     0.059    21.654     7.501
    16   5 B        3.950     0.047    21.892     7.539
    17   5 B        4.552     0.057    21.716     7.508
    18   5 B        5.635     0.108    20.839     7.355
    19   5 B        4.742     0.029    22.206     7.593
    20   5 B        3.678     0.037    21.814     7.574
    21   5 B        4.781     0.081    21.285     7.434
    22   5 B        4.465     0.025    22.287     7.607
    23   5 B        3.855     0.044    21.926     7.547
    24   5 B        3.833     0.039    22.015     7.563
    25   5 B        3.834     0.006    22.612     7.665
    26   5 B        3.803    -0.023    23.147     7.757
    27   5 B        3.806     0.005    22.629     7.670
    28   5 B        4.226    -0.014    23.003     7.728
    29   5 B        3.802     0.012    22.498     7.648
    30   5 B        3.878     0.030    22.193     7.592
    31   5 B        2.888     0.099    19.755     7.418
    32   5 B        3.778     0.077    21.322     7.448
    33   5 B        3.898     0.053    21.777     7.520
    34   5 B        3.709     0.036    21.926     7.574
    35   5 B        3.761     0.028    22.169     7.598
    36   5 B        3.854     0.041    21.980     7.556
    37   5 B        4.286     0.043    21.960     7.551
    38   5 B        2.876     0.086    19.962     7.458
    39   5 B        3.771     0.078    21.306     7.446
    40   5 B        3.795     0.005    22.623     7.670
    41   5 B        2.925     0.006    21.288     7.699
    42   5 B        3.663     0.002    22.370     7.683
    43   5 B        2.926     0.019    21.066     7.659
    44   5 B        3.840    -0.003    22.786     7.694
    45   5 B        3.860     0.012    22.518     7.648
    46   5 B        2.912     0.002    21.365     7.713
    47   5 B        2.915     0.006    21.306     7.703
    48   5 B        2.842     0.138    19.167     7.311
    49   1 H        0.935    -0.143     7.311     4.228
    50   1 H        0.939    -0.111     5.945     3.812
    51   1 H        0.934    -0.138     7.078     4.160
    52   1 H        0.932    -0.156     8.018     4.428
    53   1 H        0.938    -0.137     7.028     4.145
    54   1 H        0.940    -0.148     7.598     4.309
    55   1 H        0.936    -0.124     6.460     3.974
    56   1 H        0.939    -0.157     8.033     4.431
    57   1 H        0.938    -0.136     7.003     4.137
    58   1 H        0.936    -0.146     7.467     4.272
    59   1 H        0.935    -0.144     7.390     4.251
    60   1 H        0.933    -0.158     8.092     4.448

 Mol. C6AA /au·bohr⁶  :      65632.278244
 Mol. C8AA /au·bohr⁸  :    2326964.420448
 Mol. α(0) /au        :        414.743398


Wiberg/Mayer (AO) data.
largest (>0.10) Wiberg bond orders for each atom

 ---------------------------------------------------------------------------
     #   Z sym  total        # sym  WBO       # sym  WBO       # sym  WBO
 ---------------------------------------------------------------------------
     1   5 B    3.291 --     8 B    1.211    60 H    0.943    52 H    0.940
     2   5 B    3.553 --     3 B    1.201     8 B    0.856     9 B    0.534
                            17 B    0.484    16 B    0.139
     3   5 B    3.581 --     2 B    1.201    10 B    1.121    18 B    0.467
                            17 B    0.453
     4   5 B    3.407 --     5 B    1.396    11 B    1.078    20 B    0.428
                            21 B    0.106
     5   5 B    3.572 --     4 B    1.396    12 B    1.121    21 B    0.619
     6   5 B    3.569 --     7 B    1.309    12 B    0.751    13 B    0.686
                            14 B    0.680
     7   5 B    3.396 --     6 B    1.309    56 H    0.966    14 B    0.827
                            13 B    0.128
     8   5 B    3.405 --     1 B    1.211     9 B    1.075     2 B    0.856
     9   5 B    3.512 --     8 B    1.075    15 B    0.817    16 B    0.705
                             2 B    0.534
    10   5 B    3.461 --     3 B    1.121    11 B    1.001    19 B    0.553
                            18 B    0.444
    11   5 B    3.545 --     4 B    1.078    10 B    1.001    20 B    0.645
                            19 B    0.611
    12   5 B    3.532 --     5 B    1.121     6 B    0.751    21 B    0.637
                            13 B    0.458    22 B    0.318
    13   5 B    3.625 --    14 B    0.900    23 B    0.694     6 B    0.686
                            22 B    0.573    12 B    0.458     7 B    0.128
    14   5 B    3.570 --    58 H    0.936    13 B    0.900     7 B    0.827
                             6 B    0.680
    15   5 B    3.574 --    55 H    0.923    25 B    0.837     9 B    0.817
                            16 B    0.804
    16   5 B    3.647 --    25 B    0.851    17 B    0.812    15 B    0.804
                             9 B    0.705     2 B    0.139
    17   5 B    3.561 --    16 B    0.812    26 B    0.799    18 B    0.648
                             2 B    0.484     3 B    0.453
    18   5 B    3.672 --    26 B    0.726    27 B    0.703    17 B    0.648
                            19 B    0.517     3 B    0.467    10 B    0.444
    19   5 B    3.580 --    20 B    0.948    27 B    0.725    11 B    0.611
                            10 B    0.553    18 B    0.517
    20   5 B    3.501 --    28 B    1.041    19 B    0.948    11 B    0.645
                             4 B    0.428
    21   5 B    3.620 --    29 B    0.682    22 B    0.644    28 B    0.642
                            12 B    0.637     5 B    0.619     4 B    0.106
    22   5 B    3.609 --    29 B    1.032    23 B    0.771    21 B    0.644
                            13 B    0.573    12 B    0.318
    23   5 B    3.673 --    30 B    0.830    24 B    0.804    22 B    0.771
                            13 B    0.694    31 B    0.161
    24   5 B    3.635 --    31 B    1.024    50 H    0.909    23 B    0.804
                            30 B    0.737
    25   5 B    3.583 --    33 B    0.879    16 B    0.851    15 B    0.837
                            32 B    0.725
    26   5 B    3.633 --    34 B    1.110    17 B    0.799    18 B    0.726
                            27 B    0.597
    27   5 B    3.518 --    35 B    1.091    19 B    0.725    18 B    0.703
                            26 B    0.597
    28   5 B    3.599 --    20 B    1.041    36 B    0.893    21 B    0.642
                            29 B    0.465    37 B    0.265
    29   5 B    3.611 --    22 B    1.032    37 B    0.965    21 B    0.682
                            28 B    0.465
    30   5 B    3.608 --    31 B    0.965    38 B    0.902    23 B    0.830
                            24 B    0.737
    31   5 B    3.444 --    24 B    1.024    54 H    0.969    30 B    0.965
                            38 B    0.182    23 B    0.161
    32   5 B    3.551 --    57 H    0.953    39 B    0.866    33 B    0.827
                            25 B    0.725
    33   5 B    3.639 --    25 B    0.879    39 B    0.876    32 B    0.827
                            40 B    0.763
    34   5 B    3.602 --    26 B    1.110    41 B    0.827    40 B    0.691
                            42 B    0.547
    35   5 B    3.608 --    27 B    1.091    43 B    0.864    44 B    0.696
                            42 B    0.587
    36   5 B    3.565 --    28 B    0.893    44 B    0.790    45 B    0.714
                            37 B    0.665
    37   5 B    3.580 --    29 B    0.965    46 B    0.754    45 B    0.682
                            36 B    0.665    28 B    0.265
    38   5 B    3.439 --    47 B    0.987    51 H    0.933    30 B    0.902
                            31 B    0.182    48 B    0.158
    39   5 B    3.546 --    53 H    0.955    33 B    0.876    32 B    0.866
                            40 B    0.661
    40   5 B    3.585 --    41 B    1.263    33 B    0.763    34 B    0.691
                            39 B    0.661
    41   5 B    3.550 --    40 B    1.263    42 B    1.115    34 B    0.827
    42   5 B    3.559 --    43 B    1.120    41 B    1.115    35 B    0.587
                            34 B    0.547
    43   5 B    3.527 --    44 B    1.160    42 B    1.120    35 B    0.864
    44   5 B    3.597 --    43 B    1.160    36 B    0.790    45 B    0.742
                            35 B    0.696
    45   5 B    3.589 --    46 B    1.197    44 B    0.742    36 B    0.714
                            37 B    0.682
    46   5 B    3.525 --    45 B    1.197    47 B    1.063    37 B    0.754
                            48 B    0.120
    47   5 B    3.403 --    48 B    1.071    46 B    1.063    38 B    0.987
    48   5 B    3.286 --    47 B    1.071    49 H    0.952    59 H    0.952
                            38 B    0.158    46 B    0.120
    49   1 H    0.977 --    48 B    0.952
    50   1 H    0.981 --    24 B    0.909
    51   1 H    0.979 --    38 B    0.933
    52   1 H    0.967 --     1 B    0.940
    53   1 H    0.978 --    39 B    0.955
    54   1 H    0.977 --    31 B    0.969
    55   1 H    0.976 --    15 B    0.923
    56   1 H    0.974 --     7 B    0.966
    57   1 H    0.976 --    32 B    0.953
    58   1 H    0.971 --    14 B    0.936
    59   1 H    0.976 --    48 B    0.952
    60   1 H    0.968 --     1 B    0.943
 ---------------------------------------------------------------------------

Topologies differ in total number of bonds
Writing topology from bond orders to xtbtopo.mol

molecular dipole:
                 x           y           z       tot (Debye)
 q only:       -1.503       0.491       0.137
   full:       -1.048       1.274       0.601       4.462
molecular quadrupole (traceless):
                xx          xy          yy          xz          yz          zz
 q only:     -103.199     -31.191      14.533       6.826      -8.914      88.666
  q+dip:      -50.232     -33.181      -8.847       2.548      -8.826      59.079
   full:      -67.786     -34.130     -18.914       4.630      -6.634      86.700

           -------------------------------------------------
          |                Geometry Summary                 |
           -------------------------------------------------

      molecular mass/u    :      531.0246354
   center of mass at/Å    :        0.0887691       0.0117677      -0.0105428
  moments of inertia/u·Å² :        0.3349864E+04   0.1309377E+05   0.1615340E+05
rotational constants/cm⁻¹ :        0.5032333E-02   0.1287455E-02   0.1043596E-02

 * 86 selected distances

     #   Z          #   Z                                           value/Å
     2   5 B        3   5 B                                       1.5237238
     4   5 B        5   5 B                                       1.5202050
     6   5 B        7   5 B                                       1.5120005
     1   5 B        8   5 B                                       1.5716803
     2   5 B        8   5 B                                       1.6072528
     8   5 B        9   5 B                                       1.5573788
     3   5 B       10   5 B                                       1.5497425
     4   5 B       11   5 B                                       1.5520617
    10   5 B       11   5 B                                       1.5770215
     5   5 B       12   5 B                                       1.5466665
     6   5 B       12   5 B                                       1.6280658
     6   5 B       13   5 B                                       1.6555235
     6   5 B       14   5 B                                       1.6992500
     7   5 B       14   5 B                                       1.6878513
    13   5 B       14   5 B                                       1.6374363
     9   5 B       15   5 B                                       1.6492509
     9   5 B       16   5 B                                       1.6611483
    15   5 B       16   5 B                                       1.6302400
    16   5 B       17   5 B                                       1.6543297
     3   5 B       18   5 B                                       1.7480123
    17   5 B       18   5 B                                       1.7015225
    10   5 B       19   5 B                                       1.7493789 (max)
    11   5 B       19   5 B                                       1.6913926
    18   5 B       19   5 B                                       1.7337517
    11   5 B       20   5 B                                       1.6985550
    19   5 B       20   5 B                                       1.5918978
     5   5 B       21   5 B                                       1.6734034
    12   5 B       21   5 B                                       1.6918310
    13   5 B       22   5 B                                       1.6850444
    21   5 B       22   5 B                                       1.6647853
    13   5 B       23   5 B                                       1.6746037
    22   5 B       23   5 B                                       1.6069926
    23   5 B       24   5 B                                       1.6656671
    15   5 B       25   5 B                                       1.6493696
    16   5 B       25   5 B                                       1.6131720
    17   5 B       26   5 B                                       1.6667644
    18   5 B       26   5 B                                       1.6123610
    18   5 B       27   5 B                                       1.6246748
    19   5 B       27   5 B                                       1.6519184
    20   5 B       28   5 B                                       1.6002274
    21   5 B       28   5 B                                       1.7045723
    21   5 B       29   5 B                                       1.6459977
    22   5 B       29   5 B                                       1.5522535
    23   5 B       30   5 B                                       1.6149771
    24   5 B       30   5 B                                       1.6398676
    24   5 B       31   5 B                                       1.6017269
    30   5 B       31   5 B                                       1.5755190
    25   5 B       33   5 B                                       1.5725782
    32   5 B       33   5 B                                       1.5950169
    26   5 B       34   5 B                                       1.5889866
    27   5 B       35   5 B                                       1.5847175
    28   5 B       36   5 B                                       1.6200632
    29   5 B       37   5 B                                       1.5888393
    36   5 B       37   5 B                                       1.7008876
    30   5 B       38   5 B                                       1.6100065
    32   5 B       39   5 B                                       1.7159867
    33   5 B       39   5 B                                       1.5796807
    33   5 B       40   5 B                                       1.6003836
    34   5 B       41   5 B                                       1.6052124
    40   5 B       41   5 B                                       1.5237846
    41   5 B       42   5 B                                       1.5420059
    35   5 B       43   5 B                                       1.5895243
    42   5 B       43   5 B                                       1.5430475
    35   5 B       44   5 B                                       1.7272870
    36   5 B       44   5 B                                       1.6333747
    43   5 B       44   5 B                                       1.5425199
    36   5 B       45   5 B                                       1.6239691
    37   5 B       45   5 B                                       1.6832451
    44   5 B       45   5 B                                       1.6533736
    37   5 B       46   5 B                                       1.6597649
    45   5 B       46   5 B                                       1.5355819
    38   5 B       47   5 B                                       1.6147559
    46   5 B       47   5 B                                       1.5738975
    47   5 B       48   5 B                                       1.5985725
    48   5 B       49   1 H                                       1.1820368
    24   5 B       50   1 H                                       1.1714514
    38   5 B       51   1 H                                       1.1846046
     1   5 B       52   1 H                                       1.1880470
    39   5 B       53   1 H                                       1.1726287
    31   5 B       54   1 H                                       1.1666307 (min)
    15   5 B       55   1 H                                       1.1775457
     7   5 B       56   1 H                                       1.1698209
    32   5 B       57   1 H                                       1.1731447
    14   5 B       58   1 H                                       1.1796176
    48   5 B       59   1 H                                       1.1806135
     1   5 B       60   1 H                                       1.1872946

 * 2 distinct bonds (by element types)

   Z      Z             #   av. dist./Å        max./Å        min./Å
   1 H    5 B          12     1.1777863     1.1880470     1.1666307
   5 B    5 B          74     1.6237586     1.7493789     1.5120005


optimized geometry written to: xtbopt.xyz


           -------------------------------------------------
          | TOTAL ENERGY              -64.267717178335 Eh   |
          | GRADIENT NORM               0.004809058652 Eh/α |
          | HOMO-LUMO GAP               0.324101189734 eV   |
           -------------------------------------------------
########################################################################
[WARNING] Runtime exception occurred
-2- restart_readRestart: Dimension missmatch in restart file.
-1- restart_readRestart: Number of electron missmatch in restart file.
########################################################################

------------------------------------------------------------------------
 * finished run on 2026/09/01 at 16:33:54.410     
------------------------------------------------------------------------
 total:
 * wall-time:     0 d,  0 h,  0 min, 17.351 sec
 *  cpu-time:     0 d,  0 h,  2 min, 48.531 sec
 * ratio c/w:     9.713 speedup
 SCF:
 * wall-time:     0 d,  0 h,  0 min,  0.518 sec
 *  cpu-time:     0 d,  0 h,  0 min,  5.203 sec
 * ratio c/w:    10.045 speedup
 ANC optimizer:
 * wall-time:     0 d,  0 h,  0 min, 16.784 sec
 *  cpu-time:     0 d,  0 h,  2 min, 42.828 sec
 * ratio c/w:     9.701 speedup

normal termination of xtb
