      -----------------------------------------------------------      
     |                   =====================                   |     
     |                           x T B                           |     
     |                   =====================                   |     
     |                         S. Grimme                         |     
     |          Mulliken Center for Theoretical Chemistry        |     
     |                    University of Bonn                     |     
      -----------------------------------------------------------      

   * xtb version 6.7.1pre (5071a88) compiled by 'Marcel@Raven' on 2024-07-23

   xtb is free software: you can redistribute it and/or modify it under
   the terms of the GNU Lesser General Public License as published by
   the Free Software Foundation, either version 3 of the License, or
   (at your option) any later version.
   
   xtb is distributed in the hope that it will be useful,
   but WITHOUT ANY WARRANTY; without even the implied warranty of
   MERCHANTABILITY or FITNESS FOR A PARTICULAR PURPOSE.  See the
   GNU Lesser General Public License for more details.
   
   Cite this work as:
   * C. Bannwarth, E. Caldeweyher, S. Ehlert, A. Hansen, P. Pracht,
     J. Seibert, S. Spicher, S. Grimme, WIREs Comput. Mol. Sci., 2020, 11,
     e01493. DOI: 10.1002/wcms.1493
   
   for GFN2-xTB:
   * C. Bannwarth, S. Ehlert and S. Grimme., J. Chem. Theory Comput., 2019,
     15, 1652-1671. DOI: 10.1021/acs.jctc.8b01176
   for GFN1-xTB:
   * S. Grimme, C. Bannwarth, P. Shushkov, J. Chem. Theory Comput., 2017,
     13, 1989-2009. DOI: 10.1021/acs.jctc.7b00118
   for GFN0-xTB:
   * P. Pracht, E. Caldeweyher, S. Ehlert, S. Grimme, ChemRxiv, 2019, preprint.
     DOI: 10.26434/chemrxiv.8326202.v1
   for GFN-FF:
   * S. Spicher and S. Grimme, Angew. Chem. Int. Ed., 2020, 59, 15665-15673.
     DOI: 10.1002/anie.202004239
   
   for ALPB and GBSA implicit solvation:
   * S. Ehlert, M. Stahn, S. Spicher, S. Grimme, J. Chem. Theory Comput.,
     2021, 17, 4250-4261. DOI: 10.1021/acs.jctc.1c00471
   
   for ddCOSMO and CPCM-X implicit solvation:
   * M. Stahn, S. Ehlert, S. Grimme, J. Phys. Chem. A,
     2023, XX, XXXX-XXXX. DOI: 10.1021/acs.jpca.3c04382
   
   for DFT-D4:
   * E. Caldeweyher, C. Bannwarth and S. Grimme, J. Chem. Phys., 2017,
     147, 034112. DOI: 10.1063/1.4993215
   * E. Caldeweyher, S. Ehlert, A. Hansen, H. Neugebauer, S. Spicher,
     C. Bannwarth and S. Grimme, J. Chem. Phys., 2019, 150, 154122.
     DOI: 10.1063/1.5090222
   * E. Caldeweyher, J.-M. Mewes, S. Ehlert and S. Grimme, Phys. Chem. Chem. Phys.
     2020, 22, 8499-8512. DOI: 10.1039/D0CP00502A
   
   for sTDA-xTB:
   * S. Grimme and C. Bannwarth, J. Chem. Phys., 2016, 145, 054103.
     DOI: 10.1063/1.4959605
   
   in the mass-spec context:
   * V. Asgeirsson, C. Bauer and S. Grimme, Chem. Sci., 2017, 8, 4879.
     DOI: 10.1039/c7sc00601b
   * J. Koopman and S. Grimme, ACS Omega 2019, 4, 12, 15120-15133.
     DOI: 10.1021/acsomega.9b02011
   
   for metadynamics refer to:
   * S. Grimme, J. Chem. Theory Comput., 2019, 155, 2847-2862
     DOI: 10.1021/acs.jctc.9b00143
   
   for SPH calculations refer to:
   * S. Spicher and S. Grimme, J. Chem. Theory Comput., 2021, 17, 1701-1714
     DOI: 10.1021/acs.jctc.0c01306
   
   for ONIOM refer to:
   * C. Plett, A. Katbashev, S. Ehlert, S. Grimme, M. Bursch,
     Phys. Chem. Chem. Phys., 2023, 25, 17860-17868. DOI: 10.1039/D3CP02178E
   
   for DIPRO refer to:
   * J. Kohn, N. Gildemeister, S. Grimme, D. Fazzi, A. Hansen,
     J. Chem. Phys., 2023, just accepted.
   
   for PTB refer to:
   * S. Grimme, M. Mueller, A. Hansen, J. Chem. Phys., 2023, 158, 124111.
     DOI: 10.1063/5.0137838
   
   with help from (in alphabetical order)
   P. Atkinson, C. Bannwarth, F. Bohle, G. Brandenburg, E. Caldeweyher
   M. Checinski, S. Dohm, S. Ehlert, S. Ehrlich, I. Gerasimov, C. Hölzer
   A. Katbashev, J. Kohn, J. Koopman, C. Lavigne, S. Lehtola, F. März, M. Müller,
   F. Musil, H. Neugebauer, J. Pisarek, C. Plett, P. Pracht, F. Pultar,
   J. Seibert, P. Shushkov, S. Spicher, M. Stahn, M. Steiner, T. Strunk,
   J. Stückrath, T. Rose, and J. Unsleber
   
 * started run on 2026/08/31 at 21:14:15.601     
   ID    Z sym.   atoms
    1    5 B      1-53
    2    1 H      54-60

           -------------------------------------------------
          |                Calculation Setup                |
           -------------------------------------------------

          program call               : "c:\Users\Andre\Proyectos doctorado\kras-pancreatic-gC3N4-ai\tools\xtb\xtb-6.7.1\bin\xtb.exe" "c:\Users\Andre\Proyectos doctorado\borophene-alzheimer-tau-ai\calculations\tau\B48H12_pristine.xyz" --opt tight --gfn 2 --chrg 0 --uhf 0 --iterations 500
          coordinate file            : c:\Users\Andre\Proyectos doctorado\borophene-alzheimer-tau-ai\calculations\tau\B48H12_pristine.xyz
          omp threads                :                    16


molecular fragmentation (1/2 indicates fragments):
111111111111111111111111111111111111111111111111111111221111
# atoms in fragment 1/2:    58     2
 fragment masses (1/2) :      578.02        2.02
CMA distance (Bohr)    :  16.068
constraining FC (au)   :  0.0500

           -------------------------------------------------
          |                 G F N 2 - x T B                 |
           -------------------------------------------------

        Reference                      10.1021/acs.jctc.8b01176
      * Hamiltonian:
        H0-scaling (s, p, d)           1.850000    2.230000    2.230000
        zeta-weighting                 0.500000
      * Dispersion:
        s8                             2.700000
        a1                             0.520000
        a2                             5.000000
        s9                             5.000000
      * Repulsion:
        kExp                           1.500000    1.000000
        rExp                           1.000000
      * Coulomb:
        alpha                          2.000000
        third order                    shell-resolved
        anisotropic                    true
        a3                             3.000000
        a5                             4.000000
        cn-shift                       1.200000
        cn-exp                         4.000000
        max-rad                        5.000000


          ...................................................
          :                      SETUP                      :
          :.................................................:
          :  # basis functions                 219          :
          :  # atomic orbitals                 219          :
          :  # shells                          113          :
          :  # electrons                       166          :
          :  max. iterations                   500          :
          :  Hamiltonian                  GFN2-xTB          :
          :  restarted?                      false          :
          :  GBSA solvation                  false          :
          :  PC potential                    false          :
          :  electronic temp.          300.0000000     K    :
          :  accuracy                    1.0000000          :
          :  -> integral cutoff          0.2500000E+02      :
          :  -> integral neglect         0.1000000E-07      :
          :  -> SCF convergence          0.1000000E-05 Eh   :
          :  -> wf. convergence          0.1000000E-03 e    :
          :  Broyden damping             0.4000000          :
          :  net charge                          0          :
          :  unpaired electrons                  0          :
          ...................................................

 iter      E             dE          RMSdq      gap      omega  full diag
   1    -65.0240523 -0.650241E+02  0.219E+01    0.29       0.0  T
   2     50.9594487  0.115984E+03  0.215E+01    0.03       1.0  T
   3    330.6739997  0.279715E+03  0.320E+01    0.24       1.0  T
   4     82.4520254 -0.248222E+03  0.203E+01    0.05       1.0  T
   5    163.6345736  0.811825E+02  0.246E+01    0.10       1.0  T
   6    -24.1076607 -0.187742E+03  0.146E+01    0.18       1.0  T
   7     -1.2630480  0.228446E+02  0.146E+01    0.13       1.0  T
   8    -39.2564901 -0.379934E+02  0.115E+01    0.08       1.0  T
   9    -54.0135202 -0.147570E+02  0.962E+00    0.14       1.0  T
  10    -62.3885243 -0.837500E+01  0.873E+00    0.12       1.0  T
  11    -63.7363158 -0.134779E+01  0.858E+00    0.06       1.0  T
  12    -65.5757606 -0.183944E+01  0.783E+00    0.10       1.0  T
  13    -67.0366010 -0.146084E+01  0.732E+00    0.17       1.0  T
  14    -65.5682844  0.146832E+01  0.750E+00    0.18       1.0  T
  15    -66.4885281 -0.920244E+00  0.723E+00    0.03       1.0  T
  16    -66.4224972  0.660309E-01  0.699E+00    0.05       1.0  T
  17    -66.2535406  0.168957E+00  0.688E+00    0.04       1.0  T
  18    -66.7063244 -0.452784E+00  0.625E+00    0.01       1.0  T
  19    -67.0323214 -0.325997E+00  0.592E+00    0.06       1.0  T
  20    -66.8406797  0.191642E+00  0.526E+00    0.03       1.0  T
  21    -67.0294744 -0.188795E+00  0.501E+00    0.07       1.0  T
  22    -67.3109825 -0.281508E+00  0.469E+00    0.17       1.0  T
  23    -67.2831803  0.278022E-01  0.435E+00    0.21       1.0  T
  24    -67.4185281 -0.135348E+00  0.415E+00    0.29       1.0  T
  25    -67.4220034 -0.347525E-02  0.390E+00    0.24       1.0  T
  26    -67.5019481 -0.799447E-01  0.325E+00    0.21       1.0  T
  27    -67.5505901 -0.486421E-01  0.315E+00    0.22       1.0  T
  28    -67.6349290 -0.843389E-01  0.283E+00    0.20       1.0  T
  29    -67.7512787 -0.116350E+00  0.237E+00    0.18       1.0  T
  30    -67.8088890 -0.576102E-01  0.210E+00    0.16       1.0  T
  31    -67.8499097 -0.410208E-01  0.196E+00    0.16       1.0  T
  32    -67.8979882 -0.480785E-01  0.175E+00    0.18       1.0  T
  33    -67.8740979  0.238904E-01  0.184E+00    0.04       1.0  T
  34    -67.8608489  0.132490E-01  0.189E+00    0.04       1.0  T
  35    -67.7190270  0.141822E+00  0.219E+00    0.10       1.0  T
  36    -67.7739764 -0.549494E-01  0.204E+00    0.07       1.0  T
  37    -67.9380063 -0.164030E+00  0.135E+00    0.01       1.0  T
  38    -68.0126294 -0.746231E-01  0.924E-01    0.03       1.0  T
  39    -67.9989512  0.136782E-01  0.908E-01    0.03       1.0  T
  40    -67.9667789  0.321723E-01  0.100E+00    0.01       1.0  T
  41    -67.8307424  0.136036E+00  0.132E+00    0.04       1.0  T
  42    -67.8567999 -0.260575E-01  0.122E+00    0.03       1.0  T
  43    -67.8949976 -0.381977E-01  0.108E+00    0.02       1.0  T
  44    -68.0173506 -0.122353E+00  0.590E-01    0.03       1.0  T
  45    -68.0373239 -0.199734E-01  0.504E-01    0.04       1.0  T
  46    -68.0275439  0.978000E-02  0.545E-01    0.03       1.0  T
  47    -68.0090860  0.184579E-01  0.693E-01    0.02       1.0  T
  48    -68.0199892 -0.109032E-01  0.649E-01    0.02       1.0  T
  49    -68.0202212 -0.231988E-03  0.662E-01    0.02       1.0  T
  50    -68.0386523 -0.184312E-01  0.567E-01    0.03       1.0  T
  51    -68.0575996 -0.189472E-01  0.399E-01    0.05       1.0  T
  52    -68.0624765 -0.487690E-02  0.325E-01    0.05       1.0  T
  53    -68.0612090  0.126749E-02  0.342E-01    0.05       1.0  T
  54    -68.0659517 -0.474270E-02  0.276E-01    0.06       1.0  T
  55    -68.0699814 -0.402975E-02  0.212E-01    0.07       1.0  T
  56    -68.0736175 -0.363605E-02  0.633E-02    0.09       1.0  T
  57    -68.0736856 -0.681568E-04  0.596E-02    0.09       1.0  T
  58    -68.0737365 -0.508877E-04  0.528E-02    0.09       1.0  T
  59    -68.0738092 -0.727078E-04  0.421E-02    0.09       1.0  T
  60    -68.0738504 -0.412079E-04  0.383E-02    0.09       1.0  T
  61    -68.0739044 -0.539254E-04  0.312E-02    0.09       1.0  T
  62    -68.0739629 -0.585716E-04  0.191E-02    0.09       1.0  T
  63    -68.0739462  0.167471E-04  0.223E-02    0.09       1.0  T
  64    -68.0739661 -0.199266E-04  0.176E-02    0.09       1.0  T
  65    -68.0739752 -0.907935E-05  0.137E-02    0.09       1.0  T
  66    -68.0739882 -0.129764E-04  0.818E-03    0.09       1.6  T
  67    -68.0739915 -0.336883E-05  0.630E-03    0.09       2.0  T
  68    -68.0739935 -0.195011E-05  0.513E-03    0.09       2.5  T
  69    -68.0739949 -0.137853E-05  0.452E-03    0.09       2.9  T
  70    -68.0739967 -0.179110E-05  0.335E-03    0.09       3.9  T
  71    -68.0739963  0.368377E-06  0.344E-03    0.09       3.8  T
  72    -68.0739971 -0.858042E-06  0.248E-03    0.09       5.2  T
  73    -68.0739968  0.299460E-06  0.285E-03    0.09       4.5  T
  74    -68.0739973 -0.483706E-06  0.173E-03    0.09       7.5  T
  75    -68.0739975 -0.162583E-06  0.109E-03    0.09      11.8  T
  76    -68.0739975 -0.176130E-07  0.955E-04    0.09      13.5  T
  77    -68.0739976 -0.909206E-07  0.604E-04    0.09      21.4  T

   *** convergence criteria satisfied after 77 iterations ***

         #    Occupation            Energy/Eh            Energy/eV
      -------------------------------------------------------------
         1        2.0000           -0.4229983             -11.5104
       ...           ...                  ...                  ...
        77        2.0000           -0.2169829              -5.9044
        78        2.0000           -0.2169096              -5.9024
        79        2.0000           -0.2122228              -5.7749
        80        2.0000           -0.2113105              -5.7501
        81        1.9999           -0.2063904              -5.6162
        82        1.9602           -0.2008933              -5.4666
        83        1.6512           -0.1986668              -5.4060 (HOMO)
        84        0.2537           -0.1953572              -5.3159 (LUMO)
        85        0.1348           -0.1946942              -5.2979
        86        0.0001           -0.1876086              -5.1051
        87        0.0001           -0.1872801              -5.0961
        88        0.0000           -0.1868400              -5.0842
       ...           ...                  ...                  ...
       219                          1.6538110              45.0025
      -------------------------------------------------------------
                  HL-Gap            0.0033097 Eh            0.0901 eV
             Fermi-level           -0.1971899 Eh           -5.3658 eV

 SCC (total)                   0 d,  0 h,  0 min,  0.711 sec
 SCC setup                      ...        0 min,  0.000 sec (  0.000%)
 Dispersion                     ...        0 min,  0.001 sec (  0.141%)
 classical contributions        ...        0 min,  0.001 sec (  0.141%)
 integral evaluation            ...        0 min,  0.003 sec (  0.422%)
 iterations                     ...        0 min,  0.695 sec ( 97.750%)
 molecular gradient             ...        0 min,  0.010 sec (  1.406%)
 printout                       ...        0 min,  0.001 sec (  0.141%)

         :::::::::::::::::::::::::::::::::::::::::::::::::::::
         ::                     SUMMARY                     ::
         :::::::::::::::::::::::::::::::::::::::::::::::::::::
         :: total energy             -66.663363809584 Eh    ::
         :: gradient norm              0.432376130904 Eh/a0 ::
         :: HOMO-LUMO gap              0.090060715123 eV    ::
         ::.................................................::
         :: SCC energy               -68.074560089454 Eh    ::
         :: -> isotropic ES            0.379796469655 Eh    ::
         :: -> anisotropic ES          0.002890041687 Eh    ::
         :: -> anisotropic XC         -0.076226671974 Eh    ::
         :: -> dispersion             -0.077996829893 Eh    ::
         :: repulsion energy           1.411196279870 Eh    ::
         :: add. restraining           0.000000000000 Eh    ::
         :: total charge               0.000000000001 e     ::
         :::::::::::::::::::::::::::::::::::::::::::::::::::::

      ----------------------------------------------------------- 
     |                   =====================                   |
     |                        A N C O P T                        |
     |                   =====================                   |
     |               Approximate Normal Coordinate               |
     |                Rational Function Optimizer                |
      ----------------------------------------------------------- 
      ----------------------------------------------------------- 
     |                   =====================                   |
     |                        A N C O P T                        |
     |                   =====================                   |
     |               Approximate Normal Coordinate               |
     |                Rational Function Optimizer                |
      ----------------------------------------------------------- 

          ...................................................
          :                      SETUP                      :
          :.................................................:
          :   optimization level             tight          :
          :   max. optcycles                   300          :
          :   ANC micro-cycles                  20          :
          :   degrees of freedom               174          :
          :.................................................:
          :   RF solver                   davidson          :
          :   write xtbopt.log                true          :
          :   linear?                        false          :
          :   energy convergence         0.1000000E-05 Eh   :
          :   grad. convergence          0.8000000E-03 Eh/α :
          :   maxmium RF displ.          1.0000000          :
          :   Hlow (freq-cutoff)         0.1000000E-01      :
          :   Hmax (freq-cutoff)         5.0000000          :
          :   S6 in model hess.         20.0000000          :
          ...................................................

generating ANC from exact Hessian ...
Using Lindh-Hessian (1995)
 Shifting diagonal of input Hessian by   1.050337987897688E-002
 Lowest  eigenvalues of input Hessian
    0.010000    0.010036    0.010182    0.010237    0.010251    0.010304
    0.000000    0.010374    0.000000    0.000000    0.000000    0.000000
    0.000000    0.010851    0.011617    0.011717    0.011930    0.012470
 Highest eigenvalues
    1.675780    1.680889    1.685747    1.694136    1.706763    1.728255
 

........................................................................
.............................. CYCLE    1 ..............................
........................................................................

 iter      E             dE          RMSdq      gap      omega  full diag
   1    -68.0739976 -0.680740E+02  0.535E-04    0.09       0.0  T
   2    -68.0739967  0.906820E-06  0.265E-03    0.09       4.9  T
   3    -68.0739974 -0.642488E-06  0.155E-03    0.09       8.3  T
   4    -68.0739974 -0.676889E-07  0.148E-03    0.09       8.7  T
   5    -68.0739976 -0.121648E-06  0.855E-04    0.09      15.1  T
   6    -68.0739971  0.499097E-06  0.207E-03    0.09       6.2  T
   7    -68.0739976 -0.528024E-06  0.651E-04    0.09      19.8  T
     SCC iter.                  ...        0 min,  0.057 sec
     gradient                   ...        0 min,  0.009 sec
 * total energy  :   -66.6633638 Eh     change        0.2292494E-07 Eh
   gradient norm :     0.4323724 Eh/α   predicted     0.0000000E+00 (-100.00%)
   displ. norm   :     0.5631017 α      lambda       -0.2109617E+00
   maximum displ.:     0.1940221 α      in ANC's #48, #44, #121, ...

........................................................................
.............................. CYCLE    2 ..............................
........................................................................

 iter      E             dE          RMSdq      gap      omega  full diag
   1    -68.0324127 -0.680324E+02  0.713E-01    0.16       0.0  T
   2    -67.1057936  0.926619E+00  0.262E+00    0.02       1.0  T
   3    -67.9431354 -0.837342E+00  0.900E-01    0.20       1.0  T
   4    -67.9357701  0.736521E-02  0.107E+00    0.10       1.0  T
   5    -67.7116327  0.224137E+00  0.189E+00    0.17       1.0  T
   6    -67.9842759 -0.272643E+00  0.837E-01    0.06       1.0  T
   7    -67.9663113  0.179646E-01  0.883E-01    0.06       1.0  T
   8    -68.0118932 -0.455819E-01  0.454E-01    0.07       1.0  T
   9    -68.0437152 -0.318220E-01  0.234E-01    0.12       1.0  T
  10    -68.0414906  0.222464E-02  0.287E-01    0.14       1.0  T
  11    -68.0436433 -0.215274E-02  0.274E-01    0.15       1.0  T
  12    -68.0435147  0.128566E-03  0.252E-01    0.14       1.0  T
  13    -68.0467591 -0.324440E-02  0.189E-01    0.14       1.0  T
  14    -68.0484094 -0.165024E-02  0.119E-01    0.13       1.0  T
  15    -68.0499298 -0.152039E-02  0.690E-02    0.11       1.0  T
  16    -68.0499962 -0.664691E-04  0.651E-02    0.11       1.0  T
  17    -68.0499814  0.148203E-04  0.641E-02    0.11       1.0  T
  18    -68.0499947 -0.132380E-04  0.546E-02    0.11       1.0  T
  19    -68.0500762 -0.815728E-04  0.307E-02    0.11       1.0  T
  20    -68.0501177 -0.414352E-04  0.139E-02    0.11       1.0  T
  21    -68.0501123  0.533814E-05  0.160E-02    0.11       1.0  T
  22    -68.0501095  0.278682E-05  0.170E-02    0.11       1.0  T
  23    -68.0501133 -0.377273E-05  0.150E-02    0.11       1.0  T
  24    -68.0501268 -0.134584E-04  0.541E-03    0.11       2.4  T
  25    -68.0501265  0.283737E-06  0.637E-03    0.11       2.0  T
  26    -68.0501280 -0.146919E-05  0.499E-03    0.11       2.6  T
  27    -68.0501284 -0.425882E-06  0.430E-03    0.11       3.0  T
  28    -68.0501291 -0.662080E-06  0.311E-03    0.11       4.1  T
  29    -68.0501296 -0.504556E-06  0.152E-03    0.11       8.5  T
  30    -68.0501297 -0.138081E-06  0.768E-04    0.11      16.8  T
  31    -68.0501297 -0.241591E-07  0.453E-04    0.11      28.5  T
     SCC iter.                  ...        0 min,  0.258 sec
     gradient                   ...        0 min,  0.008 sec
 * total energy  :   -66.7612969 Eh     change       -0.9793308E-01 Eh
   gradient norm :     0.2323415 Eh/α   predicted    -0.1389306E+00 (  41.86%)
   displ. norm   :     0.7417685 α      lambda       -0.1544128E+00
   maximum displ.:     0.2588763 α      in ANC's #116, #108, #121, ...

........................................................................
.............................. CYCLE    3 ..............................
........................................................................

 iter      E             dE          RMSdq      gap      omega  full diag
   1    -68.1396646 -0.681397E+02  0.885E-01    0.14       0.0  T
   2    -67.7955970  0.344068E+00  0.178E+00    0.04       1.0  T
   3    -67.8867263 -0.911293E-01  0.138E+00    0.22       1.0  T
   4    -67.8603408  0.263855E-01  0.180E+00    0.19       1.0  T
   5    -67.9720927 -0.111752E+00  0.146E+00    0.15       1.0  T
   6    -67.9410389  0.310538E-01  0.109E+00    0.15       1.0  T
   7    -68.0340889 -0.930500E-01  0.754E-01    0.08       1.0  T
   8    -68.1369905 -0.102902E+00  0.450E-01    0.18       1.0  T
   9    -68.1401889 -0.319840E-02  0.374E-01    0.12       1.0  T
  10    -68.1419476 -0.175869E-02  0.372E-01    0.18       1.0  T
  11    -68.1454649 -0.351735E-02  0.327E-01    0.15       1.0  T
  12    -68.1482163 -0.275133E-02  0.242E-01    0.17       1.0  T
  13    -68.1510348 -0.281850E-02  0.143E-01    0.14       1.0  T
  14    -68.1514440 -0.409198E-03  0.112E-01    0.15       1.0  T
  15    -68.1520518 -0.607872E-03  0.816E-02    0.13       1.0  T
  16    -68.1522361 -0.184240E-03  0.678E-02    0.14       1.0  T
  17    -68.1522929 -0.568471E-04  0.529E-02    0.14       1.0  T
  18    -68.1524352 -0.142289E-03  0.389E-02    0.13       1.0  T
  19    -68.1524410 -0.575208E-05  0.356E-02    0.13       1.0  T
  20    -68.1524883 -0.473367E-04  0.281E-02    0.13       1.0  T
  21    -68.1525242 -0.358932E-04  0.174E-02    0.13       1.0  T
  22    -68.1525480 -0.237992E-04  0.636E-03    0.13       2.0  T
  23    -68.1525465  0.153739E-05  0.833E-03    0.13       1.5  T
  24    -68.1525431  0.335941E-05  0.104E-02    0.13       1.2  T
  25    -68.1525462 -0.313602E-05  0.820E-03    0.13       1.6  T
  26    -68.1525513 -0.511573E-05  0.235E-03    0.13       5.5  T
  27    -68.1525517 -0.311760E-06  0.146E-03    0.13       8.8  T
  28    -68.1525517 -0.401962E-07  0.130E-03    0.13      10.0  T
  29    -68.1525518 -0.576499E-07  0.974E-04    0.13      13.3  T
  30    -68.1525518 -0.476802E-07  0.568E-04    0.13      22.7  T
     SCC iter.                  ...        0 min,  0.255 sec
     gradient                   ...        0 min,  0.008 sec
 * total energy  :   -66.8827992 Eh     change       -0.1215023E+00 Eh
   gradient norm :     0.1886621 Eh/α   predicted    -0.1196923E+00 (  -1.49%)
   displ. norm   :     0.7225560 α      lambda       -0.1044622E+00
   maximum displ.:     0.2363942 α      in ANC's #48, #44, #108, ...

........................................................................
.............................. CYCLE    4 ..............................
........................................................................

 iter      E             dE          RMSdq      gap      omega  full diag
   1    -68.2107512 -0.682108E+02  0.740E-01    0.07       0.0  T
   2    -66.9777381  0.123301E+01  0.320E+00    0.21       1.0  T
   3    -68.0662816 -0.108854E+01  0.104E+00    0.05       1.0  T
   4    -68.0313673  0.349142E-01  0.104E+00    0.04       1.0  T
   5    -67.9604212  0.709462E-01  0.169E+00    0.23       1.0  T
   6    -67.8920802  0.683409E-01  0.182E+00    0.18       1.0  T
   7    -68.1747833 -0.282703E+00  0.654E-01    0.08       1.0  T
   8    -68.1998754 -0.250921E-01  0.513E-01    0.17       1.0  T
   9    -68.2095660 -0.969058E-02  0.408E-01    0.13       1.0  T
  10    -68.2112283 -0.166228E-02  0.427E-01    0.14       1.0  T
  11    -68.2101343  0.109400E-02  0.375E-01    0.12       1.0  T
  12    -68.2221749 -0.120406E-01  0.277E-01    0.11       1.0  T
  13    -68.2224546 -0.279671E-03  0.252E-01    0.09       1.0  T
  14    -68.2241889 -0.173434E-02  0.240E-01    0.09       1.0  T
  15    -68.2237241  0.464840E-03  0.240E-01    0.09       1.0  T
  16    -68.2256186 -0.189449E-02  0.221E-01    0.10       1.0  T
  17    -68.2265358 -0.917288E-03  0.185E-01    0.10       1.0  T
  18    -68.2280735 -0.153768E-02  0.136E-01    0.10       1.0  T
  19    -68.2282129 -0.139370E-03  0.128E-01    0.10       1.0  T
  20    -68.2281604  0.525233E-04  0.130E-01    0.10       1.0  T
  21    -68.2282168 -0.564552E-04  0.127E-01    0.10       1.0  T
  22    -68.2289069 -0.690111E-03  0.843E-02    0.10       1.0  T
  23    -68.2294983 -0.591342E-03  0.284E-02    0.10       1.0  T
  24    -68.2295396 -0.412787E-04  0.168E-02    0.11       1.0  T
  25    -68.2295442 -0.465290E-05  0.159E-02    0.11       1.0  T
  26    -68.2295490 -0.476312E-05  0.130E-02    0.11       1.0  T
  27    -68.2295585 -0.956374E-05  0.726E-03    0.11       1.8  T
  28    -68.2295588 -0.278696E-06  0.611E-03    0.10       2.1  T
  29    -68.2295605 -0.168221E-05  0.418E-03    0.10       3.1  T
  30    -68.2295610 -0.482296E-06  0.356E-03    0.11       3.6  T
  31    -68.2295614 -0.427416E-06  0.292E-03    0.11       4.4  T
  32    -68.2295617 -0.333141E-06  0.213E-03    0.11       6.1  T
  33    -68.2295620 -0.244364E-06  0.526E-04    0.11      24.6  T
  34    -68.2295620 -0.638505E-08  0.415E-04    0.11      31.1  T
     SCC iter.                  ...        0 min,  0.299 sec
     gradient                   ...        0 min,  0.009 sec
 * total energy  :   -66.9702779 Eh     change       -0.8747873E-01 Eh
   gradient norm :     0.1594656 Eh/α   predicted    -0.7950034E-01 (  -9.12%)
   displ. norm   :     0.7219484 α      lambda       -0.8343526E-01
   maximum displ.:     0.2241669 α      in ANC's #48, #108, #44, ...

........................................................................
.............................. CYCLE    5 ..............................
........................................................................

 iter      E             dE          RMSdq      gap      omega  full diag
   1    -68.2049973 -0.682050E+02  0.120E+00    0.02       0.0  T
   2    -63.8468798  0.435812E+01  0.457E+00    0.04       1.0  T
   3    -67.6473016 -0.380042E+01  0.196E+00    0.05       1.0  T
   4    -67.8465566 -0.199255E+00  0.173E+00    0.06       1.0  T
   5    -68.0095948 -0.163038E+00  0.151E+00    0.08       1.0  T
   6    -67.6920255  0.317569E+00  0.179E+00    0.05       1.0  T
   7    -68.1643894 -0.472364E+00  0.151E+00    0.15       1.0  T
   8    -68.2016515 -0.372621E-01  0.122E+00    0.14       1.0  T
   9    -68.1449628  0.566888E-01  0.157E+00    0.18       1.0  T
  10    -68.2238461 -0.788833E-01  0.119E+00    0.18       1.0  T
  11    -68.2289927 -0.514660E-02  0.116E+00    0.17       1.0  T
  12    -68.2277084  0.128427E-02  0.114E+00    0.17       1.0  T
  13    -68.2334924 -0.578404E-02  0.107E+00    0.15       1.0  T
  14    -68.2399804 -0.648795E-02  0.859E-01    0.14       1.0  T
  15    -68.2597142 -0.197338E-01  0.494E-01    0.12       1.0  T
  16    -68.2750368 -0.153226E-01  0.350E-01    0.10       1.0  T
  17    -68.2794458 -0.440903E-02  0.304E-01    0.09       1.0  T
  18    -68.2854586 -0.601277E-02  0.279E-01    0.08       1.0  T
  19    -68.2880047 -0.254611E-02  0.234E-01    0.06       1.0  T
  20    -68.2887726 -0.767896E-03  0.216E-01    0.06       1.0  T
  21    -68.2892516 -0.478982E-03  0.192E-01    0.06       1.0  T
  22    -68.2913801 -0.212855E-02  0.165E-01    0.07       1.0  T
  23    -68.2916580 -0.277876E-03  0.172E-01    0.07       1.0  T
  24    -68.2921779 -0.519924E-03  0.136E-01    0.07       1.0  T
  25    -68.2926302 -0.452268E-03  0.740E-02    0.06       1.0  T
  26    -68.2929351 -0.304935E-03  0.458E-02    0.06       1.0  T
  27    -68.2929577 -0.226199E-04  0.329E-02    0.06       1.0  T
  28    -68.2929939 -0.361983E-04  0.263E-02    0.06       1.0  T
  29    -68.2930391 -0.451444E-04  0.166E-02    0.06       1.0  T
  30    -68.2930469 -0.778191E-05  0.134E-02    0.06       1.0  T
  31    -68.2930623 -0.154043E-04  0.944E-03    0.06       1.4  T
  32    -68.2930668 -0.455293E-05  0.875E-03    0.06       1.5  T
  33    -68.2930698 -0.292570E-05  0.871E-03    0.06       1.5  T
  34    -68.2930749 -0.510497E-05  0.446E-03    0.06       2.9  T
  35    -68.2930753 -0.441073E-06  0.410E-03    0.06       3.2  T
  36    -68.2930756 -0.327369E-06  0.286E-03    0.06       4.5  T
  37    -68.2930760 -0.357843E-06  0.141E-03    0.06       9.1  T
  38    -68.2930761 -0.117248E-06  0.535E-04    0.06      24.1  T
  39    -68.2930761 -0.590285E-08  0.464E-04    0.06      27.8  T
     SCC iter.                  ...        0 min,  0.317 sec
     gradient                   ...        0 min,  0.008 sec
 * total energy  :   -67.0399973 Eh     change       -0.6971937E-01 Eh
   gradient norm :     0.1336250 Eh/α   predicted    -0.6346124E-01 (  -8.98%)
   displ. norm   :     0.7033707 α      lambda       -0.6657301E-01
   maximum displ.:     0.2203901 α      in ANC's #28, #108, #48, ...

........................................................................
.............................. CYCLE    6 ..............................
........................................................................

 iter      E             dE          RMSdq      gap      omega  full diag
   1    -68.2241123 -0.682241E+02  0.150E+00    0.08       0.0  T
   2    -62.0119185  0.621219E+01  0.533E+00    0.08       1.0  T
   3    -65.9538654 -0.394195E+01  0.318E+00    0.25       1.0  T
   4    -67.6548654 -0.170100E+01  0.229E+00    0.21       1.0  T
   5    -67.8841835 -0.229318E+00  0.204E+00    0.22       1.0  T
   6    -67.9864863 -0.102303E+00  0.171E+00    0.00       1.0  T
   7    -67.8745942  0.111892E+00  0.183E+00    0.07       1.0  T
   8    -67.6769707  0.197624E+00  0.240E+00    0.07       1.0  T
   9    -67.9937212 -0.316751E+00  0.158E+00    0.06       1.0  T
  10    -68.1223581 -0.128637E+00  0.114E+00    0.02       1.0  T
  11    -68.2835813 -0.161223E+00  0.698E-01    0.03       1.0  T
  12    -68.2823528  0.122855E-02  0.678E-01    0.03       1.0  T
  13    -68.2849986 -0.264578E-02  0.683E-01    0.03       1.0  T
  14    -68.2900152 -0.501661E-02  0.820E-01    0.05       1.0  T
  15    -68.2920795 -0.206432E-02  0.825E-01    0.05       1.0  T
  16    -68.3156586 -0.235791E-01  0.474E-01    0.03       1.0  T
  17    -68.2860818  0.295768E-01  0.838E-01    0.02       1.0  T
  18    -68.2992453 -0.131635E-01  0.734E-01    0.02       1.0  T
  19    -68.3011890 -0.194375E-02  0.715E-01    0.02       1.0  T
  20    -68.3148955 -0.137064E-01  0.587E-01    0.02       1.0  T
  21    -68.3317773 -0.168818E-01  0.212E-01    0.01       1.0  T
  22    -68.3174111  0.143662E-01  0.495E-01    0.01       1.0  T
  23    -68.3247605 -0.734937E-02  0.352E-01    0.01       1.0  T
  24    -68.3235722  0.118835E-02  0.372E-01    0.01       1.0  T
  25    -68.3269973 -0.342512E-02  0.297E-01    0.01       1.0  T
  26    -68.3313804 -0.438307E-02  0.146E-01    0.01       1.0  T
  27    -68.3329426 -0.156225E-02  0.652E-02    0.01       1.0  T
  28    -68.3328566  0.860222E-04  0.728E-02    0.01       1.0  T
  29    -68.3331176 -0.261014E-03  0.409E-02    0.01       1.0  T
  30    -68.3331483 -0.307318E-04  0.344E-02    0.01       1.0  T
  31    -68.3331641 -0.157583E-04  0.282E-02    0.01       1.0  T
  32    -68.3331747 -0.106609E-04  0.154E-02    0.01       1.0  T
  33    -68.3331839 -0.912014E-05  0.135E-02    0.01       1.0  T
  34    -68.3331950 -0.111127E-04  0.958E-03    0.01       1.3  T
  35    -68.3331923  0.272065E-05  0.122E-02    0.01       1.1  T
  36    -68.3331960 -0.370134E-05  0.857E-03    0.01       1.5  T
  37    -68.3331994 -0.344962E-05  0.415E-03    0.01       3.1  T
  38    -68.3331989  0.516386E-06  0.516E-03    0.01       2.5  T
  39    -68.3332001 -0.117120E-05  0.149E-03    0.01       8.7  T
  40    -68.3331997  0.366409E-06  0.275E-03    0.01       4.7  T
  41    -68.3331997 -0.369385E-07  0.253E-03    0.01       5.1  T
  42    -68.3331998 -0.491099E-07  0.233E-03    0.01       5.5  T
  43    -68.3332001 -0.274046E-06  0.107E-03    0.01      12.1  T
  44    -68.3332001 -0.439919E-07  0.756E-04    0.01      17.1  T
  45    -68.3332001 -0.178113E-07  0.579E-04    0.01      22.3  T
     SCC iter.                  ...        0 min,  0.367 sec
     gradient                   ...        0 min,  0.009 sec
 * total energy  :   -67.0948428 Eh     change       -0.5484552E-01 Eh
   gradient norm :     0.1054391 Eh/α   predicted    -0.4975434E-01 (  -9.28%)
   displ. norm   :     0.6702217 α      lambda       -0.5055502E-01
   maximum displ.:     0.2378466 α      in ANC's #28, #67, #108, ...

........................................................................
.............................. CYCLE    7 ..............................
........................................................................

 iter      E             dE          RMSdq      gap      omega  full diag
   1    -68.2863116 -0.682863E+02  0.132E+00    0.08       0.0  T
   2    -63.6796437  0.460667E+01  0.500E+00    0.06       1.0  T
   3    -67.2564427 -0.357680E+01  0.230E+00    0.01       1.0  T
   4    -67.7051245 -0.448682E+00  0.212E+00    0.11       1.0  T
   5    -68.2383225 -0.533198E+00  0.908E-01    0.01       1.0  T
   6    -67.4488567  0.789466E+00  0.274E+00    0.07       1.0  T
   7    -67.8939829 -0.445126E+00  0.196E+00    0.06       1.0  T
   8    -68.1346689 -0.240686E+00  0.104E+00    0.03       1.0  T
   9    -68.2998240 -0.165155E+00  0.743E-01    0.04       1.0  T
  10    -68.2184721  0.813519E-01  0.118E+00    0.09       1.0  T
  11    -68.2251803 -0.670817E-02  0.122E+00    0.10       1.0  T
  12    -68.2170502  0.813008E-02  0.121E+00    0.12       1.0  T
  13    -68.2254323 -0.838208E-02  0.118E+00    0.11       1.0  T
  14    -68.2169195  0.851276E-02  0.128E+00    0.11       1.0  T
  15    -68.2761823 -0.592628E-01  0.913E-01    0.07       1.0  T
  16    -68.2814408 -0.525848E-02  0.876E-01    0.07       1.0  T
  17    -68.2811236  0.317227E-03  0.880E-01    0.07       1.0  T
  18    -68.3093161 -0.281926E-01  0.682E-01    0.05       1.0  T
  19    -68.3404375 -0.311214E-01  0.385E-01    0.02       1.0  T
  20    -68.3256896  0.147479E-01  0.528E-01    0.01       1.0  T
  21    -68.3323317 -0.664212E-02  0.450E-01    0.01       1.0  T
  22    -68.3314890  0.842655E-03  0.456E-01    0.01       1.0  T
  23    -68.3469602 -0.154712E-01  0.211E-01    0.03       1.0  T
  24    -68.3455759  0.138430E-02  0.238E-01    0.03       1.0  T
  25    -68.3483514 -0.277550E-02  0.149E-01    0.03       1.0  T
  26    -68.3494933 -0.114192E-02  0.747E-02    0.03       1.0  T
  27    -68.3492998  0.193530E-03  0.800E-02    0.02       1.0  T
  28    -68.3497135 -0.413700E-03  0.388E-02    0.02       1.0  T
  29    -68.3497738 -0.602573E-04  0.285E-02    0.02       1.0  T
  30    -68.3497864 -0.125889E-04  0.262E-02    0.02       1.0  T
  31    -68.3498232 -0.368310E-04  0.152E-02    0.03       1.0  T
  32    -68.3498369 -0.136916E-04  0.808E-03    0.03       1.6  T
  33    -68.3498407 -0.386573E-05  0.351E-03    0.03       3.7  T
  34    -68.3498410 -0.293642E-06  0.261E-03    0.03       5.0  T
  35    -68.3498412 -0.125185E-06  0.188E-03    0.03       6.9  T
  36    -68.3498414 -0.220574E-06  0.106E-03    0.03      12.2  T
  37    -68.3498415 -0.757507E-07  0.542E-04    0.03      23.8  T
  38    -68.3498415 -0.166159E-07  0.339E-04    0.03      38.1  T
     SCC iter.                  ...        0 min,  0.329 sec
     gradient                   ...        0 min,  0.009 sec
 * total energy  :   -67.1347021 Eh     change       -0.3985925E-01 Eh
   gradient norm :     0.0762635 Eh/α   predicted    -0.3663211E-01 (  -8.10%)
   displ. norm   :     0.6199042 α      lambda       -0.3324607E-01
   maximum displ.:     0.2616113 α      in ANC's #28, #41, #67, ...

........................................................................
.............................. CYCLE    8 ..............................
........................................................................

 iter      E             dE          RMSdq      gap      omega  full diag
   1    -68.3022772 -0.683023E+02  0.107E+00    0.11       0.0  T
   2    -64.4768010  0.382548E+01  0.480E+00    0.03       1.0  T
   3    -67.9754484 -0.349865E+01  0.148E+00    0.09       1.0  T
   4    -67.7329803  0.242468E+00  0.207E+00    0.08       1.0  T
   5    -68.2263499 -0.493370E+00  0.819E-01    0.00       1.0  T
   6    -68.0324202  0.193930E+00  0.169E+00    0.03       1.0  T
   7    -68.0855464 -0.531262E-01  0.157E+00    0.05       1.0  T
   8    -68.1247080 -0.391616E-01  0.128E+00    0.06       1.0  T
   9    -68.2027614 -0.780534E-01  0.104E+00    0.03       1.0  T
  10    -68.3207618 -0.118000E+00  0.550E-01    0.06       1.0  T
  11    -68.2536795  0.670823E-01  0.964E-01    0.12       1.0  T
  12    -68.2789513 -0.252719E-01  0.859E-01    0.10       1.0  T
  13    -68.2788190  0.132279E-03  0.858E-01    0.10       1.0  T
  14    -68.2819654 -0.314631E-02  0.841E-01    0.10       1.0  T
  15    -68.2840213 -0.205593E-02  0.825E-01    0.10       1.0  T
  16    -68.3143894 -0.303681E-01  0.604E-01    0.08       1.0  T
  17    -68.3176274 -0.323797E-02  0.585E-01    0.07       1.0  T
  18    -68.3134319  0.419548E-02  0.631E-01    0.07       1.0  T
  19    -68.3143014 -0.869529E-03  0.626E-01    0.07       1.0  T
  20    -68.3471608 -0.328594E-01  0.134E-01    0.05       1.0  T
  21    -68.3330525  0.141084E-01  0.416E-01    0.02       1.0  T
  22    -68.3399169 -0.686446E-02  0.315E-01    0.02       1.0  T
  23    -68.3379506  0.196632E-02  0.347E-01    0.02       1.0  T
  24    -68.3427208 -0.477022E-02  0.260E-01    0.03       1.0  T
  25    -68.3484098 -0.568894E-02  0.863E-02    0.04       1.0  T
  26    -68.3486224 -0.212679E-03  0.830E-02    0.05       1.0  T
  27    -68.3488646 -0.242170E-03  0.565E-02    0.05       1.0  T
  28    -68.3485875  0.277080E-03  0.744E-02    0.05       1.0  T
  29    -68.3487467 -0.159191E-03  0.593E-02    0.05       1.0  T
  30    -68.3487097  0.370458E-04  0.616E-02    0.05       1.0  T
  31    -68.3488682 -0.158546E-03  0.455E-02    0.05       1.0  T
  32    -68.3489337 -0.655024E-04  0.373E-02    0.05       1.0  T
  33    -68.3490361 -0.102353E-03  0.166E-02    0.05       1.0  T
  34    -68.3490297  0.639031E-05  0.185E-02    0.05       1.0  T
  35    -68.3490535 -0.237769E-04  0.914E-03    0.05       1.4  T
  36    -68.3490595 -0.606569E-05  0.417E-03    0.05       3.1  T
  37    -68.3490609 -0.137798E-05  0.145E-03    0.05       8.9  T
  38    -68.3490609 -0.427964E-07  0.125E-03    0.05      10.4  T
  39    -68.3490610 -0.312222E-07  0.106E-03    0.05      12.2  T
  40    -68.3490610 -0.487936E-07  0.726E-04    0.05      17.8  T
  41    -68.3490610  0.379289E-08  0.702E-04    0.05      18.4  T
     SCC iter.                  ...        0 min,  0.344 sec
     gradient                   ...        0 min,  0.009 sec
 * total energy  :   -67.1603315 Eh     change       -0.2562945E-01 Eh
   gradient norm :     0.0573018 Eh/α   predicted    -0.2301097E-01 ( -10.22%)
   displ. norm   :     0.6213404 α      lambda       -0.2283569E-01
   maximum displ.:     0.2775061 α      in ANC's #30, #28, #41, ...

........................................................................
.............................. CYCLE    9 ..............................
........................................................................

 iter      E             dE          RMSdq      gap      omega  full diag
   1    -68.3024967 -0.683025E+02  0.924E-01    0.11       0.0  T
   2    -64.7633274  0.353917E+01  0.473E+00    0.05       1.0  T
   3    -68.1374790 -0.337415E+01  0.112E+00    0.11       1.0  T
   4    -68.2115006 -0.740217E-01  0.103E+00    0.06       1.0  T
   5    -67.9449108  0.266590E+00  0.192E+00    0.07       1.0  T
   6    -68.2980447 -0.353134E+00  0.700E-01    0.01       1.0  T
   7    -67.8786119  0.419433E+00  0.199E+00    0.08       1.0  T
   8    -68.0018596 -0.123248E+00  0.166E+00    0.09       1.0  T
   9    -68.0542002 -0.523406E-01  0.153E+00    0.07       1.0  T
  10    -68.1569977 -0.102798E+00  0.121E+00    0.04       1.0  T
  11    -68.3142424 -0.157245E+00  0.575E-01    0.09       1.0  T
  12    -68.3191330 -0.489069E-02  0.533E-01    0.08       1.0  T
  13    -68.3245631 -0.543009E-02  0.478E-01    0.08       1.0  T
  14    -68.3255454 -0.982263E-03  0.458E-01    0.07       1.0  T
  15    -68.3346210 -0.907559E-02  0.352E-01    0.07       1.0  T
  16    -68.3368783 -0.225727E-02  0.305E-01    0.06       1.0  T
  17    -68.3416297 -0.475143E-02  0.212E-01    0.06       1.0  T
  18    -68.3453488 -0.371916E-02  0.614E-02    0.06       1.0  T
  19    -68.3439376  0.141125E-02  0.133E-01    0.05       1.0  T
  20    -68.3441603 -0.222739E-03  0.123E-01    0.05       1.0  T
  21    -68.3447397 -0.579373E-03  0.923E-02    0.05       1.0  T
  22    -68.3455308 -0.791103E-03  0.262E-02    0.05       1.0  T
  23    -68.3455673 -0.364993E-04  0.221E-02    0.05       1.0  T
  24    -68.3455858 -0.184981E-04  0.167E-02    0.05       1.0  T
  25    -68.3455989 -0.130453E-04  0.858E-03    0.05       1.5  T
  26    -68.3456027 -0.383969E-05  0.444E-03    0.05       2.9  T
  27    -68.3455956  0.706855E-05  0.909E-03    0.05       1.4  T
  28    -68.3455932  0.245750E-05  0.102E-02    0.05       1.3  T
  29    -68.3456032 -0.999484E-05  0.267E-03    0.05       4.8  T
  30    -68.3456020  0.116527E-05  0.432E-03    0.05       3.0  T
  31    -68.3456023 -0.273828E-06  0.398E-03    0.05       3.2  T
  32    -68.3456032 -0.919996E-06  0.255E-03    0.05       5.1  T
  33    -68.3456036 -0.386082E-06  0.160E-03    0.05       8.1  T
  34    -68.3456037 -0.917504E-07  0.123E-03    0.05      10.5  T
  35    -68.3456037 -0.142085E-07  0.114E-03    0.05      11.3  T
  36    -68.3456037  0.714087E-08  0.116E-03    0.05      11.1  T
  37    -68.3456037 -0.665251E-07  0.743E-04    0.05      17.4  T
  38    -68.3456038 -0.955792E-08  0.627E-04    0.05      20.6  T
     SCC iter.                  ...        0 min,  0.316 sec
     gradient                   ...        0 min,  0.009 sec
 * total energy  :   -67.1788789 Eh     change       -0.1854737E-01 Eh
   gradient norm :     0.0558180 Eh/α   predicted    -0.1582586E-01 ( -14.67%)
   displ. norm   :     0.6983831 α      lambda       -0.2083745E-01
   maximum displ.:     0.4216349 α      in ANC's #30, #28, #22, ...

........................................................................
.............................. CYCLE   10 ..............................
........................................................................

 iter      E             dE          RMSdq      gap      omega  full diag
   1    -68.2977083 -0.682977E+02  0.943E-01    0.12       0.0  T
   2    -63.4408672  0.485684E+01  0.517E+00    0.00       1.0  T
   3    -68.0504428 -0.460958E+01  0.149E+00    0.18       1.0  T
   4    -68.2418334 -0.191391E+00  0.936E-01    0.09       1.0  T
   5    -68.1405704  0.101263E+00  0.128E+00    0.05       1.0  T
   6    -68.2768334 -0.136263E+00  0.759E-01    0.03       1.0  T
   7    -68.3178746 -0.410412E-01  0.451E-01    0.05       1.0  T
   8    -68.2969278  0.209468E-01  0.608E-01    0.02       1.0  T
   9    -68.2934336  0.349427E-02  0.630E-01    0.02       1.0  T
  10    -68.2982087 -0.477515E-02  0.602E-01    0.02       1.0  T
  11    -68.3345675 -0.363588E-01  0.272E-01    0.06       1.0  T
  12    -68.3400561 -0.548862E-02  0.170E-01    0.05       1.0  T
  13    -68.3353886  0.466745E-02  0.228E-01    0.07       1.0  T
  14    -68.3422696 -0.688096E-02  0.105E-01    0.06       1.0  T
  15    -68.3425344 -0.264793E-03  0.924E-02    0.06       1.0  T
  16    -68.3425539 -0.195246E-04  0.103E-01    0.05       1.0  T
  17    -68.3422428  0.311115E-03  0.111E-01    0.05       1.0  T
  18    -68.3414288  0.814038E-03  0.134E-01    0.05       1.0  T
  19    -68.3419852 -0.556481E-03  0.116E-01    0.05       1.0  T
  20    -68.3423354 -0.350125E-03  0.101E-01    0.05       1.0  T
  21    -68.3427605 -0.425120E-03  0.767E-02    0.05       1.0  T
  22    -68.3429874 -0.226903E-03  0.614E-02    0.05       1.0  T
  23    -68.3430679 -0.805023E-04  0.552E-02    0.05       1.0  T
  24    -68.3432151 -0.147197E-03  0.416E-02    0.06       1.0  T
  25    -68.3433700 -0.154893E-03  0.224E-02    0.06       1.0  T
  26    -68.3433768 -0.687217E-05  0.191E-02    0.06       1.0  T
  27    -68.3433794 -0.258978E-05  0.139E-02    0.06       1.0  T
  28    -68.3433760  0.347447E-05  0.139E-02    0.06       1.0  T
  29    -68.3433712  0.475685E-05  0.143E-02    0.06       1.0  T
  30    -68.3433767 -0.549085E-05  0.119E-02    0.06       1.1  T
  31    -68.3433850 -0.831222E-05  0.775E-03    0.06       1.7  T
  32    -68.3433883 -0.329964E-05  0.507E-03    0.06       2.5  T
  33    -68.3433905 -0.216601E-05  0.234E-03    0.06       5.5  T
  34    -68.3433907 -0.277980E-06  0.163E-03    0.06       7.9  T
  35    -68.3433910 -0.207292E-06  0.266E-04    0.06      48.5  T
  36    -68.3433910 -0.406408E-08  0.184E-04    0.06      70.1  T
     SCC iter.                  ...        0 min,  0.362 sec
     gradient                   ...        0 min,  0.010 sec
 * total energy  :   -67.1939085 Eh     change       -0.1502967E-01 Eh
   gradient norm :     0.0594861 Eh/α   predicted    -0.1550034E-01 (   3.13%)
   displ. norm   :     0.5967747 α      lambda       -0.1603828E-01
   maximum displ.:     0.2539394 α      in ANC's #30, #31, #22, ...

........................................................................
.............................. CYCLE   11 ..............................
........................................................................

 iter      E             dE          RMSdq      gap      omega  full diag
   1    -68.3336535 -0.683337E+02  0.856E-01    0.13       0.0  T
   2    -65.1655065  0.316815E+01  0.458E+00    0.02       1.0  T
   3    -68.2784414 -0.311293E+01  0.819E-01    0.20       1.0  T
   4    -68.0061671  0.272274E+00  0.166E+00    0.01       1.0  T
   5    -67.5488415  0.457326E+00  0.221E+00    0.13       1.0  T
   6    -68.3255360 -0.776695E+00  0.567E-01    0.06       1.0  T
   7    -68.2962678  0.292682E-01  0.650E-01    0.03       1.0  T
   8    -68.3462800 -0.500121E-01  0.384E-01    0.10       1.0  T
   9    -68.3459443  0.335624E-03  0.382E-01    0.11       1.0  T
  10    -68.3375164  0.842792E-02  0.445E-01    0.13       1.0  T
  11    -68.3452977 -0.778131E-02  0.384E-01    0.12       1.0  T
  12    -68.3471114 -0.181370E-02  0.351E-01    0.11       1.0  T
  13    -68.3529981 -0.588670E-02  0.270E-01    0.10       1.0  T
  14    -68.3575306 -0.453250E-02  0.199E-01    0.09       1.0  T
  15    -68.3582341 -0.703468E-03  0.187E-01    0.09       1.0  T
  16    -68.3586662 -0.432136E-03  0.177E-01    0.09       1.0  T
  17    -68.3604030 -0.173675E-02  0.129E-01    0.08       1.0  T
  18    -68.3617385 -0.133548E-02  0.738E-02    0.07       1.0  T
  19    -68.3619692 -0.230750E-03  0.539E-02    0.07       1.0  T
  20    -68.3620041 -0.348392E-04  0.416E-02    0.07       1.0  T
  21    -68.3620129 -0.886814E-05  0.294E-02    0.07       1.0  T
  22    -68.3620772 -0.642801E-04  0.143E-02    0.07       1.0  T
  23    -68.3620832 -0.604341E-05  0.111E-02    0.07       1.2  T
  24    -68.3620873 -0.410221E-05  0.607E-03    0.07       2.1  T
  25    -68.3620874 -0.314929E-07  0.466E-03    0.07       2.8  T
  26    -68.3620862  0.118664E-05  0.474E-03    0.07       2.7  T
  27    -68.3620861  0.735391E-07  0.451E-03    0.07       2.9  T
  28    -68.3620874 -0.127567E-05  0.295E-03    0.07       4.4  T
  29    -68.3620882 -0.843867E-06  0.130E-03    0.07       9.9  T
  30    -68.3620883 -0.967479E-07  0.614E-04    0.07      21.0  T
  31    -68.3620883 -0.665368E-08  0.471E-04    0.07      27.4  T
     SCC iter.                  ...        0 min,  0.257 sec
     gradient                   ...        0 min,  0.009 sec
 * total energy  :   -67.2084963 Eh     change       -0.1458773E-01 Eh
   gradient norm :     0.0617663 Eh/α   predicted    -0.1087508E-01 ( -25.45%)
   displ. norm   :     0.7794596 α      lambda       -0.2352015E-01
   maximum displ.:     0.2675838 α      in ANC's #30, #22, #31, ...

........................................................................
.............................. CYCLE   12 ..............................
........................................................................

 iter      E             dE          RMSdq      gap      omega  full diag
   1    -68.3670933 -0.683671E+02  0.123E+00    0.22       0.0  T
   2    -64.7361062  0.363099E+01  0.472E+00    0.01       1.0  T
   3    -68.3034862 -0.356738E+01  0.973E-01    0.35       1.0  T
   4    -67.5152521  0.788234E+00  0.269E+00    0.17       1.0  T
   5    -67.1479897  0.367262E+00  0.260E+00    0.19       1.0  T
   6    -68.0953321 -0.947342E+00  0.143E+00    0.01       1.0  T
   7    -68.3275760 -0.232244E+00  0.738E-01    0.10       1.0  T
   8    -68.3418280 -0.142520E-01  0.638E-01    0.28       1.0  T
   9    -68.3531267 -0.112987E-01  0.561E-01    0.27       1.0  T
  10    -68.3606238 -0.749712E-02  0.526E-01    0.26       1.0  T
  11    -68.3637179 -0.309405E-02  0.502E-01    0.25       1.0  T
  12    -68.3652146 -0.149679E-02  0.492E-01    0.25       1.0  T
  13    -68.3664873 -0.127265E-02  0.479E-01    0.24       1.0  T
  14    -68.3713456 -0.485836E-02  0.440E-01    0.23       1.0  T
  15    -68.3740266 -0.268100E-02  0.420E-01    0.22       1.0  T
  16    -68.3731864  0.840254E-03  0.429E-01    0.22       1.0  T
  17    -68.3718733  0.131310E-02  0.442E-01    0.23       1.0  T
  18    -68.3779703 -0.609697E-02  0.375E-01    0.20       1.0  T
  19    -68.3920753 -0.141050E-01  0.126E-01    0.14       1.0  T
  20    -68.3918747  0.200600E-03  0.146E-01    0.14       1.0  T
  21    -68.3918188  0.558234E-04  0.146E-01    0.14       1.0  T
  22    -68.3911601  0.658736E-03  0.164E-01    0.14       1.0  T
  23    -68.3940850 -0.292485E-02  0.692E-02    0.11       1.0  T
  24    -68.3941736 -0.886135E-04  0.534E-02    0.11       1.0  T
  25    -68.3941509  0.226542E-04  0.539E-02    0.11       1.0  T
  26    -68.3940831  0.678194E-04  0.602E-02    0.11       1.0  T
  27    -68.3942544 -0.171319E-03  0.200E-02    0.11       1.0  T
  28    -68.3942004  0.540297E-04  0.317E-02    0.11       1.0  T
  29    -68.3942667 -0.663324E-04  0.105E-02    0.11       1.2  T
  30    -68.3942651  0.162913E-05  0.123E-02    0.11       1.0  T
  31    -68.3942641  0.945984E-06  0.129E-02    0.11       1.0  T
  32    -68.3942724 -0.825633E-05  0.529E-03    0.11       2.4  T
  33    -68.3942739 -0.151949E-05  0.284E-03    0.11       4.5  T
  34    -68.3942737  0.217136E-06  0.313E-03    0.11       4.1  T
  35    -68.3942739 -0.196116E-06  0.275E-03    0.11       4.7  T
  36    -68.3942743 -0.394813E-06  0.208E-03    0.11       6.2  T
  37    -68.3942747 -0.391170E-06  0.108E-03    0.11      12.0  T
  38    -68.3942747 -0.189870E-07  0.980E-04    0.11      13.2  T
  39    -68.3942748 -0.865652E-07  0.571E-04    0.11      22.6  T
     SCC iter.                  ...        0 min,  0.375 sec
     gradient                   ...        0 min,  0.008 sec
 * total energy  :   -67.2307505 Eh     change       -0.2225426E-01 Eh
   gradient norm :     0.0710508 Eh/α   predicted    -0.1890499E-01 ( -15.05%)
   displ. norm   :     0.8520272 α      lambda       -0.3323236E-01
   maximum displ.:     0.2430826 α      in ANC's #47, #44, #48, ...

........................................................................
.............................. CYCLE   13 ..............................
........................................................................

 iter      E             dE          RMSdq      gap      omega  full diag
   1    -68.4273515 -0.684274E+02  0.141E+00    0.32       0.0  T
   2    -67.1534419  0.127391E+01  0.266E+00    0.15       1.0  T
   3    -68.1450478 -0.991606E+00  0.158E+00    0.35       1.0  T
   4    -68.3174999 -0.172452E+00  0.121E+00    0.26       1.0  T
   5    -68.0797739  0.237726E+00  0.155E+00    0.36       1.0  T
   6    -68.3469580 -0.267184E+00  0.850E-01    0.33       1.0  T
   7    -68.4121553 -0.651973E-01  0.571E-01    0.35       1.0  T
   8    -68.4116224  0.532867E-03  0.491E-01    0.37       1.0  T
   9    -68.4128551 -0.123264E-02  0.472E-01    0.37       1.0  T
  10    -68.4157607 -0.290560E-02  0.456E-01    0.36       1.0  T
  11    -68.4172835 -0.152282E-02  0.407E-01    0.37       1.0  T
  12    -68.4279448 -0.106613E-01  0.330E-01    0.34       1.0  T
  13    -68.4292070 -0.126226E-02  0.315E-01    0.34       1.0  T
  14    -68.4289808  0.226257E-03  0.316E-01    0.34       1.0  T
  15    -68.4290934 -0.112613E-03  0.315E-01    0.34       1.0  T
  16    -68.4305128 -0.141943E-02  0.290E-01    0.34       1.0  T
  17    -68.4366265 -0.611370E-02  0.184E-01    0.31       1.0  T
  18    -68.4403233 -0.369679E-02  0.709E-02    0.28       1.0  T
  19    -68.4403409 -0.175455E-04  0.706E-02    0.28       1.0  T
  20    -68.4403057  0.351009E-04  0.726E-02    0.28       1.0  T
  21    -68.4405178 -0.212016E-03  0.555E-02    0.28       1.0  T
  22    -68.4408288 -0.311024E-03  0.199E-02    0.27       1.0  T
  23    -68.4408617 -0.328886E-04  0.133E-02    0.26       1.0  T
  24    -68.4408632 -0.148075E-05  0.117E-02    0.26       1.1  T
  25    -68.4408668 -0.363606E-05  0.758E-03    0.26       1.7  T
  26    -68.4408659  0.864200E-06  0.513E-03    0.26       2.5  T
  27    -68.4408685 -0.255219E-05  0.188E-03    0.26       6.9  T
  28    -68.4408688 -0.281698E-06  0.689E-04    0.26      18.7  T
  29    -68.4408688 -0.228868E-07  0.469E-04    0.26      27.5  T
     SCC iter.                  ...        0 min,  0.244 sec
     gradient                   ...        0 min,  0.007 sec
 * total energy  :   -67.2592660 Eh     change       -0.2851545E-01 Eh
   gradient norm :     0.0993691 Eh/α   predicted    -0.2867872E-01 (   0.57%)
   displ. norm   :     0.7509182 α      lambda       -0.2908813E-01
   maximum displ.:     0.2334419 α      in ANC's #30, #31, #41, ...

........................................................................
.............................. CYCLE   14 ..............................
........................................................................

 iter      E             dE          RMSdq      gap      omega  full diag
   1    -68.4541941 -0.684542E+02  0.111E+00    0.30       0.0  T
   2    -68.2499840  0.204210E+00  0.131E+00    0.10       1.0  T
   3    -68.1427814  0.107203E+00  0.165E+00    0.40       1.0  T
   4    -68.4164636 -0.273682E+00  0.835E-01    0.30       1.0  T
   5    -68.4238741 -0.741052E-02  0.756E-01    0.30       1.0  T
   6    -68.4573001 -0.334261E-01  0.409E-01    0.31       1.0  T
   7    -68.4644891 -0.718899E-02  0.231E-01    0.30       1.0  T
   8    -68.4661437 -0.165457E-02  0.208E-01    0.29       1.0  T
   9    -68.4662736 -0.129915E-03  0.193E-01    0.29       1.0  T
  10    -68.4660878  0.185827E-03  0.156E-01    0.29       1.0  T
  11    -68.4663990 -0.311165E-03  0.858E-02    0.29       1.0  T
  12    -68.4667720 -0.373092E-03  0.490E-02    0.29       1.0  T
  13    -68.4669478 -0.175766E-03  0.284E-02    0.29       1.0  T
  14    -68.4669616 -0.138382E-04  0.239E-02    0.29       1.0  T
  15    -68.4669493  0.123585E-04  0.206E-02    0.29       1.0  T
  16    -68.4669799 -0.305786E-04  0.637E-03    0.29       2.0  T
  17    -68.4669814 -0.157508E-05  0.414E-03    0.29       3.1  T
  18    -68.4669823 -0.844957E-06  0.166E-03    0.29       7.8  T
  19    -68.4669823 -0.475479E-07  0.120E-03    0.29      10.8  T
  20    -68.4669824 -0.417692E-07  0.745E-04    0.29      17.3  T
  21    -68.4669824 -0.313748E-07  0.309E-04    0.29      41.8  T
     SCC iter.                  ...        0 min,  0.196 sec
     gradient                   ...        0 min,  0.019 sec
 * total energy  :   -67.2832148 Eh     change       -0.2394880E-01 Eh
   gradient norm :     0.0935737 Eh/α   predicted    -0.2274516E-01 (  -5.03%)
   displ. norm   :     0.6488429 α      lambda       -0.3027240E-01
   maximum displ.:     0.2085759 α      in ANC's #51, #148, #121, ...

........................................................................
.............................. CYCLE   15 ..............................
........................................................................

 iter      E             dE          RMSdq      gap      omega  full diag
   1    -68.4955915 -0.684956E+02  0.965E-01    0.32       0.0  T
   2    -68.3497700  0.145821E+00  0.121E+00    0.33       1.0  T
   3    -68.3837270 -0.339570E-01  0.106E+00    0.32       1.0  T
   4    -68.4570191 -0.732921E-01  0.699E-01    0.26       1.0  T
   5    -68.4974863 -0.404673E-01  0.333E-01    0.35       1.0  T
   6    -68.5059663 -0.848000E-02  0.164E-01    0.33       1.0  T
   7    -68.5073466 -0.138023E-02  0.857E-02    0.32       1.0  T
   8    -68.5076860 -0.339434E-03  0.479E-02    0.33       1.0  T
   9    -68.5075351  0.150919E-03  0.574E-02    0.32       1.0  T
  10    -68.5074720  0.630907E-04  0.481E-02    0.32       1.0  T
  11    -68.5076057 -0.133706E-03  0.319E-02    0.33       1.0  T
  12    -68.5077339 -0.128153E-03  0.780E-03    0.33       1.7  T
  13    -68.5077371 -0.325003E-05  0.519E-03    0.33       2.5  T
  14    -68.5077379 -0.837575E-06  0.365E-03    0.33       3.5  T
  15    -68.5077384 -0.496518E-06  0.250E-03    0.33       5.2  T
  16    -68.5077387 -0.288454E-06  0.156E-03    0.33       8.3  T
  17    -68.5077390 -0.228749E-06  0.504E-04    0.33      25.6  T
  18    -68.5077390 -0.150409E-07  0.308E-04    0.33      42.0  T
     SCC iter.                  ...        0 min,  0.149 sec
     gradient                   ...        0 min,  0.008 sec
 * total energy  :   -67.2940263 Eh     change       -0.1081146E-01 Eh
   gradient norm :     0.0966378 Eh/α   predicted    -0.2150852E-01 (  98.94%)
   displ. norm   :     0.3403461 α      lambda       -0.2266791E-01
   maximum displ.:     0.1249550 α      in ANC's #13, #51, #25, ...

........................................................................
.............................. CYCLE   16 ..............................
........................................................................

 iter      E             dE          RMSdq      gap      omega  full diag
   1    -68.5055563 -0.685056E+02  0.371E-01    0.35       0.0  T
   2    -68.4970923  0.846399E-02  0.333E-01    0.33       1.0  T
   3    -68.4798819  0.172104E-01  0.494E-01    0.36       1.0  T
   4    -68.4966379 -0.167560E-01  0.308E-01    0.36       1.0  T
   5    -68.5042814 -0.764348E-02  0.156E-01    0.34       1.0  T
   6    -68.5065454 -0.226404E-02  0.743E-02    0.35       1.0  T
   7    -68.5069866 -0.441165E-03  0.291E-02    0.35       1.0  T
   8    -68.5069993 -0.127024E-04  0.239E-02    0.35       1.0  T
   9    -68.5070323 -0.329636E-04  0.117E-02    0.35       1.1  T
  10    -68.5070172  0.150579E-04  0.155E-02    0.35       1.0  T
  11    -68.5070335 -0.163016E-04  0.101E-02    0.35       1.3  T
  12    -68.5070447 -0.111620E-04  0.313E-03    0.35       4.1  T
  13    -68.5070455 -0.853024E-06  0.169E-03    0.35       7.6  T
  14    -68.5070455 -0.100138E-07  0.136E-03    0.35       9.5  T
  15    -68.5070457 -0.161009E-06  0.603E-04    0.35      21.4  T
  16    -68.5070457 -0.237138E-07  0.383E-04    0.35      33.7  T
     SCC iter.                  ...        0 min,  0.127 sec
     gradient                   ...        0 min,  0.010 sec
 * total energy  :   -67.3070839 Eh     change       -0.1305765E-01 Eh
   gradient norm :     0.0577977 Eh/α   predicted    -0.1264682E-01 (  -3.15%)
   displ. norm   :     0.6971137 α      lambda       -0.2148648E-01
   maximum displ.:     0.2828023 α      in ANC's #30, #13, #22, ...

........................................................................
.............................. CYCLE   17 ..............................
........................................................................

 iter      E             dE          RMSdq      gap      omega  full diag
   1    -68.4640371 -0.684640E+02  0.740E-01    0.29       0.0  T
   2    -68.3319560  0.132081E+00  0.107E+00    0.09       1.0  T
   3    -68.4046889 -0.727328E-01  0.803E-01    0.34       1.0  T
   4    -68.4339627 -0.292739E-01  0.608E-01    0.25       1.0  T
   5    -68.4540298 -0.200671E-01  0.383E-01    0.29       1.0  T
   6    -68.4675217 -0.134919E-01  0.290E-01    0.29       1.0  T
   7    -68.4717398 -0.421809E-02  0.161E-01    0.28       1.0  T
   8    -68.4716525  0.873179E-04  0.168E-01    0.28       1.0  T
   9    -68.4716083  0.442406E-04  0.165E-01    0.28       1.0  T
  10    -68.4715351  0.732017E-04  0.127E-01    0.27       1.0  T
  11    -68.4721563 -0.621277E-03  0.375E-02    0.28       1.0  T
  12    -68.4722641 -0.107803E-03  0.183E-02    0.28       1.0  T
  13    -68.4722787 -0.145098E-04  0.106E-02    0.28       1.2  T
  14    -68.4722776  0.104028E-05  0.107E-02    0.28       1.2  T
  15    -68.4722793 -0.167724E-05  0.737E-03    0.28       1.8  T
  16    -68.4722831 -0.383326E-05  0.258E-03    0.28       5.0  T
  17    -68.4722837 -0.573534E-06  0.118E-03    0.28      10.9  T
  18    -68.4722838 -0.716833E-07  0.813E-04    0.28      15.9  T
  19    -68.4722838 -0.234546E-07  0.408E-04    0.28      31.6  T
     SCC iter.                  ...        0 min,  0.178 sec
     gradient                   ...        0 min,  0.010 sec
 * total energy  :   -67.3100837 Eh     change       -0.2999820E-02 Eh
   gradient norm :     0.0843083 Eh/α   predicted    -0.1596412E-01 ( 432.17%)
   displ. norm   :     0.4700836 α      lambda       -0.2056301E-01
   maximum displ.:     0.2042832 α      in ANC's #33, #13, #51, ...

........................................................................
.............................. CYCLE   18 ..............................
........................................................................

 iter      E             dE          RMSdq      gap      omega  full diag
   1    -68.4925371 -0.684925E+02  0.474E-01    0.31       0.0  T
   2    -68.4737665  0.187706E-01  0.517E-01    0.35       1.0  T
   3    -68.4715260  0.224045E-02  0.524E-01    0.24       1.0  T
   4    -68.4599617  0.115643E-01  0.724E-01    0.33       1.0  T
   5    -68.4888194 -0.288576E-01  0.223E-01    0.35       1.0  T
   6    -68.4939856 -0.516628E-02  0.987E-02    0.32       1.0  T
   7    -68.4947334 -0.747715E-03  0.502E-02    0.32       1.0  T
   8    -68.4948850 -0.151651E-03  0.360E-02    0.32       1.0  T
   9    -68.4948834  0.159781E-05  0.361E-02    0.32       1.0  T
  10    -68.4948511  0.323620E-04  0.326E-02    0.32       1.0  T
  11    -68.4948997 -0.486504E-04  0.193E-02    0.32       1.0  T
  12    -68.4949460 -0.462932E-04  0.506E-03    0.32       2.6  T
  13    -68.4949470 -0.104493E-05  0.389E-03    0.32       3.3  T
  14    -68.4949476 -0.573063E-06  0.232E-03    0.32       5.6  T
  15    -68.4949478 -0.182250E-06  0.145E-03    0.32       8.9  T
  16    -68.4949478 -0.391481E-07  0.105E-03    0.32      12.3  T
  17    -68.4949479 -0.105745E-06  0.357E-04    0.32      36.2  T
  18    -68.4949479 -0.659935E-08  0.279E-04    0.32      46.3  T
     SCC iter.                  ...        0 min,  0.174 sec
     gradient                   ...        0 min,  0.009 sec
 * total energy  :   -67.3223972 Eh     change       -0.1231344E-01 Eh
   gradient norm :     0.0458842 Eh/α   predicted    -0.1255351E-01 (   1.95%)
   displ. norm   :     0.4793207 α      lambda       -0.1033329E-01
   maximum displ.:     0.2762276 α      in ANC's #13, #47, #42, ...

........................................................................
.............................. CYCLE   19 ..............................
........................................................................

 iter      E             dE          RMSdq      gap      omega  full diag
   1    -68.5067625 -0.685068E+02  0.431E-01    0.34       0.0  T
   2    -68.4905784  0.161841E-01  0.450E-01    0.36       1.0  T
   3    -68.4778959  0.126825E-01  0.576E-01    0.36       1.0  T
   4    -68.4865445 -0.864855E-02  0.531E-01    0.34       1.0  T
   5    -68.5050394 -0.184949E-01  0.173E-01    0.36       1.0  T
   6    -68.5079204 -0.288098E-02  0.629E-02    0.35       1.0  T
   7    -68.5082764 -0.356064E-03  0.260E-02    0.35       1.0  T
   8    -68.5082944 -0.179255E-04  0.201E-02    0.35       1.0  T
   9    -68.5082946 -0.282293E-06  0.198E-02    0.35       1.0  T
  10    -68.5082952 -0.575653E-06  0.172E-02    0.35       1.0  T
  11    -68.5083204 -0.251614E-04  0.861E-03    0.35       1.5  T
  12    -68.5083301 -0.975093E-05  0.222E-03    0.35       5.8  T
  13    -68.5083304 -0.282011E-06  0.145E-03    0.35       8.9  T
  14    -68.5083305 -0.675653E-07  0.102E-03    0.35      12.6  T
  15    -68.5083306 -0.811708E-07  0.423E-04    0.35      30.5  T
  16    -68.5083306 -0.992613E-08  0.260E-04    0.35      49.7  T
     SCC iter.                  ...        0 min,  0.174 sec
     gradient                   ...        0 min,  0.011 sec
 * total energy  :   -67.3277842 Eh     change       -0.5387014E-02 Eh
   gradient norm :     0.0489502 Eh/α   predicted    -0.6353690E-02 (  17.94%)
   displ. norm   :     0.5274539 α      lambda       -0.9402602E-02
   maximum displ.:     0.3294044 α      in ANC's #13, #42, #47, ...

........................................................................
.............................. CYCLE   20 ..............................
........................................................................

 iter      E             dE          RMSdq      gap      omega  full diag
   1    -68.5090687 -0.685091E+02  0.463E-01    0.34       0.0  T
   2    -68.4937428  0.153259E-01  0.489E-01    0.34       1.0  T
   3    -68.4805602  0.131826E-01  0.631E-01    0.38       1.0  T
   4    -68.4868454 -0.628522E-02  0.499E-01    0.34       1.0  T
   5    -68.5072228 -0.203774E-01  0.173E-01    0.35       1.0  T
   6    -68.5101321 -0.290934E-02  0.581E-02    0.34       1.0  T
   7    -68.5104237 -0.291566E-03  0.315E-02    0.34       1.0  T
   8    -68.5104328 -0.908006E-05  0.269E-02    0.34       1.0  T
   9    -68.5103815  0.512964E-04  0.324E-02    0.34       1.0  T
  10    -68.5104122 -0.307293E-04  0.223E-02    0.34       1.0  T
  11    -68.5104603 -0.480994E-04  0.839E-03    0.34       1.5  T
  12    -68.5104689 -0.860456E-05  0.221E-03    0.34       5.8  T
  13    -68.5104690 -0.101747E-06  0.157E-03    0.34       8.2  T
  14    -68.5104690 -0.257296E-07  0.928E-04    0.34      13.9  T
  15    -68.5104691 -0.682229E-07  0.527E-04    0.34      24.5  T
     SCC iter.                  ...        0 min,  0.150 sec
     gradient                   ...        0 min,  0.012 sec
 * total energy  :   -67.3337172 Eh     change       -0.5933045E-02 Eh
   gradient norm :     0.0406612 Eh/α   predicted    -0.6009240E-02 (   1.28%)
   displ. norm   :     0.5920164 α      lambda       -0.7715326E-02
   maximum displ.:     0.4169594 α      in ANC's #13, #42, #47, ...
 * RMSD in coord.:     0.9187523 α      energy gain  -0.6703534E+00 Eh

generating ANC from exact Hessian ...
Using Lindh-Hessian (1995)
 Shifting diagonal of input Hessian by   1.121796438761334E-002
 Lowest  eigenvalues of input Hessian
    0.010000    0.010115    0.010206    0.010285    0.010315    0.010479
    0.010725    0.010821    0.010852    0.010906    0.010923    0.010938
    0.010988    0.011047    0.011103    0.011141    0.000000    0.000000
 Highest eigenvalues
    1.485877    1.488535    1.496813    1.502917    1.518693    1.550812
 

........................................................................
.............................. CYCLE   21 ..............................
........................................................................

 iter      E             dE          RMSdq      gap      omega  full diag
   1    -68.5042748 -0.685043E+02  0.492E-01    0.30       0.0  T
   2    -68.4671247  0.371501E-01  0.726E-01    0.29       1.0  T
   3    -68.4829304 -0.158057E-01  0.635E-01    0.35       1.0  T
   4    -68.4617240  0.212064E-01  0.632E-01    0.31       1.0  T
   5    -68.5026934 -0.409693E-01  0.194E-01    0.28       1.0  T
   6    -68.5057820 -0.308865E-02  0.103E-01    0.30       1.0  T
   7    -68.5065908 -0.808789E-03  0.751E-02    0.30       1.0  T
   8    -68.5066032 -0.123568E-04  0.717E-02    0.30       1.0  T
   9    -68.5065680  0.351736E-04  0.696E-02    0.30       1.0  T
  10    -68.5066637 -0.957355E-04  0.439E-02    0.29       1.0  T
  11    -68.5068104 -0.146654E-03  0.132E-02    0.29       1.0  T
  12    -68.5068231 -0.127659E-04  0.648E-03    0.29       2.0  T
  13    -68.5068238 -0.654849E-06  0.489E-03    0.29       2.6  T
  14    -68.5068239 -0.902005E-07  0.357E-03    0.29       3.6  T
  15    -68.5068241 -0.177391E-06  0.227E-03    0.29       5.7  T
  16    -68.5068244 -0.327689E-06  0.106E-03    0.29      12.1  T
  17    -68.5068245 -0.111054E-06  0.265E-04    0.29      48.7  T
  18    -68.5068245 -0.283117E-08  0.162E-04    0.29      79.6  T
     SCC iter.                  ...        0 min,  0.192 sec
     gradient                   ...        0 min,  0.011 sec
 * total energy  :   -67.3397129 Eh     change       -0.5995690E-02 Eh
   gradient norm :     0.0311849 Eh/α   predicted     0.0000000E+00 (-100.00%)
   displ. norm   :     0.3235020 α      lambda       -0.4258637E-02
   maximum displ.:     0.2224189 α      in ANC's #29, #31, #62, ...

........................................................................
.............................. CYCLE   22 ..............................
........................................................................

 iter      E             dE          RMSdq      gap      omega  full diag
   1    -68.5169668 -0.685170E+02  0.221E-01    0.29       0.0  T
   2    -68.5130940  0.387273E-02  0.257E-01    0.28       1.0  T
   3    -68.5091774  0.391666E-02  0.372E-01    0.32       1.0  T
   4    -68.5115828 -0.240538E-02  0.209E-01    0.30       1.0  T
   5    -68.5167707 -0.518791E-02  0.664E-02    0.29       1.0  T
   6    -68.5171388 -0.368079E-03  0.311E-02    0.29       1.0  T
   7    -68.5172009 -0.621344E-04  0.231E-02    0.29       1.0  T
   8    -68.5172064 -0.555446E-05  0.215E-02    0.29       1.0  T
   9    -68.5172018  0.468700E-05  0.208E-02    0.29       1.0  T
  10    -68.5172173 -0.155655E-04  0.124E-02    0.29       1.0  T
  11    -68.5172279 -0.106125E-04  0.361E-03    0.29       3.6  T
  12    -68.5172294 -0.143956E-05  0.135E-03    0.29       9.6  T
  13    -68.5172295 -0.105971E-06  0.609E-04    0.29      21.2  T
  14    -68.5172295  0.481668E-08  0.519E-04    0.29      24.9  T
     SCC iter.                  ...        0 min,  0.122 sec
     gradient                   ...        0 min,  0.010 sec
 * total energy  :   -67.3434504 Eh     change       -0.3737456E-02 Eh
   gradient norm :     0.0202437 Eh/α   predicted    -0.2352232E-02 ( -37.06%)
   displ. norm   :     0.7208884 α      lambda       -0.7935302E-02
   maximum displ.:     0.4995903 α      in ANC's #29, #31, #52, ...

........................................................................
.............................. CYCLE   23 ..............................
........................................................................

 iter      E             dE          RMSdq      gap      omega  full diag
   1    -68.5267801 -0.685268E+02  0.578E-01    0.28       0.0  T
   2    -68.4808154  0.459647E-01  0.850E-01    0.25       1.0  T
   3    -68.4923456 -0.115302E-01  0.801E-01    0.37       1.0  T
   4    -68.4797354  0.126102E-01  0.634E-01    0.30       1.0  T
   5    -68.5244391 -0.447037E-01  0.230E-01    0.26       1.0  T
   6    -68.5273652 -0.292603E-02  0.154E-01    0.27       1.0  T
   7    -68.5285881 -0.122289E-02  0.137E-01    0.27       1.0  T
   8    -68.5286144 -0.263205E-04  0.133E-01    0.27       1.0  T
   9    -68.5286961 -0.817643E-04  0.115E-01    0.27       1.0  T
  10    -68.5290299 -0.333739E-03  0.501E-02    0.27       1.0  T
  11    -68.5292070 -0.177094E-03  0.194E-02    0.27       1.0  T
  12    -68.5292308 -0.237932E-04  0.977E-03    0.26       1.3  T
  13    -68.5292315 -0.699309E-06  0.756E-03    0.26       1.7  T
  14    -68.5292309  0.577950E-06  0.717E-03    0.26       1.8  T
  15    -68.5292312 -0.335122E-06  0.478E-03    0.26       2.7  T
  16    -68.5292332 -0.194848E-05  0.126E-03    0.26      10.3  T
  17    -68.5292333 -0.144012E-06  0.491E-04    0.26      26.3  T
  18    -68.5292333 -0.877841E-08  0.336E-04    0.26      38.4  T
     SCC iter.                  ...        0 min,  0.182 sec
     gradient                   ...        0 min,  0.009 sec
 * total energy  :   -67.3502098 Eh     change       -0.6759387E-02 Eh
   gradient norm :     0.0308398 Eh/α   predicted    -0.6029581E-02 ( -10.80%)
   displ. norm   :     0.7653491 α      lambda       -0.7584633E-02
   maximum displ.:     0.5290218 α      in ANC's #29, #31, #52, ...

........................................................................
.............................. CYCLE   24 ..............................
........................................................................

 iter      E             dE          RMSdq      gap      omega  full diag
   1    -68.5271756 -0.685272E+02  0.750E-01    0.25       0.0  T
   2    -68.4134914  0.113684E+00  0.132E+00    0.21       1.0  T
   3    -68.4859373 -0.724459E-01  0.893E-01    0.39       1.0  T
   4    -68.4444966  0.414407E-01  0.853E-01    0.26       1.0  T
   5    -68.5217204 -0.772238E-01  0.349E-01    0.19       1.0  T
   6    -68.5267155 -0.499512E-02  0.278E-01    0.25       1.0  T
   7    -68.5300861 -0.337055E-02  0.268E-01    0.25       1.0  T
   8    -68.5301921 -0.106009E-03  0.258E-01    0.25       1.0  T
   9    -68.5303763 -0.184248E-03  0.236E-01    0.25       1.0  T
  10    -68.5314703 -0.109397E-02  0.157E-01    0.24       1.0  T
  11    -68.5324167 -0.946389E-03  0.677E-02    0.23       1.0  T
  12    -68.5325623 -0.145579E-03  0.334E-02    0.23       1.0  T
  13    -68.5325672 -0.493737E-05  0.264E-02    0.23       1.0  T
  14    -68.5325678 -0.568766E-06  0.219E-02    0.23       1.0  T
  15    -68.5325751 -0.730366E-05  0.839E-03    0.23       1.5  T
  16    -68.5325810 -0.592861E-05  0.326E-03    0.23       4.0  T
  17    -68.5325817 -0.672059E-06  0.220E-03    0.23       5.9  T
  18    -68.5325817  0.217357E-07  0.210E-03    0.23       6.2  T
  19    -68.5325817 -0.121609E-07  0.180E-03    0.23       7.2  T
  20    -68.5325819 -0.178614E-06  0.794E-04    0.23      16.3  T
  21    -68.5325819 -0.371391E-07  0.311E-04    0.23      41.5  T
     SCC iter.                  ...        0 min,  0.201 sec
     gradient                   ...        0 min,  0.010 sec
 * total energy  :   -67.3569611 Eh     change       -0.6751323E-02 Eh
   gradient norm :     0.0436276 Eh/α   predicted    -0.6013725E-02 ( -10.93%)
   displ. norm   :     0.8003862 α      lambda       -0.9869994E-02
   maximum displ.:     0.5198264 α      in ANC's #29, #31, #52, ...

........................................................................
.............................. CYCLE   25 ..............................
........................................................................

 iter      E             dE          RMSdq      gap      omega  full diag
   1    -68.5223687 -0.685224E+02  0.106E+00    0.24       0.0  T
   2    -68.3387317  0.183637E+00  0.159E+00    0.14       1.0  T
   3    -68.4474862 -0.108755E+00  0.108E+00    0.45       1.0  T
   4    -68.4219881  0.254982E-01  0.954E-01    0.18       1.0  T
   5    -68.5038445 -0.818564E-01  0.630E-01    0.16       1.0  T
   6    -68.5208189 -0.169744E-01  0.450E-01    0.24       1.0  T
   7    -68.5244571 -0.363817E-02  0.447E-01    0.24       1.0  T
   8    -68.5262063 -0.174924E-02  0.418E-01    0.24       1.0  T
   9    -68.5275731 -0.136678E-02  0.368E-01    0.23       1.0  T
  10    -68.5299027 -0.232960E-02  0.283E-01    0.22       1.0  T
  11    -68.5322459 -0.234314E-02  0.160E-01    0.20       1.0  T
  12    -68.5329339 -0.688010E-03  0.900E-02    0.19       1.0  T
  13    -68.5329724 -0.385105E-04  0.663E-02    0.19       1.0  T
  14    -68.5330520 -0.795885E-04  0.537E-02    0.19       1.0  T
  15    -68.5331723 -0.120310E-03  0.186E-02    0.18       1.0  T
  16    -68.5331955 -0.231922E-04  0.876E-03    0.18       1.5  T
  17    -68.5331997 -0.421158E-05  0.474E-03    0.18       2.7  T
  18    -68.5332002 -0.458638E-06  0.365E-03    0.18       3.5  T
  19    -68.5332003 -0.100344E-06  0.278E-03    0.18       4.7  T
  20    -68.5332007 -0.464398E-06  0.110E-03    0.18      11.8  T
  21    -68.5332008 -0.778658E-07  0.826E-04    0.18      15.6  T
  22    -68.5332008 -0.171574E-07  0.272E-04    0.18      47.4  T
     SCC iter.                  ...        0 min,  0.206 sec
     gradient                   ...        0 min,  0.010 sec
 * total energy  :   -67.3675997 Eh     change       -0.1063857E-01 Eh
   gradient norm :     0.0540132 Eh/α   predicted    -0.8096448E-02 ( -23.90%)
   displ. norm   :     0.7055260 α      lambda       -0.1167222E-01
   maximum displ.:     0.4656584 α      in ANC's #29, #31, #52, ...

........................................................................
.............................. CYCLE   26 ..............................
........................................................................

 iter      E             dE          RMSdq      gap      omega  full diag
   1    -68.5328337 -0.685328E+02  0.107E+00    0.26       0.0  T
   2    -68.4486802  0.841535E-01  0.969E-01    0.18       1.0  T
   3    -68.2390251  0.209655E+00  0.149E+00    0.05       1.0  T
   4    -68.4714097 -0.232385E+00  0.811E-01    0.30       1.0  T
   5    -68.5026842 -0.312745E-01  0.657E-01    0.21       1.0  T
   6    -68.5288245 -0.261403E-01  0.394E-01    0.24       1.0  T
   7    -68.5382178 -0.939330E-02  0.252E-01    0.25       1.0  T
   8    -68.5396338 -0.141597E-02  0.223E-01    0.25       1.0  T
   9    -68.5396500 -0.162487E-04  0.191E-01    0.24       1.0  T
  10    -68.5398918 -0.241786E-03  0.144E-01    0.25       1.0  T
  11    -68.5402932 -0.401349E-03  0.953E-02    0.25       1.0  T
  12    -68.5405495 -0.256315E-03  0.564E-02    0.25       1.0  T
  13    -68.5405460  0.350080E-05  0.569E-02    0.25       1.0  T
  14    -68.5405607 -0.147298E-04  0.518E-02    0.25       1.0  T
  15    -68.5405783 -0.175814E-04  0.279E-02    0.25       1.0  T
  16    -68.5406068 -0.285092E-04  0.616E-03    0.24       2.1  T
  17    -68.5406100 -0.317886E-05  0.394E-03    0.24       3.3  T
  18    -68.5406102 -0.279262E-06  0.321E-03    0.24       4.0  T
  19    -68.5406102  0.340875E-07  0.341E-03    0.24       3.8  T
  20    -68.5406103 -0.610033E-07  0.179E-03    0.24       7.2  T
  21    -68.5406105 -0.210164E-06  0.449E-04    0.24      28.8  T
  22    -68.5406105 -0.849906E-08  0.237E-04    0.24      54.6  T
     SCC iter.                  ...        0 min,  0.246 sec
     gradient                   ...        0 min,  0.013 sec
 * total energy  :   -67.3778014 Eh     change       -0.1020177E-01 Eh
   gradient norm :     0.0678815 Eh/α   predicted    -0.8741141E-02 ( -14.32%)
   displ. norm   :     0.7101906 α      lambda       -0.2769581E-01
   maximum displ.:     0.2874122 α      in ANC's #91, #79, #84, ...

........................................................................
.............................. CYCLE   27 ..............................
........................................................................

 iter      E             dE          RMSdq      gap      omega  full diag
   1    -68.5635616 -0.685636E+02  0.144E+00    0.42       0.0  T
   2    -68.5169583  0.466033E-01  0.997E-01    0.47       1.0  T
   3    -68.3082533  0.208705E+00  0.171E+00    0.50       1.0  T
   4    -68.5209330 -0.212680E+00  0.644E-01    0.44       1.0  T
   5    -68.5568079 -0.358749E-01  0.388E-01    0.44       1.0  T
   6    -68.5724733 -0.156654E-01  0.153E-01    0.45       1.0  T
   7    -68.5746562 -0.218288E-02  0.836E-02    0.45       1.0  T
   8    -68.5748977 -0.241545E-03  0.646E-02    0.45       1.0  T
   9    -68.5744506  0.447119E-03  0.756E-02    0.45       1.0  T
  10    -68.5748332 -0.382606E-03  0.399E-02    0.45       1.0  T
  11    -68.5749868 -0.153585E-03  0.176E-02    0.45       1.0  T
  12    -68.5750129 -0.260899E-04  0.720E-03    0.45       1.8  T
  13    -68.5750153 -0.242972E-05  0.466E-03    0.45       2.8  T
  14    -68.5750157 -0.411185E-06  0.309E-03    0.45       4.2  T
  15    -68.5750157  0.492482E-07  0.204E-03    0.45       6.3  T
  16    -68.5750157 -0.442864E-08  0.182E-03    0.45       7.1  T
  17    -68.5750160 -0.362190E-06  0.605E-04    0.45      21.3  T
  18    -68.5750161 -0.328338E-07  0.265E-04    0.45      48.8  T
     SCC iter.                  ...        0 min,  0.174 sec
     gradient                   ...        0 min,  0.008 sec
 * total energy  :   -67.3656507 Eh     change        0.1215077E-01 Eh
   gradient norm :     0.2474444 Eh/α   predicted    -0.2083239E-01 (-271.45%)
   displ. norm   :     0.3784486 α      lambda       -0.7507102E-01
   maximum displ.:     0.1318981 α      in ANC's #91, #84, #111, ...

........................................................................
.............................. CYCLE   28 ..............................
........................................................................

 iter      E             dE          RMSdq      gap      omega  full diag
   1    -68.5570388 -0.685570E+02  0.699E-01    0.39       0.0  T
   2    -68.5108635  0.461753E-01  0.727E-01    0.25       1.0  T
   3    -68.4874123  0.234512E-01  0.822E-01    0.42       1.0  T
   4    -68.5010672 -0.136549E-01  0.675E-01    0.46       1.0  T
   5    -68.5563911 -0.553239E-01  0.212E-01    0.37       1.0  T
   6    -68.5616970 -0.530582E-02  0.708E-02    0.35       1.0  T
   7    -68.5620202 -0.323246E-03  0.447E-02    0.35       1.0  T
   8    -68.5620611 -0.409052E-04  0.354E-02    0.35       1.0  T
   9    -68.5620037  0.573792E-04  0.380E-02    0.35       1.0  T
  10    -68.5620775 -0.737234E-04  0.192E-02    0.34       1.0  T
  11    -68.5621085 -0.310555E-04  0.871E-03    0.35       1.5  T
  12    -68.5621158 -0.730594E-05  0.335E-03    0.35       3.9  T
  13    -68.5621162 -0.341048E-06  0.257E-03    0.35       5.0  T
  14    -68.5621163 -0.189787E-06  0.186E-03    0.35       6.9  T
  15    -68.5621165 -0.183954E-06  0.116E-03    0.35      11.1  T
  16    -68.5621167 -0.157204E-06  0.407E-04    0.35      31.7  T
  17    -68.5621167 -0.102104E-07  0.246E-04    0.35      52.4  T
     SCC iter.                  ...        0 min,  0.163 sec
     gradient                   ...        0 min,  0.009 sec
 * total energy  :   -67.3957560 Eh     change       -0.3010534E-01 Eh
   gradient norm :     0.0401535 Eh/α   predicted    -0.4291152E-01 (  42.54%)
   displ. norm   :     0.3202928 α      lambda       -0.6644061E-02
   maximum displ.:     0.2081420 α      in ANC's #29, #31, #74, ...

........................................................................
.............................. CYCLE   29 ..............................
........................................................................

 iter      E             dE          RMSdq      gap      omega  full diag
   1    -68.5640399 -0.685640E+02  0.317E-01    0.41       0.0  T
   2    -68.5598093  0.423058E-02  0.241E-01    0.39       1.0  T
   3    -68.5432008  0.166085E-01  0.446E-01    0.43       1.0  T
   4    -68.5574843 -0.142834E-01  0.239E-01    0.40       1.0  T
   5    -68.5638013 -0.631704E-02  0.848E-02    0.40       1.0  T
   6    -68.5645560 -0.754706E-03  0.351E-02    0.40       1.0  T
   7    -68.5646679 -0.111859E-03  0.157E-02    0.40       1.0  T
   8    -68.5646734 -0.552129E-05  0.118E-02    0.40       1.1  T
   9    -68.5646789 -0.554210E-05  0.877E-03    0.40       1.5  T
  10    -68.5646829 -0.402076E-05  0.601E-03    0.40       2.1  T
  11    -68.5646862 -0.326791E-05  0.271E-03    0.40       4.8  T
  12    -68.5646869 -0.705070E-06  0.132E-03    0.40       9.8  T
  13    -68.5646870 -0.119005E-06  0.778E-04    0.40      16.6  T
  14    -68.5646871 -0.469120E-07  0.424E-04    0.40      30.4  T
     SCC iter.                  ...        0 min,  0.129 sec
     gradient                   ...        0 min,  0.009 sec
 * total energy  :   -67.4017309 Eh     change       -0.5974886E-02 Eh
   gradient norm :     0.0319990 Eh/α   predicted    -0.3662844E-02 ( -38.70%)
   displ. norm   :     0.6569204 α      lambda       -0.1424583E-01
   maximum displ.:     0.2261675 α      in ANC's #74, #29, #70, ...

........................................................................
.............................. CYCLE   30 ..............................
........................................................................

 iter      E             dE          RMSdq      gap      omega  full diag
   1    -68.5695228 -0.685695E+02  0.798E-01    0.57       0.0  T
   2    -68.5551005  0.144224E-01  0.561E-01    0.57       1.0  T
   3    -68.4596146  0.954858E-01  0.986E-01    0.57       1.0  T
   4    -68.5297153 -0.701007E-01  0.575E-01    0.53       1.0  T
   5    -68.5665913 -0.368760E-01  0.221E-01    0.58       1.0  T
   6    -68.5720575 -0.546623E-02  0.837E-02    0.57       1.0  T
   7    -68.5726145 -0.556990E-03  0.456E-02    0.58       1.0  T
   8    -68.5727591 -0.144557E-03  0.240E-02    0.57       1.0  T
   9    -68.5726981  0.609717E-04  0.290E-02    0.57       1.0  T
  10    -68.5727751 -0.769338E-04  0.131E-02    0.57       1.0  T
  11    -68.5727937 -0.186139E-04  0.467E-03    0.57       2.8  T
  12    -68.5727955 -0.186336E-05  0.232E-03    0.57       5.6  T
  13    -68.5727958 -0.299680E-06  0.146E-03    0.57       8.9  T
  14    -68.5727959 -0.854090E-07  0.921E-04    0.57      14.0  T
  15    -68.5727959 -0.266803E-07  0.610E-04    0.57      21.1  T
     SCC iter.                  ...        0 min,  0.133 sec
     gradient                   ...        0 min,  0.008 sec
 * total energy  :   -67.4075444 Eh     change       -0.5813556E-02 Eh
   gradient norm :     0.0559434 Eh/α   predicted    -0.1019676E-01 (  75.40%)
   displ. norm   :     0.2921216 α      lambda       -0.7331728E-02
   maximum displ.:     0.1988320 α      in ANC's #29, #91, #85, ...

........................................................................
.............................. CYCLE   31 ..............................
........................................................................

 iter      E             dE          RMSdq      gap      omega  full diag
   1    -68.5658379 -0.685658E+02  0.306E-01    0.53       0.0  T
   2    -68.5588765  0.696148E-02  0.310E-01    0.50       1.0  T
   3    -68.5537370  0.513950E-02  0.338E-01    0.51       1.0  T
   4    -68.5561086 -0.237166E-02  0.278E-01    0.57       1.0  T
   5    -68.5654131 -0.930452E-02  0.102E-01    0.54       1.0  T
   6    -68.5666628 -0.124970E-02  0.299E-02    0.52       1.0  T
   7    -68.5667478 -0.849287E-04  0.133E-02    0.52       1.0  T
   8    -68.5667481 -0.320142E-06  0.113E-02    0.52       1.1  T
   9    -68.5667524 -0.427648E-05  0.831E-03    0.52       1.6  T
  10    -68.5667543 -0.189376E-05  0.649E-03    0.52       2.0  T
  11    -68.5667585 -0.423887E-05  0.318E-03    0.52       4.1  T
  12    -68.5667596 -0.105927E-05  0.126E-03    0.52      10.2  T
  13    -68.5667596 -0.589799E-07  0.903E-04    0.52      14.3  T
  14    -68.5667597 -0.537054E-07  0.551E-04    0.52      23.4  T
     SCC iter.                  ...        0 min,  0.126 sec
     gradient                   ...        0 min,  0.009 sec
 * total energy  :   -67.4109813 Eh     change       -0.3436835E-02 Eh
   gradient norm :     0.0331232 Eh/α   predicted    -0.3978745E-02 (  15.77%)
   displ. norm   :     0.2111306 α      lambda       -0.2453117E-02
   maximum displ.:     0.1013052 α      in ANC's #29, #74, #70, ...

........................................................................
.............................. CYCLE   32 ..............................
........................................................................

 iter      E             dE          RMSdq      gap      omega  full diag
   1    -68.5683563 -0.685684E+02  0.211E-01    0.53       0.0  T
   2    -68.5674268  0.929492E-03  0.157E-01    0.53       1.0  T
   3    -68.5608502  0.657662E-02  0.260E-01    0.52       1.0  T
   4    -68.5655411 -0.469094E-02  0.157E-01    0.53       1.0  T
   5    -68.5682720 -0.273090E-02  0.454E-02    0.52       1.0  T
   6    -68.5685154 -0.243365E-03  0.148E-02    0.53       1.0  T
   7    -68.5685358 -0.203753E-04  0.755E-03    0.53       1.7  T
   8    -68.5685376 -0.180773E-05  0.592E-03    0.53       2.2  T
   9    -68.5685403 -0.268815E-05  0.323E-03    0.53       4.0  T
  10    -68.5685406 -0.361316E-06  0.253E-03    0.53       5.1  T
  11    -68.5685412 -0.579540E-06  0.124E-03    0.53      10.4  T
  12    -68.5685414 -0.152291E-06  0.497E-04    0.53      26.0  T
  13    -68.5685414 -0.799844E-08  0.385E-04    0.53      33.6  T
     SCC iter.                  ...        0 min,  0.122 sec
     gradient                   ...        0 min,  0.010 sec
 * total energy  :   -67.4130861 Eh     change       -0.2104800E-02 Eh
   gradient norm :     0.0269802 Eh/α   predicted    -0.1281242E-02 ( -39.13%)
   displ. norm   :     0.5050496 α      lambda       -0.5175638E-02
   maximum displ.:     0.2453529 α      in ANC's #29, #70, #74, ...

........................................................................
.............................. CYCLE   33 ..............................
........................................................................

 iter      E             dE          RMSdq      gap      omega  full diag
   1    -68.5723801 -0.685724E+02  0.535E-01    0.54       0.0  T
   2    -68.5666489  0.573116E-02  0.393E-01    0.56       1.0  T
   3    -68.5222231  0.444258E-01  0.661E-01    0.54       1.0  T
   4    -68.5580189 -0.357958E-01  0.359E-01    0.54       1.0  T
   5    -68.5721203 -0.141014E-01  0.106E-01    0.53       1.0  T
   6    -68.5733479 -0.122759E-02  0.375E-02    0.55       1.0  T
   7    -68.5734765 -0.128588E-03  0.218E-02    0.55       1.0  T
   8    -68.5735085 -0.319985E-04  0.129E-02    0.55       1.0  T
   9    -68.5734944  0.141267E-04  0.152E-02    0.55       1.0  T
  10    -68.5735086 -0.141999E-04  0.862E-03    0.55       1.5  T
  11    -68.5735158 -0.724024E-05  0.355E-03    0.55       3.6  T
  12    -68.5735170 -0.115332E-05  0.149E-03    0.55       8.7  T
  13    -68.5735171 -0.104955E-06  0.107E-03    0.55      12.0  T
  14    -68.5735171 -0.872036E-07  0.547E-04    0.55      23.6  T
  15    -68.5735172 -0.240781E-07  0.300E-04    0.55      43.1  T
     SCC iter.                  ...        0 min,  0.139 sec
     gradient                   ...        0 min,  0.009 sec
 * total energy  :   -67.4166626 Eh     change       -0.3576519E-02 Eh
   gradient norm :     0.0182933 Eh/α   predicted    -0.3247892E-02 (  -9.19%)
   displ. norm   :     0.3672048 α      lambda       -0.2223616E-02
   maximum displ.:     0.1445814 α      in ANC's #29, #74, #70, ...

........................................................................
.............................. CYCLE   34 ..............................
........................................................................

 iter      E             dE          RMSdq      gap      omega  full diag
   1    -68.5741261 -0.685741E+02  0.407E-01    0.56       0.0  T
   2    -68.5698603  0.426587E-02  0.311E-01    0.57       1.0  T
   3    -68.5438639  0.259964E-01  0.509E-01    0.56       1.0  T
   4    -68.5647333 -0.208694E-01  0.290E-01    0.57       1.0  T
   5    -68.5740925 -0.935916E-02  0.797E-02    0.56       1.0  T
   6    -68.5747745 -0.682030E-03  0.297E-02    0.57       1.0  T
   7    -68.5748557 -0.811372E-04  0.173E-02    0.57       1.0  T
   8    -68.5748748 -0.191264E-04  0.104E-02    0.57       1.2  T
   9    -68.5748711  0.370529E-05  0.105E-02    0.57       1.2  T
  10    -68.5748774 -0.627690E-05  0.668E-03    0.57       1.9  T
  11    -68.5748821 -0.467653E-05  0.263E-03    0.57       4.9  T
  12    -68.5748827 -0.657655E-06  0.111E-03    0.57      11.6  T
  13    -68.5748828 -0.566696E-07  0.815E-04    0.57      15.8  T
  14    -68.5748828 -0.393707E-07  0.476E-04    0.57      27.1  T
     SCC iter.                  ...        0 min,  0.134 sec
     gradient                   ...        0 min,  0.009 sec
 * total energy  :   -67.4183020 Eh     change       -0.1639444E-02 Eh
   gradient norm :     0.0211352 Eh/α   predicted    -0.1261728E-02 ( -23.04%)
   displ. norm   :     0.4991605 α      lambda       -0.2719924E-02
   maximum displ.:     0.1988872 α      in ANC's #29, #74, #49, ...

........................................................................
.............................. CYCLE   35 ..............................
........................................................................

 iter      E             dE          RMSdq      gap      omega  full diag
   1    -68.5721563 -0.685722E+02  0.573E-01    0.58       0.0  T
   2    -68.5638930  0.826332E-02  0.435E-01    0.57       1.0  T
   3    -68.5064918  0.574012E-01  0.738E-01    0.58       1.0  T
   4    -68.5551789 -0.486871E-01  0.389E-01    0.57       1.0  T
   5    -68.5719317 -0.167529E-01  0.114E-01    0.57       1.0  T
   6    -68.5733053 -0.137359E-02  0.439E-02    0.58       1.0  T
   7    -68.5734648 -0.159472E-03  0.295E-02    0.58       1.0  T
   8    -68.5735267 -0.618551E-04  0.165E-02    0.58       1.0  T
   9    -68.5735065  0.202048E-04  0.188E-02    0.58       1.0  T
  10    -68.5735271 -0.206302E-04  0.112E-02    0.58       1.1  T
  11    -68.5735408 -0.137237E-04  0.410E-03    0.58       3.2  T
  12    -68.5735424 -0.160471E-05  0.174E-03    0.58       7.4  T
  13    -68.5735426 -0.171436E-06  0.116E-03    0.58      11.1  T
  14    -68.5735427 -0.656311E-07  0.702E-04    0.58      18.4  T
  15    -68.5735427 -0.432836E-07  0.364E-04    0.58      35.5  T
     SCC iter.                  ...        0 min,  0.130 sec
     gradient                   ...        0 min,  0.009 sec
 * total energy  :   -67.4197316 Eh     change       -0.1429522E-02 Eh
   gradient norm :     0.0282799 Eh/α   predicted    -0.1698806E-02 (  18.84%)
   displ. norm   :     0.5109846 α      lambda       -0.4119356E-02
   maximum displ.:     0.1761263 α      in ANC's #29, #74, #75, ...

........................................................................
.............................. CYCLE   36 ..............................
........................................................................

 iter      E             dE          RMSdq      gap      omega  full diag
   1    -68.5722389 -0.685722E+02  0.601E-01    0.58       0.0  T
   2    -68.5633576  0.888136E-02  0.456E-01    0.56       1.0  T
   3    -68.5002397  0.631178E-01  0.764E-01    0.59       1.0  T
   4    -68.5516807 -0.514409E-01  0.428E-01    0.54       1.0  T
   5    -68.5713842 -0.197035E-01  0.139E-01    0.57       1.0  T
   6    -68.5735137 -0.212946E-02  0.512E-02    0.58       1.0  T
   7    -68.5737191 -0.205399E-03  0.374E-02    0.57       1.0  T
   8    -68.5738318 -0.112745E-03  0.191E-02    0.57       1.0  T
   9    -68.5738126  0.191871E-04  0.203E-02    0.57       1.0  T
  10    -68.5738315 -0.188377E-04  0.137E-02    0.57       1.0  T
  11    -68.5738522 -0.207348E-04  0.502E-03    0.57       2.6  T
  12    -68.5738547 -0.249948E-05  0.199E-03    0.57       6.5  T
  13    -68.5738550 -0.269972E-06  0.116E-03    0.57      11.1  T
  14    -68.5738550 -0.478482E-07  0.746E-04    0.57      17.3  T
  15    -68.5738550 -0.413235E-07  0.406E-04    0.57      31.8  T
     SCC iter.                  ...        0 min,  0.131 sec
     gradient                   ...        0 min,  0.009 sec
 * total energy  :   -67.4228385 Eh     change       -0.3106946E-02 Eh
   gradient norm :     0.0338996 Eh/α   predicted    -0.2597460E-02 ( -16.40%)
   displ. norm   :     0.5249213 α      lambda       -0.4919068E-02
   maximum displ.:     0.1556500 α      in ANC's #58, #97, #75, ...

........................................................................
.............................. CYCLE   37 ..............................
........................................................................

 iter      E             dE          RMSdq      gap      omega  full diag
   1    -68.5744488 -0.685744E+02  0.651E-01    0.57       0.0  T
   2    -68.5663030  0.814581E-02  0.481E-01    0.54       1.0  T
   3    -68.5045946  0.617083E-01  0.756E-01    0.58       1.0  T
   4    -68.5480176 -0.434229E-01  0.482E-01    0.50       1.0  T
   5    -68.5721895 -0.241719E-01  0.184E-01    0.56       1.0  T
   6    -68.5760502 -0.386069E-02  0.558E-02    0.56       1.0  T
   7    -68.5762067 -0.156495E-03  0.494E-02    0.56       1.0  T
   8    -68.5764340 -0.227311E-03  0.229E-02    0.56       1.0  T
   9    -68.5764319  0.208774E-05  0.200E-02    0.56       1.0  T
  10    -68.5764413 -0.938043E-05  0.156E-02    0.56       1.0  T
  11    -68.5764681 -0.267969E-04  0.564E-03    0.56       2.3  T
  12    -68.5764710 -0.292107E-05  0.242E-03    0.56       5.3  T
  13    -68.5764715 -0.456042E-06  0.139E-03    0.56       9.3  T
  14    -68.5764715 -0.783206E-07  0.904E-04    0.56      14.3  T
  15    -68.5764716 -0.574638E-07  0.520E-04    0.56      24.8  T
     SCC iter.                  ...        0 min,  0.184 sec
     gradient                   ...        0 min,  0.009 sec
 * total energy  :   -67.4263657 Eh     change       -0.3527178E-02 Eh
   gradient norm :     0.0398215 Eh/α   predicted    -0.3137232E-02 ( -11.06%)
   displ. norm   :     0.3984455 α      lambda       -0.4813198E-02
   maximum displ.:     0.1078804 α      in ANC's #58, #97, #67, ...

........................................................................
.............................. CYCLE   38 ..............................
........................................................................

 iter      E             dE          RMSdq      gap      omega  full diag
   1    -68.5822507 -0.685823E+02  0.543E-01    0.56       0.0  T
   2    -68.5771143  0.513636E-02  0.388E-01    0.53       1.0  T
   3    -68.5378202  0.392941E-01  0.622E-01    0.57       1.0  T
   4    -68.5680460 -0.302258E-01  0.335E-01    0.57       1.0  T
   5    -68.5816020 -0.135560E-01  0.123E-01    0.55       1.0  T
   6    -68.5833605 -0.175849E-02  0.486E-02    0.55       1.0  T
   7    -68.5835580 -0.197533E-03  0.224E-02    0.55       1.0  T
   8    -68.5835664 -0.840923E-05  0.206E-02    0.55       1.0  T
   9    -68.5835874 -0.209210E-04  0.132E-02    0.55       1.0  T
  10    -68.5835738  0.135568E-04  0.144E-02    0.55       1.0  T
  11    -68.5835983 -0.244685E-04  0.386E-03    0.55       3.3  T
  12    -68.5835997 -0.137761E-05  0.145E-03    0.55       8.9  T
  13    -68.5835997 -0.727964E-07  0.105E-03    0.55      12.3  T
  14    -68.5835998 -0.366283E-07  0.641E-04    0.55      20.1  T
  15    -68.5835998 -0.265542E-07  0.373E-04    0.55      34.6  T
     SCC iter.                  ...        0 min,  0.127 sec
     gradient                   ...        0 min,  0.008 sec
 * total energy  :   -67.4287268 Eh     change       -0.2361136E-02 Eh
   gradient norm :     0.0453597 Eh/α   predicted    -0.2788667E-02 (  18.11%)
   displ. norm   :     0.3400987 α      lambda       -0.6887869E-02
   maximum displ.:     0.0927497 α      in ANC's #78, #62, #72, ...

........................................................................
.............................. CYCLE   39 ..............................
........................................................................

 iter      E             dE          RMSdq      gap      omega  full diag
   1    -68.5936345 -0.685936E+02  0.493E-01    0.55       0.0  T
   2    -68.5878919  0.574261E-02  0.358E-01    0.53       1.0  T
   3    -68.5371482  0.507437E-01  0.686E-01    0.50       1.0  T
   4    -68.5701643 -0.330162E-01  0.425E-01    0.56       1.0  T
   5    -68.5927285 -0.225641E-01  0.122E-01    0.54       1.0  T
   6    -68.5944165 -0.168809E-02  0.426E-02    0.54       1.0  T
   7    -68.5945829 -0.166355E-03  0.209E-02    0.54       1.0  T
   8    -68.5945955 -0.125681E-04  0.161E-02    0.54       1.0  T
   9    -68.5945866  0.890466E-05  0.157E-02    0.54       1.0  T
  10    -68.5945894 -0.287680E-05  0.127E-02    0.54       1.0  T
  11    -68.5946067 -0.172376E-04  0.417E-03    0.54       3.1  T
  12    -68.5946085 -0.180167E-05  0.163E-03    0.54       7.9  T
  13    -68.5946085 -0.993306E-08  0.136E-03    0.54       9.5  T
  14    -68.5946086 -0.101893E-06  0.784E-04    0.54      16.5  T
  15    -68.5946087 -0.717493E-07  0.260E-04    0.54      49.6  T
     SCC iter.                  ...        0 min,  0.131 sec
     gradient                   ...        0 min,  0.008 sec
 * total energy  :   -67.4321333 Eh     change       -0.3406480E-02 Eh
   gradient norm :     0.0446060 Eh/α   predicted    -0.3842287E-02 (  12.79%)
   displ. norm   :     0.5687197 α      lambda       -0.7233055E-02
   maximum displ.:     0.1814202 α      in ANC's #70, #75, #58, ...

........................................................................
.............................. CYCLE   40 ..............................
........................................................................

 iter      E             dE          RMSdq      gap      omega  full diag
   1    -68.5817797 -0.685818E+02  0.732E-01    0.53       0.0  T
   2    -68.5646831  0.170967E-01  0.586E-01    0.46       1.0  T
   3    -68.5040501  0.606329E-01  0.868E-01    0.54       1.0  T
   4    -68.5502065 -0.461564E-01  0.511E-01    0.48       1.0  T
   5    -68.5805790 -0.303725E-01  0.189E-01    0.51       1.0  T
   6    -68.5836210 -0.304199E-02  0.104E-01    0.51       1.0  T
   7    -68.5846418 -0.102084E-02  0.496E-02    0.51       1.0  T
   8    -68.5847027 -0.608260E-04  0.436E-02    0.51       1.0  T
   9    -68.5846568  0.459139E-04  0.428E-02    0.51       1.0  T
  10    -68.5846508  0.596068E-05  0.288E-02    0.51       1.0  T
  11    -68.5847317 -0.809249E-04  0.102E-02    0.51       1.3  T
  12    -68.5847416 -0.987206E-05  0.409E-03    0.51       3.2  T
  13    -68.5847427 -0.108866E-05  0.252E-03    0.51       5.1  T
  14    -68.5847429 -0.246002E-06  0.153E-03    0.51       8.5  T
  15    -68.5847430 -0.989139E-07  0.108E-03    0.51      11.9  T
  16    -68.5847431 -0.355387E-07  0.772E-04    0.51      16.7  T
  17    -68.5847431 -0.632376E-07  0.260E-04    0.51      49.6  T
     SCC iter.                  ...        0 min,  0.142 sec
     gradient                   ...        0 min,  0.008 sec
 * total energy  :   -67.4369932 Eh     change       -0.4859945E-02 Eh
   gradient norm :     0.0342949 Eh/α   predicted    -0.4786275E-02 (  -1.52%)
   displ. norm   :     0.5277005 α      lambda       -0.5995207E-02
   maximum displ.:     0.1873728 α      in ANC's #70, #75, #55, ...

........................................................................
.............................. CYCLE   41 ..............................
........................................................................

 iter      E             dE          RMSdq      gap      omega  full diag
   1    -68.5765264 -0.685765E+02  0.692E-01    0.47       0.0  T
   2    -68.5495725  0.269539E-01  0.648E-01    0.35       1.0  T
   3    -68.5226977  0.268748E-01  0.793E-01    0.48       1.0  T
   4    -68.5450043 -0.223066E-01  0.509E-01    0.49       1.0  T
   5    -68.5770372 -0.320329E-01  0.174E-01    0.44       1.0  T
   6    -68.5789823 -0.194516E-02  0.104E-01    0.44       1.0  T
   7    -68.5798248 -0.842454E-03  0.662E-02    0.44       1.0  T
   8    -68.5798514 -0.266271E-04  0.632E-02    0.44       1.0  T
   9    -68.5798166  0.348176E-04  0.592E-02    0.44       1.0  T
  10    -68.5798155  0.113914E-05  0.391E-02    0.44       1.0  T
  11    -68.5799359 -0.120429E-03  0.158E-02    0.44       1.0  T
  12    -68.5799614 -0.254751E-04  0.590E-03    0.44       2.2  T
  13    -68.5799632 -0.186506E-05  0.330E-03    0.44       3.9  T
  14    -68.5799633 -0.112105E-06  0.206E-03    0.44       6.3  T
  15    -68.5799635 -0.180365E-06  0.130E-03    0.44       9.9  T
  16    -68.5799636 -0.999306E-07  0.838E-04    0.44      15.4  T
  17    -68.5799637 -0.694772E-07  0.278E-04    0.44      46.4  T
     SCC iter.                  ...        0 min,  0.172 sec
     gradient                   ...        0 min,  0.008 sec
 * total energy  :   -67.4415398 Eh     change       -0.4546574E-02 Eh
   gradient norm :     0.0380662 Eh/α   predicted    -0.3832328E-02 ( -15.71%)
   displ. norm   :     0.6474045 α      lambda       -0.8974596E-02
   maximum displ.:     0.2234481 α      in ANC's #70, #75, #73, ...

........................................................................
.............................. CYCLE   42 ..............................
........................................................................

 iter      E             dE          RMSdq      gap      omega  full diag
   1    -68.5710345 -0.685710E+02  0.884E-01    0.36       0.0  T
   2    -68.4780515  0.929830E-01  0.110E+00    0.24       1.0  T
   3    -68.5024346 -0.243831E-01  0.995E-01    0.34       1.0  T
   4    -68.5232504 -0.208158E-01  0.648E-01    0.44       1.0  T
   5    -68.5711381 -0.478877E-01  0.286E-01    0.30       1.0  T
   6    -68.5768082 -0.567015E-02  0.179E-01    0.30       1.0  T
   7    -68.5783594 -0.155118E-02  0.148E-01    0.32       1.0  T
   8    -68.5783779 -0.184856E-04  0.140E-01    0.32       1.0  T
   9    -68.5778947  0.483232E-03  0.133E-01    0.31       1.0  T
  10    -68.5784892 -0.594538E-03  0.641E-02    0.31       1.0  T
  11    -68.5787686 -0.279444E-03  0.286E-02    0.31       1.0  T
  12    -68.5788101 -0.414641E-04  0.173E-02    0.30       1.0  T
  13    -68.5788165 -0.639230E-05  0.112E-02    0.30       1.2  T
  14    -68.5788159  0.601492E-06  0.799E-03    0.30       1.6  T
  15    -68.5788159 -0.489918E-07  0.497E-03    0.30       2.6  T
  16    -68.5788183 -0.233035E-05  0.150E-03    0.30       8.6  T
  17    -68.5788185 -0.207844E-06  0.697E-04    0.30      18.5  T
  18    -68.5788185 -0.133723E-07  0.459E-04    0.30      28.1  T
     SCC iter.                  ...        0 min,  0.147 sec
     gradient                   ...        0 min,  0.008 sec
 * total energy  :   -67.4468526 Eh     change       -0.5312761E-02 Eh
   gradient norm :     0.0458924 Eh/α   predicted    -0.6368061E-02 (  19.86%)
   displ. norm   :     0.5734954 α      lambda       -0.9736886E-02
   maximum displ.:     0.1752122 α      in ANC's #73, #75, #70, ...
 * RMSD in coord.:     0.8962917 α      energy gain  -0.1131354E+00 Eh

generating ANC from exact Hessian ...
Using Lindh-Hessian (1995)
 Shifting diagonal of input Hessian by   1.067958835195141E-002
 Lowest  eigenvalues of input Hessian
    0.010000    0.010132    0.010235    0.010300    0.010339    0.010390
    0.010413    0.010433    0.010466    0.010483    0.000000    0.000000
    0.000000    0.000000    0.000000    0.000000    0.010860    0.011019
 Highest eigenvalues
    1.464951    1.467418    1.489004    1.491772    1.520776    1.547557
 

........................................................................
.............................. CYCLE   43 ..............................
........................................................................

 iter      E             dE          RMSdq      gap      omega  full diag
   1    -68.5750644 -0.685751E+02  0.873E-01    0.28       0.0  T
   2    -68.4255999  0.149464E+00  0.126E+00    0.22       1.0  T
   3    -68.4865108 -0.609108E-01  0.109E+00    0.29       1.0  T
   4    -68.5513380 -0.648272E-01  0.533E-01    0.35       1.0  T
   5    -68.5494039  0.193410E-02  0.488E-01    0.26       1.0  T
   6    -68.5789120 -0.295082E-01  0.271E-01    0.25       1.0  T
   7    -68.5853497 -0.643763E-02  0.158E-01    0.27       1.0  T
   8    -68.5857306 -0.380893E-03  0.143E-01    0.27       1.0  T
   9    -68.5853739  0.356627E-03  0.128E-01    0.26       1.0  T
  10    -68.5856446 -0.270625E-03  0.768E-02    0.26       1.0  T
  11    -68.5859134 -0.268830E-03  0.483E-02    0.27       1.0  T
  12    -68.5860293 -0.115923E-03  0.224E-02    0.27       1.0  T
  13    -68.5860362 -0.687988E-05  0.148E-02    0.27       1.0  T
  14    -68.5860357  0.464359E-06  0.117E-02    0.27       1.1  T
  15    -68.5860347  0.999071E-06  0.732E-03    0.26       1.8  T
  16    -68.5860388 -0.408507E-05  0.282E-03    0.26       4.6  T
  17    -68.5860396 -0.738790E-06  0.124E-03    0.26      10.4  T
  18    -68.5860397 -0.919931E-07  0.113E-03    0.26      11.5  T
  19    -68.5860397 -0.107797E-07  0.997E-04    0.26      12.9  T
  20    -68.5860397 -0.142365E-07  0.709E-04    0.26      18.2  T
     SCC iter.                  ...        0 min,  0.162 sec
     gradient                   ...        0 min,  0.008 sec
 * total energy  :   -67.4548475 Eh     change       -0.7994931E-02 Eh
   gradient norm :     0.0490315 Eh/α   predicted     0.0000000E+00 (-100.00%)
   displ. norm   :     0.3322883 α      lambda       -0.8131310E-02
   maximum displ.:     0.1390843 α      in ANC's #49, #30, #55, ...

........................................................................
.............................. CYCLE   44 ..............................
........................................................................

 iter      E             dE          RMSdq      gap      omega  full diag
   1    -68.5927546 -0.685928E+02  0.403E-01    0.27       0.0  T
   2    -68.5579054  0.348492E-01  0.614E-01    0.28       1.0  T
   3    -68.5669949 -0.908954E-02  0.600E-01    0.31       1.0  T
   4    -68.5861381 -0.191432E-01  0.274E-01    0.30       1.0  T
   5    -68.5846922  0.144585E-02  0.266E-01    0.27       1.0  T
   6    -68.5940133 -0.932111E-02  0.991E-02    0.27       1.0  T
   7    -68.5948953 -0.881993E-03  0.538E-02    0.28       1.0  T
   8    -68.5949556 -0.603055E-04  0.456E-02    0.28       1.0  T
   9    -68.5948302  0.125407E-03  0.506E-02    0.28       1.0  T
  10    -68.5949399 -0.109637E-03  0.228E-02    0.28       1.0  T
  11    -68.5949824 -0.425754E-04  0.119E-02    0.28       1.1  T
  12    -68.5949906 -0.817701E-05  0.701E-03    0.28       1.8  T
  13    -68.5949918 -0.115053E-05  0.433E-03    0.28       3.0  T
  14    -68.5949919 -0.154994E-06  0.282E-03    0.28       4.6  T
  15    -68.5949919  0.727022E-08  0.172E-03    0.28       7.5  T
  16    -68.5949922 -0.279218E-06  0.506E-04    0.28      25.5  T
  17    -68.5949922 -0.193863E-07  0.289E-04    0.28      44.6  T
     SCC iter.                  ...        0 min,  0.136 sec
     gradient                   ...        0 min,  0.009 sec
 * total energy  :   -67.4613294 Eh     change       -0.6481892E-02 Eh
   gradient norm :     0.0360350 Eh/α   predicted    -0.4514916E-02 ( -30.35%)
   displ. norm   :     0.6863729 α      lambda       -0.1700338E-01
   maximum displ.:     0.2011135 α      in ANC's #70, #55, #30, ...

........................................................................
.............................. CYCLE   45 ..............................
........................................................................

 iter      E             dE          RMSdq      gap      omega  full diag
   1    -68.5916403 -0.685916E+02  0.101E+00    0.38       0.0  T
   2    -68.3512087  0.240432E+00  0.152E+00    0.27       1.0  T
   3    -68.4863343 -0.135126E+00  0.117E+00    0.37       1.0  T
   4    -68.5869884 -0.100654E+00  0.555E-01    0.36       1.0  T
   5    -68.6026068 -0.156184E-01  0.313E-01    0.34       1.0  T
   6    -68.6102739 -0.766710E-02  0.208E-01    0.36       1.0  T
   7    -68.6120171 -0.174322E-02  0.174E-01    0.36       1.0  T
   8    -68.6113311  0.686025E-03  0.173E-01    0.36       1.0  T
   9    -68.6094230  0.190803E-02  0.181E-01    0.36       1.0  T
  10    -68.6119705 -0.254743E-02  0.713E-02    0.36       1.0  T
  11    -68.6124827 -0.512276E-03  0.317E-02    0.36       1.0  T
  12    -68.6125089 -0.261270E-04  0.197E-02    0.36       1.0  T
  13    -68.6125133 -0.443521E-05  0.148E-02    0.36       1.0  T
  14    -68.6125152 -0.192356E-05  0.957E-03    0.36       1.3  T
  15    -68.6125189 -0.367831E-05  0.535E-03    0.36       2.4  T
  16    -68.6125221 -0.319243E-05  0.151E-03    0.36       8.5  T
  17    -68.6125222 -0.135038E-06  0.824E-04    0.36      15.7  T
  18    -68.6125223 -0.326460E-07  0.569E-04    0.36      22.7  T
     SCC iter.                  ...        0 min,  0.149 sec
     gradient                   ...        0 min,  0.009 sec
 * total energy  :   -67.4739922 Eh     change       -0.1266283E-01 Eh
   gradient norm :     0.0590016 Eh/α   predicted    -0.1250693E-01 (  -1.23%)
   displ. norm   :     0.6796576 α      lambda       -0.1613620E-01
   maximum displ.:     0.1952045 α      in ANC's #92, #94, #70, ...

........................................................................
.............................. CYCLE   46 ..............................
........................................................................

 iter      E             dE          RMSdq      gap      omega  full diag
   1    -68.5997316 -0.685997E+02  0.106E+00    0.47       0.0  T
   2    -68.3707471  0.228985E+00  0.150E+00    0.25       1.0  T
   3    -68.5064439 -0.135697E+00  0.110E+00    0.47       1.0  T
   4    -68.5413177 -0.348738E-01  0.907E-01    0.48       1.0  T
   5    -68.5584085 -0.170908E-01  0.677E-01    0.39       1.0  T
   6    -68.6180748 -0.596664E-01  0.231E-01    0.47       1.0  T
   7    -68.6204026 -0.232776E-02  0.176E-01    0.47       1.0  T
   8    -68.6206212 -0.218597E-03  0.166E-01    0.47       1.0  T
   9    -68.6199676  0.653541E-03  0.153E-01    0.47       1.0  T
  10    -68.6209411 -0.973482E-03  0.763E-02    0.47       1.0  T
  11    -68.6213801 -0.438952E-03  0.326E-02    0.46       1.0  T
  12    -68.6214212 -0.410986E-04  0.180E-02    0.46       1.0  T
  13    -68.6214242 -0.301397E-05  0.155E-02    0.46       1.0  T
  14    -68.6214213  0.284383E-05  0.125E-02    0.46       1.0  T
  15    -68.6214256 -0.425563E-05  0.571E-03    0.46       2.3  T
  16    -68.6214285 -0.289956E-05  0.252E-03    0.46       5.1  T
  17    -68.6214288 -0.300062E-06  0.148E-03    0.46       8.7  T
  18    -68.6214288 -0.173540E-07  0.945E-04    0.46      13.7  T
  19    -68.6214289 -0.505151E-07  0.389E-04    0.46      33.2  T
     SCC iter.                  ...        0 min,  0.160 sec
     gradient                   ...        0 min,  0.008 sec
 * total energy  :   -67.4855502 Eh     change       -0.1155801E-01 Eh
   gradient norm :     0.0826168 Eh/α   predicted    -0.1179506E-01 (   2.05%)
   displ. norm   :     0.4858505 α      lambda       -0.1378004E-01
   maximum displ.:     0.1362423 α      in ANC's #94, #92, #30, ...

........................................................................
.............................. CYCLE   47 ..............................
........................................................................

 iter      E             dE          RMSdq      gap      omega  full diag
   1    -68.6141816 -0.686142E+02  0.698E-01    0.47       0.0  T
   2    -68.5601332  0.540484E-01  0.757E-01    0.34       1.0  T
   3    -68.5628021 -0.266889E-02  0.744E-01    0.49       1.0  T
   4    -68.5197974  0.430047E-01  0.896E-01    0.50       1.0  T
   5    -68.6026389 -0.828415E-01  0.360E-01    0.47       1.0  T
   6    -68.6199076 -0.172686E-01  0.100E-01    0.47       1.0  T
   7    -68.6206046 -0.697061E-03  0.647E-02    0.46       1.0  T
   8    -68.6208053 -0.200715E-03  0.497E-02    0.47       1.0  T
   9    -68.6207829  0.224269E-04  0.462E-02    0.47       1.0  T
  10    -68.6207569  0.260435E-04  0.322E-02    0.47       1.0  T
  11    -68.6208598 -0.102877E-03  0.126E-02    0.46       1.0  T
  12    -68.6208741 -0.143258E-04  0.550E-03    0.46       2.3  T
  13    -68.6208754 -0.130996E-05  0.367E-03    0.46       3.5  T
  14    -68.6208759 -0.525223E-06  0.234E-03    0.46       5.5  T
  15    -68.6208759  0.573444E-07  0.196E-03    0.46       6.6  T
  16    -68.6208762 -0.354012E-06  0.912E-04    0.46      14.2  T
  17    -68.6208763 -0.748927E-07  0.310E-04    0.46      41.6  T
     SCC iter.                  ...        0 min,  0.134 sec
     gradient                   ...        0 min,  0.009 sec
 * total energy  :   -67.4912348 Eh     change       -0.5684512E-02 Eh
   gradient norm :     0.0881907 Eh/α   predicted    -0.8516445E-02 (  49.82%)
   displ. norm   :     0.3825164 α      lambda       -0.2286391E-01
   maximum displ.:     0.0960752 α      in ANC's #75, #84, #82, ...

........................................................................
.............................. CYCLE   48 ..............................
........................................................................

 iter      E             dE          RMSdq      gap      omega  full diag
   1    -68.6098578 -0.686099E+02  0.455E-01    0.42       0.0  T
   2    -68.6012147  0.864305E-02  0.390E-01    0.45       1.0  T
   3    -68.5765995  0.246153E-01  0.558E-01    0.39       1.0  T
   4    -68.5710416  0.555791E-02  0.549E-01    0.45       1.0  T
   5    -68.6030168 -0.319752E-01  0.243E-01    0.45       1.0  T
   6    -68.6110058 -0.798899E-02  0.486E-02    0.43       1.0  T
   7    -68.6111606 -0.154810E-03  0.332E-02    0.43       1.0  T
   8    -68.6112362 -0.755919E-04  0.223E-02    0.43       1.0  T
   9    -68.6112412 -0.502916E-05  0.190E-02    0.43       1.0  T
  10    -68.6112534 -0.121842E-04  0.150E-02    0.43       1.0  T
  11    -68.6112762 -0.228435E-04  0.460E-03    0.43       2.8  T
  12    -68.6112783 -0.210856E-05  0.197E-03    0.43       6.6  T
  13    -68.6112784 -0.899629E-07  0.145E-03    0.43       8.9  T
  14    -68.6112786 -0.148473E-06  0.772E-04    0.43      16.7  T
  15    -68.6112786 -0.407473E-07  0.435E-04    0.43      29.7  T
     SCC iter.                  ...        0 min,  0.258 sec
     gradient                   ...        0 min,  0.009 sec
 * total energy  :   -67.5026762 Eh     change       -0.1144148E-01 Eh
   gradient norm :     0.0430550 Eh/α   predicted    -0.1310467E-01 (  14.54%)
   displ. norm   :     0.4652409 α      lambda       -0.7695649E-02
   maximum displ.:     0.1815773 α      in ANC's #30, #44, #63, ...

........................................................................
.............................. CYCLE   49 ..............................
........................................................................

 iter      E             dE          RMSdq      gap      omega  full diag
   1    -68.6189092 -0.686189E+02  0.361E-01    0.42       0.0  T
   2    -68.6091035  0.980572E-02  0.362E-01    0.44       1.0  T
   3    -68.6053231  0.378033E-02  0.358E-01    0.41       1.0  T
   4    -68.5794259  0.258972E-01  0.563E-01    0.44       1.0  T
   5    -68.6155712 -0.361453E-01  0.192E-01    0.43       1.0  T
   6    -68.6201583 -0.458707E-02  0.407E-02    0.42       1.0  T
   7    -68.6203165 -0.158205E-03  0.213E-02    0.42       1.0  T
   8    -68.6203483 -0.317634E-04  0.115E-02    0.42       1.1  T
   9    -68.6203411  0.714936E-05  0.116E-02    0.42       1.1  T
  10    -68.6203402  0.939352E-06  0.109E-02    0.42       1.2  T
  11    -68.6203508 -0.105935E-04  0.472E-03    0.42       2.7  T
  12    -68.6203535 -0.273571E-05  0.184E-03    0.42       7.0  T
  13    -68.6203538 -0.228542E-06  0.115E-03    0.42      11.2  T
  14    -68.6203538 -0.796356E-07  0.702E-04    0.42      18.4  T
  15    -68.6203539 -0.460150E-07  0.302E-04    0.42      42.8  T
     SCC iter.                  ...        0 min,  0.144 sec
     gradient                   ...        0 min,  0.010 sec
 * total energy  :   -67.5090818 Eh     change       -0.6405541E-02 Eh
   gradient norm :     0.0385414 Eh/α   predicted    -0.4680693E-02 ( -26.93%)
   displ. norm   :     0.6912976 α      lambda       -0.1193119E-01
   maximum displ.:     0.2879210 α      in ANC's #30, #44, #63, ...

........................................................................
.............................. CYCLE   50 ..............................
........................................................................

 iter      E             dE          RMSdq      gap      omega  full diag
   1    -68.6259452 -0.686259E+02  0.547E-01    0.38       0.0  T
   2    -68.5921359  0.338093E-01  0.645E-01    0.36       1.0  T
   3    -68.6045539 -0.124180E-01  0.522E-01    0.37       1.0  T
   4    -68.5153566  0.891972E-01  0.912E-01    0.38       1.0  T
   5    -68.6176213 -0.102265E+00  0.310E-01    0.40       1.0  T
   6    -68.6293951 -0.117738E-01  0.799E-02    0.39       1.0  T
   7    -68.6298192 -0.424142E-03  0.560E-02    0.39       1.0  T
   8    -68.6299975 -0.178278E-03  0.388E-02    0.39       1.0  T
   9    -68.6299891  0.842742E-05  0.347E-02    0.39       1.0  T
  10    -68.6299948 -0.571180E-05  0.252E-02    0.39       1.0  T
  11    -68.6300500 -0.552417E-04  0.747E-03    0.39       1.7  T
  12    -68.6300553 -0.530033E-05  0.318E-03    0.39       4.1  T
  13    -68.6300558 -0.440855E-06  0.213E-03    0.39       6.1  T
  14    -68.6300559 -0.156418E-06  0.147E-03    0.39       8.8  T
  15    -68.6300560 -0.975882E-07  0.103E-03    0.39      12.5  T
  16    -68.6300561 -0.102658E-06  0.571E-04    0.39      22.6  T
  17    -68.6300562 -0.277901E-07  0.228E-04    0.39      56.5  T
     SCC iter.                  ...        0 min,  0.163 sec
     gradient                   ...        0 min,  0.008 sec
 * total energy  :   -67.5154939 Eh     change       -0.6412090E-02 Eh
   gradient norm :     0.0358736 Eh/α   predicted    -0.8816558E-02 (  37.50%)
   displ. norm   :     0.3550612 α      lambda       -0.4434259E-02
   maximum displ.:     0.1417784 α      in ANC's #30, #44, #27, ...

........................................................................
.............................. CYCLE   51 ..............................
........................................................................

 iter      E             dE          RMSdq      gap      omega  full diag
   1    -68.6382011 -0.686382E+02  0.297E-01    0.39       0.0  T
   2    -68.6345370  0.366416E-02  0.255E-01    0.38       1.0  T
   3    -68.6303882  0.414881E-02  0.298E-01    0.39       1.0  T
   4    -68.6242535  0.613468E-02  0.320E-01    0.39       1.0  T
   5    -68.6372110 -0.129575E-01  0.111E-01    0.39       1.0  T
   6    -68.6387497 -0.153866E-02  0.342E-02    0.39       1.0  T
   7    -68.6388715 -0.121818E-03  0.160E-02    0.39       1.0  T
   8    -68.6388855 -0.139865E-04  0.117E-02    0.39       1.1  T
   9    -68.6388925 -0.699451E-05  0.705E-03    0.39       1.8  T
  10    -68.6388936 -0.107703E-05  0.618E-03    0.39       2.1  T
  11    -68.6388977 -0.410447E-05  0.244E-03    0.39       5.3  T
  12    -68.6388982 -0.554962E-06  0.899E-04    0.39      14.4  T
  13    -68.6388983 -0.165615E-07  0.807E-04    0.39      16.0  T
     SCC iter.                  ...        0 min,  0.114 sec
     gradient                   ...        0 min,  0.008 sec
 * total energy  :   -67.5187608 Eh     change       -0.3266940E-02 Eh
   gradient norm :     0.0278758 Eh/α   predicted    -0.2496636E-02 ( -23.58%)
   displ. norm   :     0.5151746 α      lambda       -0.6312744E-02
   maximum displ.:     0.1906810 α      in ANC's #30, #27, #31, ...

........................................................................
.............................. CYCLE   52 ..............................
........................................................................

 iter      E             dE          RMSdq      gap      omega  full diag
   1    -68.6481732 -0.686482E+02  0.390E-01    0.40       0.0  T
   2    -68.6401937  0.797949E-02  0.372E-01    0.39       1.0  T
   3    -68.6260996  0.140941E-01  0.462E-01    0.42       1.0  T
   4    -68.5885563  0.375433E-01  0.628E-01    0.42       1.0  T
   5    -68.6473188 -0.587625E-01  0.130E-01    0.40       1.0  T
   6    -68.6491186 -0.179982E-02  0.482E-02    0.40       1.0  T
   7    -68.6493214 -0.202848E-03  0.249E-02    0.40       1.0  T
   8    -68.6493750 -0.535306E-04  0.152E-02    0.40       1.0  T
   9    -68.6493746  0.335861E-06  0.136E-02    0.40       1.0  T
  10    -68.6493637  0.109425E-04  0.128E-02    0.40       1.0  T
  11    -68.6493830 -0.193340E-04  0.354E-03    0.40       3.6  T
  12    -68.6493843 -0.127712E-05  0.142E-03    0.40       9.1  T
  13    -68.6493843 -0.282004E-07  0.123E-03    0.40      10.5  T
  14    -68.6493844 -0.122727E-06  0.602E-04    0.40      21.4  T
  15    -68.6493845 -0.374938E-07  0.226E-04    0.40      57.2  T
     SCC iter.                  ...        0 min,  0.126 sec
     gradient                   ...        0 min,  0.010 sec
 * total energy  :   -67.5221506 Eh     change       -0.3389742E-02 Eh
   gradient norm :     0.0302749 Eh/α   predicted    -0.3994082E-02 (  17.83%)
   displ. norm   :     0.4885041 α      lambda       -0.3898579E-02
   maximum displ.:     0.1904384 α      in ANC's #30, #27, #44, ...

........................................................................
.............................. CYCLE   53 ..............................
........................................................................

 iter      E             dE          RMSdq      gap      omega  full diag
   1    -68.6481347 -0.686481E+02  0.395E-01    0.39       0.0  T
   2    -68.6385623  0.957248E-02  0.376E-01    0.38       1.0  T
   3    -68.6138794  0.246828E-01  0.538E-01    0.38       1.0  T
   4    -68.5903252  0.235542E-01  0.613E-01    0.41       1.0  T
   5    -68.6470462 -0.567210E-01  0.138E-01    0.39       1.0  T
   6    -68.6488547 -0.180851E-02  0.567E-02    0.38       1.0  T
   7    -68.6492255 -0.370744E-03  0.274E-02    0.39       1.0  T
   8    -68.6492823 -0.568489E-04  0.172E-02    0.39       1.0  T
   9    -68.6492866 -0.427909E-05  0.144E-02    0.39       1.0  T
  10    -68.6492738  0.127772E-04  0.134E-02    0.39       1.0  T
  11    -68.6492884 -0.146078E-04  0.527E-03    0.39       2.5  T
  12    -68.6492918 -0.341766E-05  0.164E-03    0.39       7.9  T
  13    -68.6492919 -0.798250E-07  0.112E-03    0.39      11.6  T
  14    -68.6492920 -0.435464E-07  0.800E-04    0.39      16.1  T
  15    -68.6492920 -0.567149E-07  0.362E-04    0.39      35.7  T
     SCC iter.                  ...        0 min,  0.133 sec
     gradient                   ...        0 min,  0.009 sec
 * total energy  :   -67.5244339 Eh     change       -0.2283363E-02 Eh
   gradient norm :     0.0255351 Eh/α   predicted    -0.2414460E-02 (   5.74%)
   displ. norm   :     0.3296026 α      lambda       -0.2748836E-02
   maximum displ.:     0.0992525 α      in ANC's #30, #27, #17, ...

........................................................................
.............................. CYCLE   54 ..............................
........................................................................

 iter      E             dE          RMSdq      gap      omega  full diag
   1    -68.6443291 -0.686443E+02  0.298E-01    0.37       0.0  T
   2    -68.6374691  0.686003E-02  0.299E-01    0.37       1.0  T
   3    -68.6131143  0.243547E-01  0.483E-01    0.36       1.0  T
   4    -68.6255722 -0.124579E-01  0.363E-01    0.39       1.0  T
   5    -68.6435644 -0.179922E-01  0.977E-02    0.37       1.0  T
   6    -68.6446600 -0.109566E-02  0.354E-02    0.37       1.0  T
   7    -68.6447841 -0.124110E-03  0.181E-02    0.37       1.0  T
   8    -68.6448051 -0.209407E-04  0.110E-02    0.37       1.2  T
   9    -68.6448041  0.100675E-05  0.105E-02    0.37       1.2  T
  10    -68.6447957  0.833048E-05  0.966E-03    0.37       1.3  T
  11    -68.6448057 -0.993208E-05  0.313E-03    0.37       4.1  T
  12    -68.6448068 -0.110767E-05  0.129E-03    0.37      10.0  T
  13    -68.6448068 -0.431138E-07  0.794E-04    0.37      16.3  T
  14    -68.6448068 -0.643863E-08  0.622E-04    0.37      20.8  T
     SCC iter.                  ...        0 min,  0.129 sec
     gradient                   ...        0 min,  0.011 sec
 * total energy  :   -67.5264743 Eh     change       -0.2040412E-02 Eh
   gradient norm :     0.0160908 Eh/α   predicted    -0.1523726E-02 ( -25.32%)
   displ. norm   :     0.5595052 α      lambda       -0.3349605E-02
   maximum displ.:     0.2057380 α      in ANC's #11, #17, #31, ...

........................................................................
.............................. CYCLE   55 ..............................
........................................................................

 iter      E             dE          RMSdq      gap      omega  full diag
   1    -68.6385971 -0.686386E+02  0.533E-01    0.36       0.0  T
   2    -68.6279813  0.106159E-01  0.442E-01    0.36       1.0  T
   3    -68.5040858  0.123896E+00  0.973E-01    0.35       1.0  T
   4    -68.5963230 -0.922372E-01  0.533E-01    0.37       1.0  T
   5    -68.6368675 -0.405445E-01  0.138E-01    0.35       1.0  T
   6    -68.6390244 -0.215693E-02  0.651E-02    0.36       1.0  T
   7    -68.6393128 -0.288428E-03  0.366E-02    0.36       1.0  T
   8    -68.6393381 -0.252657E-04  0.329E-02    0.36       1.0  T
   9    -68.6393369  0.121462E-05  0.286E-02    0.36       1.0  T
  10    -68.6393347  0.215487E-05  0.143E-02    0.36       1.0  T
  11    -68.6393536 -0.189050E-04  0.570E-03    0.36       2.3  T
  12    -68.6393562 -0.252222E-05  0.287E-03    0.36       4.5  T
  13    -68.6393564 -0.198454E-06  0.226E-03    0.36       5.7  T
  14    -68.6393565 -0.136521E-06  0.164E-03    0.36       7.9  T
  15    -68.6393565 -0.208807E-07  0.137E-03    0.36       9.4  T
  16    -68.6393567 -0.220691E-06  0.349E-04    0.36      36.9  T
  17    -68.6393567 -0.947266E-08  0.189E-04    0.36      68.4  T
     SCC iter.                  ...        0 min,  0.184 sec
     gradient                   ...        0 min,  0.009 sec
 * total energy  :   -67.5284030 Eh     change       -0.1928710E-02 Eh
   gradient norm :     0.0261709 Eh/α   predicted    -0.2199097E-02 (  14.02%)
   displ. norm   :     0.4812795 α      lambda       -0.3256747E-02
   maximum displ.:     0.1694238 α      in ANC's #2, #11, #31, ...

........................................................................
.............................. CYCLE   56 ..............................
........................................................................

 iter      E             dE          RMSdq      gap      omega  full diag
   1    -68.6414582 -0.686415E+02  0.342E-01    0.35       0.0  T
   2    -68.6354713  0.598694E-02  0.315E-01    0.35       1.0  T
   3    -68.5954401  0.400312E-01  0.583E-01    0.35       1.0  T
   4    -68.6179877 -0.225476E-01  0.391E-01    0.39       1.0  T
   5    -68.6403598 -0.223720E-01  0.107E-01    0.34       1.0  T
   6    -68.6418086 -0.144880E-02  0.390E-02    0.35       1.0  T
   7    -68.6419268 -0.118279E-03  0.180E-02    0.35       1.0  T
   8    -68.6419343 -0.745942E-05  0.158E-02    0.35       1.0  T
   9    -68.6419342  0.810364E-07  0.146E-02    0.35       1.0  T
  10    -68.6419315  0.270047E-05  0.974E-03    0.35       1.3  T
  11    -68.6419420 -0.105073E-04  0.331E-03    0.35       3.9  T
  12    -68.6419433 -0.122540E-05  0.143E-03    0.35       9.0  T
  13    -68.6419433 -0.935081E-07  0.951E-04    0.35      13.6  T
  14    -68.6419434 -0.356577E-07  0.545E-04    0.35      23.7  T
     SCC iter.                  ...        0 min,  0.121 sec
     gradient                   ...        0 min,  0.010 sec
 * total energy  :   -67.5304944 Eh     change       -0.2091320E-02 Eh
   gradient norm :     0.0291439 Eh/α   predicted    -0.2005557E-02 (  -4.10%)
   displ. norm   :     0.5168543 α      lambda       -0.3583200E-02
   maximum displ.:     0.2450845 α      in ANC's #11, #2, #31, ...

........................................................................
.............................. CYCLE   57 ..............................
........................................................................

 iter      E             dE          RMSdq      gap      omega  full diag
   1    -68.6451439 -0.686451E+02  0.438E-01    0.34       0.0  T
   2    -68.6405081  0.463574E-02  0.338E-01    0.34       1.0  T
   3    -68.5327064  0.107802E+00  0.875E-01    0.34       1.0  T
   4    -68.6155949 -0.828886E-01  0.441E-01    0.38       1.0  T
   5    -68.6436568 -0.280618E-01  0.119E-01    0.34       1.0  T
   6    -68.6452649 -0.160816E-02  0.515E-02    0.34       1.0  T
   7    -68.6455737 -0.308801E-03  0.241E-02    0.34       1.0  T
   8    -68.6456071 -0.333694E-04  0.163E-02    0.34       1.0  T
   9    -68.6455982  0.889291E-05  0.173E-02    0.34       1.0  T
  10    -68.6456000 -0.183516E-05  0.110E-02    0.34       1.2  T
  11    -68.6456119 -0.118081E-04  0.336E-03    0.34       3.8  T
  12    -68.6456127 -0.892137E-06  0.158E-03    0.34       8.2  T
  13    -68.6456128 -0.578056E-07  0.124E-03    0.34      10.4  T
  14    -68.6456129 -0.750153E-07  0.652E-04    0.34      19.8  T
  15    -68.6456129 -0.579826E-08  0.565E-04    0.34      22.9  T
     SCC iter.                  ...        0 min,  0.143 sec
     gradient                   ...        0 min,  0.010 sec
 * total energy  :   -67.5333290 Eh     change       -0.2834682E-02 Eh
   gradient norm :     0.0276141 Eh/α   predicted    -0.2270207E-02 ( -19.91%)
   displ. norm   :     0.6167184 α      lambda       -0.5566228E-02
   maximum displ.:     0.2808266 α      in ANC's #11, #2, #26, ...

........................................................................
.............................. CYCLE   58 ..............................
........................................................................

 iter      E             dE          RMSdq      gap      omega  full diag
   1    -68.6549630 -0.686550E+02  0.562E-01    0.33       0.0  T
   2    -68.6489785  0.598448E-02  0.406E-01    0.35       1.0  T
   3    -68.5193173  0.129661E+00  0.909E-01    0.27       1.0  T
   4    -68.6001109 -0.807936E-01  0.612E-01    0.38       1.0  T
   5    -68.6458694 -0.457585E-01  0.282E-01    0.34       1.0  T
   6    -68.6553850 -0.951563E-02  0.657E-02    0.34       1.0  T
   7    -68.6556933 -0.308256E-03  0.416E-02    0.33       1.0  T
   8    -68.6558233 -0.130059E-03  0.252E-02    0.33       1.0  T
   9    -68.6558283 -0.502418E-05  0.232E-02    0.33       1.0  T
  10    -68.6558234  0.499689E-05  0.168E-02    0.33       1.0  T
  11    -68.6558450 -0.216933E-04  0.702E-03    0.33       1.8  T
  12    -68.6558491 -0.407302E-05  0.263E-03    0.33       4.9  T
  13    -68.6558495 -0.351040E-06  0.176E-03    0.33       7.3  T
  14    -68.6558495 -0.525923E-07  0.130E-03    0.33       9.9  T
  15    -68.6558494  0.136964E-06  0.140E-03    0.33       9.2  T
  16    -68.6558496 -0.179698E-06  0.557E-04    0.33      23.2  T
  17    -68.6558496 -0.287457E-07  0.189E-04    0.33      68.1  T
     SCC iter.                  ...        0 min,  0.147 sec
     gradient                   ...        0 min,  0.009 sec
 * total energy  :   -67.5367935 Eh     change       -0.3464492E-02 Eh
   gradient norm :     0.0262620 Eh/α   predicted    -0.3841650E-02 (  10.89%)
   displ. norm   :     0.6549977 α      lambda       -0.4304723E-02
   maximum displ.:     0.3080261 α      in ANC's #11, #22, #13, ...

........................................................................
.............................. CYCLE   59 ..............................
........................................................................

 iter      E             dE          RMSdq      gap      omega  full diag
   1    -68.6467091 -0.686467E+02  0.588E-01    0.29       0.0  T
   2    -68.6376750  0.903412E-02  0.431E-01    0.31       1.0  T
   3    -68.4520034  0.185672E+00  0.111E+00    0.24       1.0  T
   4    -68.5703248 -0.118321E+00  0.727E-01    0.36       1.0  T
   5    -68.6389458 -0.686210E-01  0.262E-01    0.30       1.0  T
   6    -68.6465409 -0.759510E-02  0.922E-02    0.28       1.0  T
   7    -68.6476312 -0.109025E-02  0.449E-02    0.29       1.0  T
   8    -68.6477632 -0.132028E-03  0.289E-02    0.29       1.0  T
   9    -68.6477603  0.288783E-05  0.269E-02    0.29       1.0  T
  10    -68.6477487  0.115878E-04  0.208E-02    0.29       1.0  T
  11    -68.6477898 -0.410580E-04  0.791E-03    0.29       1.6  T
  12    -68.6477927 -0.288585E-05  0.437E-03    0.29       3.0  T
  13    -68.6477941 -0.142506E-05  0.318E-03    0.29       4.1  T
  14    -68.6477942 -0.133212E-06  0.251E-03    0.29       5.1  T
  15    -68.6477941  0.154415E-06  0.227E-03    0.29       5.7  T
  16    -68.6477944 -0.318912E-06  0.677E-04    0.29      19.1  T
  17    -68.6477944 -0.413659E-07  0.249E-04    0.29      51.9  T
     SCC iter.                  ...        0 min,  0.158 sec
     gradient                   ...        0 min,  0.008 sec
 * total energy  :   -67.5391921 Eh     change       -0.2398593E-02 Eh
   gradient norm :     0.0348355 Eh/α   predicted    -0.3075770E-02 (  28.23%)
   displ. norm   :     0.4958331 α      lambda       -0.5567185E-02
   maximum displ.:     0.1609773 α      in ANC's #26, #22, #11, ...

........................................................................
.............................. CYCLE   60 ..............................
........................................................................

 iter      E             dE          RMSdq      gap      omega  full diag
   1    -68.6500209 -0.686500E+02  0.515E-01    0.26       0.0  T
   2    -68.6375442  0.124767E-01  0.436E-01    0.29       1.0  T
   3    -68.5845165  0.530277E-01  0.809E-01    0.25       1.0  T
   4    -68.5645435  0.199730E-01  0.795E-01    0.23       1.0  T
   5    -68.6422623 -0.777188E-01  0.250E-01    0.29       1.0  T
   6    -68.6498356 -0.757323E-02  0.102E-01    0.26       1.0  T
   7    -68.6511645 -0.132895E-02  0.539E-02    0.27       1.0  T
   8    -68.6514822 -0.317648E-03  0.326E-02    0.27       1.0  T
   9    -68.6514889 -0.671605E-05  0.302E-02    0.27       1.0  T
  10    -68.6514877  0.117603E-05  0.238E-02    0.27       1.0  T
  11    -68.6515182 -0.304508E-04  0.875E-03    0.27       1.5  T
  12    -68.6515239 -0.578588E-05  0.412E-03    0.27       3.1  T
  13    -68.6515248 -0.869404E-06  0.263E-03    0.27       4.9  T
  14    -68.6515251 -0.289348E-06  0.216E-03    0.27       6.0  T
  15    -68.6515251  0.318541E-07  0.184E-03    0.27       7.0  T
  16    -68.6515253 -0.205712E-06  0.952E-04    0.27      13.6  T
  17    -68.6515254 -0.935413E-07  0.252E-04    0.27      51.2  T
     SCC iter.                  ...        0 min,  0.156 sec
     gradient                   ...        0 min,  0.010 sec
 * total energy  :   -67.5423579 Eh     change       -0.3165729E-02 Eh
   gradient norm :     0.0347860 Eh/α   predicted    -0.3467943E-02 (   9.55%)
   displ. norm   :     0.5650317 α      lambda       -0.6525349E-02
   maximum displ.:     0.1792091 α      in ANC's #26, #11, #74, ...

........................................................................
.............................. CYCLE   61 ..............................
........................................................................

 iter      E             dE          RMSdq      gap      omega  full diag
   1    -68.6448628 -0.686449E+02  0.573E-01    0.23       0.0  T
   2    -68.6245654  0.202974E-01  0.484E-01    0.28       1.0  T
   3    -68.5036767  0.120889E+00  0.102E+00    0.15       1.0  T
   4    -68.5688332 -0.651565E-01  0.729E-01    0.31       1.0  T
   5    -68.6248654 -0.560322E-01  0.391E-01    0.24       1.0  T
   6    -68.6444063 -0.195409E-01  0.152E-01    0.23       1.0  T
   7    -68.6462102 -0.180393E-02  0.882E-02    0.24       1.0  T
   8    -68.6467983 -0.588025E-03  0.628E-02    0.24       1.0  T
   9    -68.6468493 -0.510308E-04  0.580E-02    0.24       1.0  T
  10    -68.6469161 -0.668115E-04  0.452E-02    0.24       1.0  T
  11    -68.6470505 -0.134389E-03  0.215E-02    0.24       1.0  T
  12    -68.6470758 -0.253006E-04  0.110E-02    0.24       1.2  T
  13    -68.6470838 -0.797942E-05  0.780E-03    0.24       1.7  T
  14    -68.6470835  0.284291E-06  0.742E-03    0.24       1.7  T
  15    -68.6470849 -0.139843E-05  0.496E-03    0.24       2.6  T
  16    -68.6470867 -0.184192E-05  0.154E-03    0.24       8.4  T
  17    -68.6470869 -0.212679E-06  0.639E-04    0.24      20.2  T
  18    -68.6470869 -0.862229E-09  0.534E-04    0.24      24.2  T
     SCC iter.                  ...        0 min,  0.151 sec
     gradient                   ...        0 min,  0.009 sec
 * total energy  :   -67.5469690 Eh     change       -0.4611140E-02 Eh
   gradient norm :     0.0376760 Eh/α   predicted    -0.4304319E-02 (  -6.65%)
   displ. norm   :     0.6045103 α      lambda       -0.7567223E-02
   maximum displ.:     0.1650862 α      in ANC's #11, #74, #67, ...

........................................................................
.............................. CYCLE   62 ..............................
........................................................................

 iter      E             dE          RMSdq      gap      omega  full diag
   1    -68.6450937 -0.686451E+02  0.671E-01    0.21       0.0  T
   2    -68.6076184  0.374753E-01  0.627E-01    0.29       1.0  T
   3    -68.3884182  0.219200E+00  0.139E+00    0.09       1.0  T
   4    -68.5851222 -0.196704E+00  0.722E-01    0.32       1.0  T
   5    -68.6206506 -0.355285E-01  0.422E-01    0.21       1.0  T
   6    -68.6371483 -0.164976E-01  0.302E-01    0.22       1.0  T
   7    -68.6452697 -0.812140E-02  0.148E-01    0.23       1.0  T
   8    -68.6475517 -0.228204E-02  0.106E-01    0.23       1.0  T
   9    -68.6475707 -0.189941E-04  0.992E-02    0.23       1.0  T
  10    -68.6477714 -0.200682E-03  0.840E-02    0.23       1.0  T
  11    -68.6480228 -0.251373E-03  0.540E-02    0.23       1.0  T
  12    -68.6482110 -0.188272E-03  0.240E-02    0.22       1.0  T
  13    -68.6482396 -0.286129E-04  0.163E-02    0.22       1.0  T
  14    -68.6482473 -0.769768E-05  0.142E-02    0.22       1.0  T
  15    -68.6482499 -0.260169E-05  0.997E-03    0.22       1.3  T
  16    -68.6482564 -0.649666E-05  0.254E-03    0.22       5.1  T
  17    -68.6482569 -0.486184E-06  0.132E-03    0.22       9.8  T
  18    -68.6482570 -0.429672E-07  0.905E-04    0.22      14.3  T
  19    -68.6482570 -0.210435E-07  0.568E-04    0.22      22.7  T
     SCC iter.                  ...        0 min,  0.187 sec
     gradient                   ...        0 min,  0.009 sec
 * total energy  :   -67.5516880 Eh     change       -0.4718989E-02 Eh
   gradient norm :     0.0368616 Eh/α   predicted    -0.5166269E-02 (   9.48%)
   displ. norm   :     0.5753623 α      lambda       -0.5997146E-02
   maximum displ.:     0.1891072 α      in ANC's #11, #22, #26, ...

........................................................................
.............................. CYCLE   63 ..............................
........................................................................

 iter      E             dE          RMSdq      gap      omega  full diag
   1    -68.6372138 -0.686372E+02  0.618E-01    0.21       0.0  T
   2    -68.5621398  0.750739E-01  0.769E-01    0.30       1.0  T
   3    -68.4470233  0.115117E+00  0.119E+00    0.13       1.0  T
   4    -68.5897333 -0.142710E+00  0.621E-01    0.28       1.0  T
   5    -68.6264068 -0.366735E-01  0.301E-01    0.20       1.0  T
   6    -68.6390925 -0.126857E-01  0.136E-01    0.22       1.0  T
   7    -68.6404569 -0.136440E-02  0.100E-01    0.22       1.0  T
   8    -68.6408753 -0.418358E-03  0.812E-02    0.23       1.0  T
   9    -68.6408542  0.211237E-04  0.821E-02    0.22       1.0  T
  10    -68.6410245 -0.170325E-03  0.594E-02    0.22       1.0  T
  11    -68.6412224 -0.197937E-03  0.269E-02    0.22       1.0  T
  12    -68.6412681 -0.457113E-04  0.139E-02    0.22       1.0  T
  13    -68.6412811 -0.129908E-04  0.819E-03    0.22       1.6  T
  14    -68.6412813 -0.160836E-06  0.734E-03    0.22       1.8  T
  15    -68.6412813  0.240132E-07  0.525E-03    0.22       2.5  T
  16    -68.6412828 -0.154353E-05  0.221E-03    0.22       5.8  T
  17    -68.6412834 -0.573543E-06  0.679E-04    0.22      19.0  T
  18    -68.6412834 -0.322020E-07  0.382E-04    0.22      33.8  T
     SCC iter.                  ...        0 min,  0.150 sec
     gradient                   ...        0 min,  0.010 sec
 * total energy  :   -67.5548528 Eh     change       -0.3164827E-02 Eh
   gradient norm :     0.0400117 Eh/α   predicted    -0.3991223E-02 (  26.11%)
   displ. norm   :     0.4335581 α      lambda       -0.7156523E-02
   maximum displ.:     0.1207264 α      in ANC's #15, #26, #11, ...

........................................................................
.............................. CYCLE   64 ..............................
........................................................................

 iter      E             dE          RMSdq      gap      omega  full diag
   1    -68.6492787 -0.686493E+02  0.513E-01    0.21       0.0  T
   2    -68.5548155  0.944632E-01  0.863E-01    0.29       1.0  T
   3    -68.5772479 -0.224324E-01  0.772E-01    0.18       1.0  T
   4    -68.6220329 -0.447850E-01  0.479E-01    0.25       1.0  T
   5    -68.6395823 -0.175495E-01  0.288E-01    0.21       1.0  T
   6    -68.6516753 -0.120930E-01  0.117E-01    0.22       1.0  T
   7    -68.6528586 -0.118324E-02  0.804E-02    0.22       1.0  T
   8    -68.6532963 -0.437684E-03  0.512E-02    0.22       1.0  T
   9    -68.6532315  0.647186E-04  0.536E-02    0.22       1.0  T
  10    -68.6531024  0.129184E-03  0.448E-02    0.23       1.0  T
  11    -68.6532976 -0.195238E-03  0.213E-02    0.22       1.0  T
  12    -68.6533471 -0.494690E-04  0.732E-03    0.22       1.8  T
  13    -68.6533517 -0.460393E-05  0.428E-03    0.22       3.0  T
  14    -68.6533521 -0.403539E-06  0.280E-03    0.22       4.6  T
  15    -68.6533521 -0.318727E-07  0.192E-03    0.22       6.7  T
  16    -68.6533521 -0.393936E-07  0.132E-03    0.22       9.8  T
  17    -68.6533524 -0.211702E-06  0.408E-04    0.22      31.6  T
  18    -68.6533524 -0.144389E-07  0.216E-04    0.22      59.9  T
     SCC iter.                  ...        0 min,  0.148 sec
     gradient                   ...        0 min,  0.008 sec
 * total energy  :   -67.5578193 Eh     change       -0.2966442E-02 Eh
   gradient norm :     0.0408372 Eh/α   predicted    -0.4250888E-02 (  43.30%)
   displ. norm   :     0.5098048 α      lambda       -0.7348541E-02
   maximum displ.:     0.1445009 α      in ANC's #11, #17, #42, ...

........................................................................
.............................. CYCLE   65 ..............................
........................................................................

 iter      E             dE          RMSdq      gap      omega  full diag
   1    -68.6439664 -0.686440E+02  0.550E-01    0.24       0.0  T
   2    -68.5965379  0.474285E-01  0.695E-01    0.27       1.0  T
   3    -68.5533129  0.432250E-01  0.897E-01    0.21       1.0  T
   4    -68.5714730 -0.181602E-01  0.649E-01    0.27       1.0  T
   5    -68.6185116 -0.470386E-01  0.430E-01    0.27       1.0  T
   6    -68.6448660 -0.263544E-01  0.132E-01    0.24       1.0  T
   7    -68.6457383 -0.872299E-03  0.105E-01    0.25       1.0  T
   8    -68.6466443 -0.905987E-03  0.577E-02    0.25       1.0  T
   9    -68.6467075 -0.632305E-04  0.558E-02    0.25       1.0  T
  10    -68.6466994  0.812538E-05  0.440E-02    0.25       1.0  T
  11    -68.6467047 -0.527660E-05  0.271E-02    0.24       1.0  T
  12    -68.6467799 -0.752098E-04  0.975E-03    0.25       1.3  T
  13    -68.6467844 -0.454374E-05  0.508E-03    0.25       2.5  T
  14    -68.6467844 -0.263176E-07  0.474E-03    0.25       2.7  T
  15    -68.6467839  0.553301E-06  0.422E-03    0.25       3.1  T
  16    -68.6467852 -0.128244E-05  0.190E-03    0.25       6.8  T
  17    -68.6467856 -0.421454E-06  0.509E-04    0.25      25.4  T
  18    -68.6467856 -0.228222E-07  0.331E-04    0.25      39.0  T
     SCC iter.                  ...        0 min,  0.158 sec
     gradient                   ...        0 min,  0.009 sec
 * total energy  :   -67.5620441 Eh     change       -0.4224887E-02 Eh
   gradient norm :     0.0310413 Eh/α   predicted    -0.4629208E-02 (   9.57%)
   displ. norm   :     0.4803780 α      lambda       -0.5512300E-02
   maximum displ.:     0.1378049 α      in ANC's #17, #45, #4, ...

........................................................................
.............................. CYCLE   66 ..............................
........................................................................

 iter      E             dE          RMSdq      gap      omega  full diag
   1    -68.6573282 -0.686573E+02  0.514E-01    0.26       0.0  T
   2    -68.5578437  0.994845E-01  0.879E-01    0.25       1.0  T
   3    -68.5957580 -0.379144E-01  0.727E-01    0.27       1.0  T
   4    -68.6376400 -0.418820E-01  0.417E-01    0.26       1.0  T
   5    -68.6514599 -0.138199E-01  0.253E-01    0.26       1.0  T
   6    -68.6596485 -0.818858E-02  0.997E-02    0.26       1.0  T
   7    -68.6602857 -0.637242E-03  0.784E-02    0.26       1.0  T
   8    -68.6603392 -0.534652E-04  0.735E-02    0.26       1.0  T
   9    -68.6601579  0.181242E-03  0.631E-02    0.26       1.0  T
  10    -68.6603391 -0.181146E-03  0.467E-02    0.26       1.0  T
  11    -68.6605000 -0.160945E-03  0.183E-02    0.26       1.0  T
  12    -68.6605181 -0.180756E-04  0.932E-03    0.26       1.4  T
  13    -68.6605239 -0.578391E-05  0.592E-03    0.26       2.2  T
  14    -68.6605244 -0.546176E-06  0.439E-03    0.26       2.9  T
  15    -68.6605236  0.861941E-06  0.362E-03    0.26       3.6  T
  16    -68.6605249 -0.136345E-05  0.107E-03    0.26      12.1  T
  17    -68.6605250 -0.100807E-06  0.411E-04    0.26      31.4  T
  18    -68.6605250 -0.105985E-08  0.400E-04    0.26      32.3  T
     SCC iter.                  ...        0 min,  0.153 sec
     gradient                   ...        0 min,  0.008 sec
 * total energy  :   -67.5650752 Eh     change       -0.3031101E-02 Eh
   gradient norm :     0.0305946 Eh/α   predicted    -0.3392169E-02 (  11.91%)
   displ. norm   :     0.6149144 α      lambda       -0.5116053E-02
   maximum displ.:     0.2476413 α      in ANC's #11, #26, #4, ...
 * RMSD in coord.:     1.0234565 α      energy gain  -0.1182227E+00 Eh

generating ANC from exact Hessian ...
Using Lindh-Hessian (1995)
 Shifting diagonal of input Hessian by   1.036289478000607E-002
 Lowest  eigenvalues of input Hessian
    0.010000    0.010109    0.000000    0.010169    0.010216    0.000000
    0.010252    0.000000    0.000000    0.000000    0.000000    0.010591
    0.010675    0.011193    0.011316    0.011950    0.012181    0.013090
 Highest eigenvalues
    1.426186    1.436966    1.462594    1.478324    1.496597    1.527847
 

........................................................................
.............................. CYCLE   67 ..............................
........................................................................

 iter      E             dE          RMSdq      gap      omega  full diag
   1    -68.6439321 -0.686439E+02  0.621E-01    0.27       0.0  T
   2    -68.5052937  0.138638E+00  0.106E+00    0.21       1.0  T
   3    -68.5588925 -0.535988E-01  0.855E-01    0.30       1.0  T
   4    -68.6106618 -0.517693E-01  0.533E-01    0.24       1.0  T
   5    -68.6159411 -0.527927E-02  0.469E-01    0.30       1.0  T
   6    -68.6455825 -0.296414E-01  0.165E-01    0.26       1.0  T
   7    -68.6475187 -0.193619E-02  0.122E-01    0.27       1.0  T
   8    -68.6482006 -0.681867E-03  0.916E-02    0.27       1.0  T
   9    -68.6481878  0.127444E-04  0.933E-02    0.27       1.0  T
  10    -68.6483519 -0.164062E-03  0.630E-02    0.27       1.0  T
  11    -68.6485031 -0.151263E-03  0.274E-02    0.27       1.0  T
  12    -68.6485866 -0.835072E-04  0.130E-02    0.27       1.0  T
  13    -68.6485950 -0.837271E-05  0.738E-03    0.27       1.7  T
  14    -68.6485943  0.678632E-06  0.667E-03    0.27       1.9  T
  15    -68.6485934  0.953999E-06  0.596E-03    0.27       2.2  T
  16    -68.6485958 -0.246009E-05  0.191E-03    0.27       6.8  T
  17    -68.6485963 -0.441104E-06  0.557E-04    0.27      23.2  T
  18    -68.6485963 -0.100960E-07  0.401E-04    0.27      32.2  T
     SCC iter.                  ...        0 min,  0.170 sec
     gradient                   ...        0 min,  0.009 sec
 * total energy  :   -67.5676821 Eh     change       -0.2606891E-02 Eh
   gradient norm :     0.0302146 Eh/α   predicted     0.0000000E+00 (-100.00%)
   displ. norm   :     0.2835906 α      lambda       -0.3204337E-02
   maximum displ.:     0.1150032 α      in ANC's #22, #17, #8, ...

........................................................................
.............................. CYCLE   68 ..............................
........................................................................

 iter      E             dE          RMSdq      gap      omega  full diag
   1    -68.6572160 -0.686572E+02  0.252E-01    0.27       0.0  T
   2    -68.6507880  0.642796E-02  0.264E-01    0.25       1.0  T
   3    -68.6295419  0.212461E-01  0.453E-01    0.30       1.0  T
   4    -68.6498460 -0.203041E-01  0.241E-01    0.26       1.0  T
   5    -68.6549111 -0.506507E-02  0.147E-01    0.27       1.0  T
   6    -68.6569070 -0.199590E-02  0.610E-02    0.27       1.0  T
   7    -68.6573730 -0.465987E-03  0.269E-02    0.27       1.0  T
   8    -68.6574395 -0.665038E-04  0.191E-02    0.27       1.0  T
   9    -68.6574453 -0.584976E-05  0.169E-02    0.27       1.0  T
  10    -68.6574383  0.707642E-05  0.168E-02    0.27       1.0  T
  11    -68.6574518 -0.135117E-04  0.655E-03    0.27       2.0  T
  12    -68.6574569 -0.517961E-05  0.242E-03    0.27       5.3  T
  13    -68.6574573 -0.376631E-06  0.124E-03    0.27      10.5  T
  14    -68.6574574 -0.986935E-07  0.662E-04    0.27      19.5  T
  15    -68.6574574 -0.228940E-07  0.372E-04    0.27      34.7  T
     SCC iter.                  ...        0 min,  0.165 sec
     gradient                   ...        0 min,  0.015 sec
 * total energy  :   -67.5701079 Eh     change       -0.2425738E-02 Eh
   gradient norm :     0.0189319 Eh/α   predicted    -0.1731097E-02 ( -28.64%)
   displ. norm   :     0.5250196 α      lambda       -0.4174281E-02
   maximum displ.:     0.1944711 α      in ANC's #22, #8, #10, ...

........................................................................
.............................. CYCLE   69 ..............................
........................................................................

 iter      E             dE          RMSdq      gap      omega  full diag
   1    -68.6684440 -0.686684E+02  0.440E-01    0.28       0.0  T
   2    -68.6459865  0.224575E-01  0.479E-01    0.23       1.0  T
   3    -68.5970123  0.489742E-01  0.733E-01    0.33       1.0  T
   4    -68.6444049 -0.473926E-01  0.434E-01    0.27       1.0  T
   5    -68.6581194 -0.137145E-01  0.308E-01    0.29       1.0  T
   6    -68.6666316 -0.851218E-02  0.136E-01    0.28       1.0  T
   7    -68.6688240 -0.219241E-02  0.655E-02    0.27       1.0  T
   8    -68.6692134 -0.389391E-03  0.469E-02    0.28       1.0  T
   9    -68.6692401 -0.267435E-04  0.423E-02    0.28       1.0  T
  10    -68.6692150  0.251267E-04  0.409E-02    0.27       1.0  T
  11    -68.6692962 -0.812163E-04  0.170E-02    0.27       1.0  T
  12    -68.6693214 -0.252171E-04  0.736E-03    0.27       1.8  T
  13    -68.6693251 -0.368593E-05  0.313E-03    0.27       4.1  T
  14    -68.6693256 -0.526589E-06  0.212E-03    0.27       6.1  T
  15    -68.6693255  0.137632E-06  0.185E-03    0.27       7.0  T
  16    -68.6693257 -0.233658E-06  0.887E-04    0.27      14.6  T
  17    -68.6693258 -0.871445E-07  0.222E-04    0.27      58.2  T
     SCC iter.                  ...        0 min,  0.197 sec
     gradient                   ...        0 min,  0.010 sec
 * total energy  :   -67.5725178 Eh     change       -0.2409909E-02 Eh
   gradient norm :     0.0193769 Eh/α   predicted    -0.2662452E-02 (  10.48%)
   displ. norm   :     0.4155587 α      lambda       -0.2218349E-02
   maximum displ.:     0.1503551 α      in ANC's #8, #9, #17, ...

........................................................................
.............................. CYCLE   70 ..............................
........................................................................

 iter      E             dE          RMSdq      gap      omega  full diag
   1    -68.6716251 -0.686716E+02  0.314E-01    0.27       0.0  T
   2    -68.6661164  0.550866E-02  0.278E-01    0.26       1.0  T
   3    -68.6236378  0.424786E-01  0.605E-01    0.33       1.0  T
   4    -68.6612156 -0.375777E-01  0.284E-01    0.25       1.0  T
   5    -68.6676753 -0.645973E-02  0.186E-01    0.29       1.0  T
   6    -68.6715173 -0.384195E-02  0.587E-02    0.27       1.0  T
   7    -68.6717165 -0.199285E-03  0.451E-02    0.27       1.0  T
   8    -68.6719380 -0.221489E-03  0.240E-02    0.27       1.0  T
   9    -68.6719511 -0.130847E-04  0.214E-02    0.27       1.0  T
  10    -68.6719546 -0.353050E-05  0.196E-02    0.27       1.0  T
  11    -68.6719636 -0.900054E-05  0.106E-02    0.27       1.2  T
  12    -68.6719752 -0.115591E-04  0.305E-03    0.27       4.2  T
  13    -68.6719757 -0.509288E-06  0.177E-03    0.27       7.3  T
  14    -68.6719759 -0.153922E-06  0.104E-03    0.27      12.5  T
  15    -68.6719759 -0.169901E-07  0.855E-04    0.27      15.1  T
  16    -68.6719759 -0.172280E-07  0.493E-04    0.27      26.2  T
     SCC iter.                  ...        0 min,  0.155 sec
     gradient                   ...        0 min,  0.009 sec
 * total energy  :   -67.5740943 Eh     change       -0.1576496E-02 Eh
   gradient norm :     0.0188357 Eh/α   predicted    -0.1300720E-02 ( -17.49%)
   displ. norm   :     0.4839066 α      lambda       -0.2165423E-02
   maximum displ.:     0.1675930 α      in ANC's #10, #8, #9, ...

........................................................................
.............................. CYCLE   71 ..............................
........................................................................

 iter      E             dE          RMSdq      gap      omega  full diag
   1    -68.6715858 -0.686716E+02  0.338E-01    0.27       0.0  T
   2    -68.6642916  0.729427E-02  0.316E-01    0.25       1.0  T
   3    -68.6212051  0.430865E-01  0.640E-01    0.32       1.0  T
   4    -68.6657143 -0.445092E-01  0.228E-01    0.26       1.0  T
   5    -68.6692519 -0.353759E-02  0.132E-01    0.28       1.0  T
   6    -68.6716920 -0.244007E-02  0.520E-02    0.27       1.0  T
   7    -68.6720038 -0.311881E-03  0.298E-02    0.27       1.0  T
   8    -68.6720382 -0.343470E-04  0.243E-02    0.27       1.0  T
   9    -68.6720023  0.358711E-04  0.269E-02    0.27       1.0  T
  10    -68.6719965  0.577810E-05  0.253E-02    0.27       1.0  T
  11    -68.6720484 -0.518568E-04  0.938E-03    0.27       1.4  T
  12    -68.6720559 -0.745538E-05  0.436E-03    0.27       3.0  T
  13    -68.6720566 -0.743894E-06  0.266E-03    0.27       4.8  T
  14    -68.6720569 -0.300413E-06  0.145E-03    0.27       8.9  T
  15    -68.6720569  0.151780E-07  0.118E-03    0.27      11.0  T
  16    -68.6720570 -0.821917E-07  0.566E-04    0.27      22.8  T
  17    -68.6720570 -0.292052E-07  0.183E-04    0.27      70.7  T
     SCC iter.                  ...        0 min,  0.156 sec
     gradient                   ...        0 min,  0.009 sec
 * total energy  :   -67.5757952 Eh     change       -0.1700904E-02 Eh
   gradient norm :     0.0164349 Eh/α   predicted    -0.1336246E-02 ( -21.44%)
   displ. norm   :     0.5919417 α      lambda       -0.2663783E-02
   maximum displ.:     0.1806635 α      in ANC's #9, #8, #17, ...

........................................................................
.............................. CYCLE   72 ..............................
........................................................................

 iter      E             dE          RMSdq      gap      omega  full diag
   1    -68.6714404 -0.686714E+02  0.398E-01    0.27       0.0  T
   2    -68.6628313  0.860911E-02  0.356E-01    0.25       1.0  T
   3    -68.6026652  0.601661E-01  0.751E-01    0.33       1.0  T
   4    -68.6620906 -0.594254E-01  0.291E-01    0.25       1.0  T
   5    -68.6686627 -0.657205E-02  0.151E-01    0.29       1.0  T
   6    -68.6713345 -0.267183E-02  0.749E-02    0.27       1.0  T
   7    -68.6720295 -0.694983E-03  0.405E-02    0.27       1.0  T
   8    -68.6720988 -0.693326E-04  0.380E-02    0.28       1.0  T
   9    -68.6721550 -0.561558E-04  0.302E-02    0.28       1.0  T
  10    -68.6721234  0.315313E-04  0.320E-02    0.28       1.0  T
  11    -68.6721859 -0.624176E-04  0.117E-02    0.27       1.1  T
  12    -68.6721970 -0.111721E-04  0.589E-03    0.27       2.2  T
  13    -68.6721986 -0.159033E-05  0.312E-03    0.27       4.1  T
  14    -68.6721990 -0.347655E-06  0.210E-03    0.27       6.1  T
  15    -68.6721990 -0.135125E-07  0.148E-03    0.27       8.7  T
  16    -68.6721991 -0.894017E-07  0.828E-04    0.27      15.6  T
  17    -68.6721991 -0.626182E-07  0.241E-04    0.27      53.6  T
     SCC iter.                  ...        0 min,  0.143 sec
     gradient                   ...        0 min,  0.009 sec
 * total energy  :   -67.5779799 Eh     change       -0.2184767E-02 Eh
   gradient norm :     0.0222526 Eh/α   predicted    -0.1798581E-02 ( -17.68%)
   displ. norm   :     0.6666160 α      lambda       -0.3502493E-02
   maximum displ.:     0.1877130 α      in ANC's #21, #10, #5, ...

........................................................................
.............................. CYCLE   73 ..............................
........................................................................

 iter      E             dE          RMSdq      gap      omega  full diag
   1    -68.6704987 -0.686705E+02  0.477E-01    0.28       0.0  T
   2    -68.6537694  0.167293E-01  0.466E-01    0.25       1.0  T
   3    -68.5912670  0.625023E-01  0.837E-01    0.31       1.0  T
   4    -68.6557378 -0.644708E-01  0.377E-01    0.27       1.0  T
   5    -68.6568943 -0.115643E-02  0.323E-01    0.29       1.0  T
   6    -68.6684772 -0.115830E-01  0.168E-01    0.29       1.0  T
   7    -68.6716760 -0.319877E-02  0.593E-02    0.28       1.0  T
   8    -68.6717700 -0.939810E-04  0.553E-02    0.28       1.0  T
   9    -68.6718320 -0.620089E-04  0.505E-02    0.28       1.0  T
  10    -68.6718441 -0.121514E-04  0.378E-02    0.28       1.0  T
  11    -68.6718992 -0.550122E-04  0.222E-02    0.28       1.0  T
  12    -68.6719402 -0.410403E-04  0.857E-03    0.28       1.5  T
  13    -68.6719446 -0.440863E-05  0.560E-03    0.28       2.3  T
  14    -68.6719459 -0.129199E-05  0.374E-03    0.28       3.4  T
  15    -68.6719457  0.231821E-06  0.290E-03    0.28       4.4  T
  16    -68.6719460 -0.339310E-06  0.152E-03    0.28       8.5  T
  17    -68.6719462 -0.232637E-06  0.363E-04    0.28      35.6  T
  18    -68.6719462 -0.982028E-08  0.210E-04    0.28      61.5  T
     SCC iter.                  ...        0 min,  0.161 sec
     gradient                   ...        0 min,  0.010 sec
 * total energy  :   -67.5812580 Eh     change       -0.3278080E-02 Eh
   gradient norm :     0.0340686 Eh/α   predicted    -0.2529506E-02 ( -22.84%)
   displ. norm   :     0.7429019 α      lambda       -0.6473950E-02
   maximum displ.:     0.2298830 α      in ANC's #21, #44, #17, ...

........................................................................
.............................. CYCLE   74 ..............................
........................................................................

 iter      E             dE          RMSdq      gap      omega  full diag
   1    -68.6715318 -0.686715E+02  0.653E-01    0.28       0.0  T
   2    -68.6512031  0.203286E-01  0.559E-01    0.26       1.0  T
   3    -68.5089786  0.142225E+00  0.124E+00    0.20       1.0  T
   4    -68.6207793 -0.111801E+00  0.690E-01    0.31       1.0  T
   5    -68.6266973 -0.591803E-02  0.598E-01    0.26       1.0  T
   6    -68.6653415 -0.386441E-01  0.273E-01    0.31       1.0  T
   7    -68.6734815 -0.814003E-02  0.102E-01    0.27       1.0  T
   8    -68.6739633 -0.481790E-03  0.901E-02    0.29       1.0  T
   9    -68.6741111 -0.147809E-03  0.822E-02    0.28       1.0  T
  10    -68.6741120 -0.839584E-06  0.741E-02    0.28       1.0  T
  11    -68.6743280 -0.216005E-03  0.447E-02    0.28       1.0  T
  12    -68.6744315 -0.103501E-03  0.201E-02    0.28       1.0  T
  13    -68.6744442 -0.127061E-04  0.154E-02    0.28       1.0  T
  14    -68.6744448 -0.626297E-06  0.148E-02    0.28       1.0  T
  15    -68.6744441  0.687779E-06  0.830E-03    0.28       1.6  T
  16    -68.6744457 -0.163109E-05  0.398E-03    0.28       3.2  T
  17    -68.6744470 -0.121697E-05  0.161E-03    0.28       8.0  T
  18    -68.6744471 -0.165823E-06  0.128E-03    0.28      10.1  T
  19    -68.6744472 -0.655208E-07  0.726E-04    0.28      17.8  T
  20    -68.6744472  0.114092E-08  0.530E-04    0.28      24.4  T
     SCC iter.                  ...        0 min,  0.196 sec
     gradient                   ...        0 min,  0.010 sec
 * total energy  :   -67.5856107 Eh     change       -0.4352699E-02 Eh
   gradient norm :     0.0487407 Eh/α   predicted    -0.5023471E-02 (  15.41%)
   displ. norm   :     0.1459923 α      lambda       -0.2917611E-02
   maximum displ.:     0.0494826 α      in ANC's #20, #43, #35, ...

........................................................................
.............................. CYCLE   75 ..............................
........................................................................

 iter      E             dE          RMSdq      gap      omega  full diag
   1    -68.6766459 -0.686766E+02  0.170E-01    0.29       0.0  T
   2    -68.6718462  0.479963E-02  0.201E-01    0.28       1.0  T
   3    -68.6691269  0.271933E-02  0.224E-01    0.30       1.0  T
   4    -68.6664765  0.265040E-02  0.271E-01    0.27       1.0  T
   5    -68.6749471 -0.847060E-02  0.129E-01    0.29       1.0  T
   6    -68.6766707 -0.172355E-02  0.399E-02    0.29       1.0  T
   7    -68.6768979 -0.227245E-03  0.186E-02    0.28       1.0  T
   8    -68.6769402 -0.423197E-04  0.885E-03    0.29       1.5  T
   9    -68.6769420 -0.174218E-05  0.804E-03    0.28       1.6  T
  10    -68.6769462 -0.423044E-05  0.505E-03    0.29       2.6  T
  11    -68.6769457  0.490455E-06  0.497E-03    0.29       2.6  T
  12    -68.6769482 -0.246603E-05  0.145E-03    0.29       8.9  T
  13    -68.6769484 -0.222928E-06  0.607E-04    0.29      21.3  T
  14    -68.6769484 -0.119416E-07  0.425E-04    0.29      30.4  T
     SCC iter.                  ...        0 min,  0.145 sec
     gradient                   ...        0 min,  0.010 sec
 * total energy  :   -67.5879462 Eh     change       -0.2335431E-02 Eh
   gradient norm :     0.0365049 Eh/α   predicted    -0.1489898E-02 ( -36.20%)
   displ. norm   :     0.3664727 α      lambda       -0.6447208E-02
   maximum displ.:     0.1155640 α      in ANC's #20, #17, #8, ...

........................................................................
.............................. CYCLE   76 ..............................
........................................................................

 iter      E             dE          RMSdq      gap      omega  full diag
   1    -68.6796124 -0.686796E+02  0.360E-01    0.30       0.0  T
   2    -68.6525117  0.271007E-01  0.497E-01    0.24       1.0  T
   3    -68.6631611 -0.106494E-01  0.405E-01    0.35       1.0  T
   4    -68.6494456  0.137155E-01  0.448E-01    0.25       1.0  T
   5    -68.6706597 -0.212141E-01  0.245E-01    0.31       1.0  T
   6    -68.6800001 -0.934037E-02  0.902E-02    0.29       1.0  T
   7    -68.6809799 -0.979814E-03  0.404E-02    0.28       1.0  T
   8    -68.6811226 -0.142725E-03  0.331E-02    0.29       1.0  T
   9    -68.6811620 -0.394134E-04  0.260E-02    0.28       1.0  T
  10    -68.6811314  0.306411E-04  0.291E-02    0.29       1.0  T
  11    -68.6811669 -0.355455E-04  0.165E-02    0.28       1.0  T
  12    -68.6811906 -0.236630E-04  0.442E-03    0.28       2.9  T
  13    -68.6811922 -0.161990E-05  0.193E-03    0.28       6.7  T
  14    -68.6811925 -0.266401E-06  0.120E-03    0.28      10.7  T
  15    -68.6811926 -0.912312E-07  0.640E-04    0.28      20.2  T
  16    -68.6811925  0.356478E-07  0.662E-04    0.28      19.5  T
     SCC iter.                  ...        0 min,  0.146 sec
     gradient                   ...        0 min,  0.009 sec
 * total energy  :   -67.5913779 Eh     change       -0.3431715E-02 Eh
   gradient norm :     0.0200082 Eh/α   predicted    -0.3656558E-02 (   6.55%)
   displ. norm   :     0.4421507 α      lambda       -0.2597231E-02
   maximum displ.:     0.1555057 α      in ANC's #21, #20, #9, ...

........................................................................
.............................. CYCLE   77 ..............................
........................................................................

 iter      E             dE          RMSdq      gap      omega  full diag
   1    -68.6868815 -0.686869E+02  0.390E-01    0.29       0.0  T
   2    -68.6711599  0.157215E-01  0.405E-01    0.28       1.0  T
   3    -68.6228939  0.482661E-01  0.746E-01    0.30       1.0  T
   4    -68.6566958 -0.338019E-01  0.494E-01    0.32       1.0  T
   5    -68.6794307 -0.227349E-01  0.232E-01    0.29       1.0  T
   6    -68.6865293 -0.709860E-02  0.980E-02    0.29       1.0  T
   7    -68.6878586 -0.132932E-02  0.494E-02    0.29       1.0  T
   8    -68.6879796 -0.120976E-03  0.406E-02    0.29       1.0  T
   9    -68.6879883 -0.873041E-05  0.385E-02    0.29       1.0  T
  10    -68.6879930 -0.462743E-05  0.339E-02    0.29       1.0  T
  11    -68.6880388 -0.457765E-04  0.140E-02    0.29       1.0  T
  12    -68.6880533 -0.145038E-04  0.719E-03    0.29       1.8  T
  13    -68.6880552 -0.193971E-05  0.436E-03    0.29       3.0  T
  14    -68.6880550  0.177163E-06  0.401E-03    0.29       3.2  T
  15    -68.6880554 -0.404348E-06  0.311E-03    0.29       4.1  T
  16    -68.6880555 -0.462368E-07  0.146E-03    0.29       8.9  T
  17    -68.6880557 -0.274441E-06  0.441E-04    0.29      29.2  T
  18    -68.6880558 -0.140354E-07  0.231E-04    0.29      55.9  T
     SCC iter.                  ...        0 min,  0.158 sec
     gradient                   ...        0 min,  0.008 sec
 * total energy  :   -67.5916233 Eh     change       -0.2454178E-03 Eh
   gradient norm :     0.0320769 Eh/α   predicted    -0.1552494E-02 ( 532.59%)
   displ. norm   :     0.2901311 α      lambda       -0.3281267E-02
   maximum displ.:     0.1093553 α      in ANC's #10, #6, #17, ...

........................................................................
.............................. CYCLE   78 ..............................
........................................................................

 iter      E             dE          RMSdq      gap      omega  full diag
   1    -68.6938293 -0.686938E+02  0.250E-01    0.29       0.0  T
   2    -68.6916069  0.222244E-02  0.192E-01    0.28       1.0  T
   3    -68.6772288  0.143781E-01  0.362E-01    0.29       1.0  T
   4    -68.6880738 -0.108449E-01  0.199E-01    0.27       1.0  T
   5    -68.6931521 -0.507837E-02  0.847E-02    0.30       1.0  T
   6    -68.6939903 -0.838131E-03  0.340E-02    0.28       1.0  T
   7    -68.6941009 -0.110619E-03  0.122E-02    0.28       1.1  T
   8    -68.6940992  0.172782E-05  0.130E-02    0.28       1.0  T
   9    -68.6941068 -0.765342E-05  0.972E-03    0.28       1.3  T
  10    -68.6941002  0.663908E-05  0.108E-02    0.28       1.2  T
  11    -68.6940952  0.496661E-05  0.103E-02    0.28       1.2  T
  12    -68.6941135 -0.182759E-04  0.240E-03    0.28       5.4  T
  13    -68.6941141 -0.634038E-06  0.825E-04    0.28      15.6  T
  14    -68.6941141 -0.154470E-07  0.707E-04    0.28      18.2  T
     SCC iter.                  ...        0 min,  0.120 sec
     gradient                   ...        0 min,  0.009 sec
 * total energy  :   -67.5931785 Eh     change       -0.1555191E-02 Eh
   gradient norm :     0.0156541 Eh/α   predicted    -0.1778738E-02 (  14.37%)
   displ. norm   :     0.3327298 α      lambda       -0.1550669E-02
   maximum displ.:     0.1391878 α      in ANC's #9, #17, #5, ...

........................................................................
.............................. CYCLE   79 ..............................
........................................................................

 iter      E             dE          RMSdq      gap      omega  full diag
   1    -68.6866198 -0.686866E+02  0.279E-01    0.30       0.0  T
   2    -68.6789823  0.763752E-02  0.299E-01    0.26       1.0  T
   3    -68.6630549  0.159273E-01  0.454E-01    0.36       1.0  T
   4    -68.6726794 -0.962449E-02  0.322E-01    0.33       1.0  T
   5    -68.6815407 -0.886128E-02  0.189E-01    0.29       1.0  T
   6    -68.6863010 -0.476032E-02  0.730E-02    0.31       1.0  T
   7    -68.6869680 -0.666939E-03  0.275E-02    0.30       1.0  T
   8    -68.6870183 -0.503847E-04  0.205E-02    0.30       1.0  T
   9    -68.6870260 -0.768284E-05  0.186E-02    0.30       1.0  T
  10    -68.6870225  0.350514E-05  0.157E-02    0.30       1.0  T
  11    -68.6870375 -0.149433E-04  0.612E-03    0.30       2.1  T
  12    -68.6870407 -0.320076E-05  0.233E-03    0.30       5.5  T
  13    -68.6870409 -0.278397E-06  0.120E-03    0.30      10.8  T
  14    -68.6870410 -0.508992E-07  0.684E-04    0.30      18.9  T
  15    -68.6870410  0.266270E-08  0.558E-04    0.30      23.1  T
     SCC iter.                  ...        0 min,  0.125 sec
     gradient                   ...        0 min,  0.010 sec
 * total energy  :   -67.5937792 Eh     change       -0.6006718E-03 Eh
   gradient norm :     0.0154688 Eh/α   predicted    -0.8611720E-03 (  43.37%)
   displ. norm   :     0.3051359 α      lambda       -0.1329003E-02
   maximum displ.:     0.0941146 α      in ANC's #20, #10, #21, ...

........................................................................
.............................. CYCLE   80 ..............................
........................................................................

 iter      E             dE          RMSdq      gap      omega  full diag
   1    -68.6920145 -0.686920E+02  0.269E-01    0.30       0.0  T
   2    -68.6864789  0.553560E-02  0.252E-01    0.30       1.0  T
   3    -68.6570791  0.293999E-01  0.485E-01    0.29       1.0  T
   4    -68.6729607 -0.158816E-01  0.374E-01    0.31       1.0  T
   5    -68.6910536 -0.180929E-01  0.923E-02    0.31       1.0  T
   6    -68.6920606 -0.100708E-02  0.487E-02    0.29       1.0  T
   7    -68.6923869 -0.326290E-03  0.257E-02    0.31       1.0  T
   8    -68.6924395 -0.526050E-04  0.159E-02    0.30       1.0  T
   9    -68.6924400 -0.478300E-06  0.145E-02    0.30       1.0  T
  10    -68.6924430 -0.296847E-05  0.125E-02    0.30       1.0  T
  11    -68.6924491 -0.616460E-05  0.679E-03    0.30       1.9  T
  12    -68.6924538 -0.466300E-05  0.275E-03    0.30       4.7  T
  13    -68.6924547 -0.898540E-06  0.138E-03    0.30       9.4  T
  14    -68.6924548 -0.137039E-06  0.705E-04    0.30      18.3  T
  15    -68.6924549 -0.237995E-07  0.478E-04    0.30      27.0  T
     SCC iter.                  ...        0 min,  0.126 sec
     gradient                   ...        0 min,  0.009 sec
 * total energy  :   -67.5947388 Eh     change       -0.9596704E-03 Eh
   gradient norm :     0.0126334 Eh/α   predicted    -0.7263703E-03 ( -24.31%)
   displ. norm   :     0.5446699 α      lambda       -0.2049728E-02
   maximum displ.:     0.1827750 α      in ANC's #2, #13, #20, ...

........................................................................
.............................. CYCLE   81 ..............................
........................................................................

 iter      E             dE          RMSdq      gap      omega  full diag
   1    -68.6898700 -0.686899E+02  0.453E-01    0.33       0.0  T
   2    -68.6700369  0.198331E-01  0.478E-01    0.30       1.0  T
   3    -68.6364648  0.335721E-01  0.650E-01    0.31       1.0  T
   4    -68.6381428 -0.167799E-02  0.610E-01    0.36       1.0  T
   5    -68.6823298 -0.441871E-01  0.241E-01    0.32       1.0  T
   6    -68.6903289 -0.799905E-02  0.938E-02    0.33       1.0  T
   7    -68.6912505 -0.921600E-03  0.455E-02    0.32       1.0  T
   8    -68.6913904 -0.139880E-03  0.351E-02    0.33       1.0  T
   9    -68.6914073 -0.169619E-04  0.325E-02    0.33       1.0  T
  10    -68.6913605  0.468017E-04  0.325E-02    0.33       1.0  T
  11    -68.6913862 -0.256738E-04  0.176E-02    0.32       1.0  T
  12    -68.6914177 -0.314778E-04  0.903E-03    0.33       1.4  T
  13    -68.6914255 -0.785919E-05  0.375E-03    0.33       3.4  T
  14    -68.6914260 -0.439083E-06  0.217E-03    0.33       5.9  T
  15    -68.6914261 -0.131011E-06  0.176E-03    0.33       7.4  T
  16    -68.6914260  0.111814E-06  0.136E-03    0.33       9.5  T
  17    -68.6914263 -0.254639E-06  0.420E-04    0.33      30.8  T
  18    -68.6914263 -0.177278E-07  0.157E-04    0.33      82.3  T
     SCC iter.                  ...        0 min,  0.152 sec
     gradient                   ...        0 min,  0.009 sec
 * total energy  :   -67.5958991 Eh     change       -0.1160239E-02 Eh
   gradient norm :     0.0157741 Eh/α   predicted    -0.1328907E-02 (  14.54%)
   displ. norm   :     0.4405280 α      lambda       -0.1408257E-02
   maximum displ.:     0.1580039 α      in ANC's #20, #2, #21, ...

........................................................................
.............................. CYCLE   82 ..............................
........................................................................

 iter      E             dE          RMSdq      gap      omega  full diag
   1    -68.6909571 -0.686910E+02  0.376E-01    0.35       0.0  T
   2    -68.6778201  0.131370E-01  0.389E-01    0.32       1.0  T
   3    -68.6629616  0.148585E-01  0.471E-01    0.32       1.0  T
   4    -68.6551299  0.783170E-02  0.518E-01    0.36       1.0  T
   5    -68.6852735 -0.301436E-01  0.204E-01    0.36       1.0  T
   6    -68.6916254 -0.635184E-02  0.636E-02    0.35       1.0  T
   7    -68.6921188 -0.493466E-03  0.343E-02    0.36       1.0  T
   8    -68.6922228 -0.104016E-03  0.193E-02    0.35       1.0  T
   9    -68.6922133  0.955888E-05  0.202E-02    0.35       1.0  T
  10    -68.6922189 -0.561818E-05  0.168E-02    0.35       1.0  T
  11    -68.6922065  0.123584E-04  0.144E-02    0.35       1.0  T
  12    -68.6922301 -0.236056E-04  0.482E-03    0.35       2.7  T
  13    -68.6922329 -0.279784E-05  0.182E-03    0.35       7.1  T
  14    -68.6922331 -0.175261E-06  0.107E-03    0.35      12.1  T
  15    -68.6922332 -0.912431E-07  0.530E-04    0.35      24.3  T
  16    -68.6922332  0.206467E-07  0.544E-04    0.35      23.8  T
     SCC iter.                  ...        0 min,  0.155 sec
     gradient                   ...        0 min,  0.008 sec
 * total energy  :   -67.5970806 Eh     change       -0.1181563E-02 Eh
   gradient norm :     0.0160460 Eh/α   predicted    -0.8407792E-03 ( -28.84%)
   displ. norm   :     0.6362059 α      lambda       -0.2563899E-02
   maximum displ.:     0.2096163 α      in ANC's #2, #20, #44, ...

........................................................................
.............................. CYCLE   83 ..............................
........................................................................

 iter      E             dE          RMSdq      gap      omega  full diag
   1    -68.6900429 -0.686900E+02  0.533E-01    0.36       0.0  T
   2    -68.6676220  0.224209E-01  0.538E-01    0.34       1.0  T
   3    -68.6507633  0.168587E-01  0.579E-01    0.35       1.0  T
   4    -68.6418934  0.886987E-02  0.619E-01    0.37       1.0  T
   5    -68.6755751 -0.336817E-01  0.309E-01    0.38       1.0  T
   6    -68.6916482 -0.160731E-01  0.884E-02    0.36       1.0  T
   7    -68.6925512 -0.902977E-03  0.430E-02    0.36       1.0  T
   8    -68.6926916 -0.140416E-03  0.302E-02    0.36       1.0  T
   9    -68.6926952 -0.362990E-05  0.270E-02    0.36       1.0  T
  10    -68.6926617  0.334839E-04  0.286E-02    0.36       1.0  T
  11    -68.6926961 -0.343302E-04  0.126E-02    0.36       1.0  T
  12    -68.6927071 -0.110159E-04  0.676E-03    0.36       1.9  T
  13    -68.6927123 -0.524693E-05  0.241E-03    0.36       5.4  T
  14    -68.6927127 -0.385344E-06  0.142E-03    0.36       9.1  T
  15    -68.6927128 -0.996337E-07  0.992E-04    0.36      13.0  T
  16    -68.6927127  0.635610E-07  0.105E-03    0.36      12.3  T
  17    -68.6927129 -0.122015E-06  0.350E-04    0.36      36.9  T
     SCC iter.                  ...        0 min,  0.135 sec
     gradient                   ...        0 min,  0.008 sec
 * total energy  :   -67.5993898 Eh     change       -0.2309183E-02 Eh
   gradient norm :     0.0210507 Eh/α   predicted    -0.1800837E-02 ( -22.01%)
   displ. norm   :     0.7865317 α      lambda       -0.3995282E-02
   maximum displ.:     0.2692907 α      in ANC's #44, #20, #2, ...

........................................................................
.............................. CYCLE   84 ..............................
........................................................................

 iter      E             dE          RMSdq      gap      omega  full diag
   1    -68.6863969 -0.686864E+02  0.683E-01    0.38       0.0  T
   2    -68.6547011  0.316958E-01  0.669E-01    0.35       1.0  T
   3    -68.6168816  0.378195E-01  0.777E-01    0.43       1.0  T
   4    -68.5984438  0.184377E-01  0.779E-01    0.32       1.0  T
   5    -68.6689150 -0.704711E-01  0.347E-01    0.40       1.0  T
   6    -68.6873229 -0.184079E-01  0.141E-01    0.37       1.0  T
   7    -68.6894456 -0.212268E-02  0.868E-02    0.37       1.0  T
   8    -68.6903154 -0.869828E-03  0.462E-02    0.38       1.0  T
   9    -68.6903332 -0.177912E-04  0.409E-02    0.37       1.0  T
  10    -68.6902841  0.490871E-04  0.373E-02    0.38       1.0  T
  11    -68.6902944 -0.102932E-04  0.199E-02    0.37       1.0  T
  12    -68.6903408 -0.463670E-04  0.946E-03    0.37       1.4  T
  13    -68.6903475 -0.669342E-05  0.410E-03    0.37       3.1  T
  14    -68.6903487 -0.125666E-05  0.273E-03    0.37       4.7  T
  15    -68.6903484  0.292238E-06  0.263E-03    0.37       4.9  T
  16    -68.6903489 -0.417221E-06  0.148E-03    0.37       8.7  T
  17    -68.6903491 -0.292685E-06  0.360E-04    0.37      35.9  T
  18    -68.6903492 -0.554159E-08  0.247E-04    0.37      52.2  T
     SCC iter.                  ...        0 min,  0.146 sec
     gradient                   ...        0 min,  0.008 sec
 * total energy  :   -67.6032074 Eh     change       -0.3817580E-02 Eh
   gradient norm :     0.0351963 Eh/α   predicted    -0.3233453E-02 ( -15.30%)
   displ. norm   :     0.7897650 α      lambda       -0.6088465E-02
   maximum displ.:     0.3432557 α      in ANC's #44, #47, #57, ...

........................................................................
.............................. CYCLE   85 ..............................
........................................................................

 iter      E             dE          RMSdq      gap      omega  full diag
   1    -68.6944345 -0.686944E+02  0.695E-01    0.40       0.0  T
   2    -68.6636256  0.308089E-01  0.671E-01    0.35       1.0  T
   3    -68.5965328  0.670928E-01  0.875E-01    0.41       1.0  T
   4    -68.6059642 -0.943134E-02  0.772E-01    0.33       1.0  T
   5    -68.6826602 -0.766960E-01  0.304E-01    0.41       1.0  T
   6    -68.6932302 -0.105701E-01  0.170E-01    0.39       1.0  T
   7    -68.6972343 -0.400409E-02  0.797E-02    0.38       1.0  T
   8    -68.6978450 -0.610683E-03  0.510E-02    0.39       1.0  T
   9    -68.6978678 -0.227844E-04  0.456E-02    0.39       1.0  T
  10    -68.6977852  0.825972E-04  0.367E-02    0.39       1.0  T
  11    -68.6978447 -0.594944E-04  0.179E-02    0.39       1.0  T
  12    -68.6978714 -0.267124E-04  0.838E-03    0.39       1.5  T
  13    -68.6978780 -0.655667E-05  0.485E-03    0.39       2.7  T
  14    -68.6978797 -0.174520E-05  0.301E-03    0.39       4.3  T
  15    -68.6978793  0.445104E-06  0.296E-03    0.39       4.4  T
  16    -68.6978801 -0.820514E-06  0.121E-03    0.39      10.7  T
  17    -68.6978803 -0.180107E-06  0.401E-04    0.39      32.2  T
  18    -68.6978803 -0.597242E-08  0.310E-04    0.39      41.7  T
     SCC iter.                  ...        0 min,  0.154 sec
     gradient                   ...        0 min,  0.009 sec
 * total energy  :   -67.6065840 Eh     change       -0.3376638E-02 Eh
   gradient norm :     0.0585370 Eh/α   predicted    -0.4943024E-02 (  46.39%)
   displ. norm   :     0.4827172 α      lambda       -0.4948541E-02
   maximum displ.:     0.1957920 α      in ANC's #13, #20, #24, ...

........................................................................
.............................. CYCLE   86 ..............................
........................................................................

 iter      E             dE          RMSdq      gap      omega  full diag
   1    -68.6760807 -0.686761E+02  0.427E-01    0.40       0.0  T
   2    -68.6610286  0.150522E-01  0.437E-01    0.36       1.0  T
   3    -68.6376254  0.234032E-01  0.545E-01    0.43       1.0  T
   4    -68.6399089 -0.228357E-02  0.463E-01    0.35       1.0  T
   5    -68.6730996 -0.331907E-01  0.161E-01    0.40       1.0  T
   6    -68.6766920 -0.359241E-02  0.689E-02    0.39       1.0  T
   7    -68.6772627 -0.570697E-03  0.343E-02    0.39       1.0  T
   8    -68.6773729 -0.110149E-03  0.223E-02    0.39       1.0  T
   9    -68.6773736 -0.736594E-06  0.196E-02    0.39       1.0  T
  10    -68.6773590  0.145727E-04  0.162E-02    0.39       1.0  T
  11    -68.6773822 -0.231909E-04  0.481E-03    0.39       2.7  T
  12    -68.6773842 -0.193969E-05  0.278E-03    0.39       4.6  T
  13    -68.6773846 -0.469032E-06  0.175E-03    0.39       7.4  T
  14    -68.6773849 -0.246007E-06  0.107E-03    0.39      12.0  T
  15    -68.6773849 -0.329142E-07  0.698E-04    0.39      18.5  T
  16    -68.6773849 -0.215201E-07  0.442E-04    0.39      29.2  T
     SCC iter.                  ...        0 min,  0.133 sec
     gradient                   ...        0 min,  0.009 sec
 * total energy  :   -67.6080337 Eh     change       -0.1449705E-02 Eh
   gradient norm :     0.0517817 Eh/α   predicted    -0.3050819E-02 ( 110.44%)
   displ. norm   :     0.4708300 α      lambda       -0.8058129E-02
   maximum displ.:     0.1205031 α      in ANC's #20, #41, #44, ...

........................................................................
.............................. CYCLE   87 ..............................
........................................................................

 iter      E             dE          RMSdq      gap      omega  full diag
   1    -68.6876494 -0.686876E+02  0.503E-01    0.39       0.0  T
   2    -68.6702874  0.173620E-01  0.455E-01    0.41       1.0  T
   3    -68.6047852  0.655023E-01  0.755E-01    0.34       1.0  T
   4    -68.6446959 -0.399108E-01  0.514E-01    0.38       1.0  T
   5    -68.6842997 -0.396038E-01  0.185E-01    0.41       1.0  T
   6    -68.6872933 -0.299366E-02  0.112E-01    0.39       1.0  T
   7    -68.6892146 -0.192132E-02  0.386E-02    0.40       1.0  T
   8    -68.6892776 -0.629649E-04  0.309E-02    0.40       1.0  T
   9    -68.6892741  0.348050E-05  0.293E-02    0.40       1.0  T
  10    -68.6892424  0.317451E-04  0.292E-02    0.40       1.0  T
  11    -68.6893328 -0.904612E-04  0.105E-02    0.40       1.2  T
  12    -68.6893440 -0.111858E-04  0.363E-03    0.40       3.6  T
  13    -68.6893450 -0.996420E-06  0.229E-03    0.40       5.6  T
  14    -68.6893452 -0.194256E-06  0.135E-03    0.40       9.6  T
  15    -68.6893452 -0.564857E-08  0.102E-03    0.40      12.7  T
  16    -68.6893453 -0.467389E-07  0.753E-04    0.40      17.1  T
  17    -68.6893453 -0.636987E-07  0.199E-04    0.40      64.7  T
     SCC iter.                  ...        0 min,  0.142 sec
     gradient                   ...        0 min,  0.009 sec
 * total energy  :   -67.6108656 Eh     change       -0.2831846E-02 Eh
   gradient norm :     0.0366153 Eh/α   predicted    -0.4922235E-02 (  73.82%)
   displ. norm   :     0.6005147 α      lambda       -0.8562985E-02
   maximum displ.:     0.1979013 α      in ANC's #23, #2, #44, ...

........................................................................
.............................. CYCLE   88 ..............................
........................................................................

 iter      E             dE          RMSdq      gap      omega  full diag
   1    -68.7033414 -0.687033E+02  0.478E-01    0.40       0.0  T
   2    -68.6914512  0.118902E-01  0.383E-01    0.40       1.0  T
   3    -68.6084254  0.830258E-01  0.808E-01    0.32       1.0  T
   4    -68.6787909 -0.703655E-01  0.434E-01    0.44       1.0  T
   5    -68.7002908 -0.214999E-01  0.170E-01    0.40       1.0  T
   6    -68.7037577 -0.346689E-02  0.712E-02    0.40       1.0  T
   7    -68.7042865 -0.528728E-03  0.445E-02    0.40       1.0  T
   8    -68.7044873 -0.200858E-03  0.266E-02    0.40       1.0  T
   9    -68.7044696  0.176899E-04  0.248E-02    0.40       1.0  T
  10    -68.7044544  0.152475E-04  0.196E-02    0.40       1.0  T
  11    -68.7044936 -0.392631E-04  0.666E-03    0.40       1.9  T
  12    -68.7044974 -0.373706E-05  0.375E-03    0.40       3.4  T
  13    -68.7044985 -0.114962E-05  0.209E-03    0.40       6.2  T
  14    -68.7044988 -0.258860E-06  0.133E-03    0.40       9.7  T
  15    -68.7044988 -0.549177E-08  0.102E-03    0.40      12.7  T
  16    -68.7044989 -0.673931E-07  0.535E-04    0.40      24.1  T
  17    -68.7044989 -0.352158E-07  0.155E-04    0.40      83.1  T
     SCC iter.                  ...        0 min,  0.140 sec
     gradient                   ...        0 min,  0.008 sec
 * total energy  :   -67.6133618 Eh     change       -0.2496226E-02 Eh
   gradient norm :     0.0443918 Eh/α   predicted    -0.5825494E-02 ( 133.37%)
   displ. norm   :     0.3638301 α      lambda       -0.5022481E-02
   maximum displ.:     0.1267741 α      in ANC's #9, #25, #11, ...

........................................................................
.............................. CYCLE   89 ..............................
........................................................................

 iter      E             dE          RMSdq      gap      omega  full diag
   1    -68.7167985 -0.687168E+02  0.331E-01    0.41       0.0  T
   2    -68.7137121  0.308634E-02  0.250E-01    0.41       1.0  T
   3    -68.6553825  0.583297E-01  0.616E-01    0.43       1.0  T
   4    -68.7066270 -0.512445E-01  0.259E-01    0.40       1.0  T
   5    -68.7159126 -0.928559E-02  0.918E-02    0.42       1.0  T
   6    -68.7169468 -0.103423E-02  0.390E-02    0.41       1.0  T
   7    -68.7170911 -0.144341E-03  0.217E-02    0.41       1.0  T
   8    -68.7171389 -0.477364E-04  0.127E-02    0.41       1.0  T
   9    -68.7171377  0.113568E-05  0.113E-02    0.41       1.1  T
  10    -68.7171331  0.465722E-05  0.101E-02    0.41       1.3  T
  11    -68.7171424 -0.936120E-05  0.506E-03    0.41       2.6  T
  12    -68.7171460 -0.351189E-05  0.185E-03    0.41       7.0  T
  13    -68.7171463 -0.336213E-06  0.931E-04    0.41      13.9  T
  14    -68.7171463 -0.289278E-08  0.687E-04    0.41      18.8  T
     SCC iter.                  ...        0 min,  0.198 sec
     gradient                   ...        0 min,  0.010 sec
 * total energy  :   -67.6151839 Eh     change       -0.1822115E-02 Eh
   gradient norm :     0.0254191 Eh/α   predicted    -0.2843655E-02 (  56.06%)
   displ. norm   :     0.4094492 α      lambda       -0.3726537E-02
   maximum displ.:     0.1606800 α      in ANC's #2, #13, #21, ...

........................................................................
.............................. CYCLE   90 ..............................
........................................................................

 iter      E             dE          RMSdq      gap      omega  full diag
   1    -68.6971617 -0.686972E+02  0.338E-01    0.42       0.0  T
   2    -68.6926946  0.446702E-02  0.269E-01    0.41       1.0  T
   3    -68.6480836  0.446110E-01  0.546E-01    0.41       1.0  T
   4    -68.6868870 -0.388034E-01  0.263E-01    0.42       1.0  T
   5    -68.6970725 -0.101855E-01  0.643E-02    0.42       1.0  T
   6    -68.6973924 -0.319836E-03  0.392E-02    0.42       1.0  T
   7    -68.6975387 -0.146321E-03  0.214E-02    0.42       1.0  T
   8    -68.6975870 -0.483061E-04  0.128E-02    0.42       1.0  T
   9    -68.6975826  0.435222E-05  0.129E-02    0.42       1.0  T
  10    -68.6975778  0.483429E-05  0.127E-02    0.42       1.0  T
  11    -68.6975985 -0.207056E-04  0.509E-03    0.42       2.5  T
  12    -68.6976023 -0.378938E-05  0.149E-03    0.42       8.6  T
  13    -68.6976024 -0.140289E-06  0.934E-04    0.42      13.8  T
  14    -68.6976025 -0.574534E-07  0.441E-04    0.42      29.3  T
     SCC iter.                  ...        0 min,  0.121 sec
     gradient                   ...        0 min,  0.009 sec
 * total energy  :   -67.6153929 Eh     change       -0.2089438E-03 Eh
   gradient norm :     0.0334268 Eh/α   predicted    -0.2175634E-02 ( 941.25%)
   displ. norm   :     0.2585927 α      lambda       -0.3488673E-02
   maximum displ.:     0.0804780 α      in ANC's #31, #18, #13, ...

........................................................................
.............................. CYCLE   91 ..............................
........................................................................

 iter      E             dE          RMSdq      gap      omega  full diag
   1    -68.7048853 -0.687049E+02  0.342E-01    0.42       0.0  T
   2    -68.7037846  0.110067E-02  0.227E-01    0.42       1.0  T
   3    -68.6667854  0.369992E-01  0.504E-01    0.40       1.0  T
   4    -68.7014866 -0.347013E-01  0.156E-01    0.43       1.0  T
   5    -68.7044426 -0.295601E-02  0.583E-02    0.42       1.0  T
   6    -68.7049890 -0.546380E-03  0.208E-02    0.42       1.0  T
   7    -68.7049938 -0.476536E-05  0.204E-02    0.42       1.0  T
   8    -68.7050417 -0.479294E-04  0.910E-03    0.42       1.4  T
   9    -68.7050377  0.404146E-05  0.102E-02    0.42       1.3  T
  10    -68.7050484 -0.107347E-04  0.568E-03    0.42       2.3  T
  11    -68.7050519 -0.344876E-05  0.231E-03    0.42       5.6  T
  12    -68.7050523 -0.430078E-06  0.152E-03    0.42       8.5  T
  13    -68.7050525 -0.180916E-06  0.106E-03    0.42      12.2  T
  14    -68.7050526 -0.975046E-07  0.494E-04    0.42      26.1  T
  15    -68.7050526 -0.253136E-07  0.217E-04    0.42      59.4  T
     SCC iter.                  ...        0 min,  0.138 sec
     gradient                   ...        0 min,  0.008 sec
 * total energy  :   -67.6161653 Eh     change       -0.7724869E-03 Eh
   gradient norm :     0.0286824 Eh/α   predicted    -0.1860983E-02 ( 140.91%)
   displ. norm   :     0.3031131 α      lambda       -0.3549444E-02
   maximum displ.:     0.1005775 α      in ANC's #26, #25, #44, ...

........................................................................
.............................. CYCLE   92 ..............................
........................................................................

 iter      E             dE          RMSdq      gap      omega  full diag
   1    -68.7165242 -0.687165E+02  0.333E-01    0.42       0.0  T
   2    -68.7094247  0.709952E-02  0.288E-01    0.43       1.0  T
   3    -68.6698150  0.396096E-01  0.566E-01    0.40       1.0  T
   4    -68.7083878 -0.385728E-01  0.240E-01    0.42       1.0  T
   5    -68.7157222 -0.733444E-02  0.891E-02    0.43       1.0  T
   6    -68.7166401 -0.917868E-03  0.497E-02    0.42       1.0  T
   7    -68.7169944 -0.354292E-03  0.211E-02    0.43       1.0  T
   8    -68.7170238 -0.294396E-04  0.130E-02    0.42       1.0  T
   9    -68.7170225  0.137486E-05  0.114E-02    0.43       1.1  T
  10    -68.7170113  0.111058E-04  0.112E-02    0.42       1.2  T
  11    -68.7170262 -0.148877E-04  0.494E-03    0.43       2.6  T
  12    -68.7170297 -0.348095E-05  0.139E-03    0.42       9.3  T
  13    -68.7170298 -0.362235E-07  0.119E-03    0.42      10.8  T
  14    -68.7170299 -0.123927E-06  0.600E-04    0.42      21.5  T
  15    -68.7170299 -0.349561E-07  0.292E-04    0.42      44.2  T
     SCC iter.                  ...        0 min,  0.122 sec
     gradient                   ...        0 min,  0.009 sec
 * total energy  :   -67.6166568 Eh     change       -0.4914853E-03 Eh
   gradient norm :     0.0267273 Eh/α   predicted    -0.1937777E-02 ( 294.27%)
   displ. norm   :     0.1686124 α      lambda       -0.2067341E-02
   maximum displ.:     0.0609573 α      in ANC's #1, #21, #47, ...
 * RMSD in coord.:     0.8584962 α      energy gain  -0.5158159E-01 Eh

generating ANC from exact Hessian ...
Using Lindh-Hessian (1995)
 Shifting diagonal of input Hessian by   1.027110149330301E-002
 Lowest  eigenvalues of input Hessian
    0.010000    0.010056    0.010074    0.000000    0.000000    0.000000
    0.000000    0.000000    0.000000    0.010455    0.010590    0.011188
    0.011440    0.012126    0.012714    0.012922    0.013020    0.013881
 Highest eigenvalues
    1.444879    1.458457    1.472099    1.478421    1.526236    1.542426
 

........................................................................
.............................. CYCLE   93 ..............................
........................................................................

 iter      E             dE          RMSdq      gap      omega  full diag
   1    -68.7124957 -0.687125E+02  0.177E-01    0.43       0.0  T
   2    -68.7093480  0.314765E-02  0.174E-01    0.43       1.0  T
   3    -68.7021029  0.724511E-02  0.264E-01    0.43       1.0  T
   4    -68.7090984 -0.699550E-02  0.147E-01    0.44       1.0  T
   5    -68.7118186 -0.272019E-02  0.731E-02    0.43       1.0  T
   6    -68.7126268 -0.808172E-03  0.282E-02    0.43       1.0  T
   7    -68.7127206 -0.938835E-04  0.104E-02    0.43       1.2  T
   8    -68.7127305 -0.983641E-05  0.563E-03    0.43       2.3  T
   9    -68.7127314 -0.921143E-06  0.398E-03    0.43       3.2  T
  10    -68.7127299  0.154141E-05  0.452E-03    0.43       2.9  T
  11    -68.7127315 -0.160727E-05  0.249E-03    0.43       5.2  T
  12    -68.7127324 -0.977651E-06  0.762E-04    0.43      16.9  T
  13    -68.7127325 -0.237490E-07  0.630E-04    0.43      20.5  T
     SCC iter.                  ...        0 min,  0.108 sec
     gradient                   ...        0 min,  0.009 sec
 * total energy  :   -67.6177389 Eh     change       -0.1082035E-02 Eh
   gradient norm :     0.0088744 Eh/α   predicted     0.0000000E+00 (-100.00%)
   displ. norm   :     0.1204888 α      lambda       -0.3623301E-03
   maximum displ.:     0.0796020 α      in ANC's #5, #9, #2, ...

........................................................................
.............................. CYCLE   94 ..............................
........................................................................

 iter      E             dE          RMSdq      gap      omega  full diag
   1    -68.7124798 -0.687125E+02  0.861E-02    0.43       0.0  T
   2    -68.7123754  0.104371E-03  0.585E-02    0.43       1.0  T
   3    -68.7087661  0.360928E-02  0.153E-01    0.42       1.0  T
   4    -68.7118849 -0.311879E-02  0.623E-02    0.44       1.0  T
   5    -68.7124581 -0.573206E-03  0.145E-02    0.43       1.0  T
   6    -68.7124875 -0.293314E-04  0.533E-03    0.43       2.4  T
   7    -68.7124912 -0.371929E-05  0.250E-03    0.43       5.2  T
   8    -68.7124917 -0.535704E-06  0.175E-03    0.43       7.4  T
   9    -68.7124920 -0.298593E-06  0.821E-04    0.43      15.7  T
  10    -68.7124919  0.112325E-06  0.112E-03    0.43      11.5  T
  11    -68.7124920 -0.119612E-06  0.649E-04    0.43      19.9  T
     SCC iter.                  ...        0 min,  0.093 sec
     gradient                   ...        0 min,  0.008 sec
 * total energy  :   -67.6180379 Eh     change       -0.2990099E-03 Eh
   gradient norm :     0.0054246 Eh/α   predicted    -0.1837954E-03 ( -38.53%)
   displ. norm   :     0.3318247 α      lambda       -0.6954233E-03
   maximum displ.:     0.2205025 α      in ANC's #5, #9, #2, ...

........................................................................
.............................. CYCLE   95 ..............................
........................................................................

 iter      E             dE          RMSdq      gap      omega  full diag
   1    -68.7112011 -0.687112E+02  0.217E-01    0.44       0.0  T
   2    -68.7109835  0.217546E-03  0.141E-01    0.44       1.0  T
   3    -68.7032958  0.768777E-02  0.234E-01    0.43       1.0  T
   4    -68.7097697 -0.647390E-02  0.964E-02    0.45       1.0  T
   5    -68.7110433 -0.127360E-02  0.357E-02    0.44       1.0  T
   6    -68.7112496 -0.206372E-03  0.796E-03    0.44       1.6  T
   7    -68.7112541 -0.446956E-05  0.568E-03    0.44       2.3  T
   8    -68.7112544 -0.257483E-06  0.525E-03    0.44       2.5  T
   9    -68.7112581 -0.370679E-05  0.187E-03    0.44       6.9  T
  10    -68.7112581 -0.303431E-07  0.167E-03    0.44       7.7  T
  11    -68.7112583 -0.167272E-06  0.123E-03    0.44      10.5  T
  12    -68.7112585 -0.195803E-06  0.487E-04    0.44      26.5  T
  13    -68.7112585 -0.273209E-07  0.278E-04    0.44      46.5  T
     SCC iter.                  ...        0 min,  0.103 sec
     gradient                   ...        0 min,  0.010 sec
 * total energy  :   -67.6185302 Eh     change       -0.4923101E-03 Eh
   gradient norm :     0.0065230 Eh/α   predicted    -0.3859973E-03 ( -21.59%)
   displ. norm   :     0.3210301 α      lambda       -0.3981981E-03
   maximum displ.:     0.2181105 α      in ANC's #5, #9, #2, ...

........................................................................
.............................. CYCLE   96 ..............................
........................................................................

 iter      E             dE          RMSdq      gap      omega  full diag
   1    -68.7099488 -0.687099E+02  0.198E-01    0.45       0.0  T
   2    -68.7097453  0.203430E-03  0.130E-01    0.45       1.0  T
   3    -68.7031688  0.657657E-02  0.219E-01    0.44       1.0  T
   4    -68.7085737 -0.540490E-02  0.940E-02    0.46       1.0  T
   5    -68.7097891 -0.121540E-02  0.343E-02    0.45       1.0  T
   6    -68.7099948 -0.205693E-03  0.697E-03    0.45       1.9  T
   7    -68.7099994 -0.468893E-05  0.435E-03    0.45       3.0  T
   8    -68.7099991  0.377682E-06  0.415E-03    0.45       3.1  T
   9    -68.7100007 -0.165050E-05  0.232E-03    0.45       5.6  T
  10    -68.7100012 -0.435325E-06  0.161E-03    0.45       8.0  T
  11    -68.7100014 -0.232718E-06  0.938E-04    0.45      13.8  T
  12    -68.7100015 -0.972985E-07  0.368E-04    0.45      35.1  T
     SCC iter.                  ...        0 min,  0.095 sec
     gradient                   ...        0 min,  0.009 sec
 * total energy  :   -67.6188438 Eh     change       -0.3136062E-03 Eh
   gradient norm :     0.0082477 Eh/α   predicted    -0.2196240E-03 ( -29.97%)
   displ. norm   :     0.3551606 α      lambda       -0.3936065E-03
   maximum displ.:     0.2439929 α      in ANC's #5, #2, #9, ...

........................................................................
.............................. CYCLE   97 ..............................
........................................................................

 iter      E             dE          RMSdq      gap      omega  full diag
   1    -68.7095359 -0.687095E+02  0.211E-01    0.46       0.0  T
   2    -68.7092933  0.242578E-03  0.140E-01    0.46       1.0  T
   3    -68.7010576  0.823573E-02  0.241E-01    0.46       1.0  T
   4    -68.7070429 -0.598532E-02  0.128E-01    0.46       1.0  T
   5    -68.7094160 -0.237312E-02  0.347E-02    0.46       1.0  T
   6    -68.7095905 -0.174457E-03  0.753E-03    0.46       1.7  T
   7    -68.7095927 -0.220025E-05  0.618E-03    0.46       2.1  T
   8    -68.7095950 -0.229751E-05  0.470E-03    0.46       2.7  T
   9    -68.7095980 -0.298970E-05  0.202E-03    0.46       6.4  T
  10    -68.7095981 -0.813966E-07  0.185E-03    0.46       7.0  T
  11    -68.7095984 -0.346956E-06  0.956E-04    0.46      13.5  T
  12    -68.7095985 -0.988945E-07  0.326E-04    0.46      39.6  T
     SCC iter.                  ...        0 min,  0.094 sec
     gradient                   ...        0 min,  0.009 sec
 * total energy  :   -67.6191642 Eh     change       -0.3203676E-03 Eh
   gradient norm :     0.0071640 Eh/α   predicted    -0.2216309E-03 ( -30.82%)
   displ. norm   :     0.3977132 α      lambda       -0.4108929E-03
   maximum displ.:     0.2726182 α      in ANC's #5, #2, #3, ...

........................................................................
.............................. CYCLE   98 ..............................
........................................................................

 iter      E             dE          RMSdq      gap      omega  full diag
   1    -68.7102803 -0.687103E+02  0.223E-01    0.47       0.0  T
   2    -68.7098860  0.394223E-03  0.151E-01    0.47       1.0  T
   3    -68.6949273  0.149588E-01  0.314E-01    0.47       1.0  T
   4    -68.7052263 -0.102990E-01  0.181E-01    0.46       1.0  T
   5    -68.7101917 -0.496540E-02  0.335E-02    0.47       1.0  T
   6    -68.7103512 -0.159502E-03  0.878E-03    0.47       1.5  T
   7    -68.7103542 -0.292172E-05  0.732E-03    0.47       1.8  T
   8    -68.7103601 -0.595087E-05  0.424E-03    0.47       3.0  T
   9    -68.7103615 -0.134882E-05  0.276E-03    0.47       4.7  T
  10    -68.7103608  0.677065E-06  0.316E-03    0.47       4.1  T
  11    -68.7103619 -0.112913E-05  0.153E-03    0.47       8.4  T
  12    -68.7103622 -0.316479E-06  0.514E-04    0.47      25.1  T
  13    -68.7103622 -0.214674E-07  0.338E-04    0.47      38.3  T
     SCC iter.                  ...        0 min,  0.148 sec
     gradient                   ...        0 min,  0.009 sec
 * total energy  :   -67.6194939 Eh     change       -0.3297575E-03 Eh
   gradient norm :     0.0057449 Eh/α   predicted    -0.2379434E-03 ( -27.84%)
   displ. norm   :     0.4313315 α      lambda       -0.3919667E-03
   maximum displ.:     0.2929631 α      in ANC's #5, #2, #3, ...

........................................................................
.............................. CYCLE   99 ..............................
........................................................................

 iter      E             dE          RMSdq      gap      omega  full diag
   1    -68.7114843 -0.687115E+02  0.234E-01    0.48       0.0  T
   2    -68.7108215  0.662716E-03  0.164E-01    0.47       1.0  T
   3    -68.6867145  0.241070E-01  0.402E-01    0.48       1.0  T
   4    -68.7067889 -0.200744E-01  0.178E-01    0.47       1.0  T
   5    -68.7114149 -0.462597E-02  0.346E-02    0.48       1.0  T
   6    -68.7115636 -0.148750E-03  0.117E-02    0.47       1.1  T
   7    -68.7115729 -0.925763E-05  0.842E-03    0.47       1.5  T
   8    -68.7115807 -0.779155E-05  0.462E-03    0.47       2.8  T
   9    -68.7115811 -0.392838E-06  0.401E-03    0.47       3.2  T
  10    -68.7115806  0.538619E-06  0.372E-03    0.47       3.5  T
  11    -68.7115821 -0.153100E-05  0.114E-03    0.47      11.4  T
  12    -68.7115822 -0.138819E-06  0.612E-04    0.47      21.1  T
  13    -68.7115823 -0.301489E-07  0.391E-04    0.47      33.0  T
     SCC iter.                  ...        0 min,  0.110 sec
     gradient                   ...        0 min,  0.008 sec
 * total energy  :   -67.6198128 Eh     change       -0.3188746E-03 Eh
   gradient norm :     0.0067477 Eh/α   predicted    -0.2324455E-03 ( -27.10%)
   displ. norm   :     0.4871122 α      lambda       -0.4150634E-03
   maximum displ.:     0.3237831 α      in ANC's #5, #2, #3, ...

........................................................................
.............................. CYCLE  100 ..............................
........................................................................

 iter      E             dE          RMSdq      gap      omega  full diag
   1    -68.7123560 -0.687124E+02  0.258E-01    0.48       0.0  T
   2    -68.7114428  0.913250E-03  0.182E-01    0.48       1.0  T
   3    -68.6803992  0.310436E-01  0.461E-01    0.49       1.0  T
   4    -68.7074986 -0.270994E-01  0.182E-01    0.48       1.0  T
   5    -68.7121843 -0.468570E-02  0.447E-02    0.48       1.0  T
   6    -68.7124412 -0.256919E-03  0.155E-02    0.48       1.0  T
   7    -68.7124646 -0.233949E-04  0.962E-03    0.48       1.3  T
   8    -68.7124731 -0.853178E-05  0.579E-03    0.48       2.2  T
   9    -68.7124729  0.197290E-06  0.544E-03    0.48       2.4  T
  10    -68.7124700  0.296571E-05  0.584E-03    0.48       2.2  T
  11    -68.7124742 -0.423596E-05  0.256E-03    0.48       5.0  T
  12    -68.7124752 -0.952143E-06  0.732E-04    0.48      17.6  T
  13    -68.7124752 -0.390880E-07  0.407E-04    0.48      31.7  T
     SCC iter.                  ...        0 min,  0.109 sec
     gradient                   ...        0 min,  0.010 sec
 * total energy  :   -67.6201586 Eh     change       -0.3457857E-03 Eh
   gradient norm :     0.0081539 Eh/α   predicted    -0.2567747E-03 ( -25.74%)
   displ. norm   :     0.5489347 α      lambda       -0.4779205E-03
   maximum displ.:     0.3565080 α      in ANC's #5, #2, #3, ...

........................................................................
.............................. CYCLE  101 ..............................
........................................................................

 iter      E             dE          RMSdq      gap      omega  full diag
   1    -68.7127272 -0.687127E+02  0.290E-01    0.49       0.0  T
   2    -68.7114313  0.129586E-02  0.206E-01    0.49       1.0  T
   3    -68.6707432  0.406881E-01  0.533E-01    0.50       1.0  T
   4    -68.7075939 -0.368507E-01  0.189E-01    0.49       1.0  T
   5    -68.7123290 -0.473508E-02  0.589E-02    0.49       1.0  T
   6    -68.7128157 -0.486683E-03  0.200E-02    0.49       1.0  T
   7    -68.7128588 -0.431128E-04  0.117E-02    0.49       1.1  T
   8    -68.7128706 -0.117930E-04  0.721E-03    0.49       1.8  T
   9    -68.7128696  0.103049E-05  0.694E-03    0.49       1.9  T
  10    -68.7128623  0.729286E-05  0.827E-03    0.49       1.6  T
  11    -68.7128720 -0.971290E-05  0.280E-03    0.49       4.6  T
  12    -68.7128730 -0.103151E-05  0.799E-04    0.49      16.2  T
  13    -68.7128730 -0.340249E-07  0.502E-04    0.49      25.7  T
  14    -68.7128731 -0.115909E-07  0.343E-04    0.49      37.6  T
     SCC iter.                  ...        0 min,  0.121 sec
     gradient                   ...        0 min,  0.009 sec
 * total energy  :   -67.6205497 Eh     change       -0.3910864E-03 Eh
   gradient norm :     0.0079020 Eh/α   predicted    -0.3109716E-03 ( -20.49%)
   displ. norm   :     0.5523330 α      lambda       -0.4800148E-03
   maximum displ.:     0.3457861 α      in ANC's #5, #2, #3, ...

........................................................................
.............................. CYCLE  102 ..............................
........................................................................

 iter      E             dE          RMSdq      gap      omega  full diag
   1    -68.7128686 -0.687129E+02  0.287E-01    0.50       0.0  T
   2    -68.7118805  0.988069E-03  0.197E-01    0.49       1.0  T
   3    -68.6780747  0.338058E-01  0.481E-01    0.50       1.0  T
   4    -68.7082773 -0.302026E-01  0.179E-01    0.50       1.0  T
   5    -68.7123782 -0.410094E-02  0.624E-02    0.49       1.0  T
   6    -68.7129497 -0.571492E-03  0.186E-02    0.49       1.0  T
   7    -68.7129879 -0.382101E-04  0.982E-03    0.49       1.3  T
   8    -68.7129959 -0.795000E-05  0.592E-03    0.49       2.2  T
   9    -68.7129946  0.127393E-05  0.583E-03    0.49       2.2  T
  10    -68.7129877  0.689053E-05  0.787E-03    0.49       1.6  T
  11    -68.7129977 -0.997983E-05  0.209E-03    0.49       6.2  T
  12    -68.7129982 -0.521888E-06  0.711E-04    0.49      18.2  T
  13    -68.7129982 -0.325849E-07  0.467E-04    0.49      27.7  T
     SCC iter.                  ...        0 min,  0.111 sec
     gradient                   ...        0 min,  0.009 sec
 * total energy  :   -67.6209225 Eh     change       -0.3728636E-03 Eh
   gradient norm :     0.0068409 Eh/α   predicted    -0.3132270E-03 ( -15.99%)
   displ. norm   :     0.5065536 α      lambda       -0.4348053E-03
   maximum displ.:     0.3056264 α      in ANC's #5, #2, #3, ...

........................................................................
.............................. CYCLE  103 ..............................
........................................................................

 iter      E             dE          RMSdq      gap      omega  full diag
   1    -68.7130751 -0.687131E+02  0.272E-01    0.50       0.0  T
   2    -68.7123861  0.688966E-03  0.179E-01    0.49       1.0  T
   3    -68.6871759  0.252102E-01  0.398E-01    0.47       1.0  T
   4    -68.7111505 -0.239745E-01  0.117E-01    0.50       1.0  T
   5    -68.7129320 -0.178159E-02  0.405E-02    0.49       1.0  T
   6    -68.7131594 -0.227305E-03  0.106E-02    0.50       1.2  T
   7    -68.7131645 -0.518777E-05  0.822E-03    0.50       1.6  T
   8    -68.7131707 -0.611514E-05  0.489E-03    0.50       2.6  T
   9    -68.7131718 -0.114558E-05  0.344E-03    0.50       3.8  T
  10    -68.7131687  0.307928E-05  0.491E-03    0.50       2.6  T
  11    -68.7131726 -0.386222E-05  0.189E-03    0.50       6.8  T
  12    -68.7131731 -0.526567E-06  0.528E-04    0.50      24.5  T
  13    -68.7131731 -0.182613E-07  0.373E-04    0.50      34.6  T
     SCC iter.                  ...        0 min,  0.104 sec
     gradient                   ...        0 min,  0.008 sec
 * total energy  :   -67.6212211 Eh     change       -0.2985963E-03 Eh
   gradient norm :     0.0076508 Eh/α   predicted    -0.2731878E-03 (  -8.51%)
   displ. norm   :     0.4814139 α      lambda       -0.4313335E-03
   maximum displ.:     0.2785345 α      in ANC's #5, #3, #2, ...

........................................................................
.............................. CYCLE  104 ..............................
........................................................................

 iter      E             dE          RMSdq      gap      omega  full diag
   1    -68.7122186 -0.687122E+02  0.248E-01    0.50       0.0  T
   2    -68.7108179  0.140071E-02  0.176E-01    0.49       1.0  T
   3    -68.6800219  0.307961E-01  0.459E-01    0.45       1.0  T
   4    -68.7094267 -0.294049E-01  0.144E-01    0.50       1.0  T
   5    -68.7119209 -0.249420E-02  0.529E-02    0.49       1.0  T
   6    -68.7122958 -0.374875E-03  0.177E-02    0.49       1.0  T
   7    -68.7123349 -0.391060E-04  0.901E-03    0.49       1.4  T
   8    -68.7123427 -0.781608E-05  0.478E-03    0.49       2.7  T
   9    -68.7123399  0.282072E-05  0.600E-03    0.49       2.2  T
  10    -68.7123385  0.135852E-05  0.539E-03    0.49       2.4  T
  11    -68.7123426 -0.404361E-05  0.202E-03    0.49       6.4  T
  12    -68.7123433 -0.670977E-06  0.506E-04    0.49      25.5  T
  13    -68.7123433 -0.230220E-08  0.431E-04    0.49      29.9  T
     SCC iter.                  ...        0 min,  0.109 sec
     gradient                   ...        0 min,  0.008 sec
 * total energy  :   -67.6215140 Eh     change       -0.2929034E-03 Eh
   gradient norm :     0.0075996 Eh/α   predicted    -0.2656510E-03 (  -9.30%)
   displ. norm   :     0.4212256 α      lambda       -0.3744558E-03
   maximum displ.:     0.2367005 α      in ANC's #5, #3, #2, ...

........................................................................
.............................. CYCLE  105 ..............................
........................................................................

 iter      E             dE          RMSdq      gap      omega  full diag
   1    -68.7117092 -0.687117E+02  0.221E-01    0.49       0.0  T
   2    -68.7086493  0.305993E-02  0.195E-01    0.48       1.0  T
   3    -68.6916490  0.170003E-01  0.381E-01    0.47       1.0  T
   4    -68.7097748 -0.181258E-01  0.120E-01    0.50       1.0  T
   5    -68.7114315 -0.165669E-02  0.526E-02    0.49       1.0  T
   6    -68.7118485 -0.417042E-03  0.171E-02    0.49       1.0  T
   7    -68.7118834 -0.349453E-04  0.924E-03    0.49       1.4  T
   8    -68.7118892 -0.574623E-05  0.657E-03    0.49       2.0  T
   9    -68.7118853  0.393914E-05  0.743E-03    0.49       1.7  T
  10    -68.7118870 -0.174995E-05  0.539E-03    0.49       2.4  T
  11    -68.7118898 -0.280385E-05  0.144E-03    0.49       9.0  T
  12    -68.7118901 -0.258222E-06  0.458E-04    0.49      28.2  T
  13    -68.7118901 -0.589964E-09  0.342E-04    0.49      37.8  T
     SCC iter.                  ...        0 min,  0.108 sec
     gradient                   ...        0 min,  0.009 sec
 * total energy  :   -67.6218346 Eh     change       -0.3206149E-03 Eh
   gradient norm :     0.0076947 Eh/α   predicted    -0.2204500E-03 ( -31.24%)
   displ. norm   :     0.4803391 α      lambda       -0.6201351E-03
   maximum displ.:     0.2496667 α      in ANC's #3, #5, #1, ...

........................................................................
.............................. CYCLE  106 ..............................
........................................................................

 iter      E             dE          RMSdq      gap      omega  full diag
   1    -68.7158734 -0.687159E+02  0.267E-01    0.49       0.0  T
   2    -68.7011244  0.147490E-01  0.355E-01    0.46       1.0  T
   3    -68.7030943 -0.196986E-02  0.332E-01    0.48       1.0  T
   4    -68.7114243 -0.832999E-02  0.187E-01    0.49       1.0  T
   5    -68.7155072 -0.408295E-02  0.802E-02    0.48       1.0  T
   6    -68.7164857 -0.978497E-03  0.295E-02    0.49       1.0  T
   7    -68.7165994 -0.113654E-03  0.149E-02    0.49       1.0  T
   8    -68.7166083 -0.891587E-05  0.122E-02    0.49       1.1  T
   9    -68.7166023  0.593151E-05  0.125E-02    0.49       1.0  T
  10    -68.7166027 -0.330303E-06  0.934E-03    0.49       1.4  T
  11    -68.7166110 -0.832577E-05  0.254E-03    0.49       5.1  T
  12    -68.7166118 -0.830958E-06  0.924E-04    0.49      14.0  T
  13    -68.7166118 -0.131521E-08  0.633E-04    0.49      20.4  T
     SCC iter.                  ...        0 min,  0.142 sec
     gradient                   ...        0 min,  0.014 sec
 * total energy  :   -67.6222562 Eh     change       -0.4215195E-03 Eh
   gradient norm :     0.0086873 Eh/α   predicted    -0.3816089E-03 (  -9.47%)
   displ. norm   :     0.7087704 α      lambda       -0.6634424E-03
   maximum displ.:     0.4365453 α      in ANC's #5, #3, #2, ...

........................................................................
.............................. CYCLE  107 ..............................
........................................................................

 iter      E             dE          RMSdq      gap      omega  full diag
   1    -68.7052928 -0.687053E+02  0.377E-01    0.49       0.0  T
   2    -68.6975849  0.770782E-02  0.329E-01    0.47       1.0  T
   3    -68.6512472  0.463378E-01  0.626E-01    0.45       1.0  T
   4    -68.6994809 -0.482337E-01  0.211E-01    0.49       1.0  T
   5    -68.7042906 -0.480967E-02  0.954E-02    0.49       1.0  T
   6    -68.7055524 -0.126186E-02  0.387E-02    0.49       1.0  T
   7    -68.7057139 -0.161460E-03  0.229E-02    0.49       1.0  T
   8    -68.7057364 -0.225636E-04  0.186E-02    0.49       1.0  T
   9    -68.7057240  0.124988E-04  0.176E-02    0.49       1.0  T
  10    -68.7057316 -0.762209E-05  0.120E-02    0.49       1.1  T
  11    -68.7057471 -0.155716E-04  0.352E-03    0.49       3.7  T
  12    -68.7057482 -0.105376E-05  0.143E-03    0.49       9.1  T
  13    -68.7057482 -0.441536E-08  0.975E-04    0.49      13.2  T
  14    -68.7057483 -0.658612E-07  0.538E-04    0.49      24.0  T
     SCC iter.                  ...        0 min,  0.215 sec
     gradient                   ...        0 min,  0.009 sec
 * total energy  :   -67.6224978 Eh     change       -0.2416765E-03 Eh
   gradient norm :     0.0120956 Eh/α   predicted    -0.4983645E-03 ( 106.21%)
   displ. norm   :     0.1930319 α      lambda       -0.4878935E-03
   maximum displ.:     0.1155435 α      in ANC's #3, #1, #2, ...

........................................................................
.............................. CYCLE  108 ..............................
........................................................................

 iter      E             dE          RMSdq      gap      omega  full diag
   1    -68.7117596 -0.687118E+02  0.111E-01    0.49       0.0  T
   2    -68.7090778  0.268178E-02  0.148E-01    0.48       1.0  T
   3    -68.7088121  0.265683E-03  0.158E-01    0.49       1.0  T
   4    -68.7108854 -0.207322E-02  0.845E-02    0.48       1.0  T
   5    -68.7117986 -0.913280E-03  0.253E-02    0.48       1.0  T
   6    -68.7118790 -0.803528E-04  0.994E-03    0.48       1.3  T
   7    -68.7118936 -0.145907E-04  0.473E-03    0.48       2.7  T
   8    -68.7118959 -0.235192E-05  0.273E-03    0.48       4.7  T
   9    -68.7118955  0.391590E-06  0.277E-03    0.48       4.7  T
  10    -68.7118946  0.987037E-06  0.337E-03    0.48       3.8  T
  11    -68.7118960 -0.147899E-05  0.119E-03    0.48      10.8  T
  12    -68.7118962 -0.208750E-06  0.258E-04    0.48      50.1  T
  13    -68.7118962 -0.144146E-08  0.202E-04    0.48      63.9  T
     SCC iter.                  ...        0 min,  0.114 sec
     gradient                   ...        0 min,  0.009 sec
 * total energy  :   -67.6228555 Eh     change       -0.3576522E-03 Eh
   gradient norm :     0.0079422 Eh/α   predicted    -0.2530372E-03 ( -29.25%)
   displ. norm   :     0.3657676 α      lambda       -0.5267034E-03
   maximum displ.:     0.2130425 α      in ANC's #3, #5, #2, ...

........................................................................
.............................. CYCLE  109 ..............................
........................................................................

 iter      E             dE          RMSdq      gap      omega  full diag
   1    -68.7185316 -0.687185E+02  0.199E-01    0.48       0.0  T
   2    -68.7118192  0.671238E-02  0.244E-01    0.47       1.0  T
   3    -68.7091297  0.268945E-02  0.276E-01    0.48       1.0  T
   4    -68.7151191 -0.598940E-02  0.160E-01    0.48       1.0  T
   5    -68.7185288 -0.340969E-02  0.499E-02    0.48       1.0  T
   6    -68.7188328 -0.303964E-03  0.192E-02    0.48       1.0  T
   7    -68.7188783 -0.455414E-04  0.102E-02    0.48       1.3  T
   8    -68.7188840 -0.566480E-05  0.738E-03    0.48       1.7  T
   9    -68.7188828  0.117086E-05  0.732E-03    0.48       1.8  T
  10    -68.7188786  0.422202E-05  0.695E-03    0.48       1.9  T
  11    -68.7188855 -0.687302E-05  0.238E-03    0.48       5.4  T
  12    -68.7188863 -0.829453E-06  0.550E-04    0.48      23.5  T
  13    -68.7188863 -0.185908E-08  0.443E-04    0.48      29.2  T
     SCC iter.                  ...        0 min,  0.104 sec
     gradient                   ...        0 min,  0.011 sec
 * total energy  :   -67.6232410 Eh     change       -0.3855558E-03 Eh
   gradient norm :     0.0065373 Eh/α   predicted    -0.2985856E-03 ( -22.56%)
   displ. norm   :     0.6586266 α      lambda       -0.5443378E-03
   maximum displ.:     0.3483461 α      in ANC's #3, #5, #2, ...

........................................................................
.............................. CYCLE  110 ..............................
........................................................................

 iter      E             dE          RMSdq      gap      omega  full diag
   1    -68.7177801 -0.687178E+02  0.336E-01    0.48       0.0  T
   2    -68.7072951  0.104850E-01  0.336E-01    0.44       1.0  T
   3    -68.6832567  0.240384E-01  0.519E-01    0.46       1.0  T
   4    -68.7092920 -0.260353E-01  0.248E-01    0.48       1.0  T
   5    -68.7173001 -0.800809E-02  0.870E-02    0.48       1.0  T
   6    -68.7181604 -0.860355E-03  0.398E-02    0.48       1.0  T
   7    -68.7183291 -0.168643E-03  0.241E-02    0.48       1.0  T
   8    -68.7183534 -0.243167E-04  0.197E-02    0.48       1.0  T
   9    -68.7183468  0.662791E-05  0.181E-02    0.48       1.0  T
  10    -68.7183586 -0.117871E-04  0.102E-02    0.48       1.3  T
  11    -68.7183686 -0.100111E-04  0.417E-03    0.48       3.1  T
  12    -68.7183711 -0.249603E-05  0.146E-03    0.48       8.8  T
  13    -68.7183711 -0.167199E-07  0.964E-04    0.48      13.4  T
  14    -68.7183712 -0.657156E-07  0.558E-04    0.48      23.2  T
     SCC iter.                  ...        0 min,  0.212 sec
     gradient                   ...        0 min,  0.009 sec
 * total energy  :   -67.6236730 Eh     change       -0.4319475E-03 Eh
   gradient norm :     0.0094335 Eh/α   predicted    -0.3902460E-03 (  -9.65%)
   displ. norm   :     0.5697294 α      lambda       -0.6332318E-03
   maximum displ.:     0.3164760 α      in ANC's #3, #5, #2, ...

........................................................................
.............................. CYCLE  111 ..............................
........................................................................

 iter      E             dE          RMSdq      gap      omega  full diag
   1    -68.7183965 -0.687184E+02  0.311E-01    0.49       0.0  T
   2    -68.7057806  0.126159E-01  0.351E-01    0.44       1.0  T
   3    -68.6949589  0.108217E-01  0.433E-01    0.48       1.0  T
   4    -68.7081045 -0.131456E-01  0.263E-01    0.47       1.0  T
   5    -68.7181102 -0.100057E-01  0.847E-02    0.49       1.0  T
   6    -68.7188369 -0.726675E-03  0.400E-02    0.49       1.0  T
   7    -68.7190295 -0.192594E-03  0.239E-02    0.48       1.0  T
   8    -68.7190527 -0.231933E-04  0.190E-02    0.48       1.0  T
   9    -68.7190508  0.192764E-05  0.182E-02    0.48       1.0  T
  10    -68.7190526 -0.187697E-05  0.123E-02    0.48       1.1  T
  11    -68.7190701 -0.174285E-04  0.425E-03    0.48       3.0  T
  12    -68.7190724 -0.234344E-05  0.132E-03    0.48       9.8  T
  13    -68.7190724 -0.484725E-08  0.103E-03    0.48      12.6  T
  14    -68.7190725 -0.893450E-07  0.526E-04    0.48      24.6  T
  15    -68.7190725 -0.204222E-07  0.299E-04    0.48      43.2  T
     SCC iter.                  ...        0 min,  0.131 sec
     gradient                   ...        0 min,  0.009 sec
 * total energy  :   -67.6241038 Eh     change       -0.4307671E-03 Eh
   gradient norm :     0.0095745 Eh/α   predicted    -0.4193890E-03 (  -2.64%)
   displ. norm   :     0.6320780 α      lambda       -0.5315658E-03
   maximum displ.:     0.3369480 α      in ANC's #3, #5, #2, ...

........................................................................
.............................. CYCLE  112 ..............................
........................................................................

 iter      E             dE          RMSdq      gap      omega  full diag
   1    -68.7145095 -0.687145E+02  0.323E-01    0.49       0.0  T
   2    -68.7053734  0.913610E-02  0.320E-01    0.43       1.0  T
   3    -68.6841014  0.212720E-01  0.490E-01    0.48       1.0  T
   4    -68.7045213 -0.204199E-01  0.258E-01    0.48       1.0  T
   5    -68.7139299 -0.940862E-02  0.914E-02    0.48       1.0  T
   6    -68.7148099 -0.879948E-03  0.415E-02    0.49       1.0  T
   7    -68.7149987 -0.188855E-03  0.257E-02    0.48       1.0  T
   8    -68.7150201 -0.214025E-04  0.212E-02    0.48       1.0  T
   9    -68.7150180  0.216225E-05  0.203E-02    0.48       1.0  T
  10    -68.7150263 -0.836544E-05  0.126E-02    0.48       1.0  T
  11    -68.7150458 -0.194855E-04  0.430E-03    0.48       3.0  T
  12    -68.7150478 -0.199065E-05  0.159E-03    0.48       8.1  T
  13    -68.7150479 -0.406793E-07  0.108E-03    0.48      12.0  T
  14    -68.7150480 -0.954629E-07  0.505E-04    0.48      25.6  T
  15    -68.7150480 -0.171634E-07  0.331E-04    0.48      39.0  T
     SCC iter.                  ...        0 min,  0.154 sec
     gradient                   ...        0 min,  0.010 sec
 * total energy  :   -67.6244440 Eh     change       -0.3402171E-03 Eh
   gradient norm :     0.0121601 Eh/α   predicted    -0.3719742E-03 (   9.33%)
   displ. norm   :     0.3621919 α      lambda       -0.7515428E-03
   maximum displ.:     0.1950318 α      in ANC's #3, #2, #21, ...

........................................................................
.............................. CYCLE  113 ..............................
........................................................................

 iter      E             dE          RMSdq      gap      omega  full diag
   1    -68.7185706 -0.687186E+02  0.205E-01    0.49       0.0  T
   2    -68.7133411  0.522946E-02  0.231E-01    0.45       1.0  T
   3    -68.7086482  0.469290E-02  0.289E-01    0.50       1.0  T
   4    -68.7130361 -0.438791E-02  0.192E-01    0.47       1.0  T
   5    -68.7184332 -0.539713E-02  0.585E-02    0.49       1.0  T
   6    -68.7188468 -0.413524E-03  0.224E-02    0.49       1.0  T
   7    -68.7189004 -0.536280E-04  0.135E-02    0.49       1.0  T
   8    -68.7189064 -0.604515E-05  0.107E-02    0.49       1.2  T
   9    -68.7189070 -0.563016E-06  0.102E-02    0.49       1.3  T
  10    -68.7189087 -0.166404E-05  0.705E-03    0.49       1.8  T
  11    -68.7189139 -0.521544E-05  0.311E-03    0.49       4.1  T
  12    -68.7189154 -0.154290E-05  0.826E-04    0.49      15.6  T
  13    -68.7189155 -0.302157E-07  0.585E-04    0.49      22.1  T
  14    -68.7189155 -0.184142E-07  0.312E-04    0.49      41.4  T
     SCC iter.                  ...        0 min,  0.139 sec
     gradient                   ...        0 min,  0.012 sec
 * total energy  :   -67.6248725 Eh     change       -0.4285195E-03 Eh
   gradient norm :     0.0106879 Eh/α   predicted    -0.4250683E-03 (  -0.81%)
   displ. norm   :     0.5294570 α      lambda       -0.6443137E-03
   maximum displ.:     0.3002789 α      in ANC's #3, #5, #2, ...

........................................................................
.............................. CYCLE  114 ..............................
........................................................................

 iter      E             dE          RMSdq      gap      omega  full diag
   1    -68.7128881 -0.687129E+02  0.266E-01    0.50       0.0  T
   2    -68.6982157  0.146725E-01  0.361E-01    0.40       1.0  T
   3    -68.7002439 -0.202820E-02  0.339E-01    0.50       1.0  T
   4    -68.7054519 -0.520800E-02  0.227E-01    0.48       1.0  T
   5    -68.7127027 -0.725080E-02  0.806E-02    0.48       1.0  T
   6    -68.7134519 -0.749210E-03  0.348E-02    0.49       1.0  T
   7    -68.7135710 -0.119156E-03  0.220E-02    0.48       1.0  T
   8    -68.7135836 -0.125431E-04  0.194E-02    0.48       1.0  T
   9    -68.7135794  0.417130E-05  0.185E-02    0.48       1.0  T
  10    -68.7135895 -0.100693E-04  0.116E-02    0.48       1.1  T
  11    -68.7136042 -0.147351E-04  0.420E-03    0.48       3.1  T
  12    -68.7136068 -0.258482E-05  0.144E-03    0.48       9.0  T
  13    -68.7136068 -0.460660E-07  0.972E-04    0.48      13.3  T
  14    -68.7136069 -0.685791E-07  0.480E-04    0.48      26.9  T
     SCC iter.                  ...        0 min,  0.153 sec
     gradient                   ...        0 min,  0.009 sec
 * total energy  :   -67.6252091 Eh     change       -0.3366077E-03 Eh
   gradient norm :     0.0114398 Eh/α   predicted    -0.4124711E-03 (  22.54%)
   displ. norm   :     0.3585087 α      lambda       -0.3931832E-03
   maximum displ.:     0.2076585 α      in ANC's #3, #2, #5, ...

........................................................................
.............................. CYCLE  115 ..............................
........................................................................

 iter      E             dE          RMSdq      gap      omega  full diag
   1    -68.7141151 -0.687141E+02  0.172E-01    0.49       0.0  T
   2    -68.7107300  0.338502E-02  0.188E-01    0.43       1.0  T
   3    -68.7069627  0.376737E-02  0.246E-01    0.51       1.0  T
   4    -68.7106638 -0.370113E-02  0.151E-01    0.47       1.0  T
   5    -68.7140286 -0.336476E-02  0.464E-02    0.48       1.0  T
   6    -68.7142892 -0.260612E-03  0.163E-02    0.48       1.0  T
   7    -68.7143153 -0.261455E-04  0.994E-03    0.48       1.3  T
   8    -68.7143187 -0.335389E-05  0.804E-03    0.48       1.6  T
   9    -68.7143184  0.217223E-06  0.785E-03    0.48       1.6  T
  10    -68.7143208 -0.233834E-05  0.427E-03    0.48       3.0  T
  11    -68.7143227 -0.195079E-05  0.212E-03    0.48       6.1  T
  12    -68.7143234 -0.714566E-06  0.719E-04    0.48      18.0  T
  13    -68.7143235 -0.307925E-07  0.441E-04    0.48      29.3  T
     SCC iter.                  ...        0 min,  0.113 sec
     gradient                   ...        0 min,  0.009 sec
 * total energy  :   -67.6255224 Eh     change       -0.3133280E-03 Eh
   gradient norm :     0.0085923 Eh/α   predicted    -0.2218616E-03 ( -29.19%)
   displ. norm   :     0.4316834 α      lambda       -0.7350217E-03
   maximum displ.:     0.2378262 α      in ANC's #3, #2, #1, ...

........................................................................
.............................. CYCLE  116 ..............................
........................................................................

 iter      E             dE          RMSdq      gap      omega  full diag
   1    -68.7222341 -0.687222E+02  0.209E-01    0.48       0.0  T
   2    -68.7186186  0.361553E-02  0.208E-01    0.43       1.0  T
   3    -68.7120183  0.660030E-02  0.293E-01    0.50       1.0  T
   4    -68.7173644 -0.534609E-02  0.181E-01    0.45       1.0  T
   5    -68.7217589 -0.439451E-02  0.717E-02    0.48       1.0  T
   6    -68.7224687 -0.709871E-03  0.211E-02    0.48       1.0  T
   7    -68.7225076 -0.388921E-04  0.134E-02    0.47       1.0  T
   8    -68.7225127 -0.508722E-05  0.112E-02    0.47       1.2  T
   9    -68.7225128 -0.120591E-06  0.107E-02    0.47       1.2  T
  10    -68.7225209 -0.801390E-05  0.494E-03    0.47       2.6  T
  11    -68.7225229 -0.208731E-05  0.171E-03    0.47       7.5  T
  12    -68.7225232 -0.296929E-06  0.954E-04    0.47      13.5  T
  13    -68.7225233 -0.291255E-07  0.716E-04    0.47      18.0  T
     SCC iter.                  ...        0 min,  0.108 sec
     gradient                   ...        0 min,  0.009 sec
 * total energy  :   -67.6259480 Eh     change       -0.4255975E-03 Eh
   gradient norm :     0.0086002 Eh/α   predicted    -0.4359995E-03 (   2.44%)
   displ. norm   :     0.7185322 α      lambda       -0.6034638E-03
   maximum displ.:     0.4191145 α      in ANC's #3, #2, #5, ...

........................................................................
.............................. CYCLE  117 ..............................
........................................................................

 iter      E             dE          RMSdq      gap      omega  full diag
   1    -68.7155777 -0.687156E+02  0.339E-01    0.48       0.0  T
   2    -68.7071638  0.841395E-02  0.324E-01    0.39       1.0  T
   3    -68.6890699  0.180939E-01  0.464E-01    0.50       1.0  T
   4    -68.7046068 -0.155369E-01  0.264E-01    0.43       1.0  T
   5    -68.7147357 -0.101290E-01  0.102E-01    0.47       1.0  T
   6    -68.7160242 -0.128847E-02  0.392E-02    0.47       1.0  T
   7    -68.7161424 -0.118177E-03  0.277E-02    0.46       1.0  T
   8    -68.7161682 -0.258220E-04  0.236E-02    0.47       1.0  T
   9    -68.7161637  0.451588E-05  0.221E-02    0.46       1.0  T
  10    -68.7161934 -0.297048E-04  0.113E-02    0.46       1.1  T
  11    -68.7162042 -0.108577E-04  0.497E-03    0.46       2.6  T
  12    -68.7162080 -0.372720E-05  0.213E-03    0.46       6.1  T
  13    -68.7162081 -0.156095E-06  0.113E-03    0.46      11.4  T
  14    -68.7162082 -0.107521E-06  0.546E-04    0.46      23.7  T
  15    -68.7162082 -0.248589E-07  0.338E-04    0.46      38.2  T
     SCC iter.                  ...        0 min,  0.127 sec
     gradient                   ...        0 min,  0.008 sec
 * total energy  :   -67.6263753 Eh     change       -0.4272196E-03 Eh
   gradient norm :     0.0115714 Eh/α   predicted    -0.4575164E-03 (   7.09%)
   displ. norm   :     0.5212192 α      lambda       -0.7197722E-03
   maximum displ.:     0.3015280 α      in ANC's #3, #2, #12, ...

........................................................................
.............................. CYCLE  118 ..............................
........................................................................

 iter      E             dE          RMSdq      gap      omega  full diag
   1    -68.7185942 -0.687186E+02  0.257E-01    0.47       0.0  T
   2    -68.7139862  0.460800E-02  0.232E-01    0.41       1.0  T
   3    -68.7012964  0.126898E-01  0.378E-01    0.51       1.0  T
   4    -68.7135303 -0.122340E-01  0.182E-01    0.45       1.0  T
   5    -68.7179759 -0.444558E-02  0.796E-02    0.47       1.0  T
   6    -68.7188805 -0.904561E-03  0.266E-02    0.46       1.0  T
   7    -68.7189299 -0.494364E-04  0.184E-02    0.46       1.0  T
   8    -68.7189478 -0.179278E-04  0.153E-02    0.46       1.0  T
   9    -68.7189473  0.522444E-06  0.142E-02    0.46       1.0  T
  10    -68.7189541 -0.679977E-05  0.821E-03    0.46       1.6  T
  11    -68.7189599 -0.580906E-05  0.322E-03    0.46       4.0  T
  12    -68.7189614 -0.146460E-05  0.111E-03    0.46      11.6  T
  13    -68.7189614 -0.677310E-07  0.673E-04    0.46      19.2  T
  14    -68.7189615 -0.362646E-07  0.366E-04    0.46      35.2  T
     SCC iter.                  ...        0 min,  0.113 sec
     gradient                   ...        0 min,  0.010 sec
 * total energy  :   -67.6268083 Eh     change       -0.4330815E-03 Eh
   gradient norm :     0.0126786 Eh/α   predicted    -0.4576604E-03 (   5.68%)
   displ. norm   :     0.5029653 α      lambda       -0.7344684E-03
   maximum displ.:     0.2946864 α      in ANC's #3, #2, #12, ...

........................................................................
.............................. CYCLE  119 ..............................
........................................................................

 iter      E             dE          RMSdq      gap      omega  full diag
   1    -68.7189689 -0.687190E+02  0.223E-01    0.46       0.0  T
   2    -68.7175951  0.137385E-02  0.171E-01    0.44       1.0  T
   3    -68.7057025  0.118926E-01  0.310E-01    0.50       1.0  T
   4    -68.7141733 -0.847083E-02  0.169E-01    0.43       1.0  T
   5    -68.7185826 -0.440926E-02  0.589E-02    0.47       1.0  T
   6    -68.7191265 -0.543917E-03  0.146E-02    0.46       1.0  T
   7    -68.7191429 -0.164118E-04  0.885E-03    0.46       1.5  T
   8    -68.7191474 -0.445358E-05  0.697E-03    0.46       1.9  T
   9    -68.7191471  0.284014E-06  0.599E-03    0.46       2.2  T
  10    -68.7191488 -0.169288E-05  0.463E-03    0.46       2.8  T
  11    -68.7191512 -0.239622E-05  0.200E-03    0.46       6.5  T
  12    -68.7191517 -0.536128E-06  0.831E-04    0.46      15.5  T
  13    -68.7191517 -0.200079E-07  0.621E-04    0.46      20.8  T
     SCC iter.                  ...        0 min,  0.103 sec
     gradient                   ...        0 min,  0.009 sec
 * total energy  :   -67.6273605 Eh     change       -0.5521887E-03 Eh
   gradient norm :     0.0113851 Eh/α   predicted    -0.4601366E-03 ( -16.67%)
   displ. norm   :     0.5816951 α      lambda       -0.9969950E-03
   maximum displ.:     0.3474508 α      in ANC's #3, #2, #12, ...

........................................................................
.............................. CYCLE  120 ..............................
........................................................................

 iter      E             dE          RMSdq      gap      omega  full diag
   1    -68.7232971 -0.687233E+02  0.278E-01    0.46       0.0  T
   2    -68.7200915  0.320554E-02  0.224E-01    0.42       1.0  T
   3    -68.7048632  0.152283E-01  0.384E-01    0.50       1.0  T
   4    -68.7165348 -0.116715E-01  0.206E-01    0.42       1.0  T
   5    -68.7226333 -0.609855E-02  0.798E-02    0.47       1.0  T
   6    -68.7235880 -0.954662E-03  0.259E-02    0.46       1.0  T
   7    -68.7236461 -0.581384E-04  0.155E-02    0.45       1.0  T
   8    -68.7236599 -0.137580E-04  0.129E-02    0.45       1.0  T
   9    -68.7236623 -0.245860E-05  0.109E-02    0.45       1.2  T
  10    -68.7236668 -0.444269E-05  0.667E-03    0.45       1.9  T
  11    -68.7236717 -0.490697E-05  0.244E-03    0.45       5.3  T
  12    -68.7236722 -0.479630E-06  0.116E-03    0.45      11.2  T
  13    -68.7236721  0.822594E-07  0.116E-03    0.45      11.2  T
  14    -68.7236723 -0.176868E-06  0.416E-04    0.45      31.1  T
  15    -68.7236723 -0.198154E-07  0.180E-04    0.45      71.6  T
     SCC iter.                  ...        0 min,  0.116 sec
     gradient                   ...        0 min,  0.009 sec
 * total energy  :   -67.6280074 Eh     change       -0.6469007E-03 Eh
   gradient norm :     0.0132495 Eh/α   predicted    -0.6671788E-03 (   3.13%)
   displ. norm   :     0.7017131 α      lambda       -0.9807707E-03
   maximum displ.:     0.4378623 α      in ANC's #3, #2, #12, ...
 * RMSD in coord.:     1.5106173 α      energy gain  -0.1135059E-01 Eh

generating ANC from exact Hessian ...
Using Lindh-Hessian (1995)
 Shifting diagonal of input Hessian by   1.028563306150940E-002
 Lowest  eigenvalues of input Hessian
    0.010000    0.010064    0.010092    0.000000    0.000000    0.000000
    0.000000    0.000000    0.000000    0.010658    0.010727    0.011166
    0.011899    0.011946    0.012471    0.013015    0.013310    0.013607
 Highest eigenvalues
    1.445518    1.460271    1.466053    1.476795    1.510402    1.570838
 

........................................................................
.............................. CYCLE  121 ..............................
........................................................................

 iter      E             dE          RMSdq      gap      omega  full diag
   1    -68.7216480 -0.687216E+02  0.297E-01    0.46       0.0  T
   2    -68.7195073  0.214063E-02  0.222E-01    0.42       1.0  T
   3    -68.7010997  0.184076E-01  0.404E-01    0.49       1.0  T
   4    -68.7176184 -0.165186E-01  0.167E-01    0.43       1.0  T
   5    -68.7213749 -0.375655E-02  0.592E-02    0.46       1.0  T
   6    -68.7219089 -0.533956E-03  0.177E-02    0.45       1.0  T
   7    -68.7219266 -0.176759E-04  0.130E-02    0.45       1.0  T
   8    -68.7219344 -0.784886E-05  0.103E-02    0.45       1.3  T
   9    -68.7219285  0.592338E-05  0.105E-02    0.45       1.2  T
  10    -68.7219379 -0.944928E-05  0.477E-03    0.45       2.7  T
  11    -68.7219404 -0.242646E-05  0.182E-03    0.45       7.1  T
  12    -68.7219406 -0.259678E-06  0.806E-04    0.45      16.0  T
  13    -68.7219405  0.788309E-07  0.958E-04    0.45      13.5  T
     SCC iter.                  ...        0 min,  0.101 sec
     gradient                   ...        0 min,  0.009 sec
 * total energy  :   -67.6289047 Eh     change       -0.8972789E-03 Eh
   gradient norm :     0.0161764 Eh/α   predicted     0.0000000E+00 (-100.00%)
   displ. norm   :     0.1298716 α      lambda       -0.6244588E-03
   maximum displ.:     0.0708598 α      in ANC's #3, #9, #12, ...

........................................................................
.............................. CYCLE  122 ..............................
........................................................................

 iter      E             dE          RMSdq      gap      omega  full diag
   1    -68.7240141 -0.687240E+02  0.100E-01    0.45       0.0  T
   2    -68.7232255  0.788632E-03  0.876E-02    0.43       1.0  T
   3    -68.7203061  0.291934E-02  0.153E-01    0.46       1.0  T
   4    -68.7234081 -0.310195E-02  0.661E-02    0.45       1.0  T
   5    -68.7239653 -0.557181E-03  0.248E-02    0.44       1.0  T
   6    -68.7240686 -0.103332E-03  0.682E-03    0.45       1.9  T
   7    -68.7240755 -0.687557E-05  0.276E-03    0.45       4.7  T
   8    -68.7240759 -0.392542E-06  0.167E-03    0.45       7.7  T
   9    -68.7240759  0.163598E-07  0.154E-03    0.45       8.4  T
  10    -68.7240760 -0.158685E-06  0.971E-04    0.45      13.3  T
  11    -68.7240761 -0.762630E-07  0.483E-04    0.45      26.7  T
     SCC iter.                  ...        0 min,  0.101 sec
     gradient                   ...        0 min,  0.011 sec
 * total energy  :   -67.6294231 Eh     change       -0.5183667E-03 Eh
   gradient norm :     0.0086896 Eh/α   predicted    -0.3175004E-03 ( -38.75%)
   displ. norm   :     0.3857450 α      lambda       -0.1291461E-02
   maximum displ.:     0.2159597 α      in ANC's #3, #5, #9, ...

........................................................................
.............................. CYCLE  123 ..............................
........................................................................

 iter      E             dE          RMSdq      gap      omega  full diag
   1    -68.7270928 -0.687271E+02  0.249E-01    0.45       0.0  T
   2    -68.7230214  0.407140E-02  0.208E-01    0.43       1.0  T
   3    -68.7004168  0.226047E-01  0.394E-01    0.45       1.0  T
   4    -68.7218927 -0.214759E-01  0.188E-01    0.47       1.0  T
   5    -68.7266640 -0.477129E-02  0.668E-02    0.43       1.0  T
   6    -68.7273762 -0.712230E-03  0.194E-02    0.45       1.0  T
   7    -68.7274253 -0.490445E-04  0.939E-03    0.44       1.4  T
   8    -68.7274292 -0.390498E-05  0.668E-03    0.44       1.9  T
   9    -68.7274269  0.227723E-05  0.674E-03    0.44       1.9  T
  10    -68.7274293 -0.237941E-05  0.389E-03    0.44       3.3  T
  11    -68.7274309 -0.165072E-05  0.169E-03    0.44       7.7  T
  12    -68.7274314 -0.434545E-06  0.615E-04    0.44      21.0  T
  13    -68.7274314  0.923926E-08  0.600E-04    0.44      21.5  T
     SCC iter.                  ...        0 min,  0.113 sec
     gradient                   ...        0 min,  0.009 sec
 * total energy  :   -67.6304168 Eh     change       -0.9937570E-03 Eh
   gradient norm :     0.0139426 Eh/α   predicted    -0.7418142E-03 ( -25.35%)
   displ. norm   :     0.5641551 α      lambda       -0.1515857E-02
   maximum displ.:     0.3164071 α      in ANC's #3, #5, #9, ...

........................................................................
.............................. CYCLE  124 ..............................
........................................................................

 iter      E             dE          RMSdq      gap      omega  full diag
   1    -68.7273856 -0.687274E+02  0.339E-01    0.45       0.0  T
   2    -68.7220528  0.533285E-02  0.264E-01    0.44       1.0  T
   3    -68.6664940  0.555587E-01  0.579E-01    0.43       1.0  T
   4    -68.7186420 -0.521480E-01  0.242E-01    0.47       1.0  T
   5    -68.7266868 -0.804484E-02  0.851E-02    0.43       1.0  T
   6    -68.7277344 -0.104751E-02  0.294E-02    0.45       1.0  T
   7    -68.7278429 -0.108510E-03  0.163E-02    0.45       1.0  T
   8    -68.7278554 -0.125532E-04  0.119E-02    0.45       1.1  T
   9    -68.7278512  0.422970E-05  0.116E-02    0.45       1.1  T
  10    -68.7278544 -0.321010E-05  0.777E-03    0.45       1.7  T
  11    -68.7278619 -0.754829E-05  0.313E-03    0.45       4.1  T
  12    -68.7278633 -0.139366E-05  0.980E-04    0.45      13.2  T
  13    -68.7278633  0.148433E-07  0.859E-04    0.45      15.0  T
  14    -68.7278634 -0.605132E-07  0.364E-04    0.45      35.4  T
     SCC iter.                  ...        0 min,  0.115 sec
     gradient                   ...        0 min,  0.009 sec
 * total energy  :   -67.6319385 Eh     change       -0.1521694E-02 Eh
   gradient norm :     0.0245795 Eh/α   predicted    -0.9991585E-03 ( -34.34%)
   displ. norm   :     0.4834264 α      lambda       -0.1750974E-02
   maximum displ.:     0.2718633 α      in ANC's #3, #5, #9, ...

........................................................................
.............................. CYCLE  125 ..............................
........................................................................

 iter      E             dE          RMSdq      gap      omega  full diag
   1    -68.7265502 -0.687266E+02  0.281E-01    0.44       0.0  T
   2    -68.7236442  0.290597E-02  0.210E-01    0.45       1.0  T
   3    -68.6778818  0.457624E-01  0.514E-01    0.41       1.0  T
   4    -68.7225967 -0.447149E-01  0.169E-01    0.46       1.0  T
   5    -68.7261983 -0.360156E-02  0.640E-02    0.44       1.0  T
   6    -68.7267621 -0.563829E-03  0.213E-02    0.45       1.0  T
   7    -68.7268109 -0.487966E-04  0.133E-02    0.45       1.0  T
   8    -68.7268213 -0.104505E-04  0.885E-03    0.45       1.5  T
   9    -68.7268158  0.549769E-05  0.971E-03    0.45       1.3  T
  10    -68.7268184 -0.251451E-05  0.727E-03    0.45       1.8  T
  11    -68.7268253 -0.691080E-05  0.253E-03    0.45       5.1  T
  12    -68.7268262 -0.922210E-06  0.793E-04    0.45      16.3  T
  13    -68.7268262  0.371836E-08  0.670E-04    0.45      19.3  T
     SCC iter.                  ...        0 min,  0.114 sec
     gradient                   ...        0 min,  0.009 sec
 * total energy  :   -67.6338923 Eh     change       -0.1953788E-02 Eh
   gradient norm :     0.0292940 Eh/α   predicted    -0.1080089E-02 ( -44.72%)
   displ. norm   :     0.4727368 α      lambda       -0.2511200E-02
   maximum displ.:     0.2617384 α      in ANC's #3, #5, #9, ...

........................................................................
.............................. CYCLE  126 ..............................
........................................................................

 iter      E             dE          RMSdq      gap      omega  full diag
   1    -68.7255076 -0.687255E+02  0.284E-01    0.44       0.0  T
   2    -68.7231971  0.231048E-02  0.204E-01    0.45       1.0  T
   3    -68.6715304  0.516667E-01  0.540E-01    0.39       1.0  T
   4    -68.7226014 -0.510710E-01  0.152E-01    0.45       1.0  T
   5    -68.7253292 -0.272779E-02  0.554E-02    0.44       1.0  T
   6    -68.7257029 -0.373720E-03  0.220E-02    0.45       1.0  T
   7    -68.7257510 -0.481477E-04  0.124E-02    0.45       1.0  T
   8    -68.7257572 -0.618685E-05  0.874E-03    0.45       1.5  T
   9    -68.7257487  0.853283E-05  0.105E-02    0.45       1.2  T
  10    -68.7257563 -0.762476E-05  0.674E-03    0.45       1.9  T
  11    -68.7257623 -0.597599E-05  0.196E-03    0.45       6.6  T
  12    -68.7257627 -0.453014E-06  0.932E-04    0.45      13.9  T
  13    -68.7257628 -0.697641E-08  0.730E-04    0.45      17.7  T
     SCC iter.                  ...        0 min,  0.117 sec
     gradient                   ...        0 min,  0.010 sec
 * total energy  :   -67.6366872 Eh     change       -0.2794923E-02 Eh
   gradient norm :     0.0331130 Eh/α   predicted    -0.1536241E-02 ( -45.03%)
   displ. norm   :     0.4647394 α      lambda       -0.3498524E-02
   maximum displ.:     0.2500901 α      in ANC's #3, #5, #17, ...

........................................................................
.............................. CYCLE  127 ..............................
........................................................................

 iter      E             dE          RMSdq      gap      omega  full diag
   1    -68.7248827 -0.687249E+02  0.298E-01    0.44       0.0  T
   2    -68.7226070  0.227563E-02  0.211E-01    0.44       1.0  T
   3    -68.6708072  0.517999E-01  0.546E-01    0.37       1.0  T
   4    -68.7207558 -0.499486E-01  0.176E-01    0.44       1.0  T
   5    -68.7245910 -0.383522E-02  0.627E-02    0.44       1.0  T
   6    -68.7251190 -0.527994E-03  0.259E-02    0.44       1.0  T
   7    -68.7251827 -0.636835E-04  0.133E-02    0.44       1.0  T
   8    -68.7251843 -0.163476E-05  0.110E-02    0.44       1.2  T
   9    -68.7251821  0.219268E-05  0.112E-02    0.44       1.2  T
  10    -68.7251874 -0.527675E-05  0.768E-03    0.44       1.7  T
  11    -68.7251960 -0.864563E-05  0.214E-03    0.44       6.0  T
  12    -68.7251966 -0.508371E-06  0.106E-03    0.44      12.2  T
  13    -68.7251966 -0.149114E-07  0.838E-04    0.44      15.4  T
  14    -68.7251966 -0.696078E-07  0.337E-04    0.44      38.3  T
     SCC iter.                  ...        0 min,  0.123 sec
     gradient                   ...        0 min,  0.009 sec
 * total energy  :   -67.6404631 Eh     change       -0.3775843E-02 Eh
   gradient norm :     0.0359343 Eh/α   predicted    -0.2127072E-02 ( -43.67%)
   displ. norm   :     0.4470783 α      lambda       -0.4360432E-02
   maximum displ.:     0.2337998 α      in ANC's #3, #5, #17, ...

........................................................................
.............................. CYCLE  128 ..............................
........................................................................

 iter      E             dE          RMSdq      gap      omega  full diag
   1    -68.7254645 -0.687255E+02  0.305E-01    0.43       0.0  T
   2    -68.7232069  0.225764E-02  0.217E-01    0.43       1.0  T
   3    -68.6805028  0.427041E-01  0.504E-01    0.38       1.0  T
   4    -68.7183310 -0.378281E-01  0.221E-01    0.43       1.0  T
   5    -68.7247384 -0.640739E-02  0.815E-02    0.43       1.0  T
   6    -68.7257544 -0.101605E-02  0.280E-02    0.43       1.0  T
   7    -68.7258351 -0.806635E-04  0.145E-02    0.43       1.0  T
   8    -68.7258411 -0.599258E-05  0.108E-02    0.43       1.2  T
   9    -68.7258367  0.437287E-05  0.115E-02    0.43       1.1  T
  10    -68.7258389 -0.218622E-05  0.972E-03    0.43       1.3  T
  11    -68.7258525 -0.136295E-04  0.245E-03    0.43       5.3  T
  12    -68.7258532 -0.666465E-06  0.106E-03    0.43      12.2  T
  13    -68.7258532 -0.268132E-08  0.834E-04    0.43      15.5  T
  14    -68.7258532 -0.692088E-07  0.386E-04    0.43      33.5  T
     SCC iter.                  ...        0 min,  0.113 sec
     gradient                   ...        0 min,  0.010 sec
 * total energy  :   -67.6447121 Eh     change       -0.4249013E-02 Eh
   gradient norm :     0.0365697 Eh/α   predicted    -0.2615995E-02 ( -38.43%)
   displ. norm   :     0.7367770 α      lambda       -0.1458871E-01
   maximum displ.:     0.1650907 α      in ANC's #19, #3, #64, ...

........................................................................
.............................. CYCLE  129 ..............................
........................................................................

 iter      E             dE          RMSdq      gap      omega  full diag
   1    -68.7442295 -0.687442E+02  0.784E-01    0.39       0.0  T
   2    -68.7218312  0.223983E-01  0.631E-01    0.39       1.0  T
   3    -68.6281766  0.936547E-01  0.847E-01    0.33       1.0  T
   4    -68.6820725 -0.538960E-01  0.610E-01    0.40       1.0  T
   5    -68.7397584 -0.576859E-01  0.232E-01    0.39       1.0  T
   6    -68.7474728 -0.771439E-02  0.103E-01    0.40       1.0  T
   7    -68.7488509 -0.137808E-02  0.489E-02    0.40       1.0  T
   8    -68.7489359 -0.850005E-04  0.389E-02    0.40       1.0  T
   9    -68.7487464  0.189518E-03  0.481E-02    0.40       1.0  T
  10    -68.7488564 -0.110005E-03  0.321E-02    0.40       1.0  T
  11    -68.7489656 -0.109260E-03  0.973E-03    0.40       1.3  T
  12    -68.7489757 -0.100786E-04  0.376E-03    0.40       3.4  T
  13    -68.7489763 -0.553976E-06  0.243E-03    0.40       5.3  T
  14    -68.7489766 -0.337398E-06  0.133E-03    0.40       9.7  T
  15    -68.7489767 -0.564443E-07  0.992E-04    0.40      13.0  T
  16    -68.7489768 -0.898971E-07  0.505E-04    0.40      25.6  T
     SCC iter.                  ...        0 min,  0.133 sec
     gradient                   ...        0 min,  0.009 sec
 * total energy  :   -67.6443532 Eh     change        0.3588579E-03 Eh
   gradient norm :     0.0805680 Eh/α   predicted    -0.1125402E-01 (*******%)
   displ. norm   :     0.3532743 α      lambda       -0.2042903E-01
   maximum displ.:     0.0742605 α      in ANC's #101, #92, #99, ...

........................................................................
.............................. CYCLE  130 ..............................
........................................................................

 iter      E             dE          RMSdq      gap      omega  full diag
   1    -68.7419388 -0.687419E+02  0.417E-01    0.42       0.0  T
   2    -68.7354866  0.645221E-02  0.332E-01    0.41       1.0  T
   3    -68.7061114  0.293751E-01  0.484E-01    0.40       1.0  T
   4    -68.7308014 -0.246899E-01  0.302E-01    0.42       1.0  T
   5    -68.7406755 -0.987409E-02  0.126E-01    0.42       1.0  T
   6    -68.7429609 -0.228546E-02  0.362E-02    0.42       1.0  T
   7    -68.7430762 -0.115254E-03  0.234E-02    0.42       1.0  T
   8    -68.7431281 -0.519114E-04  0.129E-02    0.42       1.0  T
   9    -68.7430960  0.321306E-04  0.168E-02    0.42       1.0  T
  10    -68.7431224 -0.263863E-04  0.121E-02    0.42       1.1  T
  11    -68.7431431 -0.207624E-04  0.365E-03    0.42       3.5  T
  12    -68.7431446 -0.146746E-05  0.147E-03    0.42       8.8  T
  13    -68.7431446 -0.446421E-07  0.123E-03    0.42      10.5  T
  14    -68.7431447 -0.110052E-06  0.529E-04    0.42      24.4  T
  15    -68.7431448 -0.280944E-07  0.280E-04    0.42      46.1  T
     SCC iter.                  ...        0 min,  0.121 sec
     gradient                   ...        0 min,  0.010 sec
 * total energy  :   -67.6509837 Eh     change       -0.6630478E-02 Eh
   gradient norm :     0.0164381 Eh/α   predicted    -0.1148933E-01 (  73.28%)
   displ. norm   :     0.2439266 α      lambda       -0.1349170E-02
   maximum displ.:     0.1376380 α      in ANC's #3, #5, #9, ...

........................................................................
.............................. CYCLE  131 ..............................
........................................................................

 iter      E             dE          RMSdq      gap      omega  full diag
   1    -68.7395617 -0.687396E+02  0.169E-01    0.42       0.0  T
   2    -68.7393520  0.209687E-03  0.112E-01    0.42       1.0  T
   3    -68.7352584  0.409363E-02  0.168E-01    0.42       1.0  T
   4    -68.7366818 -0.142337E-02  0.120E-01    0.42       1.0  T
   5    -68.7395067 -0.282489E-02  0.288E-02    0.42       1.0  T
   6    -68.7396272 -0.120505E-03  0.109E-02    0.42       1.2  T
   7    -68.7396412 -0.140570E-04  0.536E-03    0.42       2.4  T
   8    -68.7396396  0.161530E-05  0.551E-03    0.42       2.3  T
   9    -68.7396436 -0.393214E-05  0.243E-03    0.42       5.3  T
  10    -68.7396440 -0.429804E-06  0.149E-03    0.42       8.7  T
  11    -68.7396442 -0.185057E-06  0.847E-04    0.42      15.2  T
  12    -68.7396443 -0.896220E-07  0.405E-04    0.42      31.9  T
     SCC iter.                  ...        0 min,  0.119 sec
     gradient                   ...        0 min,  0.011 sec
 * total energy  :   -67.6519559 Eh     change       -0.9721529E-03 Eh
   gradient norm :     0.0144432 Eh/α   predicted    -0.7147318E-03 ( -26.48%)
   displ. norm   :     0.3812940 α      lambda       -0.2230580E-02
   maximum displ.:     0.1014101 α      in ANC's #5, #12, #16, ...

........................................................................
.............................. CYCLE  132 ..............................
........................................................................

 iter      E             dE          RMSdq      gap      omega  full diag
   1    -68.7437812 -0.687438E+02  0.358E-01    0.42       0.0  T
   2    -68.7357952  0.798597E-02  0.309E-01    0.42       1.0  T
   3    -68.7043398  0.314554E-01  0.471E-01    0.41       1.0  T
   4    -68.7273362 -0.229964E-01  0.313E-01    0.42       1.0  T
   5    -68.7415593 -0.142231E-01  0.140E-01    0.42       1.0  T
   6    -68.7446578 -0.309844E-02  0.301E-02    0.42       1.0  T
   7    -68.7447397 -0.819895E-04  0.176E-02    0.42       1.0  T
   8    -68.7447579 -0.181332E-04  0.119E-02    0.42       1.1  T
   9    -68.7447560  0.186479E-05  0.116E-02    0.42       1.1  T
  10    -68.7447569 -0.911308E-06  0.864E-03    0.42       1.5  T
  11    -68.7447651 -0.818048E-05  0.275E-03    0.42       4.7  T
  12    -68.7447659 -0.790789E-06  0.119E-03    0.42      10.8  T
  13    -68.7447659 -0.153019E-07  0.868E-04    0.42      14.9  T
  14    -68.7447660 -0.643948E-07  0.382E-04    0.42      33.8  T
     SCC iter.                  ...        0 min,  0.114 sec
     gradient                   ...        0 min,  0.010 sec
 * total energy  :   -67.6526569 Eh     change       -0.7009924E-03 Eh
   gradient norm :     0.0175323 Eh/α   predicted    -0.1277430E-02 (  82.23%)
   displ. norm   :     0.2016003 α      lambda       -0.8288289E-03
   maximum displ.:     0.1282764 α      in ANC's #3, #5, #17, ...

........................................................................
.............................. CYCLE  133 ..............................
........................................................................

 iter      E             dE          RMSdq      gap      omega  full diag
   1    -68.7410413 -0.687410E+02  0.121E-01    0.42       0.0  T
   2    -68.7402479  0.793470E-03  0.976E-02    0.42       1.0  T
   3    -68.7355650  0.468291E-02  0.176E-01    0.42       1.0  T
   4    -68.7392410 -0.367606E-02  0.104E-01    0.42       1.0  T
   5    -68.7409304 -0.168934E-02  0.373E-02    0.42       1.0  T
   6    -68.7411211 -0.190729E-03  0.983E-03    0.42       1.3  T
   7    -68.7411286 -0.747047E-05  0.658E-03    0.42       2.0  T
   8    -68.7411320 -0.340451E-05  0.464E-03    0.42       2.8  T
   9    -68.7411344 -0.242373E-05  0.202E-03    0.42       6.4  T
  10    -68.7411345 -0.129321E-06  0.157E-03    0.42       8.2  T
  11    -68.7411348 -0.233888E-06  0.951E-04    0.42      13.6  T
  12    -68.7411349 -0.111094E-06  0.350E-04    0.42      36.9  T
     SCC iter.                  ...        0 min,  0.097 sec
     gradient                   ...        0 min,  0.009 sec
 * total energy  :   -67.6531876 Eh     change       -0.5307500E-03 Eh
   gradient norm :     0.0093065 Eh/α   predicted    -0.4312576E-03 ( -18.75%)
   displ. norm   :     0.2218618 α      lambda       -0.6872997E-03
   maximum displ.:     0.1177410 α      in ANC's #3, #5, #19, ...

........................................................................
.............................. CYCLE  134 ..............................
........................................................................

 iter      E             dE          RMSdq      gap      omega  full diag
   1    -68.7453631 -0.687454E+02  0.157E-01    0.42       0.0  T
   2    -68.7448800  0.483147E-03  0.116E-01    0.42       1.0  T
   3    -68.7413470  0.353296E-02  0.181E-01    0.42       1.0  T
   4    -68.7431782 -0.183117E-02  0.128E-01    0.43       1.0  T
   5    -68.7451683 -0.199013E-02  0.426E-02    0.42       1.0  T
   6    -68.7454663 -0.297978E-03  0.110E-02    0.42       1.2  T
   7    -68.7454758 -0.951075E-05  0.743E-03    0.42       1.7  T
   8    -68.7454796 -0.378545E-05  0.432E-03    0.42       3.0  T
   9    -68.7454803 -0.724813E-06  0.371E-03    0.42       3.5  T
  10    -68.7454820 -0.168075E-05  0.225E-03    0.42       5.7  T
  11    -68.7454825 -0.453865E-06  0.117E-03    0.42      11.0  T
  12    -68.7454826 -0.175730E-06  0.435E-04    0.42      29.7  T
  13    -68.7454827 -0.106872E-07  0.316E-04    0.42      40.8  T
     SCC iter.                  ...        0 min,  0.146 sec
     gradient                   ...        0 min,  0.009 sec
 * total energy  :   -67.6534388 Eh     change       -0.2511808E-03 Eh
   gradient norm :     0.0142370 Eh/α   predicted    -0.3605658E-03 (  43.55%)
   displ. norm   :     0.2806905 α      lambda       -0.6710882E-03
   maximum displ.:     0.1793021 α      in ANC's #3, #5, #2, ...

........................................................................
.............................. CYCLE  135 ..............................
........................................................................

 iter      E             dE          RMSdq      gap      omega  full diag
   1    -68.7438407 -0.687438E+02  0.148E-01    0.42       0.0  T
   2    -68.7435463  0.294425E-03  0.105E-01    0.42       1.0  T
   3    -68.7395841  0.396218E-02  0.173E-01    0.42       1.0  T
   4    -68.7419402 -0.235607E-02  0.107E-01    0.42       1.0  T
   5    -68.7437210 -0.178080E-02  0.334E-02    0.42       1.0  T
   6    -68.7439049 -0.183945E-03  0.725E-03    0.42       1.8  T
   7    -68.7439100 -0.510583E-05  0.381E-03    0.42       3.4  T
   8    -68.7439105 -0.472306E-06  0.293E-03    0.42       4.4  T
   9    -68.7439110 -0.545448E-06  0.168E-03    0.42       7.7  T
  10    -68.7439110  0.307920E-07  0.162E-03    0.42       8.0  T
  11    -68.7439113 -0.343835E-06  0.640E-04    0.42      20.2  T
  12    -68.7439114 -0.470010E-07  0.285E-04    0.42      45.3  T
     SCC iter.                  ...        0 min,  0.094 sec
     gradient                   ...        0 min,  0.010 sec
 * total energy  :   -67.6538934 Eh     change       -0.4546012E-03 Eh
   gradient norm :     0.0085885 Eh/α   predicted    -0.3619843E-03 ( -20.37%)
   displ. norm   :     0.3184849 α      lambda       -0.4778348E-03
   maximum displ.:     0.2009249 α      in ANC's #3, #5, #2, ...

........................................................................
.............................. CYCLE  136 ..............................
........................................................................

 iter      E             dE          RMSdq      gap      omega  full diag
   1    -68.7429039 -0.687429E+02  0.181E-01    0.43       0.0  T
   2    -68.7416642  0.123971E-02  0.145E-01    0.43       1.0  T
   3    -68.7331982  0.846602E-02  0.233E-01    0.43       1.0  T
   4    -68.7385260 -0.532784E-02  0.156E-01    0.43       1.0  T
   5    -68.7425778 -0.405181E-02  0.544E-02    0.43       1.0  T
   6    -68.7430576 -0.479830E-03  0.105E-02    0.43       1.2  T
   7    -68.7430667 -0.910952E-05  0.586E-03    0.43       2.2  T
   8    -68.7430676 -0.890135E-06  0.516E-03    0.43       2.5  T
   9    -68.7430701 -0.245843E-05  0.259E-03    0.43       5.0  T
  10    -68.7430692  0.854979E-06  0.311E-03    0.43       4.2  T
  11    -68.7430704 -0.115331E-05  0.118E-03    0.43      11.0  T
  12    -68.7430706 -0.188078E-06  0.357E-04    0.43      36.2  T
  13    -68.7430706 -0.654224E-08  0.255E-04    0.43      50.7  T
     SCC iter.                  ...        0 min,  0.111 sec
     gradient                   ...        0 min,  0.011 sec
 * total energy  :   -67.6542468 Eh     change       -0.3534113E-03 Eh
   gradient norm :     0.0078186 Eh/α   predicted    -0.2631567E-03 ( -25.54%)
   displ. norm   :     0.3765540 α      lambda       -0.4465562E-03
   maximum displ.:     0.2558297 α      in ANC's #3, #5, #2, ...

........................................................................
.............................. CYCLE  137 ..............................
........................................................................

 iter      E             dE          RMSdq      gap      omega  full diag
   1    -68.7438571 -0.687439E+02  0.190E-01    0.43       0.0  T
   2    -68.7428436  0.101354E-02  0.146E-01    0.43       1.0  T
   3    -68.7336071  0.923645E-02  0.245E-01    0.43       1.0  T
   4    -68.7398854 -0.627829E-02  0.149E-01    0.43       1.0  T
   5    -68.7435897 -0.370429E-02  0.505E-02    0.43       1.0  T
   6    -68.7439933 -0.403553E-03  0.102E-02    0.43       1.3  T
   7    -68.7440026 -0.928716E-05  0.566E-03    0.43       2.3  T
   8    -68.7440040 -0.140586E-05  0.454E-03    0.43       2.8  T
   9    -68.7440055 -0.155256E-05  0.261E-03    0.43       5.0  T
  10    -68.7440045  0.103613E-05  0.340E-03    0.43       3.8  T
  11    -68.7440058 -0.134120E-05  0.139E-03    0.43       9.3  T
  12    -68.7440061 -0.270830E-06  0.369E-04    0.43      35.0  T
  13    -68.7440061 -0.805083E-08  0.252E-04    0.43      51.2  T
     SCC iter.                  ...        0 min,  0.112 sec
     gradient                   ...        0 min,  0.009 sec
 * total energy  :   -67.6545796 Eh     change       -0.3327942E-03 Eh
   gradient norm :     0.0065994 Eh/α   predicted    -0.2549415E-03 ( -23.39%)
   displ. norm   :     0.3667067 α      lambda       -0.3537839E-03
   maximum displ.:     0.2626711 α      in ANC's #3, #5, #2, ...

........................................................................
.............................. CYCLE  138 ..............................
........................................................................

 iter      E             dE          RMSdq      gap      omega  full diag
   1    -68.7447060 -0.687447E+02  0.179E-01    0.43       0.0  T
   2    -68.7439635  0.742583E-03  0.135E-01    0.43       1.0  T
   3    -68.7370397  0.692380E-02  0.221E-01    0.44       1.0  T
   4    -68.7425628 -0.552314E-02  0.112E-01    0.43       1.0  T
   5    -68.7445016 -0.193884E-02  0.424E-02    0.43       1.0  T
   6    -68.7448153 -0.313639E-03  0.943E-03    0.43       1.4  T
   7    -68.7448242 -0.889539E-05  0.502E-03    0.43       2.6  T
   8    -68.7448249 -0.683508E-06  0.429E-03    0.43       3.0  T
   9    -68.7448263 -0.145924E-05  0.245E-03    0.43       5.3  T
  10    -68.7448259  0.461800E-06  0.284E-03    0.43       4.5  T
  11    -68.7448268 -0.956404E-06  0.126E-03    0.43      10.3  T
  12    -68.7448270 -0.213881E-06  0.362E-04    0.43      35.6  T
  13    -68.7448270 -0.772323E-08  0.247E-04    0.43      52.3  T
     SCC iter.                  ...        0 min,  0.117 sec
     gradient                   ...        0 min,  0.009 sec
 * total energy  :   -67.6548527 Eh     change       -0.2730825E-03 Eh
   gradient norm :     0.0051220 Eh/α   predicted    -0.2006809E-03 ( -26.51%)
   displ. norm   :     0.3401918 α      lambda       -0.2948448E-03
   maximum displ.:     0.2552310 α      in ANC's #3, #2, #5, ...

........................................................................
.............................. CYCLE  139 ..............................
........................................................................

 iter      E             dE          RMSdq      gap      omega  full diag
   1    -68.7453691 -0.687454E+02  0.154E-01    0.43       0.0  T
   2    -68.7450045  0.364560E-03  0.108E-01    0.43       1.0  T
   3    -68.7401147  0.488989E-02  0.199E-01    0.44       1.0  T
   4    -68.7438490 -0.373430E-02  0.943E-02    0.43       1.0  T
   5    -68.7452654 -0.141644E-02  0.304E-02    0.43       1.0  T
   6    -68.7454272 -0.161825E-03  0.787E-03    0.43       1.6  T
   7    -68.7454345 -0.728399E-05  0.375E-03    0.43       3.4  T
   8    -68.7454338  0.729286E-06  0.398E-03    0.43       3.2  T
   9    -68.7454355 -0.175332E-05  0.194E-03    0.43       6.6  T
  10    -68.7454359 -0.363965E-06  0.134E-03    0.43       9.6  T
  11    -68.7454360 -0.146068E-06  0.763E-04    0.43      16.9  T
  12    -68.7454361 -0.658997E-07  0.265E-04    0.43      48.6  T
     SCC iter.                  ...        0 min,  0.102 sec
     gradient                   ...        0 min,  0.009 sec
 * total energy  :   -67.6550865 Eh     change       -0.2338508E-03 Eh
   gradient norm :     0.0040271 Eh/α   predicted    -0.1644847E-03 ( -29.66%)
   displ. norm   :     0.3130487 α      lambda       -0.2551912E-03
   maximum displ.:     0.2340045 α      in ANC's #3, #2, #5, ...

........................................................................
.............................. CYCLE  140 ..............................
........................................................................

 iter      E             dE          RMSdq      gap      omega  full diag
   1    -68.7458942 -0.687459E+02  0.143E-01    0.43       0.0  T
   2    -68.7455494  0.344852E-03  0.984E-02    0.43       1.0  T
   3    -68.7380994  0.744997E-02  0.220E-01    0.43       1.0  T
   4    -68.7436667 -0.556730E-02  0.109E-01    0.43       1.0  T
   5    -68.7458752 -0.220853E-02  0.217E-02    0.43       1.0  T
   6    -68.7459335 -0.582848E-04  0.848E-03    0.43       1.5  T
   7    -68.7459413 -0.780554E-05  0.397E-03    0.43       3.3  T
   8    -68.7459414 -0.661779E-07  0.378E-03    0.43       3.4  T
   9    -68.7459433 -0.190103E-05  0.145E-03    0.43       8.9  T
  10    -68.7459433  0.218208E-08  0.130E-03    0.43       9.9  T
  11    -68.7459435 -0.176937E-06  0.569E-04    0.43      22.7  T
  12    -68.7459435 -0.465395E-07  0.216E-04    0.43      59.8  T
     SCC iter.                  ...        0 min,  0.114 sec
     gradient                   ...        0 min,  0.010 sec
 * total energy  :   -67.6552924 Eh     change       -0.2058456E-03 Eh
   gradient norm :     0.0043649 Eh/α   predicted    -0.1401009E-03 ( -31.94%)
   displ. norm   :     0.3174622 α      lambda       -0.2413424E-03
   maximum displ.:     0.2345142 α      in ANC's #3, #2, #5, ...

........................................................................
.............................. CYCLE  141 ..............................
........................................................................

 iter      E             dE          RMSdq      gap      omega  full diag
   1    -68.7458196 -0.687458E+02  0.139E-01    0.43       0.0  T
   2    -68.7453482  0.471352E-03  0.982E-02    0.43       1.0  T
   3    -68.7360174  0.933080E-02  0.234E-01    0.43       1.0  T
   4    -68.7439724 -0.795504E-02  0.103E-01    0.43       1.0  T
   5    -68.7457890 -0.181659E-02  0.223E-02    0.43       1.0  T
   6    -68.7458585 -0.694300E-04  0.935E-03    0.43       1.4  T
   7    -68.7458700 -0.114831E-04  0.365E-03    0.43       3.5  T
   8    -68.7458707 -0.755438E-06  0.289E-03    0.43       4.5  T
   9    -68.7458714 -0.717446E-06  0.155E-03    0.43       8.3  T
  10    -68.7458713  0.147329E-06  0.157E-03    0.43       8.2  T
  11    -68.7458716 -0.286723E-06  0.660E-04    0.43      19.6  T
  12    -68.7458716 -0.631329E-07  0.174E-04    0.43      74.1  T
     SCC iter.                  ...        0 min,  0.108 sec
     gradient                   ...        0 min,  0.010 sec
 * total energy  :   -67.6554919 Eh     change       -0.1994893E-03 Eh
   gradient norm :     0.0050321 Eh/α   predicted    -0.1328357E-03 ( -33.41%)
   displ. norm   :     0.3418182 α      lambda       -0.2527995E-03
   maximum displ.:     0.2504558 α      in ANC's #3, #2, #4, ...

........................................................................
.............................. CYCLE  142 ..............................
........................................................................

 iter      E             dE          RMSdq      gap      omega  full diag
   1    -68.7456973 -0.687457E+02  0.147E-01    0.43       0.0  T
   2    -68.7452505  0.446815E-03  0.103E-01    0.43       1.0  T
   3    -68.7345706  0.106799E-01  0.245E-01    0.42       1.0  T
   4    -68.7437816 -0.921101E-02  0.104E-01    0.43       1.0  T
   5    -68.7456523 -0.187074E-02  0.235E-02    0.43       1.0  T
   6    -68.7457365 -0.841695E-04  0.893E-03    0.43       1.4  T
   7    -68.7457463 -0.983600E-05  0.372E-03    0.43       3.5  T
   8    -68.7457472 -0.823685E-06  0.281E-03    0.43       4.6  T
   9    -68.7457477 -0.538213E-06  0.167E-03    0.43       7.7  T
  10    -68.7457474  0.311897E-06  0.182E-03    0.43       7.1  T
  11    -68.7457478 -0.430215E-06  0.686E-04    0.43      18.8  T
  12    -68.7457479 -0.711155E-07  0.201E-04    0.43      64.4  T
     SCC iter.                  ...        0 min,  0.094 sec
     gradient                   ...        0 min,  0.009 sec
 * total energy  :   -67.6557031 Eh     change       -0.2112463E-03 Eh
   gradient norm :     0.0051230 Eh/α   predicted    -0.1411710E-03 ( -33.17%)
   displ. norm   :     0.3843137 α      lambda       -0.2743195E-03
   maximum displ.:     0.2833174 α      in ANC's #3, #2, #4, ...

........................................................................
.............................. CYCLE  143 ..............................
........................................................................

 iter      E             dE          RMSdq      gap      omega  full diag
   1    -68.7452288 -0.687452E+02  0.151E-01    0.43       0.0  T
   2    -68.7447898  0.439020E-03  0.105E-01    0.43       1.0  T
   3    -68.7339960  0.107938E-01  0.247E-01    0.42       1.0  T
   4    -68.7433887 -0.939267E-02  0.101E-01    0.43       1.0  T
   5    -68.7451644 -0.177569E-02  0.257E-02    0.43       1.0  T
   6    -68.7452705 -0.106152E-03  0.817E-03    0.43       1.6  T
   7    -68.7452780 -0.743425E-05  0.389E-03    0.43       3.3  T
   8    -68.7452789 -0.967282E-06  0.267E-03    0.43       4.8  T
   9    -68.7452793 -0.416176E-06  0.185E-03    0.43       7.0  T
  10    -68.7452791  0.237444E-06  0.178E-03    0.43       7.2  T
  11    -68.7452795 -0.413228E-06  0.637E-04    0.43      20.3  T
  12    -68.7452796 -0.552298E-07  0.233E-04    0.43      55.4  T
     SCC iter.                  ...        0 min,  0.099 sec
     gradient                   ...        0 min,  0.009 sec
 * total energy  :   -67.6559336 Eh     change       -0.2304493E-03 Eh
   gradient norm :     0.0051644 Eh/α   predicted    -0.1574209E-03 ( -31.69%)
   displ. norm   :     0.4228445 α      lambda       -0.2837645E-03
   maximum displ.:     0.3124123 α      in ANC's #3, #2, #4, ...

........................................................................
.............................. CYCLE  144 ..............................
........................................................................

 iter      E             dE          RMSdq      gap      omega  full diag
   1    -68.7448862 -0.687449E+02  0.157E-01    0.43       0.0  T
   2    -68.7445917  0.294465E-03  0.106E-01    0.43       1.0  T
   3    -68.7344158  0.101759E-01  0.242E-01    0.41       1.0  T
   4    -68.7433909 -0.897503E-02  0.903E-02    0.43       1.0  T
   5    -68.7448438 -0.145291E-02  0.219E-02    0.43       1.0  T
   6    -68.7449176 -0.738446E-04  0.691E-03    0.43       1.9  T
   7    -68.7449225 -0.487767E-05  0.371E-03    0.43       3.5  T
   8    -68.7449235 -0.975300E-06  0.268E-03    0.43       4.8  T
   9    -68.7449241 -0.583807E-06  0.162E-03    0.43       8.0  T
  10    -68.7449239  0.141999E-06  0.159E-03    0.43       8.1  T
  11    -68.7449242 -0.334674E-06  0.532E-04    0.43      24.3  T
  12    -68.7449243 -0.334639E-07  0.201E-04    0.43      64.4  T
     SCC iter.                  ...        0 min,  0.098 sec
     gradient                   ...        0 min,  0.010 sec
 * total energy  :   -67.6561743 Eh     change       -0.2407885E-03 Eh
   gradient norm :     0.0048357 Eh/α   predicted    -0.1672522E-03 ( -30.54%)
   displ. norm   :     0.4511246 α      lambda       -0.2882369E-03
   maximum displ.:     0.3352650 α      in ANC's #3, #2, #5, ...

........................................................................
.............................. CYCLE  145 ..............................
........................................................................

 iter      E             dE          RMSdq      gap      omega  full diag
   1    -68.7448461 -0.687448E+02  0.154E-01    0.42       0.0  T
   2    -68.7446199  0.226208E-03  0.104E-01    0.43       1.0  T
   3    -68.7356492  0.897069E-02  0.233E-01    0.41       1.0  T
   4    -68.7439030 -0.825382E-02  0.755E-02    0.42       1.0  T
   5    -68.7448276 -0.924622E-03  0.176E-02    0.42       1.0  T
   6    -68.7448736 -0.460200E-04  0.454E-03    0.42       2.8  T
   7    -68.7448745 -0.839990E-06  0.344E-03    0.42       3.8  T
   8    -68.7448749 -0.453250E-06  0.313E-03    0.42       4.1  T
   9    -68.7448761 -0.118564E-05  0.154E-03    0.42       8.4  T
  10    -68.7448761  0.273295E-07  0.147E-03    0.42       8.8  T
  11    -68.7448764 -0.279053E-06  0.518E-04    0.42      24.9  T
  12    -68.7448764 -0.320173E-07  0.192E-04    0.42      67.1  T
     SCC iter.                  ...        0 min,  0.099 sec
     gradient                   ...        0 min,  0.009 sec
 * total energy  :   -67.6564209 Eh     change       -0.2465765E-03 Eh
   gradient norm :     0.0048738 Eh/α   predicted    -0.1734548E-03 ( -29.65%)
   displ. norm   :     0.4845203 α      lambda       -0.2891059E-03
   maximum displ.:     0.3582407 α      in ANC's #3, #2, #5, ...

........................................................................
.............................. CYCLE  146 ..............................
........................................................................

 iter      E             dE          RMSdq      gap      omega  full diag
   1    -68.7448330 -0.687448E+02  0.162E-01    0.42       0.0  T
   2    -68.7446496  0.183340E-03  0.108E-01    0.42       1.0  T
   3    -68.7363727  0.827688E-02  0.229E-01    0.41       1.0  T
   4    -68.7441052 -0.773244E-02  0.698E-02    0.42       1.0  T
   5    -68.7448135 -0.708325E-03  0.175E-02    0.42       1.0  T
   6    -68.7448576 -0.440963E-04  0.427E-03    0.42       3.0  T
   7    -68.7448587 -0.105018E-05  0.322E-03    0.42       4.0  T
   8    -68.7448591 -0.443542E-06  0.247E-03    0.42       5.2  T
   9    -68.7448593 -0.221531E-06  0.222E-03    0.42       5.8  T
  10    -68.7448598 -0.529707E-06  0.136E-03    0.42       9.5  T
  11    -68.7448601 -0.241340E-06  0.523E-04    0.42      24.7  T
  12    -68.7448601 -0.339416E-07  0.186E-04    0.42      69.5  T
     SCC iter.                  ...        0 min,  0.101 sec
     gradient                   ...        0 min,  0.010 sec
 * total energy  :   -67.6566716 Eh     change       -0.2506932E-03 Eh
   gradient norm :     0.0049965 Eh/α   predicted    -0.1784896E-03 ( -28.80%)
   displ. norm   :     0.5097980 α      lambda       -0.2956820E-03
   maximum displ.:     0.3776753 α      in ANC's #3, #2, #5, ...

........................................................................
.............................. CYCLE  147 ..............................
........................................................................

 iter      E             dE          RMSdq      gap      omega  full diag
   1    -68.7455426 -0.687455E+02  0.165E-01    0.42       0.0  T
   2    -68.7453371  0.205501E-03  0.111E-01    0.42       1.0  T
   3    -68.7366523  0.868479E-02  0.238E-01    0.42       1.0  T
   4    -68.7448002 -0.814785E-02  0.723E-02    0.42       1.0  T
   5    -68.7455058 -0.705557E-03  0.207E-02    0.42       1.0  T
   6    -68.7455682 -0.624168E-04  0.562E-03    0.42       2.3  T
   7    -68.7455704 -0.222963E-05  0.409E-03    0.42       3.2  T
   8    -68.7455719 -0.147169E-05  0.250E-03    0.42       5.2  T
   9    -68.7455719 -0.586462E-07  0.243E-03    0.42       5.3  T
  10    -68.7455725 -0.559292E-06  0.164E-03    0.42       7.9  T
  11    -68.7455728 -0.331982E-06  0.539E-04    0.42      24.0  T
  12    -68.7455729 -0.343596E-07  0.205E-04    0.42      63.1  T
     SCC iter.                  ...        0 min,  0.227 sec
     gradient                   ...        0 min,  0.012 sec
 * total energy  :   -67.6569270 Eh     change       -0.2554036E-03 Eh
   gradient norm :     0.0048694 Eh/α   predicted    -0.1862655E-03 ( -27.07%)
   displ. norm   :     0.5532354 α      lambda       -0.2976291E-03
   maximum displ.:     0.4075886 α      in ANC's #3, #2, #5, ...

........................................................................
.............................. CYCLE  148 ..............................
........................................................................

 iter      E             dE          RMSdq      gap      omega  full diag
   1    -68.7456034 -0.687456E+02  0.181E-01    0.42       0.0  T
   2    -68.7453998  0.203563E-03  0.120E-01    0.42       1.0  T
   3    -68.7362618  0.913798E-02  0.246E-01    0.41       1.0  T
   4    -68.7446666 -0.840480E-02  0.815E-02    0.42       1.0  T
   5    -68.7455573 -0.890707E-03  0.229E-02    0.42       1.0  T
   6    -68.7456311 -0.737198E-04  0.672E-03    0.42       1.9  T
   7    -68.7456352 -0.415086E-05  0.430E-03    0.42       3.0  T
   8    -68.7456364 -0.122353E-05  0.294E-03    0.42       4.4  T
   9    -68.7456368 -0.407647E-06  0.252E-03    0.42       5.1  T
  10    -68.7456373 -0.427953E-06  0.196E-03    0.42       6.6  T
  11    -68.7456378 -0.494084E-06  0.669E-04    0.42      19.3  T
  12    -68.7456378 -0.535280E-07  0.224E-04    0.42      57.7  T
     SCC iter.                  ...        0 min,  0.185 sec
     gradient                   ...        0 min,  0.029 sec
 * total energy  :   -67.6571804 Eh     change       -0.2533429E-03 Eh
   gradient norm :     0.0044754 Eh/α   predicted    -0.1943679E-03 ( -23.28%)
   displ. norm   :     0.5728805 α      lambda       -0.2830037E-03
   maximum displ.:     0.4235296 α      in ANC's #3, #2, #5, ...

........................................................................
.............................. CYCLE  149 ..............................
........................................................................

 iter      E             dE          RMSdq      gap      omega  full diag
   1    -68.7466155 -0.687466E+02  0.185E-01    0.42       0.0  T
   2    -68.7463464  0.269125E-03  0.125E-01    0.42       1.0  T
   3    -68.7364218  0.992463E-02  0.263E-01    0.42       1.0  T
   4    -68.7456123 -0.919055E-02  0.850E-02    0.42       1.0  T
   5    -68.7465514 -0.939078E-03  0.259E-02    0.41       1.0  T
   6    -68.7466498 -0.984121E-04  0.771E-03    0.42       1.7  T
   7    -68.7466560 -0.615476E-05  0.438E-03    0.42       2.9  T
   8    -68.7466570 -0.106036E-05  0.297E-03    0.42       4.3  T
   9    -68.7466568  0.209733E-06  0.310E-03    0.42       4.2  T
  10    -68.7466576 -0.766269E-06  0.228E-03    0.42       5.7  T
  11    -68.7466582 -0.605915E-06  0.778E-04    0.42      16.6  T
  12    -68.7466583 -0.726824E-07  0.257E-04    0.42      50.3  T
     SCC iter.                  ...        0 min,  0.128 sec
     gradient                   ...        0 min,  0.011 sec
 * total energy  :   -67.6574147 Eh     change       -0.2342932E-03 Eh
   gradient norm :     0.0040921 Eh/α   predicted    -0.1879473E-03 ( -19.78%)
   displ. norm   :     0.5887721 α      lambda       -0.2510154E-03
   maximum displ.:     0.4331512 α      in ANC's #3, #2, #5, ...

........................................................................
.............................. CYCLE  150 ..............................
........................................................................

 iter      E             dE          RMSdq      gap      omega  full diag
   1    -68.7464581 -0.687465E+02  0.188E-01    0.42       0.0  T
   2    -68.7462529  0.205189E-03  0.124E-01    0.42       1.0  T
   3    -68.7363071  0.994573E-02  0.260E-01    0.41       1.0  T
   4    -68.7453594 -0.905225E-02  0.879E-02    0.42       1.0  T
   5    -68.7464255 -0.106606E-02  0.213E-02    0.42       1.0  T
   6    -68.7464843 -0.588161E-04  0.747E-03    0.42       1.7  T
   7    -68.7464903 -0.600458E-05  0.425E-03    0.42       3.0  T
   8    -68.7464913 -0.103910E-05  0.296E-03    0.42       4.4  T
   9    -68.7464915 -0.200813E-06  0.275E-03    0.42       4.7  T
  10    -68.7464920 -0.498323E-06  0.209E-03    0.42       6.2  T
  11    -68.7464925 -0.533316E-06  0.739E-04    0.42      17.5  T
  12    -68.7464926 -0.692134E-07  0.222E-04    0.42      58.1  T
     SCC iter.                  ...        0 min,  0.128 sec
     gradient                   ...        0 min,  0.012 sec
 * total energy  :   -67.6576224 Eh     change       -0.2077701E-03 Eh
   gradient norm :     0.0039483 Eh/α   predicted    -0.1690200E-03 ( -18.65%)
   displ. norm   :     0.6024584 α      lambda       -0.2360578E-03
   maximum displ.:     0.4430952 α      in ANC's #3, #2, #17, ...
 * RMSD in coord.:     1.2319424 α      energy gain  -0.2961500E-01 Eh

generating ANC from exact Hessian ...
Using Lindh-Hessian (1995)
 Shifting diagonal of input Hessian by   1.022771926621127E-002
 Lowest  eigenvalues of input Hessian
    0.000000    0.010000    0.000000    0.010089    0.010135    0.000000
    0.000000    0.000000    0.000000    0.010680    0.010707    0.011139
    0.011903    0.012264    0.012628    0.013061    0.013239    0.014131
 Highest eigenvalues
    1.441433    1.455232    1.458440    1.467306    1.501517    1.521719
 

........................................................................
.............................. CYCLE  151 ..............................
........................................................................

 iter      E             dE          RMSdq      gap      omega  full diag
   1    -68.7472650 -0.687473E+02  0.191E-01    0.42       0.0  T
   2    -68.7470356  0.229392E-03  0.126E-01    0.42       1.0  T
   3    -68.7364389  0.105967E-01  0.270E-01    0.41       1.0  T
   4    -68.7463016 -0.986270E-02  0.820E-02    0.42       1.0  T
   5    -68.7472296 -0.927962E-03  0.211E-02    0.42       1.0  T
   6    -68.7472926 -0.630035E-04  0.719E-03    0.42       1.8  T
   7    -68.7472987 -0.608637E-05  0.376E-03    0.42       3.4  T
   8    -68.7472990 -0.323599E-06  0.281E-03    0.42       4.6  T
   9    -68.7472987  0.271171E-06  0.307E-03    0.42       4.2  T
  10    -68.7472997 -0.976226E-06  0.193E-03    0.42       6.7  T
  11    -68.7473001 -0.408271E-06  0.675E-04    0.42      19.1  T
  12    -68.7473001 -0.581581E-07  0.227E-04    0.42      56.8  T
     SCC iter.                  ...        0 min,  0.125 sec
     gradient                   ...        0 min,  0.011 sec
 * total energy  :   -67.6578222 Eh     change       -0.1997946E-03 Eh
   gradient norm :     0.0040871 Eh/α   predicted     0.0000000E+00 (-100.00%)
   displ. norm   :     0.0502762 α      lambda       -0.7544579E-04
   maximum displ.:     0.0193391 α      in ANC's #5, #12, #3, ...

........................................................................
.............................. CYCLE  152 ..............................
........................................................................

 iter      E             dE          RMSdq      gap      omega  full diag
   1    -68.7481739 -0.687482E+02  0.313E-02    0.42       0.0  T
   2    -68.7481633  0.105427E-04  0.221E-02    0.42       1.0  T
   3    -68.7479906  0.172690E-03  0.366E-02    0.42       1.0  T
   4    -68.7481291 -0.138433E-03  0.177E-02    0.42       1.0  T
   5    -68.7481694 -0.402997E-04  0.635E-03    0.42       2.0  T
   6    -68.7481759 -0.656172E-05  0.166E-03    0.42       7.8  T
   7    -68.7481762 -0.304409E-06  0.826E-04    0.42      15.6  T
   8    -68.7481762 -0.241413E-08  0.724E-04    0.42      17.8  T
     SCC iter.                  ...        0 min,  0.081 sec
     gradient                   ...        0 min,  0.024 sec
 * total energy  :   -67.6578866 Eh     change       -0.6437845E-04 Eh
   gradient norm :     0.0028394 Eh/α   predicted    -0.3813416E-04 ( -40.77%)
   displ. norm   :     0.1873584 α      lambda       -0.1925739E-03
   maximum displ.:     0.0899722 α      in ANC's #5, #3, #12, ...

........................................................................
.............................. CYCLE  153 ..............................
........................................................................

 iter      E             dE          RMSdq      gap      omega  full diag
   1    -68.7499060 -0.687499E+02  0.109E-01    0.42       0.0  T
   2    -68.7498288  0.771713E-04  0.729E-02    0.43       1.0  T
   3    -68.7481077  0.172112E-02  0.117E-01    0.42       1.0  T
   4    -68.7494983 -0.139054E-02  0.534E-02    0.43       1.0  T
   5    -68.7498851 -0.386786E-03  0.164E-02    0.42       1.0  T
   6    -68.7499260 -0.409204E-04  0.403E-03    0.42       3.2  T
   7    -68.7499265 -0.536516E-06  0.326E-03    0.42       4.0  T
   8    -68.7499267 -0.191128E-06  0.270E-03    0.42       4.8  T
   9    -68.7499278 -0.105357E-05  0.127E-03    0.42      10.2  T
  10    -68.7499279 -0.178261E-06  0.772E-04    0.42      16.7  T
  11    -68.7499280 -0.548109E-07  0.501E-04    0.42      25.8  T
     SCC iter.                  ...        0 min,  0.123 sec
     gradient                   ...        0 min,  0.011 sec
 * total energy  :   -67.6579934 Eh     change       -0.1068456E-03 Eh
   gradient norm :     0.0027471 Eh/α   predicted    -0.9966957E-04 (  -6.72%)
   displ. norm   :     0.1007690 α      lambda       -0.5466641E-04
   maximum displ.:     0.0498416 α      in ANC's #5, #3, #12, ...

........................................................................
.............................. CYCLE  154 ..............................
........................................................................

 iter      E             dE          RMSdq      gap      omega  full diag
   1    -68.7497474 -0.687497E+02  0.602E-02    0.43       0.0  T
   2    -68.7497357  0.117509E-04  0.380E-02    0.43       1.0  T
   3    -68.7490892  0.646502E-03  0.664E-02    0.42       1.0  T
   4    -68.7496232 -0.534042E-03  0.275E-02    0.43       1.0  T
   5    -68.7497405 -0.117248E-03  0.751E-03    0.43       1.7  T
   6    -68.7497501 -0.960817E-05  0.171E-03    0.43       7.5  T
   7    -68.7497502 -0.152073E-06  0.122E-03    0.43      10.6  T
   8    -68.7497502  0.864154E-08  0.118E-03    0.43      10.9  T
   9    -68.7497504 -0.190943E-06  0.501E-04    0.43      25.8  T
  10    -68.7497504 -0.148924E-07  0.413E-04    0.43      31.2  T
     SCC iter.                  ...        0 min,  0.106 sec
     gradient                   ...        0 min,  0.009 sec
 * total energy  :   -67.6580289 Eh     change       -0.3543978E-04 Eh
   gradient norm :     0.0026198 Eh/α   predicted    -0.2761990E-04 ( -22.07%)
   displ. norm   :     0.1250459 α      lambda       -0.5454108E-04
   maximum displ.:     0.0696537 α      in ANC's #5, #3, #2, ...

........................................................................
.............................. CYCLE  155 ..............................
........................................................................

 iter      E             dE          RMSdq      gap      omega  full diag
   1    -68.7490721 -0.687491E+02  0.662E-02    0.43       0.0  T
   2    -68.7490297  0.424178E-04  0.432E-02    0.43       1.0  T
   3    -68.7472141  0.181555E-02  0.103E-01    0.43       1.0  T
   4    -68.7488716 -0.165754E-02  0.340E-02    0.43       1.0  T
   5    -68.7490623 -0.190625E-03  0.984E-03    0.43       1.3  T
   6    -68.7490774 -0.150946E-04  0.168E-03    0.43       7.7  T
   7    -68.7490775 -0.108885E-06  0.133E-03    0.43       9.7  T
   8    -68.7490776 -0.102127E-06  0.831E-04    0.43      15.5  T
   9    -68.7490776 -0.366117E-07  0.595E-04    0.43      21.7  T
     SCC iter.                  ...        0 min,  0.088 sec
     gradient                   ...        0 min,  0.010 sec
 * total energy  :   -67.6580726 Eh     change       -0.4375414E-04 Eh
   gradient norm :     0.0022211 Eh/α   predicted    -0.2769820E-04 ( -36.70%)
   displ. norm   :     0.1750541 α      lambda       -0.7227134E-04
   maximum displ.:     0.0985995 α      in ANC's #5, #3, #2, ...

........................................................................
.............................. CYCLE  156 ..............................
........................................................................

 iter      E             dE          RMSdq      gap      omega  full diag
   1    -68.7480483 -0.687480E+02  0.920E-02    0.43       0.0  T
   2    -68.7479196  0.128776E-03  0.624E-02    0.43       1.0  T
   3    -68.7441319  0.378763E-02  0.148E-01    0.43       1.0  T
   4    -68.7475384 -0.340648E-02  0.532E-02    0.43       1.0  T
   5    -68.7480291 -0.490730E-03  0.151E-02    0.43       1.0  T
   6    -68.7480628 -0.336150E-04  0.261E-03    0.43       5.0  T
   7    -68.7480631 -0.293512E-06  0.210E-03    0.43       6.2  T
   8    -68.7480634 -0.345764E-06  0.123E-03    0.43      10.5  T
   9    -68.7480633  0.642616E-07  0.123E-03    0.43      10.5  T
  10    -68.7480635 -0.117671E-06  0.919E-04    0.43      14.1  T
  11    -68.7480636 -0.100215E-06  0.375E-04    0.43      34.5  T
     SCC iter.                  ...        0 min,  0.112 sec
     gradient                   ...        0 min,  0.012 sec
 * total energy  :   -67.6581267 Eh     change       -0.5409424E-04 Eh
   gradient norm :     0.0023200 Eh/α   predicted    -0.3724716E-04 ( -31.14%)
   displ. norm   :     0.1924001 α      lambda       -0.5850065E-04
   maximum displ.:     0.1063929 α      in ANC's #5, #3, #2, ...

........................................................................
.............................. CYCLE  157 ..............................
........................................................................

 iter      E             dE          RMSdq      gap      omega  full diag
   1    -68.7476089 -0.687476E+02  0.958E-02    0.43       0.0  T
   2    -68.7474846  0.124309E-03  0.646E-02    0.43       1.0  T
   3    -68.7437208  0.376384E-02  0.148E-01    0.43       1.0  T
   4    -68.7470080 -0.328725E-02  0.567E-02    0.43       1.0  T
   5    -68.7475846 -0.576611E-03  0.162E-02    0.43       1.0  T
   6    -68.7476244 -0.397666E-04  0.273E-03    0.43       4.7  T
   7    -68.7476247 -0.325468E-06  0.222E-03    0.43       5.8  T
   8    -68.7476251 -0.365069E-06  0.146E-03    0.43       8.9  T
   9    -68.7476252 -0.703537E-07  0.115E-03    0.43      11.3  T
  10    -68.7476252 -0.855938E-07  0.868E-04    0.43      14.9  T
  11    -68.7476253 -0.814127E-07  0.389E-04    0.43      33.2  T
     SCC iter.                  ...        0 min,  0.119 sec
     gradient                   ...        0 min,  0.010 sec
 * total energy  :   -67.6581722 Eh     change       -0.4545907E-04 Eh
   gradient norm :     0.0026845 Eh/α   predicted    -0.3033698E-04 ( -33.27%)
   displ. norm   :     0.2217967 α      lambda       -0.5970165E-04
   maximum displ.:     0.1224324 α      in ANC's #5, #3, #2, ...

........................................................................
.............................. CYCLE  158 ..............................
........................................................................

 iter      E             dE          RMSdq      gap      omega  full diag
   1    -68.7478081 -0.687478E+02  0.110E-01    0.43       0.0  T
   2    -68.7476876  0.120503E-03  0.726E-02    0.43       1.0  T
   3    -68.7431530  0.453462E-02  0.162E-01    0.44       1.0  T
   4    -68.7470687 -0.391571E-02  0.624E-02    0.43       1.0  T
   5    -68.7477815 -0.712809E-03  0.168E-02    0.43       1.0  T
   6    -68.7478251 -0.436162E-04  0.285E-03    0.43       4.5  T
   7    -68.7478254 -0.294597E-06  0.244E-03    0.43       5.3  T
   8    -68.7478258 -0.403911E-06  0.160E-03    0.43       8.1  T
   9    -68.7478259 -0.900230E-07  0.127E-03    0.43      10.2  T
  10    -68.7478260 -0.946216E-07  0.101E-03    0.43      12.8  T
  11    -68.7478261 -0.113441E-06  0.393E-04    0.43      32.8  T
  12    -68.7478261 -0.200486E-07  0.140E-04    0.43      92.2  T
     SCC iter.                  ...        0 min,  0.108 sec
     gradient                   ...        0 min,  0.009 sec
 * total energy  :   -67.6582190 Eh     change       -0.4678878E-04 Eh
   gradient norm :     0.0024321 Eh/α   predicted    -0.3132225E-04 ( -33.06%)
   displ. norm   :     0.2389206 α      lambda       -0.5669673E-04
   maximum displ.:     0.1299094 α      in ANC's #5, #3, #2, ...

........................................................................
.............................. CYCLE  159 ..............................
........................................................................

 iter      E             dE          RMSdq      gap      omega  full diag
   1    -68.7485880 -0.687486E+02  0.115E-01    0.43       0.0  T
   2    -68.7484894  0.985554E-04  0.752E-02    0.43       1.0  T
   3    -68.7441015  0.438788E-02  0.159E-01    0.44       1.0  T
   4    -68.7477720 -0.367045E-02  0.647E-02    0.44       1.0  T
   5    -68.7485670 -0.795015E-03  0.153E-02    0.43       1.0  T
   6    -68.7486041 -0.371152E-04  0.298E-03    0.43       4.3  T
   7    -68.7486045 -0.366199E-06  0.258E-03    0.43       5.0  T
   8    -68.7486049 -0.426911E-06  0.175E-03    0.43       7.4  T
   9    -68.7486051 -0.217734E-06  0.119E-03    0.43      10.9  T
  10    -68.7486052 -0.674213E-07  0.958E-04    0.43      13.5  T
  11    -68.7486053 -0.981205E-07  0.371E-04    0.43      34.8  T
     SCC iter.                  ...        0 min,  0.125 sec
     gradient                   ...        0 min,  0.009 sec
 * total energy  :   -67.6582618 Eh     change       -0.4283444E-04 Eh
   gradient norm :     0.0019075 Eh/α   predicted    -0.2997092E-04 ( -30.03%)
   displ. norm   :     0.3001862 α      lambda       -0.3993046E-04
   maximum displ.:     0.1658198 α      in ANC's #3, #5, #2, ...

........................................................................
.............................. CYCLE  160 ..............................
........................................................................

 iter      E             dE          RMSdq      gap      omega  full diag
   1    -68.7497829 -0.687498E+02  0.143E-01    0.43       0.0  T
   2    -68.7496617  0.121272E-03  0.925E-02    0.43       1.0  T
   3    -68.7431304  0.653126E-02  0.193E-01    0.44       1.0  T
   4    -68.7486869 -0.555647E-02  0.755E-02    0.44       1.0  T
   5    -68.7497669 -0.108002E-02  0.154E-02    0.43       1.0  T
   6    -68.7498035 -0.366346E-04  0.358E-03    0.43       3.6  T
   7    -68.7498042 -0.661126E-06  0.296E-03    0.43       4.4  T
   8    -68.7498047 -0.460009E-06  0.193E-03    0.43       6.7  T
   9    -68.7498047 -0.840534E-07  0.180E-03    0.43       7.2  T
  10    -68.7498050 -0.267260E-06  0.118E-03    0.43      10.9  T
  11    -68.7498052 -0.159353E-06  0.382E-04    0.43      33.8  T
  12    -68.7498052 -0.181992E-07  0.157E-04    0.43      82.5  T
     SCC iter.                  ...        0 min,  0.113 sec
     gradient                   ...        0 min,  0.010 sec
 * total energy  :   -67.6583016 Eh     change       -0.3981719E-04 Eh
   gradient norm :     0.0017392 Eh/α   predicted    -0.2076996E-04 ( -47.84%)
   displ. norm   :     0.1522376 α      lambda       -0.2166673E-04
   maximum displ.:     0.0925800 α      in ANC's #3, #2, #5, ...

........................................................................
.............................. CYCLE  161 ..............................
........................................................................

 iter      E             dE          RMSdq      gap      omega  full diag
   1    -68.7502838 -0.687503E+02  0.701E-02    0.43       0.0  T
   2    -68.7502555  0.282807E-04  0.451E-02    0.43       1.0  T
   3    -68.7485001  0.175540E-02  0.979E-02    0.43       1.0  T
   4    -68.7500597 -0.155959E-02  0.351E-02    0.43       1.0  T
   5    -68.7502842 -0.224521E-03  0.542E-03    0.43       2.4  T
   6    -68.7502882 -0.400996E-05  0.148E-03    0.43       8.7  T
   7    -68.7502882  0.385383E-07  0.141E-03    0.43       9.2  T
   8    -68.7502883 -0.134116E-06  0.906E-04    0.43      14.2  T
   9    -68.7502884 -0.769445E-07  0.638E-04    0.43      20.2  T
     SCC iter.                  ...        0 min,  0.083 sec
     gradient                   ...        0 min,  0.010 sec
 * total energy  :   -67.6583282 Eh     change       -0.2661379E-04 Eh
   gradient norm :     0.0014518 Eh/α   predicted    -0.1094902E-04 ( -58.86%)
   displ. norm   :     0.1746149 α      lambda       -0.3096723E-04
   maximum displ.:     0.1100205 α      in ANC's #3, #2, #5, ...

........................................................................
.............................. CYCLE  162 ..............................
........................................................................

 iter      E             dE          RMSdq      gap      omega  full diag
   1    -68.7504044 -0.687504E+02  0.853E-02    0.43       0.0  T
   2    -68.7503551  0.492442E-04  0.558E-02    0.43       1.0  T
   3    -68.7478338  0.252128E-02  0.119E-01    0.43       1.0  T
   4    -68.7499941 -0.216028E-02  0.479E-02    0.43       1.0  T
   5    -68.7504043 -0.410133E-03  0.728E-03    0.43       1.8  T
   6    -68.7504118 -0.754305E-05  0.198E-03    0.43       6.5  T
   7    -68.7504117  0.662465E-07  0.187E-03    0.43       6.9  T
   8    -68.7504120 -0.297642E-06  0.114E-03    0.43      11.3  T
   9    -68.7504121 -0.652206E-07  0.858E-04    0.43      15.0  T
  10    -68.7504122 -0.831123E-07  0.575E-04    0.43      22.5  T
     SCC iter.                  ...        0 min,  0.090 sec
     gradient                   ...        0 min,  0.010 sec
 * total energy  :   -67.6583617 Eh     change       -0.3342255E-04 Eh
   gradient norm :     0.0014869 Eh/α   predicted    -0.1569427E-04 ( -53.04%)
   displ. norm   :     0.1811177 α      lambda       -0.2585402E-04
   maximum displ.:     0.1156505 α      in ANC's #3, #2, #5, ...

........................................................................
.............................. CYCLE  163 ..............................
........................................................................

 iter      E             dE          RMSdq      gap      omega  full diag
   1    -68.7497499 -0.687497E+02  0.808E-02    0.43       0.0  T
   2    -68.7497070  0.429424E-04  0.528E-02    0.43       1.0  T
   3    -68.7473591  0.234788E-02  0.114E-01    0.43       1.0  T
   4    -68.7494126 -0.205347E-02  0.435E-02    0.43       1.0  T
   5    -68.7497493 -0.336717E-03  0.705E-03    0.43       1.8  T
   6    -68.7497563 -0.704460E-05  0.181E-03    0.43       7.1  T
   7    -68.7497563 -0.145622E-07  0.163E-03    0.43       7.9  T
   8    -68.7497565 -0.213939E-06  0.103E-03    0.43      12.5  T
   9    -68.7497566 -0.762396E-07  0.653E-04    0.43      19.8  T
  10    -68.7497566 -0.208145E-07  0.594E-04    0.43      21.7  T
     SCC iter.                  ...        0 min,  0.090 sec
     gradient                   ...        0 min,  0.009 sec
 * total energy  :   -67.6583888 Eh     change       -0.2713378E-04 Eh
   gradient norm :     0.0015758 Eh/α   predicted    -0.1312002E-04 ( -51.65%)
   displ. norm   :     0.1412439 α      lambda       -0.1767979E-04
   maximum displ.:     0.0915559 α      in ANC's #3, #2, #1, ...

........................................................................
.............................. CYCLE  164 ..............................
........................................................................

 iter      E             dE          RMSdq      gap      omega  full diag
   1    -68.7494541 -0.687495E+02  0.597E-02    0.43       0.0  T
   2    -68.7494367  0.173567E-04  0.386E-02    0.43       1.0  T
   3    -68.7484358  0.100091E-02  0.767E-02    0.43       1.0  T
   4    -68.7492840 -0.848224E-03  0.309E-02    0.43       1.0  T
   5    -68.7494537 -0.169693E-03  0.481E-03    0.43       2.7  T
   6    -68.7494570 -0.327263E-05  0.137E-03    0.43       9.4  T
   7    -68.7494570 -0.967702E-09  0.126E-03    0.43      10.2  T
   8    -68.7494571 -0.104070E-06  0.956E-04    0.43      13.5  T
   9    -68.7494572 -0.101134E-06  0.421E-04    0.43      30.7  T
     SCC iter.                  ...        0 min,  0.080 sec
     gradient                   ...        0 min,  0.009 sec
 * total energy  :   -67.6584114 Eh     change       -0.2257220E-04 Eh
   gradient norm :     0.0014631 Eh/α   predicted    -0.8923003E-05 ( -60.47%)
   displ. norm   :     0.1729031 α      lambda       -0.2365621E-04
   maximum displ.:     0.1118065 α      in ANC's #3, #2, #1, ...

........................................................................
.............................. CYCLE  165 ..............................
........................................................................

 iter      E             dE          RMSdq      gap      omega  full diag
   1    -68.7492767 -0.687493E+02  0.705E-02    0.43       0.0  T
   2    -68.7492589  0.177875E-04  0.451E-02    0.43       1.0  T
   3    -68.7481257  0.113326E-02  0.853E-02    0.43       1.0  T
   4    -68.7490945 -0.968848E-03  0.329E-02    0.43       1.0  T
   5    -68.7492763 -0.181782E-03  0.509E-03    0.43       2.5  T
   6    -68.7492797 -0.337555E-05  0.194E-03    0.43       6.6  T
   7    -68.7492799 -0.232678E-06  0.157E-03    0.43       8.2  T
   8    -68.7492802 -0.281723E-06  0.943E-04    0.43      13.7  T
   9    -68.7492803 -0.857557E-07  0.445E-04    0.43      29.0  T
     SCC iter.                  ...        0 min,  0.080 sec
     gradient                   ...        0 min,  0.009 sec
 * total energy  :   -67.6584408 Eh     change       -0.2939403E-04 Eh
   gradient norm :     0.0012086 Eh/α   predicted    -0.1198683E-04 ( -59.22%)
   displ. norm   :     0.2261689 α      lambda       -0.2661153E-04
   maximum displ.:     0.1463374 α      in ANC's #3, #2, #1, ...

........................................................................
.............................. CYCLE  166 ..............................
........................................................................

 iter      E             dE          RMSdq      gap      omega  full diag
   1    -68.7492964 -0.687493E+02  0.871E-02    0.43       0.0  T
   2    -68.7492844  0.119484E-04  0.548E-02    0.43       1.0  T
   3    -68.7485585  0.725879E-03  0.741E-02    0.43       1.0  T
   4    -68.7491603 -0.601781E-03  0.289E-02    0.43       1.0  T
   5    -68.7492951 -0.134824E-03  0.575E-03    0.43       2.2  T
   6    -68.7492996 -0.447925E-05  0.189E-03    0.43       6.8  T
   7    -68.7492997 -0.443835E-07  0.175E-03    0.43       7.4  T
   8    -68.7492999 -0.274886E-06  0.116E-03    0.43      11.1  T
   9    -68.7493001 -0.159501E-06  0.536E-04    0.43      24.1  T
  10    -68.7493001 -0.248548E-07  0.376E-04    0.43      34.3  T
     SCC iter.                  ...        0 min,  0.082 sec
     gradient                   ...        0 min,  0.008 sec
 * total energy  :   -67.6584718 Eh     change       -0.3102343E-04 Eh
   gradient norm :     0.0013036 Eh/α   predicted    -0.1361231E-04 ( -56.12%)
   displ. norm   :     0.2406096 α      lambda       -0.2393826E-04
   maximum displ.:     0.1564297 α      in ANC's #3, #2, #1, ...

........................................................................
.............................. CYCLE  167 ..............................
........................................................................

 iter      E             dE          RMSdq      gap      omega  full diag
   1    -68.7491938 -0.687492E+02  0.870E-02    0.43       0.0  T
   2    -68.7491747  0.190629E-04  0.551E-02    0.43       1.0  T
   3    -68.7477458  0.142891E-02  0.100E-01    0.43       1.0  T
   4    -68.7490704 -0.132459E-02  0.287E-02    0.43       1.0  T
   5    -68.7491931 -0.122750E-03  0.525E-03    0.43       2.5  T
   6    -68.7491966 -0.342404E-05  0.228E-03    0.43       5.7  T
   7    -68.7491971 -0.498494E-06  0.164E-03    0.43       7.9  T
   8    -68.7491972 -0.150931E-06  0.114E-03    0.43      11.4  T
   9    -68.7491974 -0.146904E-06  0.722E-04    0.43      17.9  T
  10    -68.7491974 -0.688716E-07  0.436E-04    0.43      29.6  T
     SCC iter.                  ...        0 min,  0.107 sec
     gradient                   ...        0 min,  0.013 sec
 * total energy  :   -67.6584998 Eh     change       -0.2805220E-04 Eh
   gradient norm :     0.0015929 Eh/α   predicted    -0.1227759E-04 ( -56.23%)
   displ. norm   :     0.2589690 α      lambda       -0.2510169E-04
   maximum displ.:     0.1687301 α      in ANC's #3, #2, #1, ...

........................................................................
.............................. CYCLE  168 ..............................
........................................................................

 iter      E             dE          RMSdq      gap      omega  full diag
   1    -68.7493903 -0.687494E+02  0.850E-02    0.44       0.0  T
   2    -68.7493742  0.161652E-04  0.537E-02    0.44       1.0  T
   3    -68.7484466  0.927555E-03  0.804E-02    0.43       1.0  T
   4    -68.7493025 -0.855903E-03  0.237E-02    0.44       1.0  T
   5    -68.7493862 -0.837031E-04  0.665E-03    0.44       1.9  T
   6    -68.7493936 -0.734492E-05  0.233E-03    0.44       5.5  T
   7    -68.7493943 -0.694927E-06  0.119E-03    0.44      10.8  T
   8    -68.7493943 -0.640802E-07  0.828E-04    0.44      15.6  T
   9    -68.7493944 -0.360409E-07  0.590E-04    0.44      21.9  T
     SCC iter.                  ...        0 min,  0.081 sec
     gradient                   ...        0 min,  0.009 sec
 * total energy  :   -67.6585318 Eh     change       -0.3191378E-04 Eh
   gradient norm :     0.0015647 Eh/α   predicted    -0.1292798E-04 ( -59.49%)
   displ. norm   :     0.3524000 α      lambda       -0.3439819E-04
   maximum displ.:     0.2296548 α      in ANC's #3, #2, #1, ...

........................................................................
.............................. CYCLE  169 ..............................
........................................................................

 iter      E             dE          RMSdq      gap      omega  full diag
   1    -68.7497777 -0.687498E+02  0.109E-01    0.44       0.0  T
   2    -68.7497353  0.423983E-04  0.699E-02    0.44       1.0  T
   3    -68.7473794  0.235592E-02  0.128E-01    0.44       1.0  T
   4    -68.7495816 -0.220227E-02  0.371E-02    0.44       1.0  T
   5    -68.7497652 -0.183575E-03  0.107E-02    0.44       1.2  T
   6    -68.7497852 -0.200012E-04  0.291E-03    0.44       4.4  T
   7    -68.7497860 -0.806765E-06  0.183E-03    0.44       7.1  T
   8    -68.7497861 -0.997671E-07  0.134E-03    0.44       9.6  T
   9    -68.7497862 -0.104522E-06  0.107E-03    0.44      12.0  T
  10    -68.7497864 -0.145679E-06  0.653E-04    0.44      19.8  T
  11    -68.7497864 -0.361502E-07  0.381E-04    0.44      33.9  T
     SCC iter.                  ...        0 min,  0.096 sec
     gradient                   ...        0 min,  0.009 sec
 * total energy  :   -67.6585753 Eh     change       -0.4359031E-04 Eh
   gradient norm :     0.0013723 Eh/α   predicted    -0.1815190E-04 ( -58.36%)
   displ. norm   :     0.4538169 α      lambda       -0.3974810E-04
   maximum displ.:     0.2953810 α      in ANC's #3, #2, #1, ...

........................................................................
.............................. CYCLE  170 ..............................
........................................................................

 iter      E             dE          RMSdq      gap      omega  full diag
   1    -68.7497365 -0.687497E+02  0.138E-01    0.44       0.0  T
   2    -68.7496375  0.990176E-04  0.898E-02    0.44       1.0  T
   3    -68.7441706  0.546683E-02  0.184E-01    0.44       1.0  T
   4    -68.7493366 -0.516601E-02  0.494E-02    0.44       1.0  T
   5    -68.7497036 -0.367002E-03  0.164E-02    0.44       1.0  T
   6    -68.7497511 -0.474185E-04  0.335E-03    0.44       3.8  T
   7    -68.7497519 -0.837021E-06  0.213E-03    0.44       6.1  T
   8    -68.7497521 -0.250984E-06  0.143E-03    0.44       9.0  T
   9    -68.7497521  0.360274E-07  0.134E-03    0.44       9.7  T
  10    -68.7497522 -0.640044E-07  0.117E-03    0.44      11.0  T
  11    -68.7497523 -0.168184E-06  0.515E-04    0.44      25.1  T
  12    -68.7497524 -0.386512E-07  0.127E-04    0.44     101.3  T
     SCC iter.                  ...        0 min,  0.105 sec
     gradient                   ...        0 min,  0.011 sec
 * total energy  :   -67.6586231 Eh     change       -0.4770782E-04 Eh
   gradient norm :     0.0015076 Eh/α   predicted    -0.2169579E-04 ( -54.52%)
   displ. norm   :     0.4765408 α      lambda       -0.3471103E-04
   maximum displ.:     0.3105564 α      in ANC's #2, #3, #1, ...

........................................................................
.............................. CYCLE  171 ..............................
........................................................................

 iter      E             dE          RMSdq      gap      omega  full diag
   1    -68.7499743 -0.687500E+02  0.141E-01    0.45       0.0  T
   2    -68.7498675  0.106786E-03  0.922E-02    0.45       1.0  T
   3    -68.7434079  0.645961E-02  0.200E-01    0.44       1.0  T
   4    -68.7496285 -0.622061E-02  0.463E-02    0.45       1.0  T
   5    -68.7499427 -0.314240E-03  0.161E-02    0.44       1.0  T
   6    -68.7499880 -0.452657E-04  0.303E-03    0.45       4.3  T
   7    -68.7499882 -0.189621E-06  0.250E-03    0.45       5.2  T
   8    -68.7499886 -0.437538E-06  0.161E-03    0.45       8.0  T
   9    -68.7499887 -0.996246E-08  0.148E-03    0.45       8.7  T
  10    -68.7499888 -0.168009E-06  0.116E-03    0.45      11.1  T
  11    -68.7499890 -0.154754E-06  0.411E-04    0.45      31.4  T
  12    -68.7499890 -0.221905E-07  0.141E-04    0.45      91.8  T
     SCC iter.                  ...        0 min,  0.108 sec
     gradient                   ...        0 min,  0.010 sec
 * total energy  :   -67.6586636 Eh     change       -0.4053211E-04 Eh
   gradient norm :     0.0015559 Eh/α   predicted    -0.1911158E-04 ( -52.85%)
   displ. norm   :     0.4761109 α      lambda       -0.3013888E-04
   maximum displ.:     0.3108257 α      in ANC's #2, #3, #1, ...

........................................................................
.............................. CYCLE  172 ..............................
........................................................................

 iter      E             dE          RMSdq      gap      omega  full diag
   1    -68.7499093 -0.687499E+02  0.145E-01    0.45       0.0  T
   2    -68.7497993  0.110018E-03  0.941E-02    0.45       1.0  T
   3    -68.7425362  0.726307E-02  0.210E-01    0.45       1.0  T
   4    -68.7496176 -0.708142E-02  0.419E-02    0.45       1.0  T
   5    -68.7498884 -0.270741E-03  0.142E-02    0.45       1.0  T
   6    -68.7499218 -0.334314E-04  0.286E-03    0.45       4.5  T
   7    -68.7499218  0.885680E-08  0.253E-03    0.45       5.1  T
   8    -68.7499223 -0.514008E-06  0.162E-03    0.45       8.0  T
   9    -68.7499223 -0.302311E-07  0.147E-03    0.45       8.8  T
  10    -68.7499225 -0.151390E-06  0.113E-03    0.45      11.4  T
  11    -68.7499226 -0.145322E-06  0.377E-04    0.45      34.3  T
  12    -68.7499226 -0.193437E-07  0.125E-04    0.45     103.5  T
     SCC iter.                  ...        0 min,  0.115 sec
     gradient                   ...        0 min,  0.012 sec
 * total energy  :   -67.6586987 Eh     change       -0.3516302E-04 Eh
   gradient norm :     0.0015417 Eh/α   predicted    -0.1659162E-04 ( -52.82%)
   displ. norm   :     0.5310568 α      lambda       -0.3211876E-04
   maximum displ.:     0.3468352 α      in ANC's #2, #3, #1, ...

........................................................................
.............................. CYCLE  173 ..............................
........................................................................

 iter      E             dE          RMSdq      gap      omega  full diag
   1    -68.7501504 -0.687502E+02  0.161E-01    0.45       0.0  T
   2    -68.7500357  0.114652E-03  0.104E-01    0.45       1.0  T
   3    -68.7409507  0.908498E-02  0.230E-01    0.45       1.0  T
   4    -68.7498736 -0.892288E-02  0.407E-02    0.45       1.0  T
   5    -68.7501342 -0.260604E-03  0.133E-02    0.45       1.0  T
   6    -68.7501621 -0.278650E-04  0.325E-03    0.45       4.0  T
   7    -68.7501620  0.455497E-07  0.280E-03    0.45       4.6  T
   8    -68.7501626 -0.597859E-06  0.196E-03    0.45       6.6  T
   9    -68.7501629 -0.224823E-06  0.152E-03    0.45       8.5  T
  10    -68.7501630 -0.149464E-06  0.116E-03    0.45      11.1  T
  11    -68.7501632 -0.160065E-06  0.352E-04    0.45      36.7  T
  12    -68.7501632 -0.153761E-07  0.143E-04    0.45      90.0  T
     SCC iter.                  ...        0 min,  0.132 sec
     gradient                   ...        0 min,  0.012 sec
 * total energy  :   -67.6587352 Eh     change       -0.3647282E-04 Eh
   gradient norm :     0.0014972 Eh/α   predicted    -0.1807637E-04 ( -50.44%)
   displ. norm   :     0.5339611 α      lambda       -0.2950622E-04
   maximum displ.:     0.3492790 α      in ANC's #2, #3, #1, ...

........................................................................
.............................. CYCLE  174 ..............................
........................................................................

 iter      E             dE          RMSdq      gap      omega  full diag
   1    -68.7502478 -0.687502E+02  0.167E-01    0.45       0.0  T
   2    -68.7501767  0.710541E-04  0.106E-01    0.45       1.0  T
   3    -68.7442373  0.593942E-02  0.194E-01    0.45       1.0  T
   4    -68.7499888 -0.575145E-02  0.404E-02    0.45       1.0  T
   5    -68.7502375 -0.248724E-03  0.113E-02    0.45       1.1  T
   6    -68.7502569 -0.193825E-04  0.345E-03    0.45       3.7  T
   7    -68.7502573 -0.379700E-06  0.286E-03    0.45       4.5  T
   8    -68.7502578 -0.499492E-06  0.206E-03    0.45       6.3  T
   9    -68.7502582 -0.452611E-06  0.130E-03    0.45       9.9  T
  10    -68.7502583 -0.136146E-06  0.992E-04    0.45      13.0  T
  11    -68.7502585 -0.109233E-06  0.368E-04    0.45      35.1  T
     SCC iter.                  ...        0 min,  0.122 sec
     gradient                   ...        0 min,  0.010 sec
 * total energy  :   -67.6587679 Eh     change       -0.3268071E-04 Eh
   gradient norm :     0.0015193 Eh/α   predicted    -0.1662585E-04 ( -49.13%)
   displ. norm   :     0.4583237 α      lambda       -0.2436464E-04
   maximum displ.:     0.2999863 α      in ANC's #2, #3, #1, ...

........................................................................
.............................. CYCLE  175 ..............................
........................................................................

 iter      E             dE          RMSdq      gap      omega  full diag
   1    -68.7506715 -0.687507E+02  0.147E-01    0.45       0.0  T
   2    -68.7506408  0.306200E-04  0.924E-02    0.45       1.0  T
   3    -68.7484736  0.216720E-02  0.121E-01    0.46       1.0  T
   4    -68.7504489 -0.197531E-02  0.375E-02    0.45       1.0  T
   5    -68.7506677 -0.218799E-03  0.853E-03    0.45       1.5  T
   6    -68.7506781 -0.103943E-04  0.292E-03    0.45       4.4  T
   7    -68.7506785 -0.338476E-06  0.252E-03    0.45       5.1  T
   8    -68.7506788 -0.288472E-06  0.190E-03    0.45       6.8  T
   9    -68.7506792 -0.466642E-06  0.892E-04    0.45      14.5  T
  10    -68.7506793 -0.726555E-07  0.662E-04    0.45      19.5  T
     SCC iter.                  ...        0 min,  0.092 sec
     gradient                   ...        0 min,  0.010 sec
 * total energy  :   -67.6587932 Eh     change       -0.2533796E-04 Eh
   gradient norm :     0.0015136 Eh/α   predicted    -0.1332157E-04 ( -47.42%)
   displ. norm   :     0.3654644 α      lambda       -0.1712233E-04
   maximum displ.:     0.2395568 α      in ANC's #2, #3, #1, ...

........................................................................
.............................. CYCLE  176 ..............................
........................................................................

 iter      E             dE          RMSdq      gap      omega  full diag
   1    -68.7508406 -0.687508E+02  0.121E-01    0.46       0.0  T
   2    -68.7508145  0.261518E-04  0.758E-02    0.46       1.0  T
   3    -68.7488024  0.201211E-02  0.108E-01    0.45       1.0  T
   4    -68.7504975 -0.169511E-02  0.418E-02    0.46       1.0  T
   5    -68.7508403 -0.342836E-03  0.668E-03    0.46       1.9  T
   6    -68.7508460 -0.567531E-05  0.256E-03    0.46       5.1  T
   7    -68.7508465 -0.521526E-06  0.169E-03    0.46       7.6  T
   8    -68.7508466 -0.104781E-06  0.138E-03    0.46       9.4  T
   9    -68.7508468 -0.196586E-06  0.654E-04    0.46      19.7  T
  10    -68.7508468  0.181849E-07  0.719E-04    0.46      18.0  T
     SCC iter.                  ...        0 min,  0.120 sec
     gradient                   ...        0 min,  0.012 sec
 * total energy  :   -67.6588096 Eh     change       -0.1640237E-04 Eh
   gradient norm :     0.0014214 Eh/α   predicted    -0.9071576E-05 ( -44.69%)
   displ. norm   :     0.2326855 α      lambda       -0.1303456E-04
   maximum displ.:     0.1529509 α      in ANC's #2, #3, #1, ...

........................................................................
.............................. CYCLE  177 ..............................
........................................................................

 iter      E             dE          RMSdq      gap      omega  full diag
   1    -68.7511239 -0.687511E+02  0.758E-02    0.46       0.0  T
   2    -68.7510960  0.278711E-04  0.485E-02    0.46       1.0  T
   3    -68.7491067  0.198931E-02  0.107E-01    0.46       1.0  T
   4    -68.7509579 -0.185118E-02  0.316E-02    0.46       1.0  T
   5    -68.7511243 -0.166387E-03  0.524E-03    0.46       2.5  T
   6    -68.7511271 -0.283615E-05  0.245E-03    0.46       5.3  T
   7    -68.7511278 -0.658170E-06  0.142E-03    0.46       9.1  T
   8    -68.7511279 -0.124767E-06  0.972E-04    0.46      13.3  T
   9    -68.7511280 -0.857177E-07  0.575E-04    0.46      22.4  T
     SCC iter.                  ...        0 min,  0.095 sec
     gradient                   ...        0 min,  0.010 sec
 * total energy  :   -67.6588221 Eh     change       -0.1247282E-04 Eh
   gradient norm :     0.0013960 Eh/α   predicted    -0.6676219E-05 ( -46.47%)
   displ. norm   :     0.1551182 α      lambda       -0.8898699E-05
   maximum displ.:     0.1026789 α      in ANC's #2, #3, #1, ...

........................................................................
.............................. CYCLE  178 ..............................
........................................................................

 iter      E             dE          RMSdq      gap      omega  full diag
   1    -68.7512834 -0.687513E+02  0.495E-02    0.46       0.0  T
   2    -68.7512563  0.271079E-04  0.328E-02    0.46       1.0  T
   3    -68.7499312  0.132513E-02  0.858E-02    0.46       1.0  T
   4    -68.7512167 -0.128556E-02  0.207E-02    0.46       1.0  T
   5    -68.7512826 -0.658529E-04  0.493E-03    0.46       2.6  T
   6    -68.7512858 -0.323062E-05  0.160E-03    0.46       8.1  T
   7    -68.7512861 -0.218760E-06  0.111E-03    0.46      11.6  T
   8    -68.7512862 -0.104393E-06  0.731E-04    0.46      17.7  T
   9    -68.7512862 -0.553398E-07  0.411E-04    0.46      31.4  T
     SCC iter.                  ...        0 min,  0.082 sec
     gradient                   ...        0 min,  0.010 sec
 * total energy  :   -67.6588317 Eh     change       -0.9553573E-05 Eh
   gradient norm :     0.0009900 Eh/α   predicted    -0.4499752E-05 ( -52.90%)
   displ. norm   :     0.1585401 α      lambda       -0.8143719E-05
   maximum displ.:     0.1056967 α      in ANC's #2, #3, #1, ...

........................................................................
.............................. CYCLE  179 ..............................
........................................................................

 iter      E             dE          RMSdq      gap      omega  full diag
   1    -68.7511081 -0.687511E+02  0.498E-02    0.46       0.0  T
   2    -68.7510785  0.296570E-04  0.328E-02    0.46       1.0  T
   3    -68.7496992  0.137922E-02  0.865E-02    0.45       1.0  T
   4    -68.7510354 -0.133620E-02  0.213E-02    0.46       1.0  T
   5    -68.7511072 -0.717349E-04  0.504E-03    0.46       2.6  T
   6    -68.7511109 -0.372965E-05  0.151E-03    0.46       8.6  T
   7    -68.7511111 -0.144719E-06  0.117E-03    0.46      11.0  T
   8    -68.7511111 -0.888273E-07  0.819E-04    0.46      15.8  T
   9    -68.7511112 -0.787221E-07  0.417E-04    0.46      31.0  T
     SCC iter.                  ...        0 min,  0.078 sec
     gradient                   ...        0 min,  0.010 sec
 * total energy  :   -67.6588393 Eh     change       -0.7606161E-05 Eh
   gradient norm :     0.0009312 Eh/α   predicted    -0.4120281E-05 ( -45.83%)
   displ. norm   :     0.0922698 α      lambda       -0.4555286E-05
   maximum displ.:     0.0621009 α      in ANC's #2, #3, #4, ...

........................................................................
.............................. CYCLE  180 ..............................
........................................................................

 iter      E             dE          RMSdq      gap      omega  full diag
   1    -68.7515217 -0.687515E+02  0.289E-02    0.46       0.0  T
   2    -68.7515137  0.803651E-05  0.192E-02    0.46       1.0  T
   3    -68.7511109  0.402803E-03  0.459E-02    0.46       1.0  T
   4    -68.7514831 -0.372278E-03  0.148E-02    0.46       1.0  T
   5    -68.7515218 -0.386631E-04  0.261E-03    0.46       4.9  T
   6    -68.7515227 -0.856191E-06  0.856E-04    0.46      15.1  T
   7    -68.7515227 -0.374786E-07  0.673E-04    0.46      19.2  T
     SCC iter.                  ...        0 min,  0.062 sec
     gradient                   ...        0 min,  0.009 sec
 * total energy  :   -67.6588439 Eh     change       -0.4579128E-05 Eh
   gradient norm :     0.0008691 Eh/α   predicted    -0.2291022E-05 ( -49.97%)
   displ. norm   :     0.0878378 α      lambda       -0.3986554E-05
   maximum displ.:     0.0605070 α      in ANC's #2, #3, #4, ...

........................................................................
.............................. CYCLE  181 ..............................
........................................................................

 iter      E             dE          RMSdq      gap      omega  full diag
   1    -68.7515862 -0.687516E+02  0.286E-02    0.46       0.0  T
   2    -68.7515747  0.115070E-04  0.198E-02    0.46       1.0  T
   3    -68.7511671  0.407582E-03  0.489E-02    0.46       1.0  T
   4    -68.7515622 -0.395116E-03  0.122E-02    0.46       1.1  T
   5    -68.7515846 -0.224352E-04  0.383E-03    0.46       3.4  T
   6    -68.7515873 -0.262415E-05  0.978E-04    0.46      13.2  T
   7    -68.7515873 -0.698696E-07  0.610E-04    0.46      21.2  T
   8    -68.7515873  0.111683E-07  0.629E-04    0.46      20.5  T
     SCC iter.                  ...        0 min,  0.069 sec
     gradient                   ...        0 min,  0.009 sec
 * total energy  :   -67.6588484 Eh     change       -0.4506315E-05 Eh
   gradient norm :     0.0007096 Eh/α   predicted    -0.2004504E-05 ( -55.52%)
   displ. norm   :     0.0851375 α      lambda       -0.4270841E-05
   maximum displ.:     0.0586054 α      in ANC's #2, #4, #3, ...

........................................................................
.............................. CYCLE  182 ..............................
........................................................................

 iter      E             dE          RMSdq      gap      omega  full diag
   1    -68.7516738 -0.687517E+02  0.307E-02    0.46       0.0  T
   2    -68.7516576  0.162274E-04  0.220E-02    0.46       1.0  T
   3    -68.7513158  0.341774E-03  0.492E-02    0.46       1.0  T
   4    -68.7516426 -0.326727E-03  0.136E-02    0.46       1.0  T
   5    -68.7516717 -0.291359E-04  0.449E-03    0.46       2.9  T
   6    -68.7516755 -0.375968E-05  0.117E-03    0.46      11.0  T
   7    -68.7516756 -0.138434E-06  0.611E-04    0.46      21.1  T
   8    -68.7516756  0.522464E-07  0.781E-04    0.46      16.5  T
     SCC iter.                  ...        0 min,  0.071 sec
     gradient                   ...        0 min,  0.009 sec
 * total energy  :   -67.6588531 Eh     change       -0.4718063E-05 Eh
   gradient norm :     0.0007175 Eh/α   predicted    -0.2143954E-05 ( -54.56%)
   displ. norm   :     0.0925611 α      lambda       -0.4082753E-05
   maximum displ.:     0.0634490 α      in ANC's #2, #4, #3, ...

........................................................................
.............................. CYCLE  183 ..............................
........................................................................

 iter      E             dE          RMSdq      gap      omega  full diag
   1    -68.7516096 -0.687516E+02  0.370E-02    0.46       0.0  T
   2    -68.7515817  0.279356E-04  0.266E-02    0.46       1.0  T
   3    -68.7510270  0.554645E-03  0.612E-02    0.46       1.0  T
   4    -68.7515595 -0.532469E-03  0.169E-02    0.46       1.0  T
   5    -68.7516056 -0.461271E-04  0.593E-03    0.46       2.2  T
   6    -68.7516121 -0.649663E-05  0.138E-03    0.46       9.3  T
   7    -68.7516123 -0.170786E-06  0.815E-04    0.46      15.8  T
   8    -68.7516123 -0.660053E-08  0.759E-04    0.46      17.0  T
     SCC iter.                  ...        0 min,  0.072 sec
     gradient                   ...        0 min,  0.009 sec
 * total energy  :   -67.6588577 Eh     change       -0.4667801E-05 Eh
   gradient norm :     0.0006987 Eh/α   predicted    -0.2053858E-05 ( -56.00%)
   displ. norm   :     0.0943542 α      lambda       -0.3801845E-05
   maximum displ.:     0.0631743 α      in ANC's #2, #4, #3, ...
 * RMSD in coord.:     0.8005799 α      energy gain  -0.1235323E-02 Eh

generating ANC from exact Hessian ...
Using Lindh-Hessian (1995)
 Shifting diagonal of input Hessian by   1.022733573252393E-002
 Lowest  eigenvalues of input Hessian
    0.000000    0.010000    0.010074    0.000000    0.010134    0.000000
    0.000000    0.000000    0.000000    0.010633    0.010654    0.011060
    0.011811    0.012216    0.012557    0.012984    0.013281    0.014166
 Highest eigenvalues
    1.442237    1.458128    1.462003    1.468107    1.498264    1.514541
 

........................................................................
.............................. CYCLE  184 ..............................
........................................................................

 iter      E             dE          RMSdq      gap      omega  full diag
   1    -68.7516164 -0.687516E+02  0.401E-02    0.46       0.0  T
   2    -68.7515899  0.265540E-04  0.279E-02    0.46       1.0  T
   3    -68.7508255  0.764363E-03  0.677E-02    0.46       1.0  T
   4    -68.7515510 -0.725484E-03  0.192E-02    0.46       1.0  T
   5    -68.7516121 -0.610743E-04  0.627E-03    0.46       2.1  T
   6    -68.7516190 -0.688254E-05  0.135E-03    0.46       9.6  T
   7    -68.7516191 -0.143084E-06  0.767E-04    0.46      16.8  T
   8    -68.7516191  0.171823E-07  0.785E-04    0.46      16.4  T
     SCC iter.                  ...        0 min,  0.071 sec
     gradient                   ...        0 min,  0.010 sec
 * total energy  :   -67.6588622 Eh     change       -0.4497766E-05 Eh
   gradient norm :     0.0007036 Eh/α   predicted     0.0000000E+00 (-100.00%)
   displ. norm   :     0.0191435 α      lambda       -0.2907387E-05
   maximum displ.:     0.0124288 α      in ANC's #1, #5, #2, ...

........................................................................
.............................. CYCLE  185 ..............................
........................................................................

 iter      E             dE          RMSdq      gap      omega  full diag
   1    -68.7515101 -0.687515E+02  0.117E-02    0.46       0.0  T
   2    -68.7515066  0.349766E-05  0.871E-03    0.46       1.5  T
   3    -68.7514425  0.641317E-04  0.190E-02    0.46       1.0  T
   4    -68.7515062 -0.637545E-04  0.551E-03    0.46       2.3  T
   5    -68.7515101 -0.383233E-05  0.156E-03    0.46       8.3  T
   6    -68.7515104 -0.355951E-06  0.342E-04    0.46      37.7  T
   7    -68.7515104  0.844892E-09  0.322E-04    0.46      40.1  T
     SCC iter.                  ...        0 min,  0.060 sec
     gradient                   ...        0 min,  0.009 sec
 * total energy  :   -67.6588659 Eh     change       -0.3687458E-05 Eh
   gradient norm :     0.0004384 Eh/α   predicted    -0.1462396E-05 ( -60.34%)
   displ. norm   :     0.0545946 α      lambda       -0.6139509E-05
   maximum displ.:     0.0352821 α      in ANC's #1, #5, #2, ...

........................................................................
.............................. CYCLE  186 ..............................
........................................................................

 iter      E             dE          RMSdq      gap      omega  full diag
   1    -68.7513765 -0.687514E+02  0.306E-02    0.46       0.0  T
   2    -68.7513545  0.219191E-04  0.224E-02    0.46       1.0  T
   3    -68.7509042  0.450371E-03  0.500E-02    0.46       1.0  T
   4    -68.7513464 -0.442188E-03  0.157E-02    0.46       1.0  T
   5    -68.7513761 -0.297660E-04  0.414E-03    0.46       3.1  T
   6    -68.7513785 -0.239342E-05  0.107E-03    0.46      12.0  T
   7    -68.7513786 -0.623377E-07  0.832E-04    0.46      15.5  T
   8    -68.7513786 -0.194871E-07  0.712E-04    0.46      18.1  T
     SCC iter.                  ...        0 min,  0.072 sec
     gradient                   ...        0 min,  0.011 sec
 * total energy  :   -67.6588715 Eh     change       -0.5572739E-05 Eh
   gradient norm :     0.0006307 Eh/α   predicted    -0.3074455E-05 ( -44.83%)
   displ. norm   :     0.0612443 α      lambda       -0.5623144E-05
   maximum displ.:     0.0400445 α      in ANC's #1, #5, #2, ...

........................................................................
.............................. CYCLE  187 ..............................
........................................................................

 iter      E             dE          RMSdq      gap      omega  full diag
   1    -68.7513893 -0.687514E+02  0.336E-02    0.46       0.0  T
   2    -68.7513736  0.157923E-04  0.234E-02    0.46       1.0  T
   3    -68.7507857  0.587887E-03  0.576E-02    0.46       1.0  T
   4    -68.7513571 -0.571484E-03  0.156E-02    0.46       1.0  T
   5    -68.7513877 -0.305547E-04  0.426E-03    0.46       3.0  T
   6    -68.7513908 -0.314509E-05  0.126E-03    0.46      10.2  T
   7    -68.7513910 -0.126258E-06  0.941E-04    0.46      13.7  T
   8    -68.7513910 -0.702838E-07  0.695E-04    0.46      18.6  T
     SCC iter.                  ...        0 min,  0.083 sec
     gradient                   ...        0 min,  0.009 sec
 * total energy  :   -67.6588759 Eh     change       -0.4355923E-05 Eh
   gradient norm :     0.0008755 Eh/α   predicted    -0.2816883E-05 ( -35.33%)
   displ. norm   :     0.0405934 α      lambda       -0.3755860E-05
   maximum displ.:     0.0277391 α      in ANC's #1, #5, #2, ...

........................................................................
.............................. CYCLE  188 ..............................
........................................................................

 iter      E             dE          RMSdq      gap      omega  full diag
   1    -68.7514310 -0.687514E+02  0.216E-02    0.46       0.0  T
   2    -68.7514269  0.407833E-05  0.143E-02    0.46       1.0  T
   3    -68.7512569  0.169939E-03  0.316E-02    0.46       1.0  T
   4    -68.7514130 -0.156010E-03  0.104E-02    0.46       1.2  T
   5    -68.7514294 -0.164388E-04  0.341E-03    0.46       3.8  T
   6    -68.7514315 -0.213539E-05  0.599E-04    0.46      21.5  T
   7    -68.7514316 -0.245100E-07  0.402E-04    0.46      32.2  T
   8    -68.7514316 -0.624522E-08  0.316E-04    0.46      40.9  T
     SCC iter.                  ...        0 min,  0.073 sec
     gradient                   ...        0 min,  0.010 sec
 * total energy  :   -67.6588807 Eh     change       -0.4874385E-05 Eh
   gradient norm :     0.0007932 Eh/α   predicted    -0.1882267E-05 ( -61.38%)
   displ. norm   :     0.0850060 α      lambda       -0.7731299E-05
   maximum displ.:     0.0575125 α      in ANC's #1, #5, #2, ...

........................................................................
.............................. CYCLE  189 ..............................
........................................................................

 iter      E             dE          RMSdq      gap      omega  full diag
   1    -68.7514652 -0.687515E+02  0.426E-02    0.46       0.0  T
   2    -68.7514473  0.179112E-04  0.284E-02    0.46       1.0  T
   3    -68.7507112  0.736086E-03  0.656E-02    0.46       1.0  T
   4    -68.7513673 -0.656114E-03  0.228E-02    0.46       1.0  T
   5    -68.7514632 -0.959311E-04  0.515E-03    0.46       2.5  T
   6    -68.7514674 -0.419013E-05  0.157E-03    0.46       8.2  T
   7    -68.7514676 -0.203258E-06  0.960E-04    0.46      13.4  T
   8    -68.7514676 -0.110135E-07  0.805E-04    0.46      16.0  T
     SCC iter.                  ...        0 min,  0.090 sec
     gradient                   ...        0 min,  0.010 sec
 * total energy  :   -67.6588895 Eh     change       -0.8735969E-05 Eh
   gradient norm :     0.0006039 Eh/α   predicted    -0.3881070E-05 ( -55.57%)
   displ. norm   :     0.1097978 α      lambda       -0.6520625E-05
   maximum displ.:     0.0747410 α      in ANC's #1, #5, #2, ...

........................................................................
.............................. CYCLE  190 ..............................
........................................................................

 iter      E             dE          RMSdq      gap      omega  full diag
   1    -68.7513841 -0.687514E+02  0.533E-02    0.46       0.0  T
   2    -68.7513424  0.417211E-04  0.366E-02    0.46       1.0  T
   3    -68.7500522  0.129027E-02  0.868E-02    0.46       1.0  T
   4    -68.7512282 -0.117603E-02  0.294E-02    0.46       1.0  T
   5    -68.7513775 -0.149316E-03  0.829E-03    0.46       1.6  T
   6    -68.7513887 -0.112497E-04  0.188E-03    0.46       6.9  T
   7    -68.7513890 -0.281372E-06  0.110E-03    0.46      11.7  T
   8    -68.7513890  0.607131E-07  0.112E-03    0.46      11.5  T
   9    -68.7513891 -0.172644E-06  0.490E-04    0.46      26.3  T
  10    -68.7513892 -0.197054E-07  0.345E-04    0.46      37.5  T
     SCC iter.                  ...        0 min,  0.079 sec
     gradient                   ...        0 min,  0.009 sec
 * total energy  :   -67.6588972 Eh     change       -0.7766956E-05 Eh
   gradient norm :     0.0006338 Eh/α   predicted    -0.3280093E-05 ( -57.77%)
   displ. norm   :     0.1080376 α      lambda       -0.5310148E-05
   maximum displ.:     0.0739351 α      in ANC's #1, #5, #2, ...

........................................................................
.............................. CYCLE  191 ..............................
........................................................................

 iter      E             dE          RMSdq      gap      omega  full diag
   1    -68.7513124 -0.687513E+02  0.523E-02    0.46       0.0  T
   2    -68.7512643  0.481378E-04  0.364E-02    0.46       1.0  T
   3    -68.7498262  0.143803E-02  0.894E-02    0.46       1.0  T
   4    -68.7511762 -0.134993E-02  0.282E-02    0.46       1.0  T
   5    -68.7513091 -0.132936E-03  0.716E-03    0.46       1.8  T
   6    -68.7513170 -0.794377E-05  0.187E-03    0.46       6.9  T
   7    -68.7513174 -0.312824E-06  0.100E-03    0.46      12.9  T
   8    -68.7513173  0.667905E-07  0.107E-03    0.46      12.1  T
   9    -68.7513174 -0.154612E-06  0.467E-04    0.46      27.6  T
     SCC iter.                  ...        0 min,  0.078 sec
     gradient                   ...        0 min,  0.009 sec
 * total energy  :   -67.6589037 Eh     change       -0.6459892E-05 Eh
   gradient norm :     0.0006171 Eh/α   predicted    -0.2672025E-05 ( -58.64%)
   displ. norm   :     0.1003731 α      lambda       -0.4685015E-05
   maximum displ.:     0.0696531 α      in ANC's #1, #5, #2, ...

........................................................................
.............................. CYCLE  192 ..............................
........................................................................

 iter      E             dE          RMSdq      gap      omega  full diag
   1    -68.7512791 -0.687513E+02  0.469E-02    0.46       0.0  T
   2    -68.7512307  0.483969E-04  0.335E-02    0.46       1.0  T
   3    -68.7501338  0.109691E-02  0.795E-02    0.46       1.0  T
   4    -68.7511566 -0.102283E-02  0.266E-02    0.46       1.0  T
   5    -68.7512748 -0.118242E-03  0.745E-03    0.46       1.7  T
   6    -68.7512835 -0.867493E-05  0.173E-03    0.46       7.5  T
   7    -68.7512838 -0.267726E-06  0.895E-04    0.46      14.4  T
   8    -68.7512837  0.873522E-07  0.105E-03    0.46      12.3  T
   9    -68.7512839 -0.157589E-06  0.415E-04    0.46      31.1  T
     SCC iter.                  ...        0 min,  0.071 sec
     gradient                   ...        0 min,  0.009 sec
 * total energy  :   -67.6589093 Eh     change       -0.5589214E-05 Eh
   gradient norm :     0.0005009 Eh/α   predicted    -0.2357524E-05 ( -57.82%)
   displ. norm   :     0.0807712 α      lambda       -0.3413675E-05
   maximum displ.:     0.0577976 α      in ANC's #1, #5, #2, ...

........................................................................
.............................. CYCLE  193 ..............................
........................................................................

 iter      E             dE          RMSdq      gap      omega  full diag
   1    -68.7513218 -0.687513E+02  0.368E-02    0.46       0.0  T
   2    -68.7512856  0.362400E-04  0.267E-02    0.46       1.0  T
   3    -68.7505668  0.718766E-03  0.639E-02    0.46       1.0  T
   4    -68.7512539 -0.687093E-03  0.204E-02    0.46       1.0  T
   5    -68.7513196 -0.657482E-04  0.580E-03    0.46       2.2  T
   6    -68.7513248 -0.518490E-05  0.137E-03    0.46       9.5  T
   7    -68.7513250 -0.162325E-06  0.729E-04    0.46      17.7  T
   8    -68.7513249  0.492858E-07  0.836E-04    0.46      15.4  T
     SCC iter.                  ...        0 min,  0.063 sec
     gradient                   ...        0 min,  0.010 sec
 * total energy  :   -67.6589132 Eh     change       -0.3896866E-05 Eh
   gradient norm :     0.0003794 Eh/α   predicted    -0.1716076E-05 ( -55.96%)
   displ. norm   :     0.0580763 α      lambda       -0.2442598E-05
   maximum displ.:     0.0432678 α      in ANC's #1, #2, #5, ...

........................................................................
.............................. CYCLE  194 ..............................
........................................................................

 iter      E             dE          RMSdq      gap      omega  full diag
   1    -68.7513926 -0.687514E+02  0.254E-02    0.46       0.0  T
   2    -68.7513740  0.186394E-04  0.186E-02    0.46       1.0  T
   3    -68.7510350  0.338924E-03  0.442E-02    0.46       1.0  T
   4    -68.7513618 -0.326731E-03  0.137E-02    0.46       1.0  T
   5    -68.7513917 -0.298692E-04  0.398E-03    0.46       3.2  T
   6    -68.7513941 -0.243918E-05  0.955E-04    0.46      13.5  T
   7    -68.7513942 -0.630055E-07  0.600E-04    0.46      21.5  T
   8    -68.7513941  0.382268E-08  0.574E-04    0.46      22.5  T
     SCC iter.                  ...        0 min,  0.064 sec
     gradient                   ...        0 min,  0.010 sec
 * total energy  :   -67.6589161 Eh     change       -0.2889934E-05 Eh
   gradient norm :     0.0003116 Eh/α   predicted    -0.1223364E-05 ( -57.67%)
   displ. norm   :     0.0428139 α      lambda       -0.1944837E-05
   maximum displ.:     0.0328560 α      in ANC's #1, #2, #5, ...

........................................................................
.............................. CYCLE  195 ..............................
........................................................................

 iter      E             dE          RMSdq      gap      omega  full diag
   1    -68.7514776 -0.687515E+02  0.171E-02    0.46       0.0  T
   2    -68.7514700  0.758469E-05  0.123E-02    0.46       1.1  T
   3    -68.7513272  0.142855E-03  0.290E-02    0.46       1.0  T
   4    -68.7514619 -0.134697E-03  0.975E-03    0.46       1.3  T
   5    -68.7514771 -0.152148E-04  0.275E-03    0.46       4.7  T
   6    -68.7514782 -0.116246E-05  0.812E-04    0.46      15.9  T
   7    -68.7514783 -0.621770E-07  0.454E-04    0.46      28.5  T
   8    -68.7514783  0.204949E-09  0.418E-04    0.46      30.9  T
     SCC iter.                  ...        0 min,  0.065 sec
     gradient                   ...        0 min,  0.009 sec
 * total energy  :   -67.6589185 Eh     change       -0.2471707E-05 Eh
   gradient norm :     0.0002748 Eh/α   predicted    -0.9739111E-06 ( -60.60%)
   displ. norm   :     0.0429385 α      lambda       -0.1927860E-05
   maximum displ.:     0.0324430 α      in ANC's #1, #2, #4, ...

........................................................................
.............................. CYCLE  196 ..............................
........................................................................

 iter      E             dE          RMSdq      gap      omega  full diag
   1    -68.7515221 -0.687515E+02  0.161E-02    0.46       0.0  T
   2    -68.7515172  0.490252E-05  0.111E-02    0.46       1.2  T
   3    -68.7513868  0.130374E-03  0.268E-02    0.46       1.0  T
   4    -68.7515092 -0.122444E-03  0.904E-03    0.46       1.4  T
   5    -68.7515218 -0.125427E-04  0.222E-03    0.46       5.8  T
   6    -68.7515225 -0.725399E-06  0.819E-04    0.46      15.8  T
   7    -68.7515226 -0.776872E-07  0.409E-04    0.46      31.5  T
     SCC iter.                  ...        0 min,  0.057 sec
     gradient                   ...        0 min,  0.010 sec
 * total energy  :   -67.6589211 Eh     change       -0.2541853E-05 Eh
   gradient norm :     0.0002959 Eh/α   predicted    -0.9692728E-06 ( -61.87%)
   displ. norm   :     0.0504323 α      lambda       -0.2156575E-05
   maximum displ.:     0.0368408 α      in ANC's #1, #2, #4, ...

........................................................................
.............................. CYCLE  197 ..............................
........................................................................

 iter      E             dE          RMSdq      gap      omega  full diag
   1    -68.7515346 -0.687515E+02  0.180E-02    0.46       0.0  T
   2    -68.7515316  0.301215E-05  0.118E-02    0.46       1.1  T
   3    -68.7514230  0.108592E-03  0.252E-02    0.45       1.0  T
   4    -68.7515192 -0.961944E-04  0.993E-03    0.46       1.3  T
   5    -68.7515344 -0.152300E-04  0.204E-03    0.46       6.3  T
   6    -68.7515350 -0.605607E-06  0.632E-04    0.46      20.4  T
   7    -68.7515350 -0.257326E-07  0.449E-04    0.46      28.8  T
     SCC iter.                  ...        0 min,  0.055 sec
     gradient                   ...        0 min,  0.009 sec
 * total energy  :   -67.6589239 Eh     change       -0.2833837E-05 Eh
   gradient norm :     0.0003257 Eh/α   predicted    -0.1084203E-05 ( -61.74%)
   displ. norm   :     0.0585802 α      lambda       -0.2357103E-05
   maximum displ.:     0.0417376 α      in ANC's #1, #2, #4, ...

........................................................................
.............................. CYCLE  198 ..............................
........................................................................

 iter      E             dE          RMSdq      gap      omega  full diag
   1    -68.7515554 -0.687516E+02  0.210E-02    0.46       0.0  T
   2    -68.7515523  0.309104E-05  0.136E-02    0.46       1.0  T
   3    -68.7514440  0.108358E-03  0.263E-02    0.45       1.0  T
   4    -68.7515381 -0.941045E-04  0.108E-02    0.46       1.2  T
   5    -68.7515549 -0.167933E-04  0.265E-03    0.46       4.9  T
   6    -68.7515560 -0.108660E-05  0.623E-04    0.46      20.7  T
   7    -68.7515560 -0.208234E-07  0.491E-04    0.46      26.3  T
   8    -68.7515560 -0.446015E-08  0.415E-04    0.46      31.1  T
     SCC iter.                  ...        0 min,  0.061 sec
     gradient                   ...        0 min,  0.009 sec
 * total energy  :   -67.6589271 Eh     change       -0.3144660E-05 Eh
   gradient norm :     0.0003739 Eh/α   predicted    -0.1182823E-05 ( -62.39%)
   displ. norm   :     0.0683164 α      lambda       -0.2655282E-05
   maximum displ.:     0.0477330 α      in ANC's #1, #2, #5, ...

........................................................................
.............................. CYCLE  199 ..............................
........................................................................

 iter      E             dE          RMSdq      gap      omega  full diag
   1    -68.7515344 -0.687515E+02  0.243E-02    0.46       0.0  T
   2    -68.7515293  0.510023E-05  0.160E-02    0.46       1.0  T
   3    -68.7513546  0.174702E-03  0.334E-02    0.45       1.0  T
   4    -68.7515040 -0.149381E-03  0.132E-02    0.46       1.0  T
   5    -68.7515329 -0.289341E-04  0.356E-03    0.46       3.6  T
   6    -68.7515352 -0.227199E-05  0.655E-04    0.46      19.7  T
   7    -68.7515352 -0.276777E-07  0.450E-04    0.46      28.7  T
   8    -68.7515352 -0.936207E-08  0.296E-04    0.46      43.7  T
     SCC iter.                  ...        0 min,  0.064 sec
     gradient                   ...        0 min,  0.009 sec
 * total energy  :   -67.6589307 Eh     change       -0.3597696E-05 Eh
   gradient norm :     0.0003903 Eh/α   predicted    -0.1332463E-05 ( -62.96%)
   displ. norm   :     0.0825538 α      lambda       -0.3131662E-05
   maximum displ.:     0.0569552 α      in ANC's #1, #2, #5, ...

........................................................................
.............................. CYCLE  200 ..............................
........................................................................

 iter      E             dE          RMSdq      gap      omega  full diag
   1    -68.7515249 -0.687515E+02  0.299E-02    0.46       0.0  T
   2    -68.7515145  0.103676E-04  0.200E-02    0.46       1.0  T
   3    -68.7511528  0.361661E-03  0.463E-02    0.45       1.0  T
   4    -68.7514784 -0.325523E-03  0.163E-02    0.46       1.0  T
   5    -68.7515233 -0.449629E-04  0.407E-03    0.46       3.2  T
   6    -68.7515261 -0.276167E-05  0.809E-04    0.46      16.0  T
   7    -68.7515261 -0.271129E-07  0.641E-04    0.46      20.1  T
   8    -68.7515261 -0.163083E-07  0.493E-04    0.46      26.2  T
     SCC iter.                  ...        0 min,  0.060 sec
     gradient                   ...        0 min,  0.010 sec
 * total energy  :   -67.6589348 Eh     change       -0.4134177E-05 Eh
   gradient norm :     0.0003825 Eh/α   predicted    -0.1572049E-05 ( -61.97%)
   displ. norm   :     0.0978091 α      lambda       -0.3450527E-05
   maximum displ.:     0.0673085 α      in ANC's #1, #2, #5, ...

........................................................................
.............................. CYCLE  201 ..............................
........................................................................

 iter      E             dE          RMSdq      gap      omega  full diag
   1    -68.7514938 -0.687515E+02  0.355E-02    0.46       0.0  T
   2    -68.7514772  0.166280E-04  0.240E-02    0.46       1.0  T
   3    -68.7508913  0.585878E-03  0.580E-02    0.45       1.0  T
   4    -68.7514371 -0.545842E-03  0.181E-02    0.46       1.0  T
   5    -68.7514919 -0.547249E-04  0.473E-03    0.46       2.7  T
   6    -68.7514955 -0.362574E-05  0.100E-03    0.46      12.9  T
   7    -68.7514955 -0.434630E-07  0.809E-04    0.46      16.0  T
   8    -68.7514956 -0.541937E-07  0.550E-04    0.46      23.5  T
     SCC iter.                  ...        0 min,  0.058 sec
     gradient                   ...        0 min,  0.008 sec
 * total energy  :   -67.6589392 Eh     change       -0.4453122E-05 Eh
   gradient norm :     0.0003726 Eh/α   predicted    -0.1733708E-05 ( -61.07%)
   displ. norm   :     0.1048530 α      lambda       -0.3277657E-05
   maximum displ.:     0.0724272 α      in ANC's #1, #2, #5, ...

........................................................................
.............................. CYCLE  202 ..............................
........................................................................

 iter      E             dE          RMSdq      gap      omega  full diag
   1    -68.7514787 -0.687515E+02  0.377E-02    0.46       0.0  T
   2    -68.7514596  0.190383E-04  0.256E-02    0.46       1.0  T
   3    -68.7506974  0.762265E-03  0.643E-02    0.45       1.0  T
   4    -68.7514305 -0.733138E-03  0.171E-02    0.46       1.0  T
   5    -68.7514769 -0.463771E-04  0.472E-03    0.46       2.7  T
   6    -68.7514804 -0.352236E-05  0.103E-03    0.46      12.5  T
   7    -68.7514805 -0.505279E-07  0.843E-04    0.46      15.3  T
   8    -68.7514805 -0.758571E-07  0.515E-04    0.46      25.1  T
     SCC iter.                  ...        0 min,  0.062 sec
     gradient                   ...        0 min,  0.010 sec
 * total energy  :   -67.6589434 Eh     change       -0.4143010E-05 Eh
   gradient norm :     0.0003588 Eh/α   predicted    -0.1648555E-05 ( -60.21%)
   displ. norm   :     0.1003214 α      lambda       -0.2752349E-05
   maximum displ.:     0.0697967 α      in ANC's #1, #2, #5, ...

........................................................................
.............................. CYCLE  203 ..............................
........................................................................

 iter      E             dE          RMSdq      gap      omega  full diag
   1    -68.7514667 -0.687515E+02  0.351E-02    0.46       0.0  T
   2    -68.7514538  0.129255E-04  0.234E-02    0.46       1.0  T
   3    -68.7508176  0.636168E-03  0.584E-02    0.46       1.0  T
   4    -68.7514309 -0.613283E-03  0.146E-02    0.46       1.0  T
   5    -68.7514650 -0.340720E-04  0.430E-03    0.46       3.0  T
   6    -68.7514680 -0.297509E-05  0.915E-04    0.46      14.1  T
   7    -68.7514680 -0.403616E-07  0.760E-04    0.46      17.0  T
   8    -68.7514681 -0.598105E-07  0.497E-04    0.46      26.0  T
     SCC iter.                  ...        0 min,  0.085 sec
     gradient                   ...        0 min,  0.018 sec
 * total energy  :   -67.6589469 Eh     change       -0.3471599E-05 Eh
   gradient norm :     0.0003323 Eh/α   predicted    -0.1384972E-05 ( -60.11%)
   displ. norm   :     0.0960274 α      lambda       -0.2370268E-05
   maximum displ.:     0.0674787 α      in ANC's #1, #2, #5, ...

........................................................................
.............................. CYCLE  204 ..............................
........................................................................

 iter      E             dE          RMSdq      gap      omega  full diag
   1    -68.7514791 -0.687515E+02  0.325E-02    0.46       0.0  T
   2    -68.7514698  0.934223E-05  0.215E-02    0.46       1.0  T
   3    -68.7509253  0.544464E-03  0.527E-02    0.46       1.0  T
   4    -68.7514504 -0.525126E-03  0.131E-02    0.46       1.0  T
   5    -68.7514779 -0.274355E-04  0.379E-03    0.46       3.4  T
   6    -68.7514801 -0.219180E-05  0.834E-04    0.46      15.5  T
   7    -68.7514801 -0.529462E-07  0.629E-04    0.46      20.5  T
   8    -68.7514802 -0.285160E-07  0.472E-04    0.46      27.3  T
     SCC iter.                  ...        0 min,  0.062 sec
     gradient                   ...        0 min,  0.009 sec
 * total energy  :   -67.6589499 Eh     change       -0.3022907E-05 Eh
   gradient norm :     0.0002994 Eh/α   predicted    -0.1194320E-05 ( -60.49%)
   displ. norm   :     0.0936748 α      lambda       -0.2169172E-05
   maximum displ.:     0.0663849 α      in ANC's #1, #2, #5, ...

........................................................................
.............................. CYCLE  205 ..............................
........................................................................

 iter      E             dE          RMSdq      gap      omega  full diag
   1    -68.7514939 -0.687515E+02  0.304E-02    0.46       0.0  T
   2    -68.7514893  0.453358E-05  0.197E-02    0.46       1.0  T
   3    -68.7511838  0.305516E-03  0.405E-02    0.46       1.0  T
   4    -68.7514661 -0.282259E-03  0.122E-02    0.46       1.1  T
   5    -68.7514927 -0.266652E-04  0.340E-03    0.46       3.8  T
   6    -68.7514945 -0.176531E-05  0.808E-04    0.46      16.0  T
   7    -68.7514946 -0.638675E-07  0.524E-04    0.46      24.6  T
   8    -68.7514946 -0.101015E-07  0.447E-04    0.46      28.9  T
     SCC iter.                  ...        0 min,  0.060 sec
     gradient                   ...        0 min,  0.009 sec
 * total energy  :   -67.6589526 Eh     change       -0.2761314E-05 Eh
   gradient norm :     0.0002755 Eh/α   predicted    -0.1089698E-05 ( -60.54%)
   displ. norm   :     0.0970907 α      lambda       -0.2110814E-05
   maximum displ.:     0.0686551 α      in ANC's #1, #2, #11, ...

........................................................................
.............................. CYCLE  206 ..............................
........................................................................

 iter      E             dE          RMSdq      gap      omega  full diag
   1    -68.7515070 -0.687515E+02  0.313E-02    0.46       0.0  T
   2    -68.7515026  0.438262E-05  0.201E-02    0.46       1.0  T
   3    -68.7512512  0.251338E-03  0.391E-02    0.46       1.0  T
   4    -68.7514796 -0.228402E-03  0.123E-02    0.46       1.1  T
   5    -68.7515057 -0.260808E-04  0.353E-03    0.46       3.7  T
   6    -68.7515077 -0.194522E-05  0.845E-04    0.46      15.3  T
   7    -68.7515077 -0.685680E-07  0.482E-04    0.46      26.8  T
   8    -68.7515077 -0.742699E-08  0.388E-04    0.46      33.3  T
     SCC iter.                  ...        0 min,  0.057 sec
     gradient                   ...        0 min,  0.010 sec
 * total energy  :   -67.6589553 Eh     change       -0.2697118E-05 Eh
   gradient norm :     0.0002752 Eh/α   predicted    -0.1061373E-05 ( -60.65%)
   displ. norm   :     0.1165430 α      lambda       -0.2249846E-05
   maximum displ.:     0.0817215 α      in ANC's #1, #2, #11, ...

........................................................................
.............................. CYCLE  207 ..............................
........................................................................

 iter      E             dE          RMSdq      gap      omega  full diag
   1    -68.7515025 -0.687515E+02  0.378E-02    0.46       0.0  T
   2    -68.7514967  0.580501E-05  0.242E-02    0.46       1.0  T
   3    -68.7511990  0.297666E-03  0.435E-02    0.46       1.0  T
   4    -68.7514749 -0.275835E-03  0.124E-02    0.46       1.0  T
   5    -68.7515004 -0.255410E-04  0.424E-03    0.46       3.0  T
   6    -68.7515035 -0.312786E-05  0.974E-04    0.46      13.3  T
   7    -68.7515036 -0.830992E-07  0.571E-04    0.46      22.6  T
   8    -68.7515036 -0.877002E-08  0.475E-04    0.46      27.2  T
     SCC iter.                  ...        0 min,  0.061 sec
     gradient                   ...        0 min,  0.009 sec
 * total energy  :   -67.6589582 Eh     change       -0.2845147E-05 Eh
   gradient norm :     0.0003133 Eh/α   predicted    -0.1136679E-05 ( -60.05%)
   displ. norm   :     0.1333557 α      lambda       -0.2254350E-05
   maximum displ.:     0.0926729 α      in ANC's #1, #2, #3, ...

........................................................................
.............................. CYCLE  208 ..............................
........................................................................

 iter      E             dE          RMSdq      gap      omega  full diag
   1    -68.7514825 -0.687515E+02  0.441E-02    0.46       0.0  T
   2    -68.7514751  0.741734E-05  0.280E-02    0.46       1.0  T
   3    -68.7510710  0.404168E-03  0.515E-02    0.46       1.0  T
   4    -68.7514467 -0.375704E-03  0.145E-02    0.46       1.0  T
   5    -68.7514807 -0.339953E-04  0.441E-03    0.46       2.9  T
   6    -68.7514838 -0.312381E-05  0.111E-03    0.46      11.7  T
   7    -68.7514839 -0.934051E-07  0.693E-04    0.46      18.6  T
   8    -68.7514839  0.199194E-08  0.636E-04    0.46      20.3  T
     SCC iter.                  ...        0 min,  0.063 sec
     gradient                   ...        0 min,  0.008 sec
 * total energy  :   -67.6589609 Eh     change       -0.2729669E-05 Eh
   gradient norm :     0.0003433 Eh/α   predicted    -0.1139071E-05 ( -58.27%)
   displ. norm   :     0.1477758 α      lambda       -0.2126857E-05
   maximum displ.:     0.1018030 α      in ANC's #1, #2, #3, ...

........................................................................
.............................. CYCLE  209 ..............................
........................................................................

 iter      E             dE          RMSdq      gap      omega  full diag
   1    -68.7514488 -0.687514E+02  0.495E-02    0.46       0.0  T
   2    -68.7514396  0.918064E-05  0.313E-02    0.46       1.0  T
   3    -68.7508539  0.585733E-03  0.581E-02    0.46       1.0  T
   4    -68.7513955 -0.541606E-03  0.173E-02    0.46       1.0  T
   5    -68.7514466 -0.511275E-04  0.478E-03    0.46       2.7  T
   6    -68.7514502 -0.360441E-05  0.119E-03    0.46      10.8  T
   7    -68.7514503 -0.103446E-06  0.735E-04    0.46      17.6  T
   8    -68.7514503 -0.180662E-07  0.575E-04    0.46      22.4  T
     SCC iter.                  ...        0 min,  0.064 sec
     gradient                   ...        0 min,  0.010 sec
 * total energy  :   -67.6589634 Eh     change       -0.2527494E-05 Eh
   gradient norm :     0.0003519 Eh/α   predicted    -0.1077715E-05 ( -57.36%)
   displ. norm   :     0.1378969 α      lambda       -0.1729254E-05
   maximum displ.:     0.0940501 α      in ANC's #1, #2, #3, ...

........................................................................
.............................. CYCLE  210 ..............................
........................................................................

 iter      E             dE          RMSdq      gap      omega  full diag
   1    -68.7514493 -0.687514E+02  0.466E-02    0.46       0.0  T
   2    -68.7514414  0.790397E-05  0.293E-02    0.46       1.0  T
   3    -68.7508433  0.598100E-03  0.564E-02    0.46       1.0  T
   4    -68.7514019 -0.558523E-03  0.166E-02    0.46       1.0  T
   5    -68.7514480 -0.461924E-04  0.410E-03    0.46       3.2  T
   6    -68.7514505 -0.243066E-05  0.106E-03    0.46      12.2  T
   7    -68.7514505 -0.564893E-07  0.726E-04    0.46      17.8  T
   8    -68.7514506 -0.241051E-07  0.534E-04    0.46      24.2  T
     SCC iter.                  ...        0 min,  0.064 sec
     gradient                   ...        0 min,  0.009 sec
 * total energy  :   -67.6589654 Eh     change       -0.1981392E-05 Eh
   gradient norm :     0.0003126 Eh/α   predicted    -0.8738615E-06 ( -55.90%)
   displ. norm   :     0.0951858 α      lambda       -0.1206576E-05
   maximum displ.:     0.0639288 α      in ANC's #2, #1, #3, ...

........................................................................
.............................. CYCLE  211 ..............................
........................................................................

 iter      E             dE          RMSdq      gap      omega  full diag
   1    -68.7514993 -0.687515E+02  0.332E-02    0.46       0.0  T
   2    -68.7514941  0.521428E-05  0.211E-02    0.46       1.0  T
   3    -68.7510819  0.412170E-03  0.445E-02    0.46       1.0  T
   4    -68.7514736 -0.391706E-03  0.126E-02    0.46       1.0  T
   5    -68.7514987 -0.251400E-04  0.295E-03    0.46       4.4  T
   6    -68.7515000 -0.122426E-05  0.809E-04    0.46      16.0  T
   7    -68.7515000 -0.270310E-07  0.572E-04    0.46      22.6  T
   8    -68.7515000 -0.845259E-08  0.485E-04    0.46      26.6  T
     SCC iter.                  ...        0 min,  0.061 sec
     gradient                   ...        0 min,  0.010 sec
 * total energy  :   -67.6589668 Eh     change       -0.1358401E-05 Eh
   gradient norm :     0.0002521 Eh/α   predicted    -0.6066073E-06 ( -55.34%)
   displ. norm   :     0.0656544 α      lambda       -0.8567308E-06
   maximum displ.:     0.0441374 α      in ANC's #2, #1, #3, ...

........................................................................
.............................. CYCLE  212 ..............................
........................................................................

 iter      E             dE          RMSdq      gap      omega  full diag
   1    -68.7515377 -0.687515E+02  0.242E-02    0.45       0.0  T
   2    -68.7515340  0.374608E-05  0.157E-02    0.45       1.0  T
   3    -68.7513096  0.224349E-03  0.339E-02    0.45       1.0  T
   4    -68.7515172 -0.207582E-03  0.112E-02    0.46       1.2  T
   5    -68.7515369 -0.196759E-04  0.293E-03    0.45       4.4  T
   6    -68.7515382 -0.137326E-05  0.655E-04    0.45      19.7  T
   7    -68.7515383 -0.295322E-07  0.402E-04    0.45      32.1  T
   8    -68.7515383  0.820677E-10  0.351E-04    0.45      36.8  T
     SCC iter.                  ...        0 min,  0.071 sec
     gradient                   ...        0 min,  0.010 sec
 * total energy  :   -67.6589677 Eh     change       -0.9133448E-06 Eh
   gradient norm :     0.0002093 Eh/α   predicted    -0.4304828E-06 ( -52.87%)
   displ. norm   :     0.0293325 α      lambda       -0.4199603E-06
   maximum displ.:     0.0194981 α      in ANC's #2, #1, #3, ...

   *** GEOMETRY OPTIMIZATION CONVERGED AFTER 212 ITERATIONS ***

------------------------------------------------------------------------
 total energy gain   :        -0.9956039 Eh     -624.7509 kcal/mol
 total RMSD          :         4.0836687 a0        2.1610 Å
 total power (kW/mol):       -12.3299889 (step)  -82.8749 (real)
------------------------------------------------------------------------

 ANCopt (total)                0 d,  0 h,  0 min, 31.541 sec
 optimizer setup                ...        0 min,  0.000 sec (  0.000%)
 model hessian                  ...        0 min,  0.070 sec (  0.222%)
 ANC generation                 ...        0 min,  0.036 sec (  0.114%)
 coordinate transformation      ...        0 min,  0.009 sec (  0.029%)
 single point calculation       ...        0 min, 31.145 sec ( 98.744%)
 optimization log               ...        0 min,  0.184 sec (  0.583%)
 hessian update                 ...        0 min,  0.024 sec (  0.076%)
 rational function              ...        0 min,  0.049 sec (  0.155%)

================
 final structure:
================
60
 xtb: 6.7.1pre (5071a88)
B           -6.35114153593917       -2.85445558426449       -0.33955681265790
B           -3.86324617241662       -3.42757773319988        0.87124774816633
B           -1.05518546735648       -4.16513516848567        1.97935001839974
B            1.68531205408753       -4.23176985093712        1.35494893067198
B            2.97025747976482       -3.69227363703130        0.62187092812340
B            5.90758837054342       -3.84857189775841       -0.38002659397329
B           -4.76120765494350       -2.33071985719075       -0.40780919920905
B           -2.61985671943044       -2.21105881524833        0.84416041199270
B           -1.23265934697811       -2.39107363243034        1.77916205272395
B            0.28142588772295       -3.14460245886810        1.25858549579691
B            3.12800457789673       -2.13534045672759        0.03371656329264
B            5.28242778551441       -2.58067719451286       -1.14274045096013
B           -4.38265153436339       -1.05449781810171       -1.34613209912720
B           -3.19236920658689       -1.26848298003387       -0.23984137740086
B           -0.76674932626026       -0.91506867636179        2.14710685391904
B            0.43406999675095       -1.50985009019259        0.88252329983467
B            4.26033095631265       -1.27188364765255       -0.60571556858034
B            6.84520436155786       -2.47557699264259       -0.80648212973665
B           -5.00720387158637       -0.64365919589488       -2.84964871355028
B           -3.19520862508946        0.15430119411230       -0.92567150838772
B           -0.94694689197254        0.62330608560787        2.21038520969813
B            0.00158074144270       -0.02044168760617        0.90840246361458
B            4.87544436295681        0.22421923735835       -0.54758889214379
B            5.87856790110844       -1.06637824991357       -1.13057488193416
B           -5.76716355175152        0.85353649008071       -2.91756471228160
B           -2.89710221757881        1.62816734508387       -0.70834421360136
B           -1.23986485703229        2.13318430568278        2.08890871818593
B            0.18832030124932        1.54987159789131        1.05403053256678
B            4.25812271951020        1.58410616183499        0.06466335739853
B            6.30753177506741        0.43970357254780       -1.62584458479530
B           -5.73413178151231        1.75540902791128       -1.49381254057280
B           -3.34688625748689        2.97396058164252       -0.17455360839692
B           -1.66463218231462        3.61600542701711        1.79727980623433
B           -0.05896970663313        3.16403860911068        1.32348226161772
B            2.96563152660365        2.25887532425120        0.68436576384281
B            5.79191956027183        1.67251473355297       -0.69850677247908
B           -6.63890724424418        2.79998784011065       -0.84219299352763
B           -4.47457622942820        3.88733796526384        0.58792388107027
B           -1.77707571228674        5.17524688114111        1.21535579954502
B            1.17539327919949        4.40663844248745        1.32897816563277
B            2.59380997642879        3.92287400774933        0.87957468115075
B            5.35092629612158        2.98599672225800       -0.05410102158611
B           -5.31895530172066       -3.63481702746512        0.41646274789363
B           -2.48770894519417       -3.63285441718753        1.60554512239947
B            0.35957888071269       -4.72132678145130        1.90632031204386
B            1.72149841446832       -2.41621502353698        0.73450389821158
B            4.33870471057874       -3.47995029853791       -0.07292892642814
B           -5.09533132452936        2.84723290801475       -0.37349113868811
B           -3.03449533547415        4.31873545629944        0.93261171917256
B           -0.28693022908388        4.89506433358781        1.44259051702697
B            1.46161957177745        2.54819198431215        0.99240677561224
B            4.07837963382875        3.61976312711351        0.51063433868889
B           -4.59573026376993        0.59127636639891       -1.84153363555372
H           -7.36836877200052       -2.50274896966300       -0.81029330056720
H           -4.95906527177523       -1.37603383262701       -3.77389039629674
H           -6.32457925160157        1.26078011012730       -3.87154147887482
H           -7.61339845424433        3.40172770090927       -0.59757216038868
H            6.36123235946707       -4.93538325773335       -0.36023863823675
H            8.01625960031049       -2.46823694348143       -0.90613968920599
H            6.93915616132624        0.61460863727504       -2.61276033541737
 
 Bond Distances (Angstroems)
 ---------------------------
B1-B7=1.6754         B1-B43=1.4986        B1-H54=1.1748        B2-B7=1.9093         B2-B8=1.7397         B2-B43=1.5391        
B2-B44=1.5727        B3-B9=1.7941         B3-B10=1.8296        B3-B44=1.5733        B3-B45=1.5219        B4-B5=1.5747         
B4-B10=1.7782        B4-B45=1.5170        B4-B46=1.9190        B5-B4=1.5747         B5-B11=1.6718        B5-B46=1.7890        
B5-B47=1.5493        B6-B12=1.6063        B6-B18=1.7164        B6-B47=1.6406        B6-H58=1.1779        B7-B1=1.6754         
B7-B2=1.9093         B7-B13=1.6286        B7-B14=1.9021        B7-B43=1.6405        B8-B2=1.7397         B8-B9=1.6825         
B8-B14=1.5464        B8-B44=1.6182        B9-B3=1.7941         B9-B8=1.6825         B9-B10=1.7695        B9-B15=1.5909        
B9-B16=2.0877        B9-B44=1.7741        B10-B3=1.8296        B10-B4=1.7782        B10-B9=1.7695        B10-B16=1.6844       
B10-B45=1.7064       B10-B46=1.6968       B11-B5=1.6718        B11-B17=1.5610       B11-B46=1.5963       B11-B47=1.8125       
B12-B6=1.6063        B12-B17=1.7453       B12-B18=1.6020       B12-B24=1.6275       B12-B47=1.6864       B13-B7=1.6286        
B13-B14=1.6390       B13-B19=1.6791       B13-B20=1.7459       B13-B53=1.7319       B14-B7=1.9021        B14-B8=1.5464        
B14-B13=1.6390       B14-B20=1.5795       B15-B9=1.5909        B15-B16=1.8425       B15-B21=1.5502       B15-B22=1.7103       
B16-B9=2.0877        B16-B10=1.6844       B16-B15=1.8425       B16-B22=1.5511       B16-B46=1.5814       B17-B11=1.5610       
B17-B12=1.7453       B17-B23=1.6187       B17-B24=1.7136       B18-B6=1.7164        B18-B12=1.6020       B18-B24=1.7393       
B18-H59=1.1753       B19-B13=1.6791       B19-B25=1.6804       B19-B53=1.6464       B19-H55=1.1802       B20-B13=1.7459       
B20-B14=1.5795       B20-B26=1.5193       B20-B53=1.7295       B21-B15=1.5502       B21-B22=1.7347       B21-B27=1.5428       
B21-B28=1.8667       B22-B15=1.7103       B22-B16=1.5511       B22-B21=1.7347       B22-B28=1.5881       B23-B17=1.6187       
B23-B24=1.7354       B23-B29=1.6141       B23-B30=1.8055       B23-B36=1.7205       B24-B12=1.6275       B24-B17=1.7136       
B24-B18=1.7393       B24-B23=1.7354       B24-B30=1.6424       B25-B19=1.6804       B25-B31=1.6857       B25-B53=1.6121       
B25-H56=1.1776       B26-B20=1.5193       B26-B32=1.5160       B27-B21=1.5428       B27-B28=1.8577       B27-B33=1.5698       
B27-B34=1.7444       B28-B21=1.8667       B28-B22=1.5881       B28-B27=1.8577       B28-B34=1.6551       B28-B51=1.6192       
B29-B23=1.6141       B29-B35=1.5843       B29-B36=1.7155       B29-B42=1.7815       B29-B52=2.0917       B30-B23=1.8055       
B30-B24=1.6424       B30-B36=1.6265       B30-H60=1.1847       B31-B25=1.6857       B31-B37=1.5279       B31-B48=1.6898       
B31-B53=1.6650       B32-B26=1.5160       B32-B38=1.6393       B32-B48=1.7643       B32-B49=1.7697       B33-B27=1.5698       
B33-B34=1.7340       B33-B39=1.6681       B33-B49=1.7658       B33-B50=1.9131       B34-B27=1.7444       B34-B28=1.6551       
B34-B33=1.7340       B34-B40=1.7515       B34-B50=1.7500       B34-B51=1.6736       B35-B29=1.5843       B35-B41=1.7162       
B35-B51=1.5623       B35-B52=1.7665       B36-B23=1.7205       B36-B29=1.7155       B36-B30=1.6265       B36-B42=1.5281       
B37-B31=1.5279       B37-B48=1.6139       B37-H57=1.1711       B38-B32=1.6393       B38-B48=1.5464       B38-B49=1.5423       
B39-B33=1.6681       B39-B49=1.5475       B39-B50=1.5332       B40-B34=1.7515       B40-B41=1.5646       B40-B50=1.5459       
B40-B51=1.9102       B41-B35=1.7162       B41-B40=1.5646       B41-B51=1.7845       B41-B52=1.5595       B42-B29=1.7815       
B42-B36=1.5281       B42-B52=1.5297       B43-B1=1.4986        B43-B2=1.5391        B43-B7=1.6405        B44-B2=1.5727        
B44-B3=1.5733        B44-B8=1.6182        B44-B9=1.7741        B45-B3=1.5219        B45-B4=1.5170        B45-B10=1.7064       
B46-B4=1.9190        B46-B5=1.7890        B46-B10=1.6968       B46-B11=1.5963       B46-B16=1.5814       B47-B5=1.5493        
B47-B6=1.6406        B47-B11=1.8125       B47-B12=1.6864       B48-B31=1.6898       B48-B32=1.7643       B48-B37=1.6139       
B48-B38=1.5464       B49-B32=1.7697       B49-B33=1.7658       B49-B38=1.5423       B49-B39=1.5475       B50-B33=1.9131       
B50-B34=1.7500       B50-B39=1.5332       B50-B40=1.5459       B51-B28=1.6192       B51-B34=1.6736       B51-B35=1.5623       
B51-B40=1.9102       B51-B41=1.7845       B52-B29=2.0917       B52-B35=1.7665       B52-B41=1.5595       B52-B42=1.5297       
B53-B13=1.7319       B53-B19=1.6464       B53-B20=1.7295       B53-B25=1.6121       B53-B31=1.6650       H54-B1=1.1748        
H55-B19=1.1802       H56-B25=1.1776       H57-B37=1.1711       H58-B6=1.1779        H59-B18=1.1753       H60-B30=1.1847       
 B  H  Rav=1.1774 sigma=0.0040  Rmin=1.1711  Rmax=1.1847     7
 B  B  Rav=1.6776 sigma=0.1192  Rmin=1.4986  Rmax=2.0917   107
 
 selected bond angles (degree)
 --------------------
B43-B1-B7= 61.95               H54-B1-B7=135.38               H54-B1-B43=162.64              B8-B2-B7= 85.64                
B43-B2-B7= 55.57               B43-B2-B8=139.95               B44-B2-B7=143.04               B44-B2-B8= 58.23               
B44-B2-B43=161.37              B10-B3-B9= 58.45               B44-B3-B9= 63.18               B44-B3-B10=112.51              
B45-B3-B9=116.61               B45-B3-B10= 60.39              B45-B3-B44=163.47              B10-B4-B5=114.18               
B45-B4-B5=173.18               B45-B4-B10= 61.77              B46-B4-B5= 60.66               B46-B4-B10= 54.48              
B46-B4-B45=116.06              B11-B5-B4=124.05               B46-B5-B4= 69.24               B46-B5-B11= 54.81              
B47-B5-B4=167.54               B47-B5-B11= 68.36              B47-B5-B46=123.16              B18-B6-B12= 57.54              
B47-B6-B12= 62.57              B47-B6-B18=112.90              H58-B6-B12=152.40              H58-B6-B18=122.13              
H58-B6-B47=124.92              B2-B7-B1=103.85                B13-B7-B1=119.28               B13-B7-B2=136.62               
B14-B7-B1=162.50               B14-B7-B2= 82.75               B14-B7-B13= 54.66              B43-B7-B1= 53.73               
B43-B7-B2= 50.70               B43-B7-B13=172.50              B43-B7-B14=132.84              B9-B8-B2=120.38                
B14-B8-B2= 99.94               B14-B8-B9=139.46               B44-B8-B2= 55.71               B44-B8-B9= 64.99               
B44-B8-B14=153.59              B8-B9-B3=104.44                B10-B9-B3= 61.78               B10-B9-B8=125.98               
B15-B9-B3=149.61               B15-B9-B8=105.71               B15-B9-B10=102.27              B16-B9-B3=112.73               
B16-B9-B8=111.99               B16-B9-B10= 50.97              B16-B9-B15= 58.26              B44-B9-B3= 52.32               
B44-B9-B8= 55.75               B44-B9-B10=106.17              B44-B9-B15=151.55              B44-B9-B16=144.91              
B4-B10-B3=102.38               B9-B10-B3= 59.77               B9-B10-B4=156.91               B16-B10-B3=134.07              
B16-B10-B4=122.27              B16-B10-B9= 74.33              B45-B10-B3= 50.84              B45-B10-B4= 51.56              
B45-B10-B9=108.72              B45-B10-B16=167.79             B46-B10-B3=168.86              B46-B10-B4= 66.99              
B46-B10-B9=129.37              B46-B10-B16= 55.77             B46-B10-B45=118.36             
 
 selected dihedral angles (degree)
 ---------------------------------
B11-B5-B4-B10= 10.51          B11-B5-B4-B45= 62.80          B11-B5-B4-B46=359.94          B46-B5-B4-B10= 10.57          
B46-B5-B4-B45= 62.85          B47-B5-B4-B10=195.81          B47-B5-B4-B45=248.09          B47-B5-B4-B46=185.24          
B2-B7-B1-B43=351.95           B2-B7-B1-H54=173.28           B13-B7-B1-B43=176.77          B13-B7-B1-H54=358.10          
B14-B7-B1-B43=241.47          B14-B7-B1-H54= 62.80          B43-B7-B1-H54=181.33          B1-B7-B2-B8=198.94            
B1-B7-B2-B43=  8.39           B1-B7-B2-B44=187.38           B13-B7-B2-B8= 12.82           B13-B7-B2-B43=182.26          
B13-B7-B2-B44=  1.26          B14-B7-B2-B8=  2.45           B14-B7-B2-B43=171.89          B14-B7-B2-B44=350.89          
B43-B7-B2-B8=190.55           B43-B7-B2-B44=179.00          B9-B8-B2-B7=181.33            B9-B8-B2-B43=167.75           
B9-B8-B2-B44=353.18           B14-B8-B2-B7=356.97           B14-B8-B2-B43=343.39          B14-B8-B2-B44=168.82          
B44-B8-B2-B7=188.14           B44-B8-B2-B43=174.56          B8-B9-B3-B10=123.39           B8-B9-B3-B44=338.92           
B8-B9-B3-B45=140.40           B10-B9-B3-B44=215.53          B10-B9-B3-B45= 17.01          B15-B9-B3-B10=296.00          
B15-B9-B3-B44=151.53          B15-B9-B3-B45=313.01          B16-B9-B3-B10=  1.59          B16-B9-B3-B44=217.12          
B16-B9-B3-B45= 18.60          B44-B9-B3-B10=144.47          B44-B9-B3-B45=161.48          B3-B9-B8-B2= 26.35            
B3-B9-B8-B14=212.97           B3-B9-B8-B44= 20.14           B10-B9-B8-B2= 91.74           B10-B9-B8-B14=278.35          
B10-B9-B8-B44= 85.53          B15-B9-B8-B2=210.23           B15-B9-B8-B14= 36.84          B15-B9-B8-B44=204.02          
B16-B9-B8-B2=148.64           B16-B9-B8-B14=335.25          B16-B9-B8-B44=142.43          B44-B9-B8-B2=  6.21           
B44-B9-B8-B14=192.83          B4-B10-B3-B9=164.18           B4-B10-B3-B44=198.34          B4-B10-B3-B45=  1.69          
B9-B10-B3-B44= 34.16          B9-B10-B3-B45=197.51          B16-B10-B3-B9=357.47          B16-B10-B3-B44= 31.63         
B16-B10-B3-B45=194.98         B45-B10-B3-B9=162.49          B45-B10-B3-B44=196.65         B46-B10-B3-B9=147.15          
B46-B10-B3-B44=181.31         B46-B10-B3-B45=344.66         B3-B10-B4-B5=172.20           B3-B10-B4-B45=358.32          
B3-B10-B4-B46=183.53          B9-B10-B4-B5=209.11           B9-B10-B4-B45= 35.24          B9-B10-B4-B46=220.44          
B16-B10-B4-B5=340.93          B16-B10-B4-B45=167.06         B16-B10-B4-B46=352.26         B45-B10-B4-B5=173.88          
B45-B10-B4-B46=185.20         B46-B10-B4-B5=348.67          B46-B10-B4-B45=174.80         B3-B10-B9-B8=272.29           
B3-B10-B9-B15=152.27          B3-B10-B9-B16=181.89          B3-B10-B9-B44=331.39          B4-B10-B9-B3=317.24           
B4-B10-B9-B8=229.53           B4-B10-B9-B15=109.51          B4-B10-B9-B16=139.12          B4-B10-B9-B44=288.63          
B16-B10-B9-B3=178.11          B16-B10-B9-B8= 90.40          B16-B10-B9-B15=330.38         B16-B10-B9-B44=149.50         
B45-B10-B9-B3=345.74          B45-B10-B9-B8=258.03          B45-B10-B9-B15=138.01         B45-B10-B9-B16=167.63         
B45-B10-B9-B44=317.13         B46-B10-B9-B3=187.79          B46-B10-B9-B8=100.08          B46-B10-B9-B15=340.06         
B46-B10-B9-B16=  9.68         B46-B10-B9-B44=159.18         
 
 CMA Distance (Angstroems)
 ---------------------------
R(CMA):  6.8116
           -------------------------------------------------
          |                Final Singlepoint                |
           -------------------------------------------------

          ...................................................
          :                      SETUP                      :
          :.................................................:
          :  # basis functions                 219          :
          :  # atomic orbitals                 219          :
          :  # shells                          113          :
          :  # electrons                       166          :
          :  max. iterations                   500          :
          :  Hamiltonian                  GFN2-xTB          :
          :  restarted?                      false          :
          :  GBSA solvation                  false          :
          :  PC potential                    false          :
          :  electronic temp.          300.0000000     K    :
          :  accuracy                    1.0000000          :
          :  -> integral cutoff          0.2500000E+02      :
          :  -> integral neglect         0.1000000E-07      :
          :  -> SCF convergence          0.1000000E-05 Eh   :
          :  -> wf. convergence          0.1000000E-03 e    :
          :  Broyden damping             0.4000000          :
          :  net charge                          0          :
          :  unpaired electrons                  0          :
          ...................................................

 iter      E             dE          RMSdq      gap      omega  full diag
   1    -68.7515383 -0.687515E+02  0.179E-04    0.45       0.0  T
   2    -68.7515382  0.722674E-07  0.652E-04    0.45      19.8  T
   3    -68.7515383 -0.767125E-07  0.764E-05    0.45     169.0  T

   *** convergence criteria satisfied after 3 iterations ***

         #    Occupation            Energy/Eh            Energy/eV
      -------------------------------------------------------------
         1        2.0000           -0.4486393             -12.2081
       ...           ...                  ...                  ...
        77        2.0000           -0.2543904              -6.9223
        78        2.0000           -0.2492995              -6.7838
        79        2.0000           -0.2490723              -6.7776
        80        2.0000           -0.2446821              -6.6581
        81        2.0000           -0.2402822              -6.5384
        82        2.0000           -0.2387479              -6.4967
        83        1.9997           -0.2320760              -6.3151 (HOMO)
        84        0.0003           -0.2153564              -5.8601 (LUMO)
        85        0.0000           -0.2122859              -5.7766
        86        0.0000           -0.2084062              -5.6710
        87                         -0.1988986              -5.4123
        88                         -0.1971920              -5.3659
       ...                                ...                  ...
       219                          1.2068334              32.8396
      -------------------------------------------------------------
                  HL-Gap            0.0167196 Eh            0.4550 eV
             Fermi-level           -0.2237344 Eh           -6.0881 eV

 SCC (total)                   0 d,  0 h,  0 min,  0.041 sec
 SCC setup                      ...        0 min,  0.001 sec (  2.439%)
 Dispersion                     ...        0 min,  0.000 sec (  0.000%)
 classical contributions        ...        0 min,  0.000 sec (  0.000%)
 integral evaluation            ...        0 min,  0.004 sec (  9.756%)
 iterations                     ...        0 min,  0.026 sec ( 63.414%)
 molecular gradient             ...        0 min,  0.009 sec ( 21.951%)
 printout                       ...        0 min,  0.001 sec (  2.439%)

         :::::::::::::::::::::::::::::::::::::::::::::::::::::
         ::                     SUMMARY                     ::
         :::::::::::::::::::::::::::::::::::::::::::::::::::::
         :: total energy             -67.658967718609 Eh    ::
         :: gradient norm              0.000589646527 Eh/a0 ::
         :: HOMO-LUMO gap              0.454963035399 eV    ::
         ::.................................................::
         :: SCC energy               -68.750936635888 Eh    ::
         :: -> isotropic ES            0.259985181111 Eh    ::
         :: -> anisotropic ES         -0.000007976949 Eh    ::
         :: -> anisotropic XC         -0.052608278191 Eh    ::
         :: -> dispersion             -0.078244332399 Eh    ::
         :: repulsion energy           1.091968917279 Eh    ::
         :: add. restraining           0.000000000000 Eh    ::
         :: total charge              -0.000000001443 e     ::
         :::::::::::::::::::::::::::::::::::::::::::::::::::::

           -------------------------------------------------
          |                Property Printout                |
           -------------------------------------------------

    * Orbital Energies and Occupations

         #    Occupation            Energy/Eh            Energy/eV
      -------------------------------------------------------------
         1        2.0000           -0.4486393             -12.2081
       ...           ...                  ...                  ...
        71        2.0000           -0.2695931              -7.3360
        72        2.0000           -0.2683279              -7.3016
        73        2.0000           -0.2634290              -7.1683
        74        2.0000           -0.2607070              -7.0942
        75        2.0000           -0.2600210              -7.0755
        76        2.0000           -0.2560977              -6.9688
        77        2.0000           -0.2543904              -6.9223
        78        2.0000           -0.2492995              -6.7838
        79        2.0000           -0.2490723              -6.7776
        80        2.0000           -0.2446821              -6.6581
        81        2.0000           -0.2402822              -6.5384
        82        2.0000           -0.2387479              -6.4967
        83        1.9997           -0.2320760              -6.3151 (HOMO)
        84        0.0003           -0.2153564              -5.8601 (LUMO)
        85        0.0000           -0.2122859              -5.7766
        86        0.0000           -0.2084062              -5.6710
        87                         -0.1988986              -5.4123
        88                         -0.1971920              -5.3659
        89                         -0.1945895              -5.2950
        90                         -0.1870547              -5.0900
        91                         -0.1830775              -4.9818
        92                         -0.1774707              -4.8292
        93                         -0.1706186              -4.6428
        94                         -0.1616731              -4.3993
       ...                                ...                  ...
       219                          1.2068334              32.8396
      -------------------------------------------------------------
                  HL-Gap            0.0167196 Eh            0.4550 eV
             Fermi-level           -0.2237344 Eh           -6.0881 eV

     #   Z          covCN         q      C6AA      α(0)
     1   5 B        2.872     0.036    20.800     7.613
     2   5 B        3.645     0.020    21.961     7.630
     3   5 B        3.704     0.001    22.548     7.683
     4   5 B        3.599    -0.005    22.124     7.715
     5   5 B        3.804     0.006    22.609     7.666
     6   5 B        3.812     0.033    22.115     7.582
     7   5 B        4.425     0.057    21.717     7.509
     8   5 B        3.843     0.022    22.325     7.615
     9   5 B        5.059     0.044    21.946     7.548
    10   5 B        5.523     0.101    20.954     7.376
    11   5 B        3.792    -0.002    22.749     7.691
    12   5 B        4.799     0.083    21.251     7.428
    13   5 B        4.746     0.059    21.677     7.502
    14   5 B        3.691     0.007    22.401     7.666
    15   5 B        3.741     0.002    22.616     7.679
    16   5 B        4.170    -0.021    23.137     7.750
    17   5 B        3.938     0.005    22.643     7.667
    18   5 B        3.779     0.070    21.449     7.470
    19   5 B        3.808     0.061    21.612     7.495
    20   5 B        3.812    -0.013    22.963     7.725
    21   5 B        3.702    -0.019    22.918     7.747
    22   5 B        3.825     0.013    22.487     7.644
    23   5 B        4.691     0.049    21.844     7.531
    24   5 B        4.735     0.040    22.013     7.560
    25   5 B        3.813     0.071    21.446     7.466
    26   5 B        2.071    -0.003    43.132    13.737
    27   5 B        3.706    -0.005    22.680     7.704
    28   5 B        4.547     0.015    22.460     7.636
    29   5 B        4.200     0.029    22.218     7.595
    30   5 B        3.748     0.070    21.415     7.471
    31   5 B        3.840    -0.010    22.915     7.716
    32   5 B        3.769     0.015    22.418     7.639
    33   5 B        4.530     0.059    21.682     7.503
    34   5 B        5.624     0.097    21.023     7.388
    35   5 B        3.805     0.014    22.454     7.640
    36   5 B        3.825     0.006    22.609     7.665
    37   5 B        2.886     0.063    20.339     7.527
    38   5 B        2.918     0.032    20.851     7.620
    39   5 B        2.913     0.008    21.257     7.694
    40   5 B        3.630    -0.001    22.238     7.696
    41   5 B        3.792    -0.004    22.780     7.697
    42   5 B        2.860    -0.014    21.680     7.774
    43   5 B        2.920    -0.045    22.220     7.866
    44   5 B        3.825     0.007    22.593     7.662
    45   5 B        2.901    -0.042    22.176     7.859
    46   5 B        4.532     0.036    22.081     7.571
    47   5 B        3.896     0.029    22.214     7.595
    48   5 B        3.818     0.010    22.539     7.653
    49   5 B        3.778    -0.044    23.548     7.827
    50   5 B        3.628    -0.031    22.805     7.795
    51   5 B        4.556     0.015    22.460     7.636
    52   5 B        3.280     0.009    21.222     7.683
    53   5 B        4.869     0.085    21.232     7.424
    54   1 H        0.937    -0.187     9.842     4.905
    55   1 H        0.935    -0.155     7.925     4.401
    56   1 H        0.936    -0.150     7.705     4.340
    57   1 H        0.939    -0.166     8.544     4.570
    58   1 H        0.936    -0.152     7.785     4.362
    59   1 H        0.937    -0.155     7.949     4.408
    60   1 H        0.934    -0.154     7.878     4.389

 Mol. C6AA /au·bohr⁶  :      73362.240049
 Mol. C8AA /au·bohr⁸  :    2731974.617122
 Mol. α(0) /au        :        441.606217


Wiberg/Mayer (AO) data.
largest (>0.10) Wiberg bond orders for each atom

 ---------------------------------------------------------------------------
     #   Z sym  total        # sym  WBO       # sym  WBO       # sym  WBO
 ---------------------------------------------------------------------------
     1   5 B    3.504 --    43 B    1.442    54 H    0.955     7 B    0.843
     2   5 B    3.508 --    43 B    1.123    44 B    0.993     8 B    0.558
                             7 B    0.508
     3   5 B    3.510 --    45 B    1.279    44 B    1.017    10 B    0.484
                             9 B    0.448
     4   5 B    3.480 --    45 B    1.296     5 B    1.018    10 B    0.562
                            46 B    0.357
     5   5 B    3.537 --    47 B    1.099     4 B    1.018    11 B    0.683
                            46 B    0.481
     6   5 B    3.601 --    58 H    0.939    47 B    0.858    18 B    0.815
                            12 B    0.800
     7   5 B    3.624 --     1 B    0.843    13 B    0.835    43 B    0.793
                             2 B    0.508    14 B    0.386
     8   5 B    3.581 --    14 B    1.113    44 B    0.774     9 B    0.686
                             2 B    0.558
     9   5 B    3.591 --    15 B    0.974     8 B    0.686    10 B    0.521
                            44 B    0.502     3 B    0.448    16 B    0.232
    10   5 B    3.600 --    16 B    0.627    46 B    0.619    45 B    0.591
                             4 B    0.562     9 B    0.521     3 B    0.484
    11   5 B    3.599 --    17 B    1.106    46 B    0.920     5 B    0.683
                            47 B    0.508
    12   5 B    3.596 --    18 B    0.846     6 B    0.800    24 B    0.686
                            47 B    0.591    17 B    0.517
    13   5 B    3.621 --     7 B    0.835    19 B    0.753    14 B    0.691
                            20 B    0.558    53 B    0.495
    14   5 B    3.563 --     8 B    1.113    20 B    0.934    13 B    0.691
                             7 B    0.386
    15   5 B    3.456 --    21 B    1.111     9 B    0.974    22 B    0.591
                            16 B    0.418
    16   5 B    3.609 --    22 B    1.113    46 B    0.914    10 B    0.627
                            15 B    0.418     9 B    0.232
    17   5 B    3.553 --    11 B    1.106    23 B    0.832    24 B    0.607
                            12 B    0.517    47 B    0.180
    18   5 B    3.519 --    59 H    0.950    12 B    0.846     6 B    0.815
                            24 B    0.683
    19   5 B    3.539 --    55 H    0.938    25 B    0.839    13 B    0.753
                            53 B    0.733
    20   5 B    3.627 --    26 B    1.267    14 B    0.934    13 B    0.558
                            53 B    0.543
    21   5 B    3.488 --    27 B    1.166    15 B    1.111    22 B    0.558
                            28 B    0.390
    22   5 B    3.568 --    16 B    1.113    28 B    0.967    15 B    0.591
                            21 B    0.558
    23   5 B    3.585 --    29 B    0.868    17 B    0.832    36 B    0.559
                            24 B    0.538    30 B    0.498
    24   5 B    3.609 --    30 B    0.871    12 B    0.686    18 B    0.683
                            17 B    0.607    23 B    0.538
    25   5 B    3.578 --    56 H    0.940    19 B    0.839    53 B    0.777
                            31 B    0.720
    26   5 B    3.415 --    32 B    1.330    20 B    1.267    53 B    0.204
                            48 B    0.158
    27   5 B    3.435 --    21 B    1.166    33 B    1.018    34 B    0.509
                            28 B    0.453
    28   5 B    3.601 --    22 B    0.967    51 B    0.794    34 B    0.660
                            27 B    0.453    21 B    0.390
    29   5 B    3.561 --    35 B    1.008    23 B    0.868    36 B    0.631
                            42 B    0.535    52 B    0.315
    30   5 B    3.416 --    60 H    0.923    36 B    0.895    24 B    0.871
                            23 B    0.498
    31   5 B    3.613 --    37 B    1.241    25 B    0.720    48 B    0.717
                            53 B    0.688
    32   5 B    3.578 --    26 B    1.330    38 B    0.688    48 B    0.603
                            49 B    0.579
    33   5 B    3.519 --    27 B    1.018    39 B    0.648    49 B    0.577
                            34 B    0.537    50 B    0.453
    34   5 B    3.613 --    28 B    0.660    51 B    0.634    33 B    0.537
                            40 B    0.524    27 B    0.509    50 B    0.502
    35   5 B    3.548 --    51 B    1.036    29 B    1.008    41 B    0.625
                            52 B    0.517
    36   5 B    3.509 --    42 B    1.234    30 B    0.895    29 B    0.631
                            23 B    0.559
    37   5 B    3.479 --    31 B    1.241    57 H    0.954    48 B    0.860
                            38 B    0.145
    38   5 B    3.408 --    49 B    1.169    48 B    1.104    32 B    0.688
                            37 B    0.145
    39   5 B    3.354 --    50 B    1.213    49 B    1.133    33 B    0.648
    40   5 B    3.404 --    50 B    1.143    41 B    1.085    34 B    0.524
                            51 B    0.383
    41   5 B    3.495 --    40 B    1.085    52 B    1.072    35 B    0.625
                            51 B    0.486
    42   5 B    3.345 --    52 B    1.272    36 B    1.234    29 B    0.535
    43   5 B    3.543 --     1 B    1.442     2 B    1.123     7 B    0.793
    44   5 B    3.536 --     3 B    1.017     2 B    0.993     8 B    0.774
                             9 B    0.502
    45   5 B    3.456 --     4 B    1.296     3 B    1.279    10 B    0.591
    46   5 B    3.563 --    11 B    0.920    16 B    0.914    10 B    0.619
                             5 B    0.481     4 B    0.357
    47   5 B    3.486 --     5 B    1.099     6 B    0.858    12 B    0.591
                            11 B    0.508    17 B    0.180
    48   5 B    3.643 --    38 B    1.104    37 B    0.860    31 B    0.717
                            32 B    0.603    26 B    0.158
    49   5 B    3.634 --    38 B    1.169    39 B    1.133    32 B    0.579
                            33 B    0.577
    50   5 B    3.529 --    39 B    1.213    40 B    1.143    34 B    0.502
                            33 B    0.453
    51   5 B    3.621 --    35 B    1.036    28 B    0.794    34 B    0.634
                            41 B    0.486    40 B    0.383
    52   5 B    3.406 --    42 B    1.272    41 B    1.072    35 B    0.517
                            29 B    0.315
    53   5 B    3.631 --    25 B    0.777    19 B    0.733    31 B    0.688
                            20 B    0.543    13 B    0.495    26 B    0.204
    54   1 H    0.964 --     1 B    0.955
    55   1 H    0.970 --    19 B    0.938
    56   1 H    0.972 --    25 B    0.940
    57   1 H    0.969 --    37 B    0.954
    58   1 H    0.966 --     6 B    0.939
    59   1 H    0.972 --    18 B    0.950
    60   1 H    0.970 --    30 B    0.923
 ---------------------------------------------------------------------------

Topologies differ in total number of bonds
Writing topology from bond orders to xtbtopo.mol

molecular dipole:
                 x           y           z       tot (Debye)
 q only:        2.160       0.974       2.484
   full:        2.320       0.688       1.020       6.675
molecular quadrupole (traceless):
                xx          xy          yy          xz          yz          zz
 q only:      -86.079      21.385      42.672     -15.290       0.387      43.407
  q+dip:      -49.039      -1.764       9.725     -10.635      11.160      39.314
   full:      -61.042       3.143       0.414      -6.751      11.850      60.627

           -------------------------------------------------
          |                Geometry Summary                 |
           -------------------------------------------------

      molecular mass/u    :      580.0400719
   center of mass at/Å    :       -0.1884833       0.0176207       0.2185673
  moments of inertia/u·Å² :        0.5438290E+04   0.9836291E+04   0.1345575E+05
rotational constants/cm⁻¹ :        0.3099804E-02   0.1713820E-02   0.1252820E-02

 * 89 selected distances

     #   Z          #   Z                                           value/Å
     4   5 B        5   5 B                                       1.5746570
     1   5 B        7   5 B                                       1.6753650
     8   5 B        9   5 B                                       1.6825429
     9   5 B       10   5 B                                       1.7695368 (max)
     5   5 B       11   5 B                                       1.6717808
     6   5 B       12   5 B                                       1.6062738
     7   5 B       13   5 B                                       1.6286491
     8   5 B       14   5 B                                       1.5463764
    13   5 B       14   5 B                                       1.6390367
     9   5 B       15   5 B                                       1.5909263
    10   5 B       16   5 B                                       1.6843808
    11   5 B       17   5 B                                       1.5609595
    12   5 B       17   5 B                                       1.7452847
     6   5 B       18   5 B                                       1.7164218
    12   5 B       18   5 B                                       1.6019946
    13   5 B       19   5 B                                       1.6791119
    13   5 B       20   5 B                                       1.7458532
    14   5 B       20   5 B                                       1.5794576
    15   5 B       21   5 B                                       1.5501847
    15   5 B       22   5 B                                       1.7102858
    16   5 B       22   5 B                                       1.5511462
    17   5 B       23   5 B                                       1.6186623
    12   5 B       24   5 B                                       1.6274621
    17   5 B       24   5 B                                       1.7135930
    18   5 B       24   5 B                                       1.7393286
    23   5 B       24   5 B                                       1.7354457
    19   5 B       25   5 B                                       1.6804008
    20   5 B       26   5 B                                       1.5193355
    21   5 B       27   5 B                                       1.5428189
    22   5 B       28   5 B                                       1.5880691
    23   5 B       29   5 B                                       1.6140730
    24   5 B       30   5 B                                       1.6424327
    25   5 B       31   5 B                                       1.6856856
    26   5 B       32   5 B                                       1.5160468
    27   5 B       33   5 B                                       1.5697878
    27   5 B       34   5 B                                       1.7444346
    28   5 B       34   5 B                                       1.6550807
    33   5 B       34   5 B                                       1.7340446
    29   5 B       35   5 B                                       1.5842596
    23   5 B       36   5 B                                       1.7205416
    29   5 B       36   5 B                                       1.7154527
    30   5 B       36   5 B                                       1.6265409
    31   5 B       37   5 B                                       1.5278652
    32   5 B       38   5 B                                       1.6393033
    33   5 B       39   5 B                                       1.6680868
    34   5 B       40   5 B                                       1.7514957
    35   5 B       41   5 B                                       1.7161731
    40   5 B       41   5 B                                       1.5645759
    36   5 B       42   5 B                                       1.5280606
     1   5 B       43   5 B                                       1.4986455
     2   5 B       43   5 B                                       1.5391124
     7   5 B       43   5 B                                       1.6404806
     2   5 B       44   5 B                                       1.5727156
     3   5 B       44   5 B                                       1.5732695
     8   5 B       44   5 B                                       1.6182314
     3   5 B       45   5 B                                       1.5219202
     4   5 B       45   5 B                                       1.5169856
    10   5 B       45   5 B                                       1.7063787
    10   5 B       46   5 B                                       1.6967673
    11   5 B       46   5 B                                       1.5963250
    16   5 B       46   5 B                                       1.5814169
     5   5 B       47   5 B                                       1.5493471
     6   5 B       47   5 B                                       1.6406058
    12   5 B       47   5 B                                       1.6863578
    31   5 B       48   5 B                                       1.6897532
    37   5 B       48   5 B                                       1.6138589
    38   5 B       48   5 B                                       1.5464394
    38   5 B       49   5 B                                       1.5423187
    39   5 B       49   5 B                                       1.5474691
    34   5 B       50   5 B                                       1.7500295
    39   5 B       50   5 B                                       1.5331901
    40   5 B       50   5 B                                       1.5459166
    28   5 B       51   5 B                                       1.6191765
    34   5 B       51   5 B                                       1.6736398
    35   5 B       51   5 B                                       1.5622566
    41   5 B       52   5 B                                       1.5594681
    42   5 B       52   5 B                                       1.5296932
    13   5 B       53   5 B                                       1.7318771
    19   5 B       53   5 B                                       1.6464121
    20   5 B       53   5 B                                       1.7295121
    25   5 B       53   5 B                                       1.6121041
    31   5 B       53   5 B                                       1.6649545
     1   5 B       54   1 H                                       1.1747518
    19   5 B       55   1 H                                       1.1802173
    25   5 B       56   1 H                                       1.1775532
    37   5 B       57   1 H                                       1.1711377 (min)
     6   5 B       58   1 H                                       1.1778555
    18   5 B       59   1 H                                       1.1753111
    30   5 B       60   1 H                                       1.1847127

 * 2 distinct bonds (by element types)

   Z      Z             #   av. dist./Å        max./Å        min./Å
   1 H    5 B           7     1.1773628     1.1847127     1.1711377
   5 B    5 B          82     1.6282428     1.7695368     1.4986455


optimized geometry written to: xtbopt.xyz


           -------------------------------------------------
          | TOTAL ENERGY              -67.658967718609 Eh   |
          | GRADIENT NORM               0.000589646527 Eh/α |
          | HOMO-LUMO GAP               0.454963035399 eV   |
           -------------------------------------------------

------------------------------------------------------------------------
 * finished run on 2026/08/31 at 21:14:47.953     
------------------------------------------------------------------------
 total:
 * wall-time:     0 d,  0 h,  0 min, 32.351 sec
 *  cpu-time:     0 d,  0 h,  5 min, 15.906 sec
 * ratio c/w:     9.765 speedup
 SCF:
 * wall-time:     0 d,  0 h,  0 min,  0.712 sec
 *  cpu-time:     0 d,  0 h,  0 min,  7.078 sec
 * ratio c/w:     9.941 speedup
 ANC optimizer:
 * wall-time:     0 d,  0 h,  0 min, 31.591 sec
 *  cpu-time:     0 d,  0 h,  5 min,  8.391 sec
 * ratio c/w:     9.762 speedup

normal termination of xtb
