      -----------------------------------------------------------      
     |                   =====================                   |     
     |                           x T B                           |     
     |                   =====================                   |     
     |                         S. Grimme                         |     
     |          Mulliken Center for Theoretical Chemistry        |     
     |                    University of Bonn                     |     
      -----------------------------------------------------------      

   * xtb version 6.7.1pre (5071a88) compiled by 'Marcel@Raven' on 2024-07-23

   xtb is free software: you can redistribute it and/or modify it under
   the terms of the GNU Lesser General Public License as published by
   the Free Software Foundation, either version 3 of the License, or
   (at your option) any later version.
   
   xtb is distributed in the hope that it will be useful,
   but WITHOUT ANY WARRANTY; without even the implied warranty of
   MERCHANTABILITY or FITNESS FOR A PARTICULAR PURPOSE.  See the
   GNU Lesser General Public License for more details.
   
   Cite this work as:
   * C. Bannwarth, E. Caldeweyher, S. Ehlert, A. Hansen, P. Pracht,
     J. Seibert, S. Spicher, S. Grimme, WIREs Comput. Mol. Sci., 2020, 11,
     e01493. DOI: 10.1002/wcms.1493
   
   for GFN2-xTB:
   * C. Bannwarth, S. Ehlert and S. Grimme., J. Chem. Theory Comput., 2019,
     15, 1652-1671. DOI: 10.1021/acs.jctc.8b01176
   for GFN1-xTB:
   * S. Grimme, C. Bannwarth, P. Shushkov, J. Chem. Theory Comput., 2017,
     13, 1989-2009. DOI: 10.1021/acs.jctc.7b00118
   for GFN0-xTB:
   * P. Pracht, E. Caldeweyher, S. Ehlert, S. Grimme, ChemRxiv, 2019, preprint.
     DOI: 10.26434/chemrxiv.8326202.v1
   for GFN-FF:
   * S. Spicher and S. Grimme, Angew. Chem. Int. Ed., 2020, 59, 15665-15673.
     DOI: 10.1002/anie.202004239
   
   for ALPB and GBSA implicit solvation:
   * S. Ehlert, M. Stahn, S. Spicher, S. Grimme, J. Chem. Theory Comput.,
     2021, 17, 4250-4261. DOI: 10.1021/acs.jctc.1c00471
   
   for ddCOSMO and CPCM-X implicit solvation:
   * M. Stahn, S. Ehlert, S. Grimme, J. Phys. Chem. A,
     2023, XX, XXXX-XXXX. DOI: 10.1021/acs.jpca.3c04382
   
   for DFT-D4:
   * E. Caldeweyher, C. Bannwarth and S. Grimme, J. Chem. Phys., 2017,
     147, 034112. DOI: 10.1063/1.4993215
   * E. Caldeweyher, S. Ehlert, A. Hansen, H. Neugebauer, S. Spicher,
     C. Bannwarth and S. Grimme, J. Chem. Phys., 2019, 150, 154122.
     DOI: 10.1063/1.5090222
   * E. Caldeweyher, J.-M. Mewes, S. Ehlert and S. Grimme, Phys. Chem. Chem. Phys.
     2020, 22, 8499-8512. DOI: 10.1039/D0CP00502A
   
   for sTDA-xTB:
   * S. Grimme and C. Bannwarth, J. Chem. Phys., 2016, 145, 054103.
     DOI: 10.1063/1.4959605
   
   in the mass-spec context:
   * V. Asgeirsson, C. Bauer and S. Grimme, Chem. Sci., 2017, 8, 4879.
     DOI: 10.1039/c7sc00601b
   * J. Koopman and S. Grimme, ACS Omega 2019, 4, 12, 15120-15133.
     DOI: 10.1021/acsomega.9b02011
   
   for metadynamics refer to:
   * S. Grimme, J. Chem. Theory Comput., 2019, 155, 2847-2862
     DOI: 10.1021/acs.jctc.9b00143
   
   for SPH calculations refer to:
   * S. Spicher and S. Grimme, J. Chem. Theory Comput., 2021, 17, 1701-1714
     DOI: 10.1021/acs.jctc.0c01306
   
   for ONIOM refer to:
   * C. Plett, A. Katbashev, S. Ehlert, S. Grimme, M. Bursch,
     Phys. Chem. Chem. Phys., 2023, 25, 17860-17868. DOI: 10.1039/D3CP02178E
   
   for DIPRO refer to:
   * J. Kohn, N. Gildemeister, S. Grimme, D. Fazzi, A. Hansen,
     J. Chem. Phys., 2023, just accepted.
   
   for PTB refer to:
   * S. Grimme, M. Mueller, A. Hansen, J. Chem. Phys., 2023, 158, 124111.
     DOI: 10.1063/5.0137838
   
   with help from (in alphabetical order)
   P. Atkinson, C. Bannwarth, F. Bohle, G. Brandenburg, E. Caldeweyher
   M. Checinski, S. Dohm, S. Ehlert, S. Ehrlich, I. Gerasimov, C. Hölzer
   A. Katbashev, J. Kohn, J. Koopman, C. Lavigne, S. Lehtola, F. März, M. Müller,
   F. Musil, H. Neugebauer, J. Pisarek, C. Plett, P. Pracht, F. Pultar,
   J. Seibert, P. Shushkov, S. Spicher, M. Stahn, M. Steiner, T. Strunk,
   J. Stückrath, T. Rose, and J. Unsleber
   
 * started run on 2026/09/01 at 16:59:14.956     
   ID    Z sym.   atoms
    1    5 B      1-45
    2    1 H      46-63

           -------------------------------------------------
          |                Calculation Setup                |
           -------------------------------------------------

          program call               : "c:\Users\Andre\Proyectos doctorado\nano-qsar-ai-papers\kras-pancreatic-gC3N4-ai\tools\xtb\xtb-6.7.1\bin\xtb.exe" "c:\Users\Andre\Proyectos doctorado\borophene-alzheimer-tau-ai\calculations\tau\beta12_B45H18_initial.xyz" --opt normal --gfn 2 --chrg 0 --uhf 0 --iterations 500 --cycles 300 --norestart
          coordinate file            : c:\Users\Andre\Proyectos doctorado\borophene-alzheimer-tau-ai\calculations\tau\beta12_B45H18_initial.xyz
          omp threads                :                    16


molecular fragmentation (1/2 indicates fragments):
121211212112121222222222222222222222222222222122221222222222222
# atoms in fragment 1/2:    11    52
 fragment masses (1/2) :       99.32      405.32
CMA distance (Bohr)    :  14.400
constraining FC (au)   :  0.0500

           -------------------------------------------------
          |                 G F N 2 - x T B                 |
           -------------------------------------------------

        Reference                      10.1021/acs.jctc.8b01176
      * Hamiltonian:
        H0-scaling (s, p, d)           1.850000    2.230000    2.230000
        zeta-weighting                 0.500000
      * Dispersion:
        s8                             2.700000
        a1                             0.520000
        a2                             5.000000
        s9                             5.000000
      * Repulsion:
        kExp                           1.500000    1.000000
        rExp                           1.000000
      * Coulomb:
        alpha                          2.000000
        third order                    shell-resolved
        anisotropic                    true
        a3                             3.000000
        a5                             4.000000
        cn-shift                       1.200000
        cn-exp                         4.000000
        max-rad                        5.000000


          ...................................................
          :                      SETUP                      :
          :.................................................:
          :  # basis functions                 198          :
          :  # atomic orbitals                 198          :
          :  # shells                          108          :
          :  # electrons                       153          :
          :  max. iterations                   500          :
          :  Hamiltonian                  GFN2-xTB          :
          :  restarted?                      false          :
          :  GBSA solvation                  false          :
          :  PC potential                    false          :
          :  electronic temp.          300.0000000     K    :
          :  accuracy                    1.0000000          :
          :  -> integral cutoff          0.2500000E+02      :
          :  -> integral neglect         0.1000000E-07      :
          :  -> SCF convergence          0.1000000E-05 Eh   :
          :  -> wf. convergence          0.1000000E-03 e    :
          :  Broyden damping             0.4000000          :
          :  net charge                          0          :
          :  unpaired electrons                  0          :
          ...................................................

 iter      E             dE          RMSdq      gap      omega  full diag
   1    -64.6951827 -0.646952E+02  0.170E+01    0.12       0.0  T
   2    -57.5858245  0.710936E+01  0.125E+01    0.02       1.0  T
   3     51.6424070  0.109228E+03  0.218E+01    0.02       1.0  T
   4     -1.3865032 -0.530289E+02  0.141E+01    0.16       1.0  T
   5     17.6358142  0.190223E+02  0.151E+01    0.03       1.0  T
   6      7.6868263 -0.994899E+01  0.153E+01    0.06       1.0  T
   7    -50.3220689 -0.580089E+02  0.843E+00    0.27       1.0  T
   8    -56.4638441 -0.614178E+01  0.733E+00    0.16       1.0  T
   9    -58.8956058 -0.243176E+01  0.784E+00    0.16       1.0  T
  10    -62.1346620 -0.323906E+01  0.553E+00    0.08       1.0  T
  11    -62.3355711 -0.200909E+00  0.551E+00    0.01       1.0  T
  12    -63.9758667 -0.164030E+01  0.478E+00    0.06       1.0  T
  13    -64.4406187 -0.464752E+00  0.459E+00    0.11       1.0  T
  14    -64.4491970 -0.857835E-02  0.456E+00    0.12       1.0  T
  15    -64.4893770 -0.401800E-01  0.466E+00    0.06       1.0  T
  16    -64.4629729  0.264042E-01  0.478E+00    0.07       1.0  T
  17    -64.6647098 -0.201737E+00  0.336E+00    0.02       1.0  T
  18    -64.7160427 -0.513330E-01  0.261E+00    0.04       1.0  T
  19    -64.8144543 -0.984115E-01  0.234E+00    0.04       1.0  T
  20    -64.7921877  0.222665E-01  0.233E+00    0.03       1.0  T
  21    -64.7753853  0.168024E-01  0.241E+00    0.03       1.0  T
  22    -64.7879362 -0.125509E-01  0.238E+00    0.03       1.0  T
  23    -64.7223589  0.655773E-01  0.259E+00    0.06       1.0  T
  24    -64.8543927 -0.132034E+00  0.268E+00    0.09       1.0  T
  25    -64.8310345  0.233582E-01  0.390E+00    0.09       1.0  T
  26    -64.8149257  0.161088E-01  0.321E+00    0.06       1.0  T
  27    -64.3741036  0.440822E+00  0.311E+00    0.10       1.0  T
  28    -64.7966330 -0.422529E+00  0.284E+00    0.05       1.0  T
  29    -64.8228665 -0.262335E-01  0.194E+00    0.09       1.0  T
  30    -64.7877322  0.351343E-01  0.209E+00    0.05       1.0  T
  31    -64.8952845 -0.107552E+00  0.174E+00    0.08       1.0  T
  32    -64.9644760 -0.691915E-01  0.140E+00    0.12       1.0  T
  33    -65.0836260 -0.119150E+00  0.870E-01    0.14       1.0  T
  34    -65.1075055 -0.238796E-01  0.954E-01    0.12       1.0  T
  35    -65.1142494 -0.674384E-02  0.967E-01    0.15       1.0  T
  36    -65.1050498  0.919953E-02  0.910E-01    0.15       1.0  T
  37    -65.0935455  0.115043E-01  0.966E-01    0.16       1.0  T
  38    -65.0560581  0.374874E-01  0.113E+00    0.18       1.0  T
  39    -65.1134768 -0.574187E-01  0.724E-01    0.14       1.0  T
  40    -65.1334417 -0.199650E-01  0.662E-01    0.11       1.0  T
  41    -65.1307989  0.264287E-02  0.679E-01    0.11       1.0  T
  42    -65.1320554 -0.125655E-02  0.653E-01    0.11       1.0  T
  43    -65.1427599 -0.107045E-01  0.442E-01    0.10       1.0  T
  44    -65.1467909 -0.403096E-02  0.342E-01    0.10       1.0  T
  45    -65.1540173 -0.722636E-02  0.206E-01    0.09       1.0  T
  46    -65.1555815 -0.156419E-02  0.195E-01    0.09       1.0  T
  47    -65.1554559  0.125528E-03  0.196E-01    0.09       1.0  T
  48    -65.1566104 -0.115445E-02  0.161E-01    0.09       1.0  T
  49    -65.1570221 -0.411721E-03  0.141E-01    0.09       1.0  T
  50    -65.1569797  0.424000E-04  0.133E-01    0.09       1.0  T
  51    -65.1574745 -0.494744E-03  0.114E-01    0.09       1.0  T
  52    -65.1576699 -0.195416E-03  0.889E-02    0.09       1.0  T
  53    -65.1581402 -0.470300E-03  0.676E-02    0.09       1.0  T
  54    -65.1582269 -0.867454E-04  0.543E-02    0.09       1.0  T
  55    -65.1582991 -0.722143E-04  0.367E-02    0.09       1.0  T
  56    -65.1583164 -0.172504E-04  0.296E-02    0.09       1.0  T
  57    -65.1583229 -0.650715E-05  0.278E-02    0.09       1.0  T
  58    -65.1583363 -0.133842E-04  0.236E-02    0.09       1.0  T
  59    -65.1583363 -0.567685E-07  0.228E-02    0.09       1.0  T
  60    -65.1583367 -0.400980E-06  0.219E-02    0.09       1.0  T
  61    -65.1583389 -0.218056E-05  0.208E-02    0.09       1.0  T
  62    -65.1583401 -0.115378E-05  0.199E-02    0.09       1.0  T
  63    -65.1583492 -0.917850E-05  0.155E-02    0.09       1.0  T
  64    -65.1583548 -0.553483E-05  0.118E-02    0.09       1.1  T
  65    -65.1583594 -0.458541E-05  0.747E-03    0.09       1.7  T
  66    -65.1583596 -0.253461E-06  0.700E-03    0.09       1.8  T
  67    -65.1583614 -0.173981E-05  0.385E-03    0.09       3.3  T
  68    -65.1583615 -0.159814E-06  0.358E-03    0.09       3.5  T
  69    -65.1583618 -0.335275E-06  0.252E-03    0.09       5.0  T
  70    -65.1583620 -0.183735E-06  0.167E-03    0.09       7.5  T
  71    -65.1583621 -0.773722E-07  0.108E-03    0.09      11.7  T
  72    -65.1583621 -0.420192E-07  0.680E-04    0.09      18.5  T
  73    -65.1583622 -0.779650E-09  0.705E-04    0.09      17.9  T

   *** convergence criteria satisfied after 73 iterations ***

         #    Occupation            Energy/Eh            Energy/eV
      -------------------------------------------------------------
         1        2.0000           -0.4622671             -12.5789
       ...           ...                  ...                  ...
        71        2.0000           -0.2376280              -6.4662
        72        2.0000           -0.2370485              -6.4504
        73        1.9999           -0.2359132              -6.4195
        74        1.9995           -0.2337972              -6.3619
        75        1.9993           -0.2335226              -6.3545
        76        1.8617           -0.2283977              -6.2150
        77        0.9848           -0.2248309              -6.1180 (HOMO)
        78        0.1514           -0.2214848              -6.0269 (LUMO)
        79        0.0034           -0.2177480              -5.9252
        80                         -0.2056315              -5.5955
        81                         -0.2013534              -5.4791
        82                         -0.2009351              -5.4677
       ...                                ...                  ...
       198                         16.0516000             436.7863
      -------------------------------------------------------------
                  HL-Gap            0.0033462 Eh            0.0911 eV
             Fermi-level           -0.2248914 Eh           -6.1196 eV

 SCC (total)                   0 d,  0 h,  0 min,  6.052 sec
 SCC setup                      ...        0 min,  0.010 sec (  0.165%)
 Dispersion                     ...        0 min,  0.084 sec (  1.388%)
 classical contributions        ...        0 min,  0.032 sec (  0.529%)
 integral evaluation            ...        0 min,  0.069 sec (  1.140%)
 iterations                     ...        0 min,  5.573 sec ( 92.085%)
 molecular gradient             ...        0 min,  0.205 sec (  3.387%)
 printout                       ...        0 min,  0.079 sec (  1.305%)

         :::::::::::::::::::::::::::::::::::::::::::::::::::::
         ::                     SUMMARY                     ::
         :::::::::::::::::::::::::::::::::::::::::::::::::::::
         :: total energy             -34.135303723522 Eh    ::
         :: gradient norm             11.393596041717 Eh/a0 ::
         :: HOMO-LUMO gap              0.091053938118 eV    ::
         ::.................................................::
         :: SCC energy               -65.158714035476 Eh    ::
         :: -> isotropic ES            0.065453099771 Eh    ::
         :: -> anisotropic ES          0.021550522067 Eh    ::
         :: -> anisotropic XC         -0.084843094991 Eh    ::
         :: -> dispersion             -0.079713856109 Eh    ::
         :: repulsion energy          31.023410311955 Eh    ::
         :: add. restraining           0.000000000000 Eh    ::
         :: total charge               0.000000000002 e     ::
         :::::::::::::::::::::::::::::::::::::::::::::::::::::

      ----------------------------------------------------------- 
     |                   =====================                   |
     |                        A N C O P T                        |
     |                   =====================                   |
     |               Approximate Normal Coordinate               |
     |                Rational Function Optimizer                |
      ----------------------------------------------------------- 
      ----------------------------------------------------------- 
     |                   =====================                   |
     |                        A N C O P T                        |
     |                   =====================                   |
     |               Approximate Normal Coordinate               |
     |                Rational Function Optimizer                |
      ----------------------------------------------------------- 

          ...................................................
          :                      SETUP                      :
          :.................................................:
          :   optimization level            normal          :
          :   max. optcycles                   300          :
          :   ANC micro-cycles                  20          :
          :   degrees of freedom               183          :
          :.................................................:
          :   RF solver                   davidson          :
          :   write xtbopt.log                true          :
          :   linear?                        false          :
          :   energy convergence         0.5000000E-05 Eh   :
          :   grad. convergence          0.1000000E-02 Eh/α :
          :   maxmium RF displ.          1.0000000          :
          :   Hlow (freq-cutoff)         0.1000000E-01      :
          :   Hmax (freq-cutoff)         5.0000000          :
          :   S6 in model hess.         20.0000000          :
          ...................................................

generating ANC from exact Hessian ...
Using Lindh-Hessian (1995)
 Shifting diagonal of input Hessian by   1.019029078747756E-002
 Lowest  eigenvalues of input Hessian
    0.010000    0.010077    0.010123    0.010149    0.010171    0.000000
    0.000000    0.000000    0.000000    0.000000    0.000000    0.010219
    0.010571    0.010596    0.010881    0.010964    0.011036    0.011137
 Highest eigenvalues
   13.056453   13.061603   13.061608   13.064282   13.077226   13.077262
 

........................................................................
.............................. CYCLE    1 ..............................
........................................................................

 iter      E             dE          RMSdq      gap      omega  full diag
   1    -65.1583622 -0.651584E+02  0.600E-04    0.09       0.0  T
   2    -65.1583573  0.485838E-05  0.694E-03    0.09       1.8  T
   3    -65.1583619 -0.459112E-05  0.172E-03    0.09       7.3  T
   4    -65.1583621 -0.183555E-06  0.113E-03    0.09      11.1  T
   5    -65.1583621 -0.247760E-07  0.946E-04    0.09      13.3  T
   6    -65.1583620  0.523032E-07  0.103E-03    0.09      12.3  T
   7    -65.1583621 -0.857895E-07  0.556E-04    0.09      22.7  T
     SCC iter.                  ...        0 min,  0.808 sec
     gradient                   ...        0 min,  0.221 sec
 * total energy  :   -34.1353037 Eh     change        0.1908903E-07 Eh
   gradient norm :    11.3935985 Eh/α   predicted     0.0000000E+00 (-100.00%)
   displ. norm   :     0.8952027 α      lambda       -0.1011711E+02
   maximum displ.:     0.3001699 α      in ANC's #144, #111, #135, ...

........................................................................
.............................. CYCLE    2 ..............................
........................................................................

 iter      E             dE          RMSdq      gap      omega  full diag
   1    -64.8339040 -0.648339E+02  0.244E+00    0.10       0.0  T
   2    -64.7132332  0.120671E+00  0.180E+00    0.10       1.0  T
   3    -59.7245063  0.498873E+01  0.510E+00    0.09       1.0  T
   4    -56.1389485  0.358556E+01  0.723E+00    0.15       1.0  T
   5    -64.4260740 -0.828713E+01  0.164E+00    0.18       1.0  T
   6    -64.3765946  0.494795E-01  0.190E+00    0.11       1.0  T
   7    -64.6750403 -0.298446E+00  0.129E+00    0.05       1.0  T
   8    -64.7339146 -0.588743E-01  0.950E-01    0.14       1.0  T
   9    -64.8044857 -0.705711E-01  0.830E-01    0.11       1.0  T
  10    -64.8364888 -0.320032E-01  0.569E-01    0.10       1.0  T
  11    -64.8421869 -0.569805E-02  0.421E-01    0.10       1.0  T
  12    -64.8466079 -0.442103E-02  0.365E-01    0.11       1.0  T
  13    -64.8491701 -0.256221E-02  0.341E-01    0.11       1.0  T
  14    -64.8497540 -0.583814E-03  0.319E-01    0.11       1.0  T
  15    -64.8527630 -0.300907E-02  0.265E-01    0.12       1.0  T
  16    -64.8508256  0.193747E-02  0.330E-01    0.12       1.0  T
  17    -64.8498099  0.101568E-02  0.341E-01    0.12       1.0  T
  18    -64.8501631 -0.353170E-03  0.330E-01    0.12       1.0  T
  19    -64.8505325 -0.369412E-03  0.318E-01    0.12       1.0  T
  20    -64.8539776 -0.344511E-02  0.179E-01    0.11       1.0  T
  21    -64.8550257 -0.104808E-02  0.885E-02    0.11       1.0  T
  22    -64.8549623  0.633944E-04  0.815E-02    0.11       1.0  T
  23    -64.8548503  0.111982E-03  0.806E-02    0.11       1.0  T
  24    -64.8551138 -0.263502E-03  0.668E-02    0.11       1.0  T
  25    -64.8551705 -0.566830E-04  0.596E-02    0.11       1.0  T
  26    -64.8551652  0.526909E-05  0.589E-02    0.11       1.0  T
  27    -64.8551762 -0.109804E-04  0.546E-02    0.11       1.0  T
  28    -64.8551682  0.792508E-05  0.473E-02    0.11       1.0  T
  29    -64.8551553  0.129323E-04  0.463E-02    0.11       1.0  T
  30    -64.8551969 -0.415945E-04  0.409E-02    0.11       1.0  T
  31    -64.8552191 -0.222256E-04  0.373E-02    0.11       1.0  T
  32    -64.8552280 -0.886144E-05  0.358E-02    0.11       1.0  T
  33    -64.8552402 -0.122146E-04  0.334E-02    0.11       1.0  T
  34    -64.8552658 -0.256140E-04  0.256E-02    0.11       1.0  T
  35    -64.8552749 -0.907734E-05  0.201E-02    0.11       1.0  T
  36    -64.8552830 -0.812957E-05  0.126E-02    0.11       1.0  T
  37    -64.8552869 -0.386940E-05  0.673E-03    0.11       1.9  T
  38    -64.8552879 -0.969026E-06  0.372E-03    0.11       3.4  T
  39    -64.8552883 -0.439728E-06  0.157E-03    0.11       8.0  T
  40    -64.8552884 -0.888266E-07  0.173E-04    0.11      72.6  T
  41    -64.8552884  0.160765E-08  0.319E-04    0.11      39.5  T
     SCC iter.                  ...        0 min,  2.315 sec
     gradient                   ...        0 min,  0.126 sec
 * total energy  :   -40.3910711 Eh     change       -0.6255767E+01 Eh
   gradient norm :     5.5572813 Eh/α   predicted    -0.9112855E+01 (  45.67%)
   displ. norm   :     0.9291344 α      lambda       -0.5099673E+01
   maximum displ.:     0.4443772 α      in ANC's #52, #75, #73, ...

........................................................................
.............................. CYCLE    3 ..............................
........................................................................

 iter      E             dE          RMSdq      gap      omega  full diag
   1    -64.3557437 -0.643557E+02  0.224E+00    0.01       0.0  T
   2    -54.6440137  0.971173E+01  0.998E+00    0.11       1.0  T
   3    -62.4522684 -0.780825E+01  0.538E+00    0.24       1.0  T
   4    -61.3903704  0.106190E+01  0.599E+00    0.03       1.0  T
   5    -60.3028089  0.108756E+01  0.483E+00    0.01       1.0  T
   6    -64.0757211 -0.377291E+01  0.217E+00    0.01       1.0  T
   7    -64.5050000 -0.429279E+00  0.142E+00    0.03       1.0  T
   8    -64.2798292  0.225171E+00  0.171E+00    0.07       1.0  T
   9    -63.6776069  0.602222E+00  0.217E+00    0.04       1.0  T
  10    -64.6990078 -0.102140E+01  0.950E-01    0.09       1.0  T
  11    -64.6863941  0.126138E-01  0.897E-01    0.00       1.0  T
  12    -64.6171203  0.692738E-01  0.104E+00    0.05       1.0  T
  13    -64.6475738 -0.304535E-01  0.885E-01    0.03       1.0  T
  14    -64.6647480 -0.171743E-01  0.743E-01    0.01       1.0  T
  15    -64.6948953 -0.301472E-01  0.614E-01    0.02       1.0  T
  16    -64.7440702 -0.491750E-01  0.487E-01    0.06       1.0  T
  17    -64.7564544 -0.123842E-01  0.467E-01    0.06       1.0  T
  18    -64.7549952  0.145924E-02  0.545E-01    0.04       1.0  T
  19    -64.7581655 -0.317028E-02  0.516E-01    0.05       1.0  T
  20    -64.7601141 -0.194863E-02  0.492E-01    0.05       1.0  T
  21    -64.7603874 -0.273278E-03  0.471E-01    0.06       1.0  T
  22    -64.7588387  0.154863E-02  0.476E-01    0.05       1.0  T
  23    -64.7603442 -0.150546E-02  0.439E-01    0.05       1.0  T
  24    -64.7717841 -0.114399E-01  0.218E-01    0.05       1.0  T
  25    -64.7714134  0.370733E-03  0.212E-01    0.04       1.0  T
  26    -64.7712484  0.164946E-03  0.209E-01    0.04       1.0  T
  27    -64.7724333 -0.118485E-02  0.186E-01    0.04       1.0  T
  28    -64.7737212 -0.128797E-02  0.152E-01    0.04       1.0  T
  29    -64.7752446 -0.152341E-02  0.952E-02    0.04       1.0  T
  30    -64.7758459 -0.601292E-03  0.597E-02    0.03       1.0  T
  31    -64.7755980  0.247909E-03  0.697E-02    0.03       1.0  T
  32    -64.7751885  0.409554E-03  0.913E-02    0.03       1.0  T
  33    -64.7751672  0.212578E-04  0.102E-01    0.03       1.0  T
  34    -64.7756797 -0.512493E-03  0.761E-02    0.03       1.0  T
  35    -64.7759477 -0.268026E-03  0.616E-02    0.03       1.0  T
  36    -64.7761235 -0.175778E-03  0.452E-02    0.03       1.0  T
  37    -64.7761979 -0.744386E-04  0.330E-02    0.03       1.0  T
  38    -64.7762261 -0.281284E-04  0.261E-02    0.03       1.0  T
  39    -64.7762222  0.390024E-05  0.255E-02    0.03       1.0  T
  40    -64.7762268 -0.464996E-05  0.241E-02    0.03       1.0  T
  41    -64.7762340 -0.714237E-05  0.210E-02    0.03       1.0  T
  42    -64.7762424 -0.844041E-05  0.181E-02    0.03       1.0  T
  43    -64.7762466 -0.422201E-05  0.163E-02    0.03       1.0  T
  44    -64.7762517 -0.512493E-05  0.140E-02    0.03       1.0  T
  45    -64.7762527 -0.987474E-06  0.130E-02    0.03       1.0  T
  46    -64.7762528 -0.567867E-07  0.127E-02    0.03       1.0  T
  47    -64.7762534 -0.565166E-06  0.118E-02    0.03       1.1  T
  48    -64.7762553 -0.199199E-05  0.102E-02    0.03       1.2  T
  49    -64.7762571 -0.174377E-05  0.855E-03    0.03       1.5  T
  50    -64.7762575 -0.429394E-06  0.742E-03    0.03       1.7  T
  51    -64.7762589 -0.136642E-05  0.479E-03    0.03       2.6  T
  52    -64.7762594 -0.552094E-06  0.241E-03    0.03       5.2  T
  53    -64.7762595 -0.686313E-07  0.139E-03    0.03       9.1  T
  54    -64.7762596 -0.884133E-07  0.464E-04    0.03      27.1  T
  55    -64.7762596 -0.442932E-08  0.390E-04    0.03      32.3  T
     SCC iter.                  ...        0 min,  4.242 sec
     gradient                   ...        0 min,  0.203 sec
 * total energy  :   -44.2868478 Eh     change       -0.3895777E+01 Eh
   gradient norm :     4.2339500 Eh/α   predicted    -0.4751089E+01 (  21.95%)
   displ. norm   :     0.9178085 α      lambda       -0.3637124E+01
   maximum displ.:     0.5314047 α      in ANC's #52, #75, #50, ...

........................................................................
.............................. CYCLE    4 ..............................
........................................................................

 iter      E             dE          RMSdq      gap      omega  full diag
   1    -64.3833507 -0.643834E+02  0.177E+00    0.02       0.0  T
   2    -52.2047692  0.121786E+02  0.946E+00    0.00       1.0  T
   3    -64.0943477 -0.118896E+02  0.236E+00    0.05       1.0  T
   4    -61.1801415  0.291421E+01  0.343E+00    0.06       1.0  T
   5    -64.0414063 -0.286126E+01  0.195E+00    0.20       1.0  T
   6    -64.3578397 -0.316433E+00  0.146E+00    0.03       1.0  T
   7    -64.3813371 -0.234974E-01  0.123E+00    0.06       1.0  T
   8    -64.2701243  0.111213E+00  0.153E+00    0.04       1.0  T
   9    -64.3083070 -0.381827E-01  0.133E+00    0.08       1.0  T
  10    -64.6096007 -0.301294E+00  0.788E-01    0.05       1.0  T
  11    -64.5039305  0.105670E+00  0.841E-01    0.05       1.0  T
  12    -64.5659923 -0.620618E-01  0.841E-01    0.05       1.0  T
  13    -64.6067875 -0.407952E-01  0.735E-01    0.04       1.0  T
  14    -64.6248927 -0.181052E-01  0.658E-01    0.05       1.0  T
  15    -64.6285422 -0.364953E-02  0.632E-01    0.05       1.0  T
  16    -64.6276877  0.854503E-03  0.623E-01    0.04       1.0  T
  17    -64.6245795  0.310823E-02  0.637E-01    0.04       1.0  T
  18    -64.6374245 -0.128450E-01  0.582E-01    0.04       1.0  T
  19    -64.6433886 -0.596410E-02  0.555E-01    0.04       1.0  T
  20    -64.6486501 -0.526150E-02  0.524E-01    0.04       1.0  T
  21    -64.6329262  0.157239E-01  0.565E-01    0.04       1.0  T
  22    -64.6320780  0.848202E-03  0.547E-01    0.04       1.0  T
  23    -64.6349100 -0.283199E-02  0.531E-01    0.04       1.0  T
  24    -64.6376010 -0.269104E-02  0.518E-01    0.04       1.0  T
  25    -64.6497537 -0.121527E-01  0.457E-01    0.04       1.0  T
  26    -64.6580807 -0.832695E-02  0.404E-01    0.04       1.0  T
  27    -64.6694602 -0.113795E-01  0.323E-01    0.04       1.0  T
  28    -64.6742713 -0.481107E-02  0.285E-01    0.04       1.0  T
  29    -64.6751005 -0.829240E-03  0.278E-01    0.04       1.0  T
  30    -64.6846493 -0.954879E-02  0.175E-01    0.04       1.0  T
  31    -64.6889538 -0.430453E-02  0.732E-02    0.04       1.0  T
  32    -64.6886996  0.254259E-03  0.865E-02    0.04       1.0  T
  33    -64.6878364  0.863134E-03  0.108E-01    0.04       1.0  T
  34    -64.6885508 -0.714344E-03  0.824E-02    0.04       1.0  T
  35    -64.6890038 -0.453006E-03  0.622E-02    0.04       1.0  T
  36    -64.6891532 -0.149363E-03  0.507E-02    0.04       1.0  T
  37    -64.6891136  0.395257E-04  0.486E-02    0.04       1.0  T
  38    -64.6891512 -0.375720E-04  0.424E-02    0.04       1.0  T
  39    -64.6893472 -0.195957E-03  0.147E-02    0.04       1.0  T
  40    -64.6893334  0.137322E-04  0.135E-02    0.04       1.0  T
  41    -64.6893393 -0.591748E-05  0.103E-02    0.04       1.2  T
  42    -64.6893482 -0.890447E-05  0.662E-03    0.04       1.9  T
  43    -64.6893473  0.898885E-06  0.573E-03    0.04       2.2  T
  44    -64.6893502 -0.283637E-05  0.267E-03    0.04       4.7  T
  45    -64.6893481  0.212073E-05  0.374E-03    0.04       3.4  T
  46    -64.6893512 -0.311401E-05  0.196E-03    0.04       6.4  T
  47    -64.6893512 -0.113945E-07  0.180E-03    0.04       7.0  T
  48    -64.6893515 -0.341919E-06  0.703E-04    0.04      17.9  T
  49    -64.6893516 -0.516887E-07  0.301E-04    0.04      41.9  T
     SCC iter.                  ...        0 min,  7.497 sec
     gradient                   ...        0 min,  0.314 sec
 * total energy  :   -47.1150011 Eh     change       -0.2828153E+01 Eh
   gradient norm :     3.1713838 Eh/α   predicted    -0.3350468E+01 (  18.47%)
   displ. norm   :     0.9021111 α      lambda       -0.2600933E+01
   maximum displ.:     0.6291552 α      in ANC's #52, #50, #47, ...

........................................................................
.............................. CYCLE    5 ..............................
........................................................................

 iter      E             dE          RMSdq      gap      omega  full diag
   1    -64.2992069 -0.642992E+02  0.164E+00    0.01       0.0  T
   2    -45.5025857  0.187966E+02  0.931E+00    0.07       1.0  T
   3    -62.5306791 -0.170281E+02  0.444E+00    0.02       1.0  T
   4    -57.8130166  0.471766E+01  0.557E+00    0.09       1.0  T
   5    -61.4516381 -0.363862E+01  0.339E+00    0.01       1.0  T
   6    -63.7624819 -0.231084E+01  0.235E+00    0.04       1.0  T
   7    -63.6750451  0.874368E-01  0.238E+00    0.10       1.0  T
   8    -63.2501462  0.424899E+00  0.221E+00    0.05       1.0  T
   9    -64.2242951 -0.974149E+00  0.122E+00    0.07       1.0  T
  10    -64.2049905  0.193046E-01  0.133E+00    0.06       1.0  T
  11    -64.3330056 -0.128015E+00  0.120E+00    0.07       1.0  T
  12    -63.9605588  0.372447E+00  0.131E+00    0.11       1.0  T
  13    -64.5452431 -0.584684E+00  0.521E-01    0.01       1.0  T
  14    -64.5367180  0.852515E-02  0.507E-01    0.03       1.0  T
  15    -64.5675567 -0.308388E-01  0.425E-01    0.01       1.0  T
  16    -64.5381436  0.294132E-01  0.514E-01    0.01       1.0  T
  17    -64.5158089  0.223347E-01  0.513E-01    0.03       1.0  T
  18    -64.5269949 -0.111860E-01  0.447E-01    0.03       1.0  T
  19    -64.5711999 -0.442050E-01  0.224E-01    0.02       1.0  T
  20    -64.5802540 -0.905415E-02  0.157E-01    0.02       1.0  T
  21    -64.5801320  0.122069E-03  0.148E-01    0.02       1.0  T
  22    -64.5799832  0.148778E-03  0.140E-01    0.02       1.0  T
  23    -64.5806103 -0.627132E-03  0.115E-01    0.02       1.0  T
  24    -64.5819176 -0.130727E-02  0.880E-02    0.02       1.0  T
  25    -64.5817811  0.136525E-03  0.812E-02    0.02       1.0  T
  26    -64.5818701 -0.890091E-04  0.691E-02    0.02       1.0  T
  27    -64.5824793 -0.609276E-03  0.486E-02    0.02       1.0  T
  28    -64.5825592 -0.799052E-04  0.458E-02    0.02       1.0  T
  29    -64.5826135 -0.542148E-04  0.389E-02    0.02       1.0  T
  30    -64.5824902  0.123265E-03  0.398E-02    0.02       1.0  T
  31    -64.5825091 -0.189076E-04  0.353E-02    0.02       1.0  T
  32    -64.5826107 -0.101559E-03  0.268E-02    0.02       1.0  T
  33    -64.5826317 -0.210628E-04  0.226E-02    0.02       1.0  T
  34    -64.5826504 -0.187145E-04  0.216E-02    0.02       1.0  T
  35    -64.5826503  0.113371E-06  0.203E-02    0.02       1.0  T
  36    -64.5826644 -0.140296E-04  0.188E-02    0.02       1.0  T
  37    -64.5826644 -0.372633E-07  0.183E-02    0.02       1.0  T
  38    -64.5826681 -0.370134E-05  0.176E-02    0.02       1.0  T
  39    -64.5826688 -0.751743E-06  0.171E-02    0.02       1.0  T
  40    -64.5826715 -0.262828E-05  0.153E-02    0.02       1.0  T
  41    -64.5826727 -0.125253E-05  0.143E-02    0.02       1.0  T
  42    -64.5826727  0.147546E-08  0.135E-02    0.02       1.0  T
  43    -64.5826733 -0.563234E-06  0.124E-02    0.02       1.0  T
  44    -64.5826753 -0.204715E-05  0.108E-02    0.02       1.2  T
  45    -64.5826751  0.187914E-06  0.984E-03    0.02       1.3  T
  46    -64.5826771 -0.195106E-05  0.812E-03    0.02       1.6  T
  47    -64.5826779 -0.849758E-06  0.724E-03    0.02       1.7  T
  48    -64.5826781 -0.103269E-06  0.709E-03    0.02       1.8  T
  49    -64.5826789 -0.874025E-06  0.595E-03    0.02       2.1  T
  50    -64.5826801 -0.114719E-05  0.394E-03    0.02       3.2  T
  51    -64.5826806 -0.502173E-06  0.272E-03    0.02       4.6  T
  52    -64.5826807 -0.136474E-06  0.224E-03    0.02       5.6  T
  53    -64.5826809 -0.152091E-06  0.138E-03    0.02       9.1  T
  54    -64.5826809 -0.272352E-07  0.118E-03    0.02      10.7  T
  55    -64.5826809 -0.417178E-07  0.957E-04    0.02      13.2  T
  56    -64.5826810 -0.416909E-07  0.700E-04    0.02      18.0  T
     SCC iter.                  ...        0 min,  5.436 sec
     gradient                   ...        0 min,  0.196 sec
 * total energy  :   -49.3032109 Eh     change       -0.2188210E+01 Eh
   gradient norm :     2.8047831 Eh/α   predicted    -0.2358794E+01 (   7.80%)
   displ. norm   :     0.9167029 α      lambda       -0.2304840E+01
   maximum displ.:     0.6369116 α      in ANC's #52, #50, #47, ...

........................................................................
.............................. CYCLE    6 ..............................
........................................................................

 iter      E             dE          RMSdq      gap      omega  full diag
   1    -64.3881744 -0.643882E+02  0.979E-01    0.07       0.0  T
   2    -54.2039704  0.101842E+02  0.703E+00    0.10       1.0  T
   3    -63.7699306 -0.956596E+01  0.241E+00    0.06       1.0  T
   4    -63.5682002  0.201730E+00  0.211E+00    0.08       1.0  T
   5    -64.4792240 -0.911024E+00  0.601E-01    0.01       1.0  T
   6    -64.3888897  0.903343E-01  0.851E-01    0.07       1.0  T
   7    -64.3911319 -0.224217E-02  0.597E-01    0.02       1.0  T
   8    -63.5540487  0.837083E+00  0.167E+00    0.11       1.0  T
   9    -64.4327376 -0.878689E+00  0.733E-01    0.04       1.0  T
  10    -64.2748398  0.157898E+00  0.896E-01    0.00       1.0  T
  11    -64.4717890 -0.196949E+00  0.457E-01    0.02       1.0  T
  12    -64.4979744 -0.261853E-01  0.312E-01    0.05       1.0  T
  13    -64.4971611  0.813228E-03  0.319E-01    0.04       1.0  T
  14    -64.4983435 -0.118232E-02  0.306E-01    0.04       1.0  T
  15    -64.4980849  0.258525E-03  0.304E-01    0.04       1.0  T
  16    -64.4987830 -0.698035E-03  0.264E-01    0.04       1.0  T
  17    -64.4970423  0.174066E-02  0.253E-01    0.04       1.0  T
  18    -64.4984993 -0.145700E-02  0.227E-01    0.03       1.0  T
  19    -64.4994846 -0.985251E-03  0.209E-01    0.03       1.0  T
  20    -64.5007080 -0.122346E-02  0.194E-01    0.03       1.0  T
  21    -64.5011309 -0.422835E-03  0.179E-01    0.03       1.0  T
  22    -64.5018917 -0.760865E-03  0.150E-01    0.04       1.0  T
  23    -64.5023346 -0.442862E-03  0.139E-01    0.04       1.0  T
  24    -64.5023520 -0.174229E-04  0.138E-01    0.04       1.0  T
  25    -64.5023412  0.108128E-04  0.137E-01    0.04       1.0  T
  26    -64.5023782 -0.370571E-04  0.125E-01    0.04       1.0  T
  27    -64.5026162 -0.237946E-03  0.105E-01    0.04       1.0  T
  28    -64.5027041 -0.878714E-04  0.960E-02    0.04       1.0  T
  29    -64.5027359 -0.318688E-04  0.874E-02    0.04       1.0  T
  30    -64.5027397 -0.374696E-05  0.743E-02    0.04       1.0  T
  31    -64.5027508 -0.111112E-04  0.730E-02    0.04       1.0  T
  32    -64.5028988 -0.147971E-03  0.451E-02    0.04       1.0  T
  33    -64.5029428 -0.440738E-04  0.365E-02    0.04       1.0  T
  34    -64.5029639 -0.210815E-04  0.287E-02    0.04       1.0  T
  35    -64.5029761 -0.121852E-04  0.145E-02    0.04       1.0  T
  36    -64.5029802 -0.405845E-05  0.445E-03    0.04       2.8  T
  37    -64.5029798  0.330797E-06  0.587E-03    0.04       2.1  T
  38    -64.5029801 -0.296247E-06  0.561E-03    0.04       2.2  T
  39    -64.5029808 -0.704716E-06  0.210E-03    0.04       6.0  T
  40    -64.5029809 -0.570184E-07  0.158E-03    0.04       8.0  T
  41    -64.5029809 -0.544516E-07  0.561E-04    0.04      22.5  T
  42    -64.5029809  0.259089E-07  0.563E-04    0.04      22.4  T
     SCC iter.                  ...        0 min,  4.932 sec
     gradient                   ...        0 min,  0.259 sec
 * total energy  :   -51.2749184 Eh     change       -0.1971707E+01 Eh
   gradient norm :     2.0515244 Eh/α   predicted    -0.2120850E+01 (   7.56%)
   displ. norm   :     0.9176244 α      lambda       -0.1806047E+01
   maximum displ.:     0.6391911 α      in ANC's #52, #50, #47, ...

........................................................................
.............................. CYCLE    7 ..............................
........................................................................

 iter      E             dE          RMSdq      gap      omega  full diag
   1    -64.3934958 -0.643935E+02  0.653E-01    0.00       0.0  T
   2    -61.8846936  0.250880E+01  0.318E+00    0.04       1.0  T
   3    -63.9629211 -0.207823E+01  0.152E+00    0.11       1.0  T
   4    -63.8357117  0.127209E+00  0.158E+00    0.18       1.0  T
   5    -64.3837965 -0.548085E+00  0.602E-01    0.03       1.0  T
   6    -64.3144034  0.693931E-01  0.772E-01    0.00       1.0  T
   7    -64.3641578 -0.497544E-01  0.556E-01    0.00       1.0  T
   8    -64.2647571  0.994007E-01  0.764E-01    0.03       1.0  T
   9    -64.4024710 -0.137714E+00  0.384E-01    0.02       1.0  T
  10    -64.3900261  0.124449E-01  0.340E-01    0.00       1.0  T
  11    -64.4173712 -0.273451E-01  0.235E-01    0.01       1.0  T
  12    -64.4156306  0.174061E-02  0.227E-01    0.01       1.0  T
  13    -64.4161153 -0.484723E-03  0.219E-01    0.01       1.0  T
  14    -64.4170655 -0.950197E-03  0.207E-01    0.00       1.0  T
  15    -64.4176586 -0.593063E-03  0.180E-01    0.01       1.0  T
  16    -64.4185325 -0.873931E-03  0.162E-01    0.00       1.0  T
  17    -64.4219300 -0.339749E-02  0.119E-01    0.00       1.0  T
  18    -64.4224824 -0.552408E-03  0.106E-01    0.00       1.0  T
  19    -64.4230937 -0.611286E-03  0.908E-02    0.00       1.0  T
  20    -64.4234234 -0.329702E-03  0.810E-02    0.00       1.0  T
  21    -64.4236499 -0.226499E-03  0.722E-02    0.00       1.0  T
  22    -64.4237850 -0.135137E-03  0.662E-02    0.00       1.0  T
  23    -64.4239790 -0.194005E-03  0.567E-02    0.00       1.0  T
  24    -64.4242670 -0.287920E-03  0.334E-02    0.01       1.0  T
  25    -64.4243034 -0.364962E-04  0.269E-02    0.01       1.0  T
  26    -64.4243471 -0.436823E-04  0.209E-02    0.01       1.0  T
  27    -64.4243595 -0.123743E-04  0.179E-02    0.01       1.0  T
  28    -64.4243512  0.832912E-05  0.164E-02    0.01       1.0  T
  29    -64.4243493  0.183301E-05  0.155E-02    0.01       1.0  T
  30    -64.4243458  0.352819E-05  0.137E-02    0.01       1.0  T
  31    -64.4243552 -0.937555E-05  0.113E-02    0.01       1.1  T
  32    -64.4243623 -0.715117E-05  0.918E-03    0.01       1.4  T
  33    -64.4243711 -0.879653E-05  0.466E-03    0.01       2.7  T
  34    -64.4243729 -0.180310E-05  0.186E-03    0.01       6.8  T
  35    -64.4243731 -0.130887E-06  0.803E-04    0.01      15.7  T
  36    -64.4243731  0.494147E-08  0.491E-04    0.01      25.6  T
     SCC iter.                  ...        0 min,  7.559 sec
     gradient                   ...        0 min,  0.443 sec
 * total energy  :   -52.9295205 Eh     change       -0.1654602E+01 Eh
   gradient norm :     1.7118117 Eh/α   predicted    -0.1663401E+01 (   0.53%)
   displ. norm   :     0.9160980 α      lambda       -0.1554014E+01
   maximum displ.:     0.6235096 α      in ANC's #52, #50, #47, ...

........................................................................
.............................. CYCLE    8 ..............................
........................................................................

 iter      E             dE          RMSdq      gap      omega  full diag
   1    -64.3033160 -0.643033E+02  0.624E-01    0.06       0.0  T
   2    -63.4707478  0.832568E+00  0.200E+00    0.12       1.0  T
   3    -64.2152103 -0.744462E+00  0.834E-01    0.03       1.0  T
   4    -63.5336291  0.681581E+00  0.164E+00    0.13       1.0  T
   5    -64.1072319 -0.573603E+00  0.102E+00    0.12       1.0  T
   6    -64.2379195 -0.130688E+00  0.645E-01    0.02       1.0  T
   7    -64.2910237 -0.531042E-01  0.371E-01    0.06       1.0  T
   8    -64.2923711 -0.134733E-02  0.348E-01    0.05       1.0  T
   9    -64.3144210 -0.220499E-01  0.204E-01    0.05       1.0  T
  10    -64.3162187 -0.179768E-02  0.183E-01    0.04       1.0  T
  11    -64.3146099  0.160872E-02  0.194E-01    0.05       1.0  T
  12    -64.3155405 -0.930506E-03  0.166E-01    0.05       1.0  T
  13    -64.3157235 -0.183090E-03  0.132E-01    0.05       1.0  T
  14    -64.3156944  0.291466E-04  0.124E-01    0.05       1.0  T
  15    -64.3181206 -0.242620E-02  0.682E-02    0.05       1.0  T
  16    -64.3184394 -0.318806E-03  0.518E-02    0.05       1.0  T
  17    -64.3186047 -0.165272E-03  0.423E-02    0.05       1.0  T
  18    -64.3186774 -0.727635E-04  0.375E-02    0.05       1.0  T
  19    -64.3187046 -0.272118E-04  0.350E-02    0.06       1.0  T
  20    -64.3187228 -0.181108E-04  0.321E-02    0.06       1.0  T
  21    -64.3187651 -0.422978E-04  0.247E-02    0.06       1.0  T
  22    -64.3187901 -0.250524E-04  0.171E-02    0.06       1.0  T
  23    -64.3187890  0.106940E-05  0.149E-02    0.06       1.0  T
  24    -64.3187783  0.107589E-04  0.150E-02    0.06       1.0  T
  25    -64.3187874 -0.907816E-05  0.135E-02    0.06       1.0  T
  26    -64.3188004 -0.130867E-04  0.954E-03    0.06       1.3  T
  27    -64.3188024 -0.193671E-05  0.772E-03    0.06       1.6  T
  28    -64.3188061 -0.371011E-05  0.565E-03    0.06       2.2  T
  29    -64.3188076 -0.146143E-05  0.467E-03    0.06       2.7  T
  30    -64.3188089 -0.130213E-05  0.299E-03    0.06       4.2  T
  31    -64.3188091 -0.270028E-06  0.210E-03    0.06       6.0  T
  32    -64.3188093 -0.157692E-06  0.151E-03    0.06       8.4  T
  33    -64.3188094 -0.116909E-06  0.769E-04    0.06      16.4  T
  34    -64.3188094  0.937646E-09  0.763E-04    0.06      16.5  T
     SCC iter.                  ...        0 min,  5.406 sec
     gradient                   ...        0 min,  0.816 sec
 * total energy  :   -54.3436058 Eh     change       -0.1414085E+01 Eh
   gradient norm :     1.4429921 Eh/α   predicted    -0.1429099E+01 (   1.06%)
   displ. norm   :     0.9188952 α      lambda       -0.1314946E+01
   maximum displ.:     0.6132609 α      in ANC's #52, #47, #50, ...

........................................................................
.............................. CYCLE    9 ..............................
........................................................................

 iter      E             dE          RMSdq      gap      omega  full diag
   1    -64.1639881 -0.641640E+02  0.705E-01    0.01       0.0  T
   2    -62.3127916  0.185120E+01  0.320E+00    0.02       1.0  T
   3    -64.1210536 -0.180826E+01  0.899E-01    0.06       1.0  T
   4    -63.9897064  0.131347E+00  0.965E-01    0.08       1.0  T
   5    -63.8967618  0.929446E-01  0.996E-01    0.01       1.0  T
   6    -63.9851809 -0.884191E-01  0.875E-01    0.04       1.0  T
   7    -64.1816958 -0.196515E+00  0.457E-01    0.07       1.0  T
   8    -64.1912153 -0.951954E-02  0.335E-01    0.07       1.0  T
   9    -64.2104962 -0.192808E-01  0.227E-01    0.06       1.0  T
  10    -64.2050876  0.540860E-02  0.259E-01    0.08       1.0  T
  11    -64.2117875 -0.669997E-02  0.192E-01    0.07       1.0  T
  12    -64.2046511  0.713647E-02  0.234E-01    0.07       1.0  T
  13    -64.2129145 -0.826343E-02  0.151E-01    0.08       1.0  T
  14    -64.2149527 -0.203818E-02  0.930E-02    0.08       1.0  T
  15    -64.2136833  0.126935E-02  0.114E-01    0.08       1.0  T
  16    -64.2162128 -0.252947E-02  0.453E-02    0.08       1.0  T
  17    -64.2164858 -0.273014E-03  0.244E-02    0.08       1.0  T
  18    -64.2164906 -0.474426E-05  0.242E-02    0.08       1.0  T
  19    -64.2165339 -0.433133E-04  0.182E-02    0.08       1.0  T
  20    -64.2165516 -0.177012E-04  0.128E-02    0.08       1.0  T
  21    -64.2165575 -0.596716E-05  0.896E-03    0.08       1.4  T
  22    -64.2165618 -0.426887E-05  0.755E-03    0.08       1.7  T
  23    -64.2165659 -0.407331E-05  0.507E-03    0.08       2.5  T
  24    -64.2165661 -0.162894E-06  0.449E-03    0.08       2.8  T
  25    -64.2165673 -0.128999E-05  0.319E-03    0.08       3.9  T
  26    -64.2165684 -0.102110E-05  0.164E-03    0.08       7.7  T
  27    -64.2165687 -0.319176E-06  0.874E-04    0.08      14.4  T
  28    -64.2165687 -0.186211E-07  0.611E-04    0.08      20.6  T
     SCC iter.                  ...        0 min,  2.528 sec
     gradient                   ...        0 min,  0.820 sec
 * total energy  :   -55.5536531 Eh     change       -0.1210047E+01 Eh
   gradient norm :     1.2258198 Eh/α   predicted    -0.1212622E+01 (   0.21%)
   displ. norm   :     0.9145066 α      lambda       -0.1118410E+01
   maximum displ.:     0.6091213 α      in ANC's #52, #47, #50, ...

........................................................................
.............................. CYCLE   10 ..............................
........................................................................

 iter      E             dE          RMSdq      gap      omega  full diag
   1    -63.7875089 -0.637875E+02  0.144E+00    0.02       0.0  T
   2    -40.5394105  0.232481E+02  0.104E+01    0.08       1.0  T
   3    -63.2655063 -0.227261E+02  0.267E+00    0.23       1.0  T
   4    -61.2465805  0.201893E+01  0.356E+00    0.10       1.0  T
   5    -63.6423278 -0.239575E+01  0.168E+00    0.17       1.0  T
   6    -63.0930309  0.549297E+00  0.182E+00    0.14       1.0  T
   7    -64.0295369 -0.936506E+00  0.738E-01    0.06       1.0  T
   8    -63.4660506  0.563486E+00  0.142E+00    0.02       1.0  T
   9    -63.8653327 -0.399282E+00  0.104E+00    0.02       1.0  T
  10    -63.7939019  0.714308E-01  0.102E+00    0.07       1.0  T
  11    -63.8250964 -0.311945E-01  0.892E-01    0.04       1.0  T
  12    -64.0917444 -0.266648E+00  0.444E-01    0.02       1.0  T
  13    -64.0779515  0.137930E-01  0.363E-01    0.02       1.0  T
  14    -64.0607585  0.171929E-01  0.469E-01    0.03       1.0  T
  15    -64.0956874 -0.349289E-01  0.379E-01    0.04       1.0  T
  16    -64.0913728  0.431465E-02  0.361E-01    0.03       1.0  T
  17    -64.0960572 -0.468442E-02  0.328E-01    0.03       1.0  T
  18    -64.1029627 -0.690553E-02  0.284E-01    0.02       1.0  T
  19    -64.1048824 -0.191963E-02  0.258E-01    0.02       1.0  T
  20    -64.1050621 -0.179787E-03  0.244E-01    0.02       1.0  T
  21    -64.1050963 -0.342061E-04  0.237E-01    0.02       1.0  T
  22    -64.1056502 -0.553831E-03  0.221E-01    0.02       1.0  T
  23    -64.1073021 -0.165193E-02  0.159E-01    0.02       1.0  T
  24    -64.1082401 -0.938027E-03  0.110E-01    0.02       1.0  T
  25    -64.1084012 -0.161088E-03  0.923E-02    0.02       1.0  T
  26    -64.1082405  0.160722E-03  0.835E-02    0.02       1.0  T
  27    -64.1086201 -0.379615E-03  0.683E-02    0.02       1.0  T
  28    -64.1088436 -0.223505E-03  0.586E-02    0.02       1.0  T
  29    -64.1089476 -0.104015E-03  0.572E-02    0.02       1.0  T
  30    -64.1088082  0.139411E-03  0.618E-02    0.02       1.0  T
  31    -64.1086977  0.110515E-03  0.693E-02    0.02       1.0  T
  32    -64.1087884 -0.907202E-04  0.666E-02    0.02       1.0  T
  33    -64.1088207 -0.322937E-04  0.655E-02    0.02       1.0  T
  34    -64.1088389 -0.181939E-04  0.712E-02    0.02       1.0  T
  35    -64.1088657 -0.267863E-04  0.682E-02    0.02       1.0  T
  36    -64.1089431 -0.774022E-04  0.561E-02    0.02       1.0  T
  37    -64.1090298 -0.867013E-04  0.303E-02    0.02       1.0  T
  38    -64.1090598 -0.300099E-04  0.126E-02    0.02       1.0  T
  39    -64.1090660 -0.622634E-05  0.626E-03    0.02       2.0  T
  40    -64.1090670 -0.993345E-06  0.416E-03    0.02       3.0  T
  41    -64.1090673 -0.230858E-06  0.323E-03    0.02       3.9  T
  42    -64.1090675 -0.240572E-06  0.140E-03    0.02       9.0  T
  43    -64.1090672  0.305417E-06  0.248E-03    0.02       5.1  T
  44    -64.1090674 -0.142110E-06  0.192E-03    0.02       6.6  T
  45    -64.1090675 -0.198212E-06  0.105E-03    0.02      12.0  T
  46    -64.1090676 -0.829922E-07  0.672E-04    0.02      18.8  T
  47    -64.1090677 -0.479726E-07  0.384E-04    0.02      32.8  T
     SCC iter.                  ...        0 min,  7.214 sec
     gradient                   ...        0 min,  0.063 sec
 * total energy  :   -56.5903302 Eh     change       -0.1036677E+01 Eh
   gradient norm :     1.0583191 Eh/α   predicted    -0.1026881E+01 (  -0.94%)
   displ. norm   :     0.9211259 α      lambda       -0.9713349E+00
   maximum displ.:     0.6083864 α      in ANC's #52, #47, #50, ...

........................................................................
.............................. CYCLE   11 ..............................
........................................................................

 iter      E             dE          RMSdq      gap      omega  full diag
   1    -63.8491427 -0.638491E+02  0.106E+00    0.14       0.0  T
   2    -51.3074925  0.125417E+02  0.765E+00    0.02       1.0  T
   3    -63.1233576 -0.118159E+02  0.251E+00    0.06       1.0  T
   4    -62.5491443  0.574213E+00  0.213E+00    0.04       1.0  T
   5    -63.7412918 -0.119215E+01  0.111E+00    0.03       1.0  T
   6    -63.4865346  0.254757E+00  0.150E+00    0.01       1.0  T
   7    -63.4905712 -0.403669E-02  0.138E+00    0.04       1.0  T
   8    -63.8389015 -0.348330E+00  0.766E-01    0.05       1.0  T
   9    -63.8489861 -0.100846E-01  0.755E-01    0.06       1.0  T
  10    -63.9165930 -0.676069E-01  0.563E-01    0.06       1.0  T
  11    -63.9914848 -0.748918E-01  0.329E-01    0.03       1.0  T
  12    -63.9914906 -0.579155E-05  0.308E-01    0.04       1.0  T
  13    -63.9917215 -0.230956E-03  0.298E-01    0.04       1.0  T
  14    -63.9841833  0.753820E-02  0.327E-01    0.04       1.0  T
  15    -64.0007441 -0.165607E-01  0.219E-01    0.03       1.0  T
  16    -64.0047027 -0.395862E-02  0.188E-01    0.03       1.0  T
  17    -64.0050013 -0.298594E-03  0.178E-01    0.03       1.0  T
  18    -64.0050583 -0.569735E-04  0.177E-01    0.03       1.0  T
  19    -64.0046938  0.364453E-03  0.188E-01    0.03       1.0  T
  20    -64.0046045  0.892744E-04  0.169E-01    0.03       1.0  T
  21    -64.0061685 -0.156397E-02  0.136E-01    0.03       1.0  T
  22    -64.0068616 -0.693048E-03  0.109E-01    0.03       1.0  T
  23    -64.0071207 -0.259172E-03  0.944E-02    0.03       1.0  T
  24    -64.0070653  0.554333E-04  0.842E-02    0.03       1.0  T
  25    -64.0072154 -0.150135E-03  0.739E-02    0.03       1.0  T
  26    -64.0072525 -0.370730E-04  0.652E-02    0.03       1.0  T
  27    -64.0072419  0.105830E-04  0.603E-02    0.03       1.0  T
  28    -64.0072494 -0.745758E-05  0.486E-02    0.03       1.0  T
  29    -64.0073092 -0.598414E-04  0.425E-02    0.03       1.0  T
  30    -64.0073092  0.503783E-07  0.383E-02    0.03       1.0  T
  31    -64.0073258 -0.166303E-04  0.312E-02    0.03       1.0  T
  32    -64.0073195  0.633512E-05  0.206E-02    0.03       1.0  T
  33    -64.0073285 -0.906495E-05  0.107E-02    0.03       1.2  T
  34    -64.0073364 -0.784133E-05  0.633E-03    0.03       2.0  T
  35    -64.0073391 -0.269044E-05  0.524E-03    0.03       2.4  T
  36    -64.0073426 -0.356466E-05  0.237E-03    0.03       5.3  T
  37    -64.0073435 -0.912793E-06  0.119E-03    0.03      10.5  T
  38    -64.0073439 -0.312494E-06  0.565E-04    0.03      22.3  T
  39    -64.0073439 -0.261458E-07  0.416E-04    0.03      30.3  T
     SCC iter.                  ...        0 min, 16.739 sec
     gradient                   ...        0 min,  0.488 sec
 * total energy  :   -57.4943120 Eh     change       -0.9039818E+00 Eh
   gradient norm :     0.9254529 Eh/α   predicted    -0.8977429E+00 (  -0.69%)
   displ. norm   :     0.9266706 α      lambda       -0.8533415E+00
   maximum displ.:     0.5928004 α      in ANC's #52, #47, #50, ...

........................................................................
.............................. CYCLE   12 ..............................
........................................................................

 iter      E             dE          RMSdq      gap      omega  full diag
   1    -63.8370995 -0.638371E+02  0.880E-01    0.13       0.0  T
   2    -58.9189663  0.491813E+01  0.666E+00    0.03       1.0  T
   3    -63.0981896 -0.417922E+01  0.223E+00    0.04       1.0  T
   4    -63.1734614 -0.752718E-01  0.185E+00    0.04       1.0  T
   5    -63.3835083 -0.210047E+00  0.129E+00    0.01       1.0  T
   6    -63.3904986 -0.699031E-02  0.129E+00    0.20       1.0  T
   7    -63.4768007 -0.863020E-01  0.126E+00    0.05       1.0  T
   8    -63.7565045 -0.279704E+00  0.706E-01    0.23       1.0  T
   9    -63.8070492 -0.505447E-01  0.669E-01    0.20       1.0  T
  10    -63.9038975 -0.968482E-01  0.241E-01    0.13       1.0  T
  11    -63.9087833 -0.488579E-02  0.202E-01    0.14       1.0  T
  12    -63.9092304 -0.447095E-03  0.162E-01    0.14       1.0  T
  13    -63.9085555  0.674838E-03  0.158E-01    0.14       1.0  T
  14    -63.8928253  0.157302E-01  0.276E-01    0.14       1.0  T
  15    -63.9105456 -0.177203E-01  0.877E-02    0.14       1.0  T
  16    -63.9105537 -0.809607E-05  0.805E-02    0.14       1.0  T
  17    -63.9109790 -0.425237E-03  0.706E-02    0.14       1.0  T
  18    -63.9111314 -0.152463E-03  0.668E-02    0.13       1.0  T
  19    -63.9115876 -0.456138E-03  0.510E-02    0.13       1.0  T
  20    -63.9118532 -0.265602E-03  0.367E-02    0.13       1.0  T
  21    -63.9118958 -0.426334E-04  0.317E-02    0.13       1.0  T
  22    -63.9119188 -0.229829E-04  0.279E-02    0.13       1.0  T
  23    -63.9119243 -0.549252E-05  0.235E-02    0.13       1.0  T
  24    -63.9119491 -0.248367E-04  0.201E-02    0.13       1.0  T
  25    -63.9119368  0.123186E-04  0.191E-02    0.13       1.0  T
  26    -63.9119451 -0.833194E-05  0.164E-02    0.13       1.0  T
  27    -63.9119476 -0.247805E-05  0.153E-02    0.13       1.0  T
  28    -63.9119478 -0.136116E-06  0.150E-02    0.13       1.0  T
  29    -63.9119517 -0.395321E-05  0.143E-02    0.13       1.0  T
  30    -63.9119578 -0.604347E-05  0.120E-02    0.13       1.1  T
  31    -63.9119579 -0.187947E-06  0.117E-02    0.13       1.1  T
  32    -63.9119585 -0.553357E-06  0.112E-02    0.13       1.1  T
  33    -63.9119607 -0.221026E-05  0.909E-03    0.13       1.4  T
  34    -63.9119621 -0.143565E-05  0.702E-03    0.13       1.8  T
  35    -63.9119632 -0.109672E-05  0.343E-03    0.13       3.7  T
  36    -63.9119635 -0.238570E-06  0.214E-03    0.13       5.9  T
  37    -63.9119636 -0.842539E-07  0.142E-03    0.13       8.9  T
  38    -63.9119636 -0.576130E-07  0.926E-04    0.13      13.6  T
  39    -63.9119637 -0.346714E-07  0.359E-04    0.13      35.1  T
     SCC iter.                  ...        0 min,  8.339 sec
     gradient                   ...        0 min,  0.009 sec
 * total energy  :   -58.2879578 Eh     change       -0.7936458E+00 Eh
   gradient norm :     0.8109248 Eh/α   predicted    -0.7930606E+00 (  -0.07%)
   displ. norm   :     0.9242734 α      lambda       -0.7409554E+00
   maximum displ.:     0.5834461 α      in ANC's #52, #47, #50, ...

........................................................................
.............................. CYCLE   13 ..............................
........................................................................

 iter      E             dE          RMSdq      gap      omega  full diag
   1    -63.7727085 -0.637727E+02  0.872E-01    0.10       0.0  T
   2    -60.6037493  0.316896E+01  0.496E+00    0.07       1.0  T
   3    -63.4469940 -0.284324E+01  0.147E+00    0.19       1.0  T
   4    -63.2356992  0.211295E+00  0.141E+00    0.05       1.0  T
   5    -63.1074272  0.128272E+00  0.147E+00    0.04       1.0  T
   6    -63.7154397 -0.608013E+00  0.856E-01    0.16       1.0  T
   7    -63.6224052  0.930345E-01  0.833E-01    0.14       1.0  T
   8    -63.7479712 -0.125566E+00  0.514E-01    0.10       1.0  T
   9    -63.8104777 -0.625065E-01  0.246E-01    0.12       1.0  T
  10    -63.8110226 -0.544869E-03  0.250E-01    0.11       1.0  T
  11    -63.8158969 -0.487435E-02  0.193E-01    0.11       1.0  T
  12    -63.8142395  0.165740E-02  0.194E-01    0.11       1.0  T
  13    -63.8096085  0.463104E-02  0.237E-01    0.12       1.0  T
  14    -63.8156556 -0.604716E-02  0.156E-01    0.12       1.0  T
  15    -63.8158223 -0.166666E-03  0.127E-01    0.11       1.0  T
  16    -63.8163424 -0.520119E-03  0.107E-01    0.12       1.0  T
  17    -63.8170802 -0.737812E-03  0.900E-02    0.11       1.0  T
  18    -63.8172597 -0.179456E-03  0.793E-02    0.12       1.0  T
  19    -63.8174430 -0.183361E-03  0.638E-02    0.12       1.0  T
  20    -63.8178482 -0.405166E-03  0.455E-02    0.12       1.0  T
  21    -63.8180404 -0.192226E-03  0.333E-02    0.12       1.0  T
  22    -63.8181148 -0.743872E-04  0.244E-02    0.12       1.0  T
  23    -63.8181103  0.451187E-05  0.247E-02    0.12       1.0  T
  24    -63.8181305 -0.201599E-04  0.219E-02    0.12       1.0  T
  25    -63.8181399 -0.940144E-05  0.201E-02    0.12       1.0  T
  26    -63.8181472 -0.732878E-05  0.177E-02    0.12       1.0  T
  27    -63.8181500 -0.281052E-05  0.158E-02    0.12       1.0  T
  28    -63.8181512 -0.115717E-05  0.153E-02    0.12       1.0  T
  29    -63.8181510  0.201329E-06  0.147E-02    0.12       1.0  T
  30    -63.8181519 -0.948373E-06  0.135E-02    0.12       1.0  T
  31    -63.8181526 -0.642505E-06  0.127E-02    0.12       1.0  T
  32    -63.8181538 -0.122212E-05  0.113E-02    0.12       1.1  T
  33    -63.8181547 -0.962904E-06  0.102E-02    0.12       1.2  T
  34    -63.8181550 -0.307503E-06  0.974E-03    0.12       1.3  T
  35    -63.8181566 -0.151102E-05  0.630E-03    0.12       2.0  T
  36    -63.8181573 -0.758730E-06  0.310E-03    0.12       4.1  T
  37    -63.8181572  0.845212E-07  0.266E-03    0.12       4.7  T
  38    -63.8181574 -0.178821E-06  0.142E-03    0.12       8.9  T
  39    -63.8181575 -0.619592E-07  0.370E-04    0.12      34.1  T
  40    -63.8181575 -0.479467E-09  0.151E-04    0.12      83.2  T
     SCC iter.                  ...        0 min,  4.779 sec
     gradient                   ...        0 min,  0.183 sec
 * total energy  :   -58.9761490 Eh     change       -0.6881912E+00 Eh
   gradient norm :     0.7074315 Eh/α   predicted    -0.6869697E+00 (  -0.18%)
   displ. norm   :     0.9217865 α      lambda       -0.6425525E+00
   maximum displ.:     0.5487565 α      in ANC's #52, #47, #50, ...

........................................................................
.............................. CYCLE   14 ..............................
........................................................................

 iter      E             dE          RMSdq      gap      omega  full diag
   1    -63.6816790 -0.636817E+02  0.100E+00    0.04       0.0  T
   2    -62.0854340  0.159625E+01  0.325E+00    0.04       1.0  T
   3    -63.5795830 -0.149415E+01  0.111E+00    0.09       1.0  T
   4    -62.8363490  0.743234E+00  0.208E+00    0.18       1.0  T
   5    -60.4162288  0.242012E+01  0.321E+00    0.11       1.0  T
   6    -63.5087171 -0.309249E+01  0.999E-01    0.06       1.0  T
   7    -63.6596155 -0.150898E+00  0.606E-01    0.06       1.0  T
   8    -63.6673462 -0.773066E-02  0.507E-01    0.02       1.0  T
   9    -63.6962774 -0.289312E-01  0.376E-01    0.02       1.0  T
  10    -63.7085992 -0.123219E-01  0.269E-01    0.02       1.0  T
  11    -63.7040098  0.458944E-02  0.271E-01    0.03       1.0  T
  12    -63.6932221  0.107877E-01  0.372E-01    0.02       1.0  T
  13    -63.7098290 -0.166070E-01  0.264E-01    0.02       1.0  T
  14    -63.7197618 -0.993278E-02  0.163E-01    0.03       1.0  T
  15    -63.7208991 -0.113730E-02  0.146E-01    0.03       1.0  T
  16    -63.7208951  0.399402E-05  0.143E-01    0.03       1.0  T
  17    -63.7209163 -0.211923E-04  0.141E-01    0.03       1.0  T
  18    -63.7212462 -0.329864E-03  0.126E-01    0.03       1.0  T
  19    -63.7219161 -0.669892E-03  0.894E-02    0.03       1.0  T
  20    -63.7223828 -0.466687E-03  0.734E-02    0.03       1.0  T
  21    -63.7224893 -0.106495E-03  0.660E-02    0.03       1.0  T
  22    -63.7225782 -0.889705E-04  0.578E-02    0.03       1.0  T
  23    -63.7227866 -0.208318E-03  0.379E-02    0.03       1.0  T
  24    -63.7229054 -0.118858E-03  0.160E-02    0.03       1.0  T
  25    -63.7229202 -0.147596E-04  0.955E-03    0.03       1.3  T
  26    -63.7229222 -0.206799E-05  0.570E-03    0.03       2.2  T
  27    -63.7229238 -0.155178E-05  0.313E-03    0.03       4.0  T
  28    -63.7229238 -0.310739E-07  0.241E-03    0.03       5.2  T
  29    -63.7229240 -0.223663E-06  0.209E-03    0.03       6.0  T
  30    -63.7229244 -0.308362E-06  0.144E-03    0.03       8.7  T
  31    -63.7229245 -0.163460E-06  0.824E-04    0.03      15.3  T
  32    -63.7229246 -0.455121E-07  0.557E-04    0.03      22.6  T
     SCC iter.                  ...        0 min, 14.818 sec
     gradient                   ...        0 min,  0.099 sec
 * total energy  :   -59.5730412 Eh     change       -0.5968922E+00 Eh
   gradient norm :     0.6194589 Eh/α   predicted    -0.5942616E+00 (  -0.44%)
   displ. norm   :     0.9171696 α      lambda       -0.5548851E+00
   maximum displ.:     0.5358617 α      in ANC's #52, #47, #45, ...

........................................................................
.............................. CYCLE   15 ..............................
........................................................................

 iter      E             dE          RMSdq      gap      omega  full diag
   1    -63.4581413 -0.634581E+02  0.153E+00    0.03       0.0  T
   2    -53.8031782  0.965496E+01  0.831E+00    0.22       1.0  T
   3    -62.9266320 -0.912345E+01  0.243E+00    0.14       1.0  T
   4    -63.3930150 -0.466383E+00  0.111E+00    0.09       1.0  T
   5    -62.2270135  0.116600E+01  0.218E+00    0.02       1.0  T
   6    -61.8309178  0.396096E+00  0.236E+00    0.13       1.0  T
   7    -63.4967940 -0.166588E+01  0.100E+00    0.12       1.0  T
   8    -63.4347299  0.620642E-01  0.877E-01    0.10       1.0  T
   9    -63.5530956 -0.118366E+00  0.696E-01    0.13       1.0  T
  10    -63.6031894 -0.500938E-01  0.350E-01    0.08       1.0  T
  11    -63.6057018 -0.251245E-02  0.369E-01    0.11       1.0  T
  12    -63.5901779  0.155239E-01  0.422E-01    0.10       1.0  T
  13    -63.6088452 -0.186673E-01  0.294E-01    0.10       1.0  T
  14    -63.6219513 -0.131060E-01  0.147E-01    0.09       1.0  T
  15    -63.6224960 -0.544674E-03  0.116E-01    0.08       1.0  T
  16    -63.6232737 -0.777714E-03  0.106E-01    0.09       1.0  T
  17    -63.6236469 -0.373274E-03  0.847E-02    0.08       1.0  T
  18    -63.6232830  0.363947E-03  0.895E-02    0.09       1.0  T
  19    -63.6240807 -0.797731E-03  0.633E-02    0.09       1.0  T
  20    -63.6245658 -0.485059E-03  0.382E-02    0.09       1.0  T
  21    -63.6246378 -0.719760E-04  0.308E-02    0.09       1.0  T
  22    -63.6246951 -0.573698E-04  0.256E-02    0.09       1.0  T
  23    -63.6247051 -0.100053E-04  0.241E-02    0.09       1.0  T
  24    -63.6247069 -0.173369E-05  0.238E-02    0.09       1.0  T
  25    -63.6247215 -0.146471E-04  0.164E-02    0.09       1.0  T
  26    -63.6247602 -0.387283E-04  0.666E-03    0.09       1.9  T
  27    -63.6247641 -0.383370E-05  0.345E-03    0.09       3.7  T
  28    -63.6247645 -0.432004E-06  0.277E-03    0.09       4.5  T
  29    -63.6247648 -0.325323E-06  0.183E-03    0.09       6.9  T
  30    -63.6247649 -0.743939E-07  0.174E-03    0.09       7.2  T
  31    -63.6247651 -0.216625E-06  0.165E-03    0.09       7.6  T
  32    -63.6247651  0.226598E-08  0.161E-03    0.09       7.8  T
  33    -63.6247652 -0.469512E-07  0.139E-03    0.09       9.0  T
  34    -63.6247652 -0.435999E-07  0.106E-03    0.09      11.9  T
  35    -63.6247652 -0.946399E-08  0.943E-04    0.09      13.4  T
  36    -63.6247652 -0.469045E-08  0.875E-04    0.09      14.4  T
     SCC iter.                  ...        0 min,  5.388 sec
     gradient                   ...        0 min,  0.235 sec
 * total energy  :   -60.0876631 Eh     change       -0.5146218E+00 Eh
   gradient norm :     0.5422848 Eh/α   predicted    -0.5108272E+00 (  -0.74%)
   displ. norm   :     0.9162097 α      lambda       -0.4805596E+00
   maximum displ.:     0.4907735 α      in ANC's #52, #47, #45, ...

........................................................................
.............................. CYCLE   16 ..............................
........................................................................

 iter      E             dE          RMSdq      gap      omega  full diag
   1    -63.3195863 -0.633196E+02  0.164E+00    0.12       0.0  T
   2    -47.0784409  0.162411E+02  0.101E+01    0.04       1.0  T
   3    -61.8289015 -0.147505E+02  0.342E+00    0.08       1.0  T
   4    -57.3687586  0.446014E+01  0.407E+00    0.03       1.0  T
   5    -60.3537829 -0.298502E+01  0.311E+00    0.07       1.0  T
   6    -63.2111046 -0.285732E+01  0.149E+00    0.06       1.0  T
   7    -62.9143458  0.296759E+00  0.179E+00    0.17       1.0  T
   8    -62.9997091 -0.853633E-01  0.148E+00    0.10       1.0  T
   9    -63.1637726 -0.164063E+00  0.142E+00    0.08       1.0  T
  10    -63.4752494 -0.311477E+00  0.660E-01    0.02       1.0  T
  11    -63.4967076 -0.214582E-01  0.569E-01    0.03       1.0  T
  12    -63.5049589 -0.825127E-02  0.518E-01    0.01       1.0  T
  13    -63.5188634 -0.139046E-01  0.413E-01    0.01       1.0  T
  14    -63.5163173  0.254612E-02  0.413E-01    0.03       1.0  T
  15    -63.4953431  0.209742E-01  0.482E-01    0.04       1.0  T
  16    -63.5249867 -0.296436E-01  0.289E-01    0.03       1.0  T
  17    -63.5300812 -0.509442E-02  0.206E-01    0.02       1.0  T
  18    -63.5310523 -0.971185E-03  0.165E-01    0.02       1.0  T
  19    -63.5315001 -0.447797E-03  0.147E-01    0.02       1.0  T
  20    -63.5314363  0.638824E-04  0.142E-01    0.02       1.0  T
  21    -63.5319418 -0.505493E-03  0.121E-01    0.02       1.0  T
  22    -63.5320757 -0.133969E-03  0.110E-01    0.02       1.0  T
  23    -63.5322798 -0.204061E-03  0.964E-02    0.02       1.0  T
  24    -63.5326910 -0.411246E-03  0.737E-02    0.02       1.0  T
  25    -63.5326959 -0.488643E-05  0.721E-02    0.02       1.0  T
  26    -63.5327433 -0.473886E-04  0.626E-02    0.02       1.0  T
  27    -63.5328260 -0.827195E-04  0.555E-02    0.02       1.0  T
  28    -63.5328638 -0.377520E-04  0.507E-02    0.02       1.0  T
  29    -63.5328665 -0.275664E-05  0.485E-02    0.02       1.0  T
  30    -63.5329046 -0.380331E-04  0.477E-02    0.02       1.0  T
  31    -63.5329253 -0.207645E-04  0.405E-02    0.02       1.0  T
  32    -63.5329502 -0.248263E-04  0.338E-02    0.02       1.0  T
  33    -63.5329639 -0.137387E-04  0.251E-02    0.02       1.0  T
  34    -63.5329752 -0.113024E-04  0.190E-02    0.02       1.0  T
  35    -63.5329864 -0.112236E-04  0.160E-02    0.02       1.0  T
  36    -63.5329919 -0.543572E-05  0.107E-02    0.02       1.2  T
  37    -63.5329928 -0.947742E-06  0.878E-03    0.02       1.4  T
  38    -63.5329933 -0.489404E-06  0.756E-03    0.02       1.7  T
  39    -63.5329936 -0.302447E-06  0.643E-03    0.02       2.0  T
  40    -63.5329937 -0.600761E-07  0.464E-03    0.02       2.7  T
  41    -63.5329938 -0.122215E-06  0.383E-03    0.02       3.3  T
  42    -63.5329941 -0.294008E-06  0.313E-03    0.02       4.0  T
  43    -63.5329943 -0.180633E-06  0.198E-03    0.02       6.4  T
  44    -63.5329943 -0.542962E-07  0.143E-03    0.02       8.8  T
  45    -63.5329944 -0.802839E-07  0.100E-03    0.02      12.5  T
  46    -63.5329945 -0.650888E-07  0.648E-04    0.02      19.4  T
  47    -63.5329945 -0.208398E-07  0.400E-04    0.02      31.5  T
     SCC iter.                  ...        0 min, 22.928 sec
     gradient                   ...        0 min,  0.208 sec
 * total energy  :   -60.5340970 Eh     change       -0.4464340E+00 Eh
   gradient norm :     0.4757554 Eh/α   predicted    -0.4419802E+00 (  -1.00%)
   displ. norm   :     0.9182969 α      lambda       -0.4185290E+00
   maximum displ.:     0.4755005 α      in ANC's #47, #52, #45, ...

........................................................................
.............................. CYCLE   17 ..............................
........................................................................

 iter      E             dE          RMSdq      gap      omega  full diag
   1    -63.2978112 -0.632978E+02  0.154E+00    0.22       0.0  T
   2    -53.9247551  0.937306E+01  0.829E+00    0.26       1.0  T
   3    -62.2617959 -0.833704E+01  0.288E+00    0.10       1.0  T
   4    -62.1248743  0.136922E+00  0.235E+00    0.03       1.0  T
   5    -59.2690325  0.285584E+01  0.375E+00    0.01       1.0  T
   6    -63.0362344 -0.376720E+01  0.160E+00    0.07       1.0  T
   7    -63.0873274 -0.510930E-01  0.162E+00    0.11       1.0  T
   8    -63.1719621 -0.846347E-01  0.146E+00    0.04       1.0  T
   9    -63.3693581 -0.197396E+00  0.856E-01    0.13       1.0  T
  10    -63.4340038 -0.646457E-01  0.555E-01    0.12       1.0  T
  11    -63.4385473 -0.454343E-02  0.457E-01    0.10       1.0  T
  12    -63.4395431 -0.995846E-03  0.495E-01    0.14       1.0  T
  13    -63.4475378 -0.799465E-02  0.373E-01    0.12       1.0  T
  14    -63.4344591  0.130787E-01  0.354E-01    0.09       1.0  T
  15    -63.4500545 -0.155954E-01  0.262E-01    0.12       1.0  T
  16    -63.4528072 -0.275273E-02  0.203E-01    0.10       1.0  T
  17    -63.4528418 -0.345871E-04  0.188E-01    0.10       1.0  T
  18    -63.4498043  0.303748E-02  0.215E-01    0.10       1.0  T
  19    -63.4539501 -0.414584E-02  0.147E-01    0.10       1.0  T
  20    -63.4555110 -0.156082E-02  0.995E-02    0.10       1.0  T
  21    -63.4554120  0.989781E-04  0.984E-02    0.11       1.0  T
  22    -63.4555659 -0.153939E-03  0.902E-02    0.11       1.0  T
  23    -63.4556270 -0.610367E-04  0.851E-02    0.11       1.0  T
  24    -63.4556523 -0.253387E-04  0.765E-02    0.11       1.0  T
  25    -63.4558117 -0.159439E-03  0.610E-02    0.10       1.0  T
  26    -63.4558666 -0.548961E-04  0.559E-02    0.10       1.0  T
  27    -63.4558512  0.154176E-04  0.556E-02    0.10       1.0  T
  28    -63.4558437  0.748589E-05  0.515E-02    0.11       1.0  T
  29    -63.4558703 -0.265537E-04  0.454E-02    0.11       1.0  T
  30    -63.4559106 -0.403340E-04  0.331E-02    0.11       1.0  T
  31    -63.4559323 -0.216509E-04  0.245E-02    0.10       1.0  T
  32    -63.4559439 -0.116595E-04  0.225E-02    0.10       1.0  T
  33    -63.4559448 -0.871779E-06  0.214E-02    0.10       1.0  T
  34    -63.4559546 -0.976275E-05  0.135E-02    0.10       1.0  T
  35    -63.4559646 -0.100385E-04  0.876E-03    0.10       1.4  T
  36    -63.4559691 -0.446954E-05  0.783E-03    0.10       1.6  T
  37    -63.4559692 -0.119293E-06  0.752E-03    0.10       1.7  T
  38    -63.4559710 -0.181216E-05  0.389E-03    0.10       3.2  T
  39    -63.4559712 -0.185545E-06  0.411E-03    0.10       3.1  T
  40    -63.4559714 -0.183564E-06  0.331E-03    0.10       3.8  T
  41    -63.4559717 -0.307084E-06  0.837E-04    0.10      15.1  T
  42    -63.4559717 -0.108006E-07  0.771E-04    0.10      16.3  T
     SCC iter.                  ...        0 min,  8.879 sec
     gradient                   ...        0 min,  0.163 sec
 * total energy  :   -60.9217828 Eh     change       -0.3876857E+00 Eh
   gradient norm :     0.4119227 Eh/α   predicted    -0.3857309E+00 (  -0.50%)
   displ. norm   :     0.9134295 α      lambda       -0.3581975E+00
   maximum displ.:     0.4566379 α      in ANC's #47, #52, #45, ...

........................................................................
.............................. CYCLE   18 ..............................
........................................................................

 iter      E             dE          RMSdq      gap      omega  full diag
   1    -63.2862008 -0.632862E+02  0.155E+00    0.11       0.0  T
   2    -57.8901977  0.539600E+01  0.607E+00    0.02       1.0  T
   3    -62.6144790 -0.472428E+01  0.247E+00    0.13       1.0  T
   4    -61.4422265  0.117225E+01  0.315E+00    0.07       1.0  T
   5    -59.8066674  0.163556E+01  0.399E+00    0.02       1.0  T
   6    -63.0271248 -0.322046E+01  0.173E+00    0.00       1.0  T
   7    -62.8234909  0.203634E+00  0.195E+00    0.15       1.0  T
   8    -62.8014106  0.220803E-01  0.183E+00    0.04       1.0  T
   9    -62.6657993  0.135611E+00  0.204E+00    0.02       1.0  T
  10    -63.2814710 -0.615672E+00  0.997E-01    0.15       1.0  T
  11    -63.1049322  0.176539E+00  0.137E+00    0.12       1.0  T
  12    -63.3609402 -0.256008E+00  0.681E-01    0.12       1.0  T
  13    -63.3715059 -0.105657E-01  0.624E-01    0.12       1.0  T
  14    -63.3784084 -0.690251E-02  0.570E-01    0.12       1.0  T
  15    -63.3714167  0.699170E-02  0.553E-01    0.11       1.0  T
  16    -63.3511370  0.202797E-01  0.591E-01    0.10       1.0  T
  17    -63.3791978 -0.280608E-01  0.469E-01    0.11       1.0  T
  18    -63.3930586 -0.138608E-01  0.361E-01    0.11       1.0  T
  19    -63.3962394 -0.318081E-02  0.307E-01    0.10       1.0  T
  20    -63.3960141  0.225222E-03  0.304E-01    0.10       1.0  T
  21    -63.3968832 -0.869032E-03  0.288E-01    0.10       1.0  T
  22    -63.3981124 -0.122922E-02  0.239E-01    0.08       1.0  T
  23    -63.3949275  0.318489E-02  0.256E-01    0.09       1.0  T
  24    -63.3984053 -0.347780E-02  0.178E-01    0.08       1.0  T
  25    -63.3991477 -0.742358E-03  0.155E-01    0.08       1.0  T
  26    -63.3978928  0.125486E-02  0.164E-01    0.07       1.0  T
  27    -63.3996548 -0.176195E-02  0.132E-01    0.07       1.0  T
  28    -63.4008858 -0.123103E-02  0.113E-01    0.07       1.0  T
  29    -63.4010954 -0.209650E-03  0.104E-01    0.07       1.0  T
  30    -63.4012528 -0.157378E-03  0.982E-02    0.07       1.0  T
  31    -63.4014105 -0.157727E-03  0.906E-02    0.07       1.0  T
  32    -63.4017426 -0.332101E-03  0.649E-02    0.07       1.0  T
  33    -63.4018642 -0.121581E-03  0.571E-02    0.07       1.0  T
  34    -63.4018707 -0.652314E-05  0.541E-02    0.07       1.0  T
  35    -63.4019408 -0.700684E-04  0.457E-02    0.07       1.0  T
  36    -63.4019704 -0.296229E-04  0.372E-02    0.08       1.0  T
  37    -63.4020013 -0.308309E-04  0.283E-02    0.08       1.0  T
  38    -63.4020207 -0.194261E-04  0.205E-02    0.08       1.0  T
  39    -63.4020273 -0.661021E-05  0.165E-02    0.08       1.0  T
  40    -63.4020287 -0.143014E-05  0.143E-02    0.08       1.0  T
  41    -63.4020328 -0.404712E-05  0.117E-02    0.08       1.1  T
  42    -63.4020352 -0.245362E-05  0.958E-03    0.08       1.3  T
  43    -63.4020367 -0.142478E-05  0.801E-03    0.08       1.6  T
  44    -63.4020384 -0.169320E-05  0.600E-03    0.08       2.1  T
  45    -63.4020397 -0.133425E-05  0.386E-03    0.08       3.3  T
  46    -63.4020400 -0.276493E-06  0.330E-03    0.08       3.8  T
  47    -63.4020404 -0.473208E-06  0.223E-03    0.08       5.7  T
  48    -63.4020406 -0.162077E-06  0.164E-03    0.08       7.7  T
  49    -63.4020406 -0.302089E-07  0.148E-03    0.08       8.5  T
  50    -63.4020407 -0.233807E-07  0.129E-03    0.08       9.7  T
  51    -63.4020407 -0.104197E-07  0.121E-03    0.08      10.4  T
  52    -63.4020407 -0.257889E-07  0.105E-03    0.08      12.0  T
  53    -63.4020407 -0.976480E-08  0.868E-04    0.08      14.5  T
  54    -63.4020407 -0.116417E-08  0.812E-04    0.08      15.5  T
     SCC iter.                  ...        0 min, 11.013 sec
     gradient                   ...        0 min,  0.059 sec
 * total energy  :   -61.2447231 Eh     change       -0.3229404E+00 Eh
   gradient norm :     0.3364768 Eh/α   predicted    -0.3285306E+00 (   1.73%)
   displ. norm   :     0.8800378 α      lambda       -0.2785500E+00
   maximum displ.:     0.4124593 α      in ANC's #47, #52, #45, ...

........................................................................
.............................. CYCLE   19 ..............................
........................................................................

 iter      E             dE          RMSdq      gap      omega  full diag
   1    -63.2748656 -0.632749E+02  0.143E+00    0.04       0.0  T
   2    -55.6780448  0.759682E+01  0.620E+00    0.08       1.0  T
   3    -62.8169554 -0.713891E+01  0.195E+00    0.06       1.0  T
   4    -60.8490177  0.196794E+01  0.386E+00    0.12       1.0  T
   5    -62.4896723 -0.164065E+01  0.270E+00    0.11       1.0  T
   6    -63.0602349 -0.570563E+00  0.138E+00    0.10       1.0  T
   7    -62.4355508  0.624684E+00  0.250E+00    0.12       1.0  T
   8    -63.1191534 -0.683603E+00  0.132E+00    0.00       1.0  T
   9    -62.6567550  0.462398E+00  0.180E+00    0.00       1.0  T
  10    -63.2792030 -0.622448E+00  0.623E-01    0.06       1.0  T
  11    -63.2611651  0.180378E-01  0.654E-01    0.08       1.0  T
  12    -63.3139055 -0.527403E-01  0.508E-01    0.11       1.0  T
  13    -63.3132221  0.683419E-03  0.579E-01    0.09       1.0  T
  14    -63.2771803  0.360417E-01  0.741E-01    0.08       1.0  T
  15    -63.2751169  0.206337E-02  0.554E-01    0.09       1.0  T
  16    -63.3343274 -0.592105E-01  0.398E-01    0.08       1.0  T
  17    -63.3338392  0.488179E-03  0.333E-01    0.07       1.0  T
  18    -63.3034749  0.303643E-01  0.546E-01    0.07       1.0  T
  19    -63.3377583 -0.342833E-01  0.281E-01    0.07       1.0  T
  20    -63.3387671 -0.100889E-02  0.263E-01    0.07       1.0  T
  21    -63.3382471  0.520090E-03  0.275E-01    0.07       1.0  T
  22    -63.3353110  0.293610E-02  0.297E-01    0.07       1.0  T
  23    -63.3383681 -0.305710E-02  0.272E-01    0.07       1.0  T
  24    -63.3422271 -0.385903E-02  0.205E-01    0.08       1.0  T
  25    -63.3446201 -0.239303E-02  0.141E-01    0.08       1.0  T
  26    -63.3453675 -0.747371E-03  0.117E-01    0.09       1.0  T
  27    -63.3453126  0.549100E-04  0.116E-01    0.09       1.0  T
  28    -63.3455055 -0.192962E-03  0.105E-01    0.09       1.0  T
  29    -63.3455062 -0.615830E-06  0.900E-02    0.09       1.0  T
  30    -63.3457125 -0.206304E-03  0.764E-02    0.09       1.0  T
  31    -63.3457736 -0.610966E-04  0.721E-02    0.09       1.0  T
  32    -63.3458220 -0.484466E-04  0.582E-02    0.09       1.0  T
  33    -63.3458550 -0.330441E-04  0.457E-02    0.09       1.0  T
  34    -63.3459630 -0.107909E-03  0.390E-02    0.09       1.0  T
  35    -63.3459666 -0.365053E-05  0.327E-02    0.09       1.0  T
  36    -63.3459072  0.594551E-04  0.345E-02    0.09       1.0  T
  37    -63.3459796 -0.724184E-04  0.288E-02    0.09       1.0  T
  38    -63.3460217 -0.421670E-04  0.241E-02    0.09       1.0  T
  39    -63.3460338 -0.120812E-04  0.223E-02    0.09       1.0  T
  40    -63.3460538 -0.200117E-04  0.173E-02    0.09       1.0  T
  41    -63.3460686 -0.147475E-04  0.130E-02    0.08       1.0  T
  42    -63.3460731 -0.455286E-05  0.110E-02    0.08       1.1  T
  43    -63.3460784 -0.529668E-05  0.756E-03    0.08       1.7  T
  44    -63.3460794 -0.943845E-06  0.602E-03    0.08       2.1  T
  45    -63.3460801 -0.717146E-06  0.419E-03    0.08       3.0  T
  46    -63.3460803 -0.239280E-06  0.302E-03    0.08       4.2  T
  47    -63.3460801  0.197400E-06  0.279E-03    0.08       4.5  T
  48    -63.3460802 -0.616651E-07  0.246E-03    0.08       5.1  T
  49    -63.3460805 -0.316042E-06  0.184E-03    0.08       6.8  T
  50    -63.3460805  0.238249E-08  0.173E-03    0.08       7.3  T
  51    -63.3460805 -0.417307E-07  0.160E-03    0.08       7.9  T
  52    -63.3460806 -0.258822E-07  0.145E-03    0.08       8.7  T
  53    -63.3460806 -0.342510E-07  0.125E-03    0.08      10.1  T
  54    -63.3460806 -0.258248E-07  0.104E-03    0.08      12.1  T
  55    -63.3460807 -0.232057E-07  0.685E-04    0.08      18.4  T
  56    -63.3460807 -0.242557E-07  0.351E-04    0.08      35.9  T
     SCC iter.                  ...        0 min, 11.630 sec
     gradient                   ...        0 min,  0.161 sec
 * total energy  :   -61.4906485 Eh     change       -0.2459254E+00 Eh
   gradient norm :     0.2910145 Eh/α   predicted    -0.2471386E+00 (   0.49%)
   displ. norm   :     0.9076061 α      lambda       -0.2321220E+00
   maximum displ.:     0.3753416 α      in ANC's #47, #52, #45, ...

........................................................................
.............................. CYCLE   20 ..............................
........................................................................

 iter      E             dE          RMSdq      gap      omega  full diag
   1    -63.2254426 -0.632254E+02  0.128E+00    0.06       0.0  T
   2    -58.9192379  0.430620E+01  0.456E+00    0.07       1.0  T
   3    -62.8964146 -0.397718E+01  0.159E+00    0.11       1.0  T
   4    -61.5744149  0.132200E+01  0.382E+00    0.02       1.0  T
   5    -62.5139143 -0.939499E+00  0.252E+00    0.02       1.0  T
   6    -62.3556408  0.158274E+00  0.203E+00    0.17       1.0  T
   7    -62.4208586 -0.652178E-01  0.232E+00    0.08       1.0  T
   8    -62.7591782 -0.338320E+00  0.180E+00    0.03       1.0  T
   9    -62.6951856  0.639926E-01  0.232E+00    0.06       1.0  T
  10    -62.7057941 -0.106085E-01  0.209E+00    0.03       1.0  T
  11    -63.1046744 -0.398880E+00  0.982E-01    0.08       1.0  T
  12    -63.0827699  0.219045E-01  0.112E+00    0.07       1.0  T
  13    -62.9499533  0.132817E+00  0.162E+00    0.03       1.0  T
  14    -63.2302877 -0.280334E+00  0.591E-01    0.06       1.0  T
  15    -63.2392513 -0.896353E-02  0.531E-01    0.07       1.0  T
  16    -63.2393246 -0.733170E-04  0.527E-01    0.07       1.0  T
  17    -63.2398734 -0.548833E-03  0.520E-01    0.07       1.0  T
  18    -63.2437444 -0.387099E-02  0.421E-01    0.07       1.0  T
  19    -63.2342741  0.947031E-02  0.380E-01    0.07       1.0  T
  20    -63.2373058 -0.303167E-02  0.357E-01    0.07       1.0  T
  21    -63.2447197 -0.741392E-02  0.341E-01    0.07       1.0  T
  22    -63.2396836  0.503613E-02  0.380E-01    0.07       1.0  T
  23    -63.2399189 -0.235342E-03  0.371E-01    0.07       1.0  T
  24    -63.2460574 -0.613850E-02  0.340E-01    0.07       1.0  T
  25    -63.2519922 -0.593479E-02  0.231E-01    0.07       1.0  T
  26    -63.2481478  0.384439E-02  0.320E-01    0.07       1.0  T
  27    -63.2479400  0.207810E-03  0.321E-01    0.08       1.0  T
  28    -63.2474762  0.463809E-03  0.333E-01    0.07       1.0  T
  29    -63.2521454 -0.466925E-02  0.242E-01    0.08       1.0  T
  30    -63.2554299 -0.328447E-02  0.134E-01    0.08       1.0  T
  31    -63.2559154 -0.485522E-03  0.116E-01    0.08       1.0  T
  32    -63.2558922  0.232203E-04  0.114E-01    0.08       1.0  T
  33    -63.2559862 -0.939907E-04  0.102E-01    0.07       1.0  T
  34    -63.2564607 -0.474453E-03  0.727E-02    0.08       1.0  T
  35    -63.2565255 -0.648468E-04  0.655E-02    0.08       1.0  T
  36    -63.2566034 -0.778929E-04  0.572E-02    0.08       1.0  T
  37    -63.2566388 -0.354085E-04  0.543E-02    0.08       1.0  T
  38    -63.2567362 -0.973910E-04  0.419E-02    0.08       1.0  T
  39    -63.2567663 -0.300659E-04  0.347E-02    0.07       1.0  T
  40    -63.2568275 -0.612209E-04  0.196E-02    0.07       1.0  T
  41    -63.2568342 -0.674604E-05  0.180E-02    0.07       1.0  T
  42    -63.2568525 -0.182737E-04  0.104E-02    0.07       1.2  T
  43    -63.2568556 -0.304654E-05  0.715E-03    0.07       1.8  T
  44    -63.2568573 -0.172946E-05  0.548E-03    0.07       2.3  T
  45    -63.2568585 -0.120002E-05  0.447E-03    0.07       2.8  T
  46    -63.2568597 -0.121716E-05  0.398E-03    0.07       3.2  T
  47    -63.2568598 -0.881244E-07  0.359E-03    0.07       3.5  T
  48    -63.2568605 -0.701049E-06  0.223E-03    0.07       5.7  T
  49    -63.2568606 -0.100127E-06  0.192E-03    0.07       6.6  T
  50    -63.2568607 -0.137414E-06  0.123E-03    0.07      10.2  T
  51    -63.2568608 -0.717379E-07  0.839E-04    0.07      15.0  T
  52    -63.2568608 -0.214347E-07  0.655E-04    0.07      19.2  T
     SCC iter.                  ...        0 min, 16.651 sec
     gradient                   ...        0 min,  0.035 sec
 * total energy  :   -61.6958222 Eh     change       -0.2051737E+00 Eh
   gradient norm :     0.2515809 Eh/α   predicted    -0.2116660E+00 (   3.16%)
   displ. norm   :     0.9034569 α      lambda       -0.1967302E+00
   maximum displ.:     0.3561916 α      in ANC's #47, #52, #70, ...
 * RMSD in coord.:     2.0795433 α      energy gain  -0.2756052E+02 Eh

generating ANC from exact Hessian ...
Using Lindh-Hessian (1995)
 Shifting diagonal of input Hessian by   1.343574692154045E-002
 Lowest  eigenvalues of input Hessian
    0.010000    0.011168    0.011737    0.012275    0.012296    0.012418
    0.012418    0.012741    0.012794    0.012794    0.012844    0.012897
    0.012916    0.012928    0.012931    0.012959    0.012996    0.013039
 Highest eigenvalues
    1.592800    1.623915    1.630277    1.669918    1.728542    1.840726
 

........................................................................
.............................. CYCLE   21 ..............................
........................................................................

 iter      E             dE          RMSdq      gap      omega  full diag
   1    -63.0606355 -0.630606E+02  0.196E+00    0.00       0.0  T
   2    -39.2976653  0.237630E+02  0.881E+00    0.13       1.0  T
   3    -61.0882825 -0.217906E+02  0.296E+00    0.15       1.0  T
   4    -58.7732426  0.231504E+01  0.465E+00    0.13       1.0  T
   5    -62.4589221 -0.368568E+01  0.178E+00    0.33       1.0  T
   6    -61.9704928  0.488429E+00  0.319E+00    0.02       1.0  T
   7    -61.1147480  0.855745E+00  0.307E+00    0.01       1.0  T
   8    -62.3418386 -0.122709E+01  0.188E+00    0.06       1.0  T
   9    -62.7240804 -0.382242E+00  0.150E+00    0.00       1.0  T
  10    -62.9343853 -0.210305E+00  0.184E+00    0.06       1.0  T
  11    -63.1473044 -0.212919E+00  0.121E+00    0.05       1.0  T
  12    -63.1985329 -0.512285E-01  0.101E+00    0.05       1.0  T
  13    -63.1909160  0.761691E-02  0.999E-01    0.05       1.0  T
  14    -63.2247892 -0.338732E-01  0.834E-01    0.06       1.0  T
  15    -63.2284921 -0.370292E-02  0.795E-01    0.06       1.0  T
  16    -63.2232179  0.527423E-02  0.812E-01    0.06       1.0  T
  17    -63.2226972  0.520684E-03  0.825E-01    0.06       1.0  T
  18    -63.2324502 -0.975306E-02  0.745E-01    0.05       1.0  T
  19    -63.2213861  0.110642E-01  0.686E-01    0.04       1.0  T
  20    -63.2184154  0.297062E-02  0.732E-01    0.04       1.0  T
  21    -63.1464505  0.719650E-01  0.875E-01    0.02       1.0  T
  22    -63.1743785 -0.279280E-01  0.802E-01    0.03       1.0  T
  23    -63.1809695 -0.659104E-02  0.769E-01    0.03       1.0  T
  24    -63.1901038 -0.913422E-02  0.728E-01    0.03       1.0  T
  25    -63.2125284 -0.224247E-01  0.561E-01    0.03       1.0  T
  26    -63.2125469 -0.184991E-04  0.472E-01    0.03       1.0  T
  27    -63.2363883 -0.238414E-01  0.359E-01    0.04       1.0  T
  28    -63.2316052  0.478315E-02  0.403E-01    0.04       1.0  T
  29    -63.2350190 -0.341386E-02  0.378E-01    0.04       1.0  T
  30    -63.2381176 -0.309859E-02  0.339E-01    0.04       1.0  T
  31    -63.2472366 -0.911901E-02  0.245E-01    0.05       1.0  T
  32    -63.2527134 -0.547675E-02  0.184E-01    0.05       1.0  T
  33    -63.2533320 -0.618573E-03  0.160E-01    0.05       1.0  T
  34    -63.2535223 -0.190299E-03  0.164E-01    0.05       1.0  T
  35    -63.2532874  0.234894E-03  0.182E-01    0.05       1.0  T
  36    -63.2536565 -0.369120E-03  0.160E-01    0.05       1.0  T
  37    -63.2535902  0.662877E-04  0.160E-01    0.05       1.0  T
  38    -63.2536144 -0.242318E-04  0.155E-01    0.05       1.0  T
  39    -63.2535707  0.437290E-04  0.141E-01    0.05       1.0  T
  40    -63.2537605 -0.189828E-03  0.128E-01    0.05       1.0  T
  41    -63.2538033 -0.428283E-04  0.127E-01    0.05       1.0  T
  42    -63.2538855 -0.821544E-04  0.121E-01    0.05       1.0  T
  43    -63.2542372 -0.351717E-03  0.933E-02    0.05       1.0  T
  44    -63.2543993 -0.162031E-03  0.741E-02    0.05       1.0  T
  45    -63.2545094 -0.110175E-03  0.549E-02    0.05       1.0  T
  46    -63.2545338 -0.244128E-04  0.471E-02    0.05       1.0  T
  47    -63.2546055 -0.716173E-04  0.312E-02    0.05       1.0  T
  48    -63.2546166 -0.111722E-04  0.174E-02    0.05       1.0  T
  49    -63.2546154  0.120248E-05  0.143E-02    0.05       1.0  T
  50    -63.2546269 -0.114488E-04  0.117E-02    0.05       1.1  T
  51    -63.2546332 -0.634400E-05  0.121E-02    0.05       1.0  T
  52    -63.2546390 -0.580230E-05  0.778E-03    0.05       1.6  T
  53    -63.2546388  0.263002E-06  0.743E-03    0.05       1.7  T
  54    -63.2546388 -0.775838E-07  0.697E-03    0.05       1.8  T
  55    -63.2546409 -0.208432E-05  0.607E-03    0.05       2.1  T
  56    -63.2546433 -0.238392E-05  0.398E-03    0.05       3.2  T
  57    -63.2546440 -0.674097E-06  0.282E-03    0.05       4.5  T
  58    -63.2546443 -0.283439E-06  0.217E-03    0.05       5.8  T
  59    -63.2546446 -0.338795E-06  0.158E-03    0.05       8.0  T
  60    -63.2546446  0.918790E-08  0.147E-03    0.05       8.6  T
  61    -63.2546446 -0.363673E-07  0.131E-03    0.05       9.6  T
  62    -63.2546447 -0.631408E-07  0.819E-04    0.05      15.4  T
  63    -63.2546447 -0.268473E-07  0.459E-04    0.05      27.5  T
     SCC iter.                  ...        0 min,  5.266 sec
     gradient                   ...        0 min,  0.547 sec
 * total energy  :   -61.8673338 Eh     change       -0.1715116E+00 Eh
   gradient norm :     0.2473449 Eh/α   predicted     0.0000000E+00 (-100.00%)
   displ. norm   :     0.7480623 α      lambda       -0.1613845E+00
   maximum displ.:     0.2812220 α      in ANC's #76, #106, #97, ...

........................................................................
.............................. CYCLE   22 ..............................
........................................................................

 iter      E             dE          RMSdq      gap      omega  full diag
   1    -63.2365968 -0.632366E+02  0.130E+00    0.04       0.0  T
   2    -49.8095737  0.134270E+02  0.707E+00    0.04       1.0  T
   3    -62.4907908 -0.126812E+02  0.266E+00    0.09       1.0  T
   4    -62.6126031 -0.121812E+00  0.249E+00    0.07       1.0  T
   5    -62.8374235 -0.224820E+00  0.186E+00    0.07       1.0  T
   6    -62.3471413  0.490282E+00  0.285E+00    0.01       1.0  T
   7    -62.8989817 -0.551840E+00  0.193E+00    0.02       1.0  T
   8    -62.8194633  0.795184E-01  0.212E+00    0.03       1.0  T
   9    -62.5931360  0.226327E+00  0.227E+00    0.11       1.0  T
  10    -62.9467491 -0.353613E+00  0.151E+00    0.00       1.0  T
  11    -62.8865761  0.601730E-01  0.194E+00    0.02       1.0  T
  12    -63.1516172 -0.265041E+00  0.116E+00    0.02       1.0  T
  13    -63.2401192 -0.885020E-01  0.115E+00    0.10       1.0  T
  14    -63.2499713 -0.985212E-02  0.109E+00    0.11       1.0  T
  15    -63.2989271 -0.489558E-01  0.874E-01    0.11       1.0  T
  16    -63.3077037 -0.877664E-02  0.835E-01    0.11       1.0  T
  17    -63.3078556 -0.151940E-03  0.833E-01    0.11       1.0  T
  18    -63.3104308 -0.257521E-02  0.796E-01    0.11       1.0  T
  19    -63.3161175 -0.568664E-02  0.713E-01    0.11       1.0  T
  20    -63.3219713 -0.585379E-02  0.444E-01    0.09       1.0  T
  21    -63.3144660  0.750523E-02  0.527E-01    0.06       1.0  T
  22    -63.3045426  0.992341E-02  0.668E-01    0.05       1.0  T
  23    -63.2884083  0.161343E-01  0.757E-01    0.04       1.0  T
  24    -63.2913824 -0.297404E-02  0.737E-01    0.05       1.0  T
  25    -63.2979955 -0.661314E-02  0.690E-01    0.05       1.0  T
  26    -63.3177671 -0.197715E-01  0.510E-01    0.06       1.0  T
  27    -63.3415886 -0.238215E-01  0.326E-01    0.09       1.0  T
  28    -63.3404110  0.117761E-02  0.334E-01    0.08       1.0  T
  29    -63.3427163 -0.230526E-02  0.289E-01    0.08       1.0  T
  30    -63.3422628  0.453426E-03  0.286E-01    0.08       1.0  T
  31    -63.3426902 -0.427313E-03  0.273E-01    0.08       1.0  T
  32    -63.3421355  0.554628E-03  0.282E-01    0.08       1.0  T
  33    -63.3410936  0.104192E-02  0.296E-01    0.07       1.0  T
  34    -63.3415854 -0.491739E-03  0.285E-01    0.08       1.0  T
  35    -63.3449813 -0.339592E-02  0.195E-01    0.09       1.0  T
  36    -63.3461621 -0.118085E-02  0.155E-01    0.09       1.0  T
  37    -63.3464754 -0.313277E-03  0.137E-01    0.09       1.0  T
  38    -63.3468106 -0.335235E-03  0.118E-01    0.09       1.0  T
  39    -63.3469825 -0.171895E-03  0.105E-01    0.10       1.0  T
  40    -63.3471268 -0.144286E-03  0.853E-02    0.10       1.0  T
  41    -63.3472633 -0.136470E-03  0.665E-02    0.10       1.0  T
  42    -63.3471758  0.874536E-04  0.709E-02    0.10       1.0  T
  43    -63.3472702 -0.943661E-04  0.591E-02    0.10       1.0  T
  44    -63.3474000 -0.129796E-03  0.401E-02    0.10       1.0  T
  45    -63.3474231 -0.231111E-04  0.332E-02    0.10       1.0  T
  46    -63.3474380 -0.148714E-04  0.279E-02    0.09       1.0  T
  47    -63.3474721 -0.340802E-04  0.166E-02    0.09       1.0  T
  48    -63.3474811 -0.904049E-05  0.119E-02    0.09       1.1  T
  49    -63.3474824 -0.133906E-05  0.100E-02    0.09       1.3  T
  50    -63.3474837 -0.126324E-05  0.875E-03    0.09       1.4  T
  51    -63.3474854 -0.166096E-05  0.665E-03    0.09       1.9  T
  52    -63.3474856 -0.205313E-06  0.583E-03    0.09       2.2  T
  53    -63.3474856 -0.570258E-07  0.548E-03    0.09       2.3  T
  54    -63.3474861 -0.425864E-06  0.416E-03    0.09       3.0  T
  55    -63.3474865 -0.420400E-06  0.296E-03    0.09       4.3  T
  56    -63.3474867 -0.256880E-06  0.249E-03    0.09       5.1  T
  57    -63.3474869 -0.159767E-06  0.176E-03    0.09       7.2  T
  58    -63.3474871 -0.184345E-06  0.115E-03    0.09      10.9  T
  59    -63.3474871 -0.616961E-07  0.867E-04    0.09      14.5  T
  60    -63.3474871 -0.111252E-07  0.794E-04    0.09      15.9  T
     SCC iter.                  ...        0 min,  3.917 sec
     gradient                   ...        0 min,  0.179 sec
 * total energy  :   -62.0144893 Eh     change       -0.1471555E+00 Eh
   gradient norm :     0.2067445 Eh/α   predicted    -0.1258550E+00 ( -14.47%)
   displ. norm   :     0.9072128 α      lambda       -0.1815721E+00
   maximum displ.:     0.3234126 α      in ANC's #106, #76, #117, ...

........................................................................
.............................. CYCLE   23 ..............................
........................................................................

 iter      E             dE          RMSdq      gap      omega  full diag
   1    -63.3888580 -0.633889E+02  0.147E+00    0.03       0.0  T
   2    -55.8417649  0.754709E+01  0.483E+00    0.10       1.0  T
   3    -59.7025435 -0.386078E+01  0.395E+00    0.11       1.0  T
   4    -62.3890541 -0.268651E+01  0.273E+00    0.02       1.0  T
   5    -63.3654830 -0.976429E+00  0.105E+00    0.05       1.0  T
   6    -62.4262066  0.939276E+00  0.339E+00    0.18       1.0  T
   7    -63.2381017 -0.811895E+00  0.132E+00    0.01       1.0  T
   8    -63.3164336 -0.783319E-01  0.112E+00    0.19       1.0  T
   9    -63.3851080 -0.686743E-01  0.932E-01    0.14       1.0  T
  10    -63.4134445 -0.283365E-01  0.853E-01    0.15       1.0  T
  11    -63.4157731 -0.232862E-02  0.819E-01    0.12       1.0  T
  12    -63.4350676 -0.192945E-01  0.720E-01    0.13       1.0  T
  13    -63.4373981 -0.233055E-02  0.700E-01    0.14       1.0  T
  14    -63.4296705  0.772759E-02  0.719E-01    0.15       1.0  T
  15    -63.4331266 -0.345609E-02  0.680E-01    0.15       1.0  T
  16    -63.4419807 -0.885402E-02  0.612E-01    0.14       1.0  T
  17    -63.4528825 -0.109018E-01  0.494E-01    0.13       1.0  T
  18    -63.4566064 -0.372394E-02  0.439E-01    0.13       1.0  T
  19    -63.4606861 -0.407969E-02  0.364E-01    0.11       1.0  T
  20    -63.4610164 -0.330312E-03  0.363E-01    0.11       1.0  T
  21    -63.4610210 -0.461443E-05  0.363E-01    0.11       1.0  T
  22    -63.4576854  0.333558E-02  0.385E-01    0.13       1.0  T
  23    -63.4630500 -0.536457E-02  0.269E-01    0.11       1.0  T
  24    -63.4647319 -0.168185E-02  0.196E-01    0.11       1.0  T
  25    -63.4649580 -0.226178E-03  0.177E-01    0.11       1.0  T
  26    -63.4649773 -0.192737E-04  0.173E-01    0.11       1.0  T
  27    -63.4653551 -0.377803E-03  0.150E-01    0.11       1.0  T
  28    -63.4660023 -0.647214E-03  0.100E-01    0.10       1.0  T
  29    -63.4662912 -0.288921E-03  0.608E-02    0.10       1.0  T
  30    -63.4662775  0.137233E-04  0.584E-02    0.10       1.0  T
  31    -63.4662866 -0.902842E-05  0.572E-02    0.10       1.0  T
  32    -63.4663423 -0.557453E-04  0.497E-02    0.10       1.0  T
  33    -63.4664891 -0.146806E-03  0.283E-02    0.10       1.0  T
  34    -63.4664873  0.180042E-05  0.246E-02    0.10       1.0  T
  35    -63.4665108 -0.234604E-04  0.127E-02    0.10       1.0  T
  36    -63.4665139 -0.315474E-05  0.891E-03    0.10       1.4  T
  37    -63.4665153 -0.133892E-05  0.801E-03    0.10       1.6  T
  38    -63.4665169 -0.162688E-05  0.783E-03    0.10       1.6  T
  39    -63.4665211 -0.423825E-05  0.496E-03    0.10       2.5  T
  40    -63.4665220 -0.830238E-06  0.508E-03    0.10       2.5  T
  41    -63.4665227 -0.795360E-06  0.461E-03    0.10       2.7  T
  42    -63.4665241 -0.131577E-05  0.314E-03    0.10       4.0  T
  43    -63.4665246 -0.517539E-06  0.166E-03    0.10       7.6  T
  44    -63.4665246 -0.528839E-07  0.113E-03    0.10      11.1  T
  45    -63.4665247 -0.231789E-07  0.940E-04    0.10      13.4  T
  46    -63.4665247 -0.223433E-07  0.570E-04    0.10      22.1  T
     SCC iter.                  ...        0 min,  2.349 sec
     gradient                   ...        0 min,  0.084 sec
 * total energy  :   -62.1803628 Eh     change       -0.1658735E+00 Eh
   gradient norm :     0.1725948 Eh/α   predicted    -0.1655062E+00 (  -0.22%)
   displ. norm   :     0.8910757 α      lambda       -0.1458833E+00
   maximum displ.:     0.3095058 α      in ANC's #106, #76, #117, ...

........................................................................
.............................. CYCLE   24 ..............................
........................................................................

 iter      E             dE          RMSdq      gap      omega  full diag
   1    -63.5346561 -0.635347E+02  0.132E+00    0.05       0.0  T
   2    -62.8208748  0.713781E+00  0.232E+00    0.05       1.0  T
   3    -61.8604273  0.960447E+00  0.376E+00    0.06       1.0  T
   4    -62.6872643 -0.826837E+00  0.278E+00    0.02       1.0  T
   5    -62.1917329  0.495531E+00  0.300E+00    0.01       1.0  T
   6    -62.7530897 -0.561357E+00  0.247E+00    0.02       1.0  T
   7    -63.2578291 -0.504739E+00  0.146E+00    0.15       1.0  T
   8    -63.1606413  0.971878E-01  0.158E+00    0.04       1.0  T
   9    -63.2406868 -0.800455E-01  0.165E+00    0.00       1.0  T
  10    -63.4493810 -0.208694E+00  0.108E+00    0.09       1.0  T
  11    -63.5537156 -0.104335E+00  0.542E-01    0.09       1.0  T
  12    -63.5320441  0.216715E-01  0.700E-01    0.13       1.0  T
  13    -63.5398297 -0.778557E-02  0.705E-01    0.15       1.0  T
  14    -63.5433527 -0.352299E-02  0.676E-01    0.15       1.0  T
  15    -63.5442356 -0.882913E-03  0.666E-01    0.15       1.0  T
  16    -63.5362646  0.797106E-02  0.695E-01    0.17       1.0  T
  17    -63.5533199 -0.170553E-01  0.530E-01    0.13       1.0  T
  18    -63.5614504 -0.813053E-02  0.450E-01    0.09       1.0  T
  19    -63.5620256 -0.575205E-03  0.431E-01    0.09       1.0  T
  20    -63.5625174 -0.491806E-03  0.423E-01    0.09       1.0  T
  21    -63.5626380 -0.120572E-03  0.410E-01    0.09       1.0  T
  22    -63.5610463  0.159168E-02  0.387E-01    0.10       1.0  T
  23    -63.5593275  0.171885E-02  0.355E-01    0.10       1.0  T
  24    -63.5580532  0.127427E-02  0.361E-01    0.11       1.0  T
  25    -63.5580038  0.494153E-04  0.360E-01    0.11       1.0  T
  26    -63.5589499 -0.946140E-03  0.333E-01    0.11       1.0  T
  27    -63.5598281 -0.878131E-03  0.304E-01    0.11       1.0  T
  28    -63.5591498  0.678226E-03  0.294E-01    0.12       1.0  T
  29    -63.5593645 -0.214637E-03  0.284E-01    0.12       1.0  T
  30    -63.5600045 -0.640073E-03  0.266E-01    0.11       1.0  T
  31    -63.5611028 -0.109827E-02  0.223E-01    0.11       1.0  T
  32    -63.5619608 -0.858014E-03  0.195E-01    0.11       1.0  T
  33    -63.5624482 -0.487418E-03  0.181E-01    0.11       1.0  T
  34    -63.5635159 -0.106769E-02  0.148E-01    0.10       1.0  T
  35    -63.5642115 -0.695542E-03  0.122E-01    0.09       1.0  T
  36    -63.5643639 -0.152476E-03  0.117E-01    0.09       1.0  T
  37    -63.5645128 -0.148883E-03  0.108E-01    0.09       1.0  T
  38    -63.5647871 -0.274306E-03  0.943E-02    0.09       1.0  T
  39    -63.5648463 -0.591894E-04  0.896E-02    0.09       1.0  T
  40    -63.5650192 -0.172908E-03  0.770E-02    0.09       1.0  T
  41    -63.5652040 -0.184751E-03  0.601E-02    0.09       1.0  T
  42    -63.5653441 -0.140153E-03  0.390E-02    0.09       1.0  T
  43    -63.5654095 -0.653937E-04  0.261E-02    0.09       1.0  T
  44    -63.5654317 -0.222113E-04  0.216E-02    0.09       1.0  T
  45    -63.5654438 -0.120579E-04  0.172E-02    0.08       1.0  T
  46    -63.5654604 -0.165676E-04  0.875E-03    0.08       1.4  T
  47    -63.5654646 -0.426351E-05  0.404E-03    0.08       3.1  T
  48    -63.5654646  0.457662E-07  0.395E-03    0.08       3.2  T
  49    -63.5654659 -0.132934E-05  0.166E-03    0.08       7.6  T
  50    -63.5654659 -0.217054E-07  0.124E-03    0.08      10.1  T
  51    -63.5654661 -0.147278E-06  0.643E-04    0.08      19.6  T
  52    -63.5654661  0.643752E-10  0.505E-04    0.08      24.9  T
     SCC iter.                  ...        0 min,  3.530 sec
     gradient                   ...        0 min,  0.159 sec
 * total energy  :   -62.2986279 Eh     change       -0.1182650E+00 Eh
   gradient norm :     0.1527896 Eh/α   predicted    -0.1308585E+00 (  10.65%)
   displ. norm   :     0.8325927 α      lambda       -0.1044819E+00
   maximum displ.:     0.2979698 α      in ANC's #76, #83, #106, ...

........................................................................
.............................. CYCLE   25 ..............................
........................................................................

 iter      E             dE          RMSdq      gap      omega  full diag
   1    -63.5686365 -0.635686E+02  0.958E-01    0.05       0.0  T
   2    -62.7455843  0.823052E+00  0.250E+00    0.03       1.0  T
   3    -63.2603108 -0.514726E+00  0.138E+00    0.09       1.0  T
   4    -62.0676528  0.119266E+01  0.312E+00    0.05       1.0  T
   5    -62.6486436 -0.580991E+00  0.228E+00    0.01       1.0  T
   6    -63.3799135 -0.731270E+00  0.142E+00    0.05       1.0  T
   7    -62.1627742  0.121714E+01  0.258E+00    0.01       1.0  T
   8    -63.0238705 -0.861096E+00  0.175E+00    0.14       1.0  T
   9    -63.5070352 -0.483165E+00  0.751E-01    0.00       1.0  T
  10    -63.3589586  0.148077E+00  0.140E+00    0.01       1.0  T
  11    -63.5714885 -0.212530E+00  0.429E-01    0.08       1.0  T
  12    -63.5554763  0.160122E-01  0.521E-01    0.11       1.0  T
  13    -63.5642419 -0.876565E-02  0.467E-01    0.12       1.0  T
  14    -63.5633539  0.888086E-03  0.461E-01    0.12       1.0  T
  15    -63.5659213 -0.256740E-02  0.434E-01    0.11       1.0  T
  16    -63.5740628 -0.814150E-02  0.349E-01    0.10       1.0  T
  17    -63.5782511 -0.418837E-02  0.341E-01    0.04       1.0  T
  18    -63.5636910  0.145601E-01  0.500E-01    0.02       1.0  T
  19    -63.5740011 -0.103100E-01  0.377E-01    0.03       1.0  T
  20    -63.5808311 -0.683008E-02  0.234E-01    0.04       1.0  T
  21    -63.5822419 -0.141072E-02  0.171E-01    0.06       1.0  T
  22    -63.5811494  0.109244E-02  0.191E-01    0.07       1.0  T
  23    -63.5834686 -0.231921E-02  0.134E-01    0.06       1.0  T
  24    -63.5831960  0.272613E-03  0.159E-01    0.05       1.0  T
  25    -63.5835379 -0.341869E-03  0.146E-01    0.05       1.0  T
  26    -63.5839981 -0.460200E-03  0.123E-01    0.05       1.0  T
  27    -63.5842421 -0.244030E-03  0.108E-01    0.05       1.0  T
  28    -63.5843775 -0.135412E-03  0.995E-02    0.05       1.0  T
  29    -63.5841649  0.212670E-03  0.110E-01    0.05       1.0  T
  30    -63.5842025 -0.376770E-04  0.111E-01    0.05       1.0  T
  31    -63.5845258 -0.323237E-03  0.909E-02    0.05       1.0  T
  32    -63.5848847 -0.358931E-03  0.574E-02    0.05       1.0  T
  33    -63.5850361 -0.151406E-03  0.380E-02    0.06       1.0  T
  34    -63.5850576 -0.214649E-04  0.342E-02    0.05       1.0  T
  35    -63.5850772 -0.195718E-04  0.276E-02    0.05       1.0  T
  36    -63.5851346 -0.574532E-04  0.142E-02    0.06       1.0  T
  37    -63.5851311  0.348731E-05  0.153E-02    0.06       1.0  T
  38    -63.5851267  0.444188E-05  0.147E-02    0.06       1.0  T
  39    -63.5851352 -0.853688E-05  0.120E-02    0.06       1.0  T
  40    -63.5851319  0.328426E-05  0.124E-02    0.06       1.0  T
  41    -63.5851336 -0.166732E-05  0.121E-02    0.06       1.0  T
  42    -63.5851408 -0.719498E-05  0.982E-03    0.06       1.3  T
  43    -63.5851428 -0.203846E-05  0.885E-03    0.06       1.4  T
  44    -63.5851456 -0.273415E-05  0.735E-03    0.06       1.7  T
  45    -63.5851482 -0.266012E-05  0.530E-03    0.06       2.4  T
  46    -63.5851491 -0.825993E-06  0.423E-03    0.06       3.0  T
  47    -63.5851499 -0.862158E-06  0.279E-03    0.06       4.5  T
  48    -63.5851504 -0.472681E-06  0.152E-03    0.06       8.3  T
  49    -63.5851506 -0.196891E-06  0.309E-04    0.06      40.7  T
  50    -63.5851506  0.149817E-08  0.212E-04    0.06      59.3  T
     SCC iter.                  ...        0 min,  6.307 sec
     gradient                   ...        0 min,  0.076 sec
 * total energy  :   -62.3867819 Eh     change       -0.8815405E-01 Eh
   gradient norm :     0.1201967 Eh/α   predicted    -0.8845491E-01 (   0.34%)
   displ. norm   :     0.8825695 α      lambda       -0.9250088E-01
   maximum displ.:     0.2924723 α      in ANC's #76, #29, #83, ...

........................................................................
.............................. CYCLE   26 ..............................
........................................................................

 iter      E             dE          RMSdq      gap      omega  full diag
   1    -63.5720190 -0.635720E+02  0.111E+00    0.01       0.0  T
   2    -59.5803353  0.399168E+01  0.647E+00    0.18       1.0  T
   3    -62.7477379 -0.316740E+01  0.286E+00    0.10       1.0  T
   4    -61.2833377  0.146440E+01  0.372E+00    0.05       1.0  T
   5    -62.8382969 -0.155496E+01  0.222E+00    0.10       1.0  T
   6    -63.5477832 -0.709486E+00  0.786E-01    0.11       1.0  T
   7    -63.1248457  0.422938E+00  0.200E+00    0.04       1.0  T
   8    -63.4946635 -0.369818E+00  0.100E+00    0.01       1.0  T
   9    -63.4118376  0.828259E-01  0.130E+00    0.01       1.0  T
  10    -63.4728311 -0.609935E-01  0.115E+00    0.01       1.0  T
  11    -63.5602602 -0.874291E-01  0.677E-01    0.00       1.0  T
  12    -63.5500691  0.101911E-01  0.728E-01    0.07       1.0  T
  13    -63.5610579 -0.109888E-01  0.656E-01    0.10       1.0  T
  14    -63.5994447 -0.383868E-01  0.470E-01    0.06       1.0  T
  15    -63.6150200 -0.155752E-01  0.333E-01    0.05       1.0  T
  16    -63.6153835 -0.363491E-03  0.307E-01    0.05       1.0  T
  17    -63.6161186 -0.735087E-03  0.293E-01    0.05       1.0  T
  18    -63.6174441 -0.132554E-02  0.270E-01    0.04       1.0  T
  19    -63.6152028  0.224126E-02  0.279E-01    0.05       1.0  T
  20    -63.6178569 -0.265405E-02  0.214E-01    0.04       1.0  T
  21    -63.6163940  0.146290E-02  0.219E-01    0.05       1.0  T
  22    -63.6164368 -0.428284E-04  0.210E-01    0.05       1.0  T
  23    -63.6175417 -0.110484E-02  0.186E-01    0.04       1.0  T
  24    -63.6184147 -0.873080E-03  0.160E-01    0.04       1.0  T
  25    -63.6193308 -0.916026E-03  0.116E-01    0.04       1.0  T
  26    -63.6198398 -0.509055E-03  0.844E-02    0.04       1.0  T
  27    -63.6200045 -0.164707E-03  0.734E-02    0.03       1.0  T
  28    -63.6200578 -0.533224E-04  0.678E-02    0.03       1.0  T
  29    -63.6203179 -0.260069E-03  0.520E-02    0.03       1.0  T
  30    -63.6203843 -0.663755E-04  0.381E-02    0.03       1.0  T
  31    -63.6204409 -0.565719E-04  0.360E-02    0.03       1.0  T
  32    -63.6204460 -0.517736E-05  0.355E-02    0.03       1.0  T
  33    -63.6204580 -0.119179E-04  0.310E-02    0.03       1.0  T
  34    -63.6204525  0.544110E-05  0.316E-02    0.03       1.0  T
  35    -63.6204557 -0.322314E-05  0.310E-02    0.03       1.0  T
  36    -63.6204711 -0.153628E-04  0.279E-02    0.03       1.0  T
  37    -63.6204814 -0.102692E-04  0.253E-02    0.03       1.0  T
  38    -63.6204878 -0.639527E-05  0.226E-02    0.03       1.0  T
  39    -63.6204884 -0.659886E-06  0.218E-02    0.03       1.0  T
  40    -63.6204898 -0.138015E-05  0.201E-02    0.03       1.0  T
  41    -63.6204890  0.773981E-06  0.175E-02    0.03       1.0  T
  42    -63.6204887  0.357093E-06  0.172E-02    0.03       1.0  T
  43    -63.6204916 -0.294163E-05  0.151E-02    0.03       1.0  T
  44    -63.6204918 -0.229027E-06  0.138E-02    0.03       1.0  T
  45    -63.6204924 -0.569691E-06  0.125E-02    0.03       1.0  T
  46    -63.6204935 -0.103820E-05  0.109E-02    0.03       1.2  T
  47    -63.6204958 -0.231222E-05  0.712E-03    0.03       1.8  T
  48    -63.6204964 -0.685227E-06  0.408E-03    0.03       3.1  T
  49    -63.6204968 -0.361729E-06  0.214E-03    0.03       5.9  T
  50    -63.6204969 -0.125567E-06  0.785E-04    0.03      16.1  T
  51    -63.6204970 -0.184320E-07  0.291E-04    0.03      43.3  T
     SCC iter.                  ...        0 min,  2.119 sec
     gradient                   ...        0 min,  0.134 sec
 * total energy  :   -62.4729084 Eh     change       -0.8612646E-01 Eh
   gradient norm :     0.1147016 Eh/α   predicted    -0.8227625E-01 (  -4.47%)
   displ. norm   :     0.9254152 α      lambda       -0.9205875E-01
   maximum displ.:     0.2979436 α      in ANC's #110, #29, #76, ...

........................................................................
.............................. CYCLE   27 ..............................
........................................................................

 iter      E             dE          RMSdq      gap      omega  full diag
   1    -63.6295151 -0.636295E+02  0.139E+00    0.06       0.0  T
   2    -59.9511516  0.367836E+01  0.557E+00    0.09       1.0  T
   3    -63.3702577 -0.341911E+01  0.173E+00    0.00       1.0  T
   4    -61.4178739  0.195238E+01  0.364E+00    0.04       1.0  T
   5    -62.4406175 -0.102274E+01  0.270E+00    0.08       1.0  T
   6    -63.6211912 -0.118057E+01  0.100E+00    0.01       1.0  T
   7    -62.7600996  0.861092E+00  0.230E+00    0.01       1.0  T
   8    -63.5284210 -0.768321E+00  0.118E+00    0.02       1.0  T
   9    -63.1267889  0.401632E+00  0.178E+00    0.02       1.0  T
  10    -63.3844660 -0.257677E+00  0.132E+00    0.02       1.0  T
  11    -63.4563187 -0.718527E-01  0.114E+00    0.03       1.0  T
  12    -63.6144399 -0.158121E+00  0.741E-01    0.00       1.0  T
  13    -63.5209109  0.935290E-01  0.132E+00    0.05       1.0  T
  14    -63.6656427 -0.144732E+00  0.460E-01    0.00       1.0  T
  15    -63.6658276 -0.184859E-03  0.421E-01    0.01       1.0  T
  16    -63.6597238  0.610378E-02  0.435E-01    0.01       1.0  T
  17    -63.6571406  0.258321E-02  0.447E-01    0.01       1.0  T
  18    -63.6562795  0.861130E-03  0.450E-01    0.01       1.0  T
  19    -63.6639152 -0.763577E-02  0.389E-01    0.01       1.0  T
  20    -63.6744418 -0.105265E-01  0.260E-01    0.01       1.0  T
  21    -63.6700842  0.435759E-02  0.298E-01    0.00       1.0  T
  22    -63.6746119 -0.452765E-02  0.262E-01    0.00       1.0  T
  23    -63.6746888 -0.769106E-04  0.261E-01    0.00       1.0  T
  24    -63.6758782 -0.118942E-02  0.199E-01    0.00       1.0  T
  25    -63.6746142  0.126397E-02  0.234E-01    0.00       1.0  T
  26    -63.6764801 -0.186591E-02  0.199E-01    0.00       1.0  T
  27    -63.6751629  0.131719E-02  0.215E-01    0.00       1.0  T
  28    -63.6741701  0.992851E-03  0.213E-01    0.00       1.0  T
  29    -63.6772067 -0.303662E-02  0.137E-01    0.00       1.0  T
  30    -63.6783934 -0.118672E-02  0.922E-02    0.00       1.0  T
  31    -63.6787615 -0.368033E-03  0.624E-02    0.00       1.0  T
  32    -63.6782612  0.500249E-03  0.710E-02    0.00       1.0  T
  33    -63.6779391  0.322133E-03  0.779E-02    0.00       1.0  T
  34    -63.6776067  0.332369E-03  0.882E-02    0.00       1.0  T
  35    -63.6781094 -0.502728E-03  0.688E-02    0.00       1.0  T
  36    -63.6785363 -0.426904E-03  0.482E-02    0.00       1.0  T
  37    -63.6786535 -0.117164E-03  0.411E-02    0.00       1.0  T
  38    -63.6788404 -0.186910E-03  0.244E-02    0.00       1.0  T
  39    -63.6789092 -0.688163E-04  0.149E-02    0.00       1.0  T
  40    -63.6789220 -0.127595E-04  0.119E-02    0.00       1.1  T
  41    -63.6789278 -0.576726E-05  0.898E-03    0.00       1.4  T
  42    -63.6789290 -0.122780E-05  0.776E-03    0.00       1.6  T
  43    -63.6789312 -0.218187E-05  0.644E-03    0.00       2.0  T
  44    -63.6789302  0.993989E-06  0.667E-03    0.00       1.9  T
  45    -63.6789339 -0.372689E-05  0.379E-03    0.00       3.3  T
  46    -63.6789350 -0.109169E-05  0.186E-03    0.00       6.8  T
  47    -63.6789349  0.136627E-06  0.204E-03    0.00       6.2  T
  48    -63.6789352 -0.291113E-06  0.141E-03    0.00       8.9  T
  49    -63.6789352 -0.584332E-07  0.113E-03    0.00      11.1  T
  50    -63.6789354 -0.156725E-06  0.489E-04    0.00      25.8  T
  51    -63.6789354 -0.188772E-07  0.259E-04    0.00      48.6  T
     SCC iter.                  ...        0 min,  2.777 sec
     gradient                   ...        0 min,  0.102 sec
 * total energy  :   -62.5555356 Eh     change       -0.8262721E-01 Eh
   gradient norm :     0.1244647 Eh/α   predicted    -0.8544860E-01 (   3.41%)
   displ. norm   :     0.8665853 α      lambda       -0.8005098E-01
   maximum displ.:     0.3209181 α      in ANC's #29, #76, #110, ...

........................................................................
.............................. CYCLE   28 ..............................
........................................................................

 iter      E             dE          RMSdq      gap      omega  full diag
   1    -63.6265632 -0.636266E+02  0.161E+00    0.05       0.0  T
   2    -58.1057657  0.552080E+01  0.569E+00    0.12       1.0  T
   3    -62.0546704 -0.394890E+01  0.253E+00    0.20       1.0  T
   4    -60.9143295  0.114034E+01  0.317E+00    0.03       1.0  T
   5    -61.8753432 -0.961014E+00  0.363E+00    0.17       1.0  T
   6    -63.5116086 -0.163627E+01  0.141E+00    0.02       1.0  T
   7    -63.4741562  0.374525E-01  0.163E+00    0.01       1.0  T
   8    -63.3045010  0.169655E+00  0.161E+00    0.03       1.0  T
   9    -63.4578263 -0.153325E+00  0.145E+00    0.02       1.0  T
  10    -63.4100984  0.477278E-01  0.164E+00    0.08       1.0  T
  11    -63.5190393 -0.108941E+00  0.131E+00    0.05       1.0  T
  12    -63.7073857 -0.188346E+00  0.760E-01    0.01       1.0  T
  13    -63.6694975  0.378883E-01  0.994E-01    0.06       1.0  T
  14    -63.7195297 -0.500322E-01  0.434E-01    0.00       1.0  T
  15    -63.7313039 -0.117743E-01  0.356E-01    0.00       1.0  T
  16    -63.7288940  0.240991E-02  0.444E-01    0.01       1.0  T
  17    -63.7317580 -0.286393E-02  0.313E-01    0.00       1.0  T
  18    -63.7302936  0.146434E-02  0.286E-01    0.00       1.0  T
  19    -63.7062567  0.240369E-01  0.589E-01    0.01       1.0  T
  20    -63.6917433  0.145134E-01  0.757E-01    0.00       1.0  T
  21    -63.6960336 -0.429032E-02  0.710E-01    0.00       1.0  T
  22    -63.6919380  0.409563E-02  0.721E-01    0.00       1.0  T
  23    -63.7102449 -0.183069E-01  0.548E-01    0.00       1.0  T
  24    -63.7206110 -0.103661E-01  0.420E-01    0.00       1.0  T
  25    -63.7255690 -0.495802E-02  0.350E-01    0.00       1.0  T
  26    -63.7264439 -0.874919E-03  0.341E-01    0.00       1.0  T
  27    -63.7290659 -0.262198E-02  0.288E-01    0.00       1.0  T
  28    -63.7340742 -0.500825E-02  0.145E-01    0.01       1.0  T
  29    -63.7345836 -0.509400E-03  0.122E-01    0.01       1.0  T
  30    -63.7345885 -0.498672E-05  0.120E-01    0.01       1.0  T
  31    -63.7345936 -0.505774E-05  0.119E-01    0.01       1.0  T
  32    -63.7353368 -0.743231E-03  0.556E-02    0.01       1.0  T
  33    -63.7353078  0.290153E-04  0.613E-02    0.01       1.0  T
  34    -63.7353291 -0.213039E-04  0.587E-02    0.01       1.0  T
  35    -63.7353794 -0.502338E-04  0.524E-02    0.01       1.0  T
  36    -63.7354479 -0.685881E-04  0.404E-02    0.01       1.0  T
  37    -63.7355012 -0.532141E-04  0.331E-02    0.01       1.0  T
  38    -63.7355292 -0.280416E-04  0.259E-02    0.01       1.0  T
  39    -63.7355126  0.165541E-04  0.313E-02    0.01       1.0  T
  40    -63.7355031  0.949870E-05  0.348E-02    0.01       1.0  T
  41    -63.7355131 -0.991004E-05  0.316E-02    0.01       1.0  T
  42    -63.7355373 -0.242782E-04  0.226E-02    0.01       1.0  T
  43    -63.7355548 -0.174761E-04  0.135E-02    0.01       1.0  T
  44    -63.7355641 -0.931716E-05  0.612E-03    0.01       2.1  T
  45    -63.7355652 -0.111363E-05  0.386E-03    0.01       3.3  T
  46    -63.7355595  0.578613E-05  0.992E-03    0.01       1.3  T
  47    -63.7355650 -0.553154E-05  0.426E-03    0.01       3.0  T
  48    -63.7355661 -0.110338E-05  0.145E-03    0.01       8.7  T
  49    -63.7355661 -0.244080E-07  0.145E-03    0.01       8.7  T
  50    -63.7355661 -0.563986E-09  0.144E-03    0.01       8.7  T
  51    -63.7355661 -0.104796E-07  0.148E-03    0.01       8.5  T
  52    -63.7355662 -0.343416E-07  0.130E-03    0.01       9.7  T
  53    -63.7355662 -0.297501E-07  0.989E-04    0.01      12.7  T
  54    -63.7355662 -0.459501E-07  0.525E-04    0.01      24.0  T
     SCC iter.                  ...        0 min,  2.482 sec
     gradient                   ...        0 min,  0.162 sec
 * total energy  :   -62.6277605 Eh     change       -0.7222490E-01 Eh
   gradient norm :     0.1418224 Eh/α   predicted    -0.7008342E-01 (  -2.97%)
   displ. norm   :     0.8450139 α      lambda       -0.8145607E-01
   maximum displ.:     0.3671458 α      in ANC's #29, #76, #110, ...

........................................................................
.............................. CYCLE   29 ..............................
........................................................................

 iter      E             dE          RMSdq      gap      omega  full diag
   1    -63.6770005 -0.636770E+02  0.131E+00    0.11       0.0  T
   2    -57.9799448  0.569706E+01  0.577E+00    0.15       1.0  T
   3    -63.6513828 -0.567144E+01  0.113E+00    0.05       1.0  T
   4    -62.7776105  0.873772E+00  0.286E+00    0.05       1.0  T
   5    -63.4372853 -0.659675E+00  0.183E+00    0.07       1.0  T
   6    -63.4712341 -0.339488E-01  0.170E+00    0.11       1.0  T
   7    -63.2450352  0.226199E+00  0.231E+00    0.03       1.0  T
   8    -63.0283217  0.216713E+00  0.224E+00    0.17       1.0  T
   9    -63.0251355  0.318621E-02  0.220E+00    0.19       1.0  T
  10    -63.6241800 -0.599045E+00  0.147E+00    0.10       1.0  T
  11    -63.7062109 -0.820308E-01  0.112E+00    0.06       1.0  T
  12    -63.7252758 -0.190649E-01  0.102E+00    0.06       1.0  T
  13    -63.7207085  0.456734E-02  0.103E+00    0.08       1.0  T
  14    -63.7258845 -0.517603E-02  0.936E-01    0.08       1.0  T
  15    -63.7516024 -0.257179E-01  0.676E-01    0.06       1.0  T
  16    -63.7685891 -0.169866E-01  0.428E-01    0.05       1.0  T
  17    -63.7847497 -0.161607E-01  0.205E-01    0.03       1.0  T
  18    -63.7847893 -0.395364E-04  0.215E-01    0.02       1.0  T
  19    -63.7853471 -0.557859E-03  0.161E-01    0.03       1.0  T
  20    -63.7850525  0.294622E-03  0.119E-01    0.03       1.0  T
  21    -63.7859766 -0.924063E-03  0.906E-02    0.03       1.0  T
  22    -63.7862942 -0.317579E-03  0.635E-02    0.03       1.0  T
  23    -63.7863163 -0.221543E-04  0.600E-02    0.03       1.0  T
  24    -63.7863974 -0.811235E-04  0.765E-02    0.03       1.0  T
  25    -63.7864094 -0.119219E-04  0.663E-02    0.03       1.0  T
  26    -63.7865451 -0.135783E-03  0.286E-02    0.03       1.0  T
  27    -63.7865562 -0.110609E-04  0.233E-02    0.03       1.0  T
  28    -63.7865969 -0.407238E-04  0.116E-02    0.03       1.1  T
  29    -63.7865836  0.132955E-04  0.166E-02    0.03       1.0  T
  30    -63.7866019 -0.182609E-04  0.710E-03    0.03       1.8  T
  31    -63.7865989  0.300044E-05  0.110E-02    0.03       1.1  T
  32    -63.7866013 -0.237087E-05  0.910E-03    0.03       1.4  T
  33    -63.7866057 -0.446069E-05  0.356E-03    0.03       3.5  T
  34    -63.7866044  0.131101E-05  0.554E-03    0.03       2.3  T
  35    -63.7866059 -0.149757E-05  0.295E-03    0.03       4.3  T
  36    -63.7866064 -0.462740E-06  0.143E-03    0.03       8.8  T
  37    -63.7866061  0.245114E-06  0.231E-03    0.03       5.5  T
  38    -63.7866064 -0.302177E-06  0.127E-03    0.03       9.9  T
  39    -63.7866065 -0.887723E-07  0.613E-04    0.03      20.6  T
  40    -63.7866065 -0.664537E-08  0.598E-04    0.03      21.1  T
     SCC iter.                  ...        0 min,  1.509 sec
     gradient                   ...        0 min,  0.092 sec
 * total energy  :   -62.6994377 Eh     change       -0.7167722E-01 Eh
   gradient norm :     0.1294546 Eh/α   predicted    -0.6980982E-01 (  -2.61%)
   displ. norm   :     0.8277726 α      lambda       -0.7823353E-01
   maximum displ.:     0.4274291 α      in ANC's #29, #76, #110, ...

........................................................................
.............................. CYCLE   30 ..............................
........................................................................

 iter      E             dE          RMSdq      gap      omega  full diag
   1    -63.7988976 -0.637989E+02  0.115E+00    0.07       0.0  T
   2    -61.4064619  0.239244E+01  0.404E+00    0.07       1.0  T
   3    -63.6800636 -0.227360E+01  0.116E+00    0.13       1.0  T
   4    -62.8921129  0.787951E+00  0.302E+00    0.07       1.0  T
   5    -63.7291184 -0.837005E+00  0.123E+00    0.03       1.0  T
   6    -63.1688892  0.560229E+00  0.233E+00    0.10       1.0  T
   7    -63.3407444 -0.171855E+00  0.209E+00    0.10       1.0  T
   8    -63.3290036  0.117408E-01  0.206E+00    0.09       1.0  T
   9    -63.5319476 -0.202944E+00  0.160E+00    0.08       1.0  T
  10    -63.4417418  0.902058E-01  0.167E+00    0.10       1.0  T
  11    -63.7656247 -0.323883E+00  0.904E-01    0.07       1.0  T
  12    -63.7545445  0.110802E-01  0.956E-01    0.06       1.0  T
  13    -63.8241869 -0.696424E-01  0.471E-01    0.04       1.0  T
  14    -63.8256286 -0.144167E-02  0.529E-01    0.06       1.0  T
  15    -63.8307212 -0.509258E-02  0.438E-01    0.05       1.0  T
  16    -63.8314751 -0.753907E-03  0.420E-01    0.05       1.0  T
  17    -63.8318631 -0.388007E-03  0.390E-01    0.05       1.0  T
  18    -63.8400498 -0.818678E-02  0.196E-01    0.04       1.0  T
  19    -63.8405349 -0.485094E-03  0.183E-01    0.04       1.0  T
  20    -63.8400044  0.530548E-03  0.198E-01    0.04       1.0  T
  21    -63.8425026 -0.249818E-02  0.892E-02    0.03       1.0  T
  22    -63.8408407  0.166186E-02  0.174E-01    0.04       1.0  T
  23    -63.8426742 -0.183344E-02  0.590E-02    0.04       1.0  T
  24    -63.8427423 -0.681057E-04  0.626E-02    0.03       1.0  T
  25    -63.8428006 -0.583768E-04  0.495E-02    0.03       1.0  T
  26    -63.8427560  0.446373E-04  0.585E-02    0.03       1.0  T
  27    -63.8428259 -0.699242E-04  0.465E-02    0.03       1.0  T
  28    -63.8427972  0.287675E-04  0.517E-02    0.03       1.0  T
  29    -63.8428630 -0.658133E-04  0.376E-02    0.03       1.0  T
  30    -63.8429020 -0.390666E-04  0.231E-02    0.04       1.0  T
  31    -63.8429097 -0.769402E-05  0.178E-02    0.04       1.0  T
  32    -63.8429099 -0.168349E-06  0.161E-02    0.04       1.0  T
  33    -63.8428967  0.132242E-04  0.182E-02    0.04       1.0  T
  34    -63.8429157 -0.189908E-04  0.128E-02    0.04       1.0  T
  35    -63.8429182 -0.249153E-05  0.810E-03    0.04       1.6  T
  36    -63.8429200 -0.182860E-05  0.504E-03    0.04       2.5  T
  37    -63.8429214 -0.145111E-05  0.149E-03    0.04       8.5  T
  38    -63.8429216 -0.165058E-06  0.838E-04    0.04      15.0  T
  39    -63.8429216 -0.147190E-07  0.706E-04    0.04      17.8  T
     SCC iter.                  ...        0 min,  1.319 sec
     gradient                   ...        0 min,  0.080 sec
 * total energy  :   -62.7722554 Eh     change       -0.7281774E-01 Eh
   gradient norm :     0.1281887 Eh/α   predicted    -0.6591989E-01 (  -9.47%)
   displ. norm   :     0.8750844 α      lambda       -0.8784965E-01
   maximum displ.:     0.4276370 α      in ANC's #29, #76, #113, ...

........................................................................
.............................. CYCLE   31 ..............................
........................................................................

 iter      E             dE          RMSdq      gap      omega  full diag
   1    -63.8827128 -0.638827E+02  0.126E+00    0.02       0.0  T
   2    -63.2022766  0.680436E+00  0.241E+00    0.10       1.0  T
   3    -63.4720647 -0.269788E+00  0.174E+00    0.38       1.0  T
   4    -63.2668131  0.205252E+00  0.250E+00    0.02       1.0  T
   5    -63.6883629 -0.421550E+00  0.148E+00    0.03       1.0  T
   6    -63.3746406  0.313722E+00  0.204E+00    0.11       1.0  T
   7    -63.6706634 -0.296023E+00  0.143E+00    0.02       1.0  T
   8    -63.7599486 -0.892852E-01  0.108E+00    0.04       1.0  T
   9    -63.8744096 -0.114461E+00  0.563E-01    0.02       1.0  T
  10    -63.7913712  0.830384E-01  0.103E+00    0.11       1.0  T
  11    -63.8507207 -0.593495E-01  0.855E-01    0.10       1.0  T
  12    -63.8505824  0.138354E-03  0.844E-01    0.10       1.0  T
  13    -63.8520586 -0.147628E-02  0.823E-01    0.10       1.0  T
  14    -63.8537686 -0.170997E-02  0.806E-01    0.09       1.0  T
  15    -63.8551082 -0.133954E-02  0.794E-01    0.09       1.0  T
  16    -63.8734672 -0.183590E-01  0.634E-01    0.07       1.0  T
  17    -63.8937011 -0.202339E-01  0.424E-01    0.04       1.0  T
  18    -63.8899037  0.379739E-02  0.463E-01    0.05       1.0  T
  19    -63.8965259 -0.662221E-02  0.364E-01    0.03       1.0  T
  20    -63.9064901 -0.996416E-02  0.157E-01    0.02       1.0  T
  21    -63.9082075 -0.171747E-02  0.105E-01    0.00       1.0  T
  22    -63.9084812 -0.273718E-03  0.740E-02    0.01       1.0  T
  23    -63.9084674  0.138386E-04  0.768E-02    0.01       1.0  T
  24    -63.9084463  0.211057E-04  0.586E-02    0.01       1.0  T
  25    -63.9085815 -0.135213E-03  0.404E-02    0.01       1.0  T
  26    -63.9086182 -0.366986E-04  0.286E-02    0.01       1.0  T
  27    -63.9086257 -0.751045E-05  0.264E-02    0.01       1.0  T
  28    -63.9086069  0.187931E-04  0.277E-02    0.01       1.0  T
  29    -63.9083856  0.221303E-03  0.584E-02    0.01       1.0  T
  30    -63.9086771 -0.291496E-03  0.112E-02    0.01       1.1  T
  31    -63.9086461  0.310033E-04  0.225E-02    0.01       1.0  T
  32    -63.9086445  0.162326E-05  0.227E-02    0.01       1.0  T
  33    -63.9086889 -0.443879E-04  0.502E-03    0.01       2.5  T
  34    -63.9086772  0.117300E-04  0.122E-02    0.01       1.0  T
  35    -63.9086898 -0.126261E-04  0.263E-03    0.01       4.8  T
  36    -63.9086898  0.361159E-08  0.298E-03    0.01       4.2  T
  37    -63.9086893  0.462625E-06  0.295E-03    0.01       4.3  T
  38    -63.9086894 -0.820366E-07  0.278E-03    0.01       4.5  T
  39    -63.9086900 -0.630547E-06  0.801E-04    0.01      15.7  T
  40    -63.9086900  0.518105E-07  0.104E-03    0.01      12.1  T
  41    -63.9086900 -0.693048E-07  0.526E-04    0.01      24.0  T
     SCC iter.                  ...        0 min,  1.287 sec
     gradient                   ...        0 min,  0.097 sec
 * total energy  :   -62.8543495 Eh     change       -0.8209407E-01 Eh
   gradient norm :     0.1295673 Eh/α   predicted    -0.7756129E-01 (  -5.52%)
   displ. norm   :     0.9174126 α      lambda       -0.8963212E-01
   maximum displ.:     0.4513915 α      in ANC's #29, #76, #110, ...

........................................................................
.............................. CYCLE   32 ..............................
........................................................................

 iter      E             dE          RMSdq      gap      omega  full diag
   1    -63.9489311 -0.639489E+02  0.140E+00    0.03       0.0  T
   2    -63.7358836  0.213048E+00  0.153E+00    0.03       1.0  T
   3    -63.3333045  0.402579E+00  0.270E+00    0.18       1.0  T
   4    -63.6581925 -0.324888E+00  0.175E+00    0.33       1.0  T
   5    -63.7037902 -0.455977E-01  0.156E+00    0.21       1.0  T
   6    -63.9273155 -0.223525E+00  0.687E-01    0.08       1.0  T
   7    -63.9475412 -0.202256E-01  0.501E-01    0.01       1.0  T
   8    -63.9584086 -0.108675E-01  0.390E-01    0.02       1.0  T
   9    -63.9606365 -0.222787E-02  0.340E-01    0.01       1.0  T
  10    -63.9608635 -0.227051E-03  0.341E-01    0.02       1.0  T
  11    -63.9623130 -0.144945E-02  0.319E-01    0.01       1.0  T
  12    -63.9689676 -0.665465E-02  0.153E-01    0.02       1.0  T
  13    -63.9682452  0.722444E-03  0.190E-01    0.04       1.0  T
  14    -63.9688058 -0.560592E-03  0.165E-01    0.04       1.0  T
  15    -63.9696955 -0.889688E-03  0.993E-02    0.03       1.0  T
  16    -63.9699511 -0.255594E-03  0.584E-02    0.03       1.0  T
  17    -63.9700745 -0.123485E-03  0.221E-02    0.02       1.0  T
  18    -63.9700422  0.323387E-04  0.285E-02    0.03       1.0  T
  19    -63.9700110  0.312259E-04  0.330E-02    0.03       1.0  T
  20    -63.9700390 -0.280146E-04  0.248E-02    0.03       1.0  T
  21    -63.9700891 -0.500937E-04  0.938E-03    0.02       1.3  T
  22    -63.9700978 -0.870503E-05  0.321E-03    0.02       3.9  T
  23    -63.9700982 -0.448946E-06  0.244E-03    0.02       5.2  T
  24    -63.9700984 -0.150151E-06  0.198E-03    0.02       6.4  T
  25    -63.9700985 -0.719100E-07  0.138E-03    0.02       9.1  T
  26    -63.9700985 -0.808121E-07  0.818E-04    0.02      15.4  T
  27    -63.9700986 -0.286517E-07  0.481E-04    0.02      26.2  T
     SCC iter.                  ...        0 min,  0.907 sec
     gradient                   ...        0 min,  0.118 sec
 * total energy  :   -62.9316699 Eh     change       -0.7732043E-01 Eh
   gradient norm :     0.1187383 Eh/α   predicted    -0.8253531E-01 (   6.74%)
   displ. norm   :     0.8009085 α      lambda       -0.6963095E-01
   maximum displ.:     0.2205407 α      in ANC's #76, #29, #135, ...

........................................................................
.............................. CYCLE   33 ..............................
........................................................................

 iter      E             dE          RMSdq      gap      omega  full diag
   1    -64.0140984 -0.640141E+02  0.107E+00    0.07       0.0  T
   2    -63.8421867  0.171912E+00  0.140E+00    0.23       1.0  T
   3    -63.6427857  0.199401E+00  0.192E+00    0.31       1.0  T
   4    -63.8101845 -0.167399E+00  0.133E+00    0.20       1.0  T
   5    -63.9699019 -0.159717E+00  0.738E-01    0.18       1.0  T
   6    -63.9669835  0.291843E-02  0.707E-01    0.01       1.0  T
   7    -64.0190685 -0.520850E-01  0.266E-01    0.05       1.0  T
   8    -64.0237377 -0.466926E-02  0.202E-01    0.04       1.0  T
   9    -64.0233993  0.338498E-03  0.188E-01    0.03       1.0  T
  10    -64.0231335  0.265715E-03  0.148E-01    0.02       1.0  T
  11    -64.0239325 -0.798979E-03  0.115E-01    0.04       1.0  T
  12    -64.0240990 -0.166458E-03  0.763E-02    0.04       1.0  T
  13    -64.0239813  0.117691E-03  0.723E-02    0.04       1.0  T
  14    -64.0240184 -0.370729E-04  0.680E-02    0.04       1.0  T
  15    -64.0242575 -0.239171E-03  0.444E-02    0.04       1.0  T
  16    -64.0243453 -0.878078E-04  0.183E-02    0.04       1.0  T
  17    -64.0243555 -0.101805E-04  0.115E-02    0.03       1.1  T
  18    -64.0243620 -0.648072E-05  0.760E-03    0.04       1.7  T
  19    -64.0243621 -0.928531E-07  0.606E-03    0.04       2.1  T
  20    -64.0243643 -0.218177E-05  0.370E-03    0.04       3.4  T
  21    -64.0243652 -0.900925E-06  0.181E-03    0.04       7.0  T
  22    -64.0243654 -0.247677E-06  0.941E-04    0.04      13.4  T
  23    -64.0243655 -0.563244E-07  0.576E-04    0.04      21.9  T
     SCC iter.                  ...        0 min,  0.881 sec
     gradient                   ...        0 min,  0.108 sec
 * total energy  :   -62.9883104 Eh     change       -0.5664049E-01 Eh
   gradient norm :     0.1171584 Eh/α   predicted    -0.5714796E-01 (   0.90%)
   displ. norm   :     0.8007571 α      lambda       -0.6266564E-01
   maximum displ.:     0.2743703 α      in ANC's #110, #29, #76, ...

........................................................................
.............................. CYCLE   34 ..............................
........................................................................

 iter      E             dE          RMSdq      gap      omega  full diag
   1    -64.0316524 -0.640317E+02  0.104E+00    0.06       0.0  T
   2    -63.1073156  0.924337E+00  0.251E+00    0.01       1.0  T
   3    -64.0009383 -0.893623E+00  0.802E-01    0.05       1.0  T
   4    -63.8594825  0.141456E+00  0.149E+00    0.08       1.0  T
   5    -63.9056819 -0.461994E-01  0.118E+00    0.26       1.0  T
   6    -63.9360807 -0.303988E-01  0.113E+00    0.21       1.0  T
   7    -63.9972228 -0.611421E-01  0.849E-01    0.23       1.0  T
   8    -64.0088230 -0.116003E-01  0.788E-01    0.20       1.0  T
   9    -64.0424245 -0.336015E-01  0.571E-01    0.13       1.0  T
  10    -64.0542632 -0.118387E-01  0.412E-01    0.08       1.0  T
  11    -64.0582264 -0.396322E-02  0.346E-01    0.07       1.0  T
  12    -64.0634341 -0.520764E-02  0.185E-01    0.04       1.0  T
  13    -64.0596712  0.376284E-02  0.290E-01    0.06       1.0  T
  14    -64.0603045 -0.633277E-03  0.258E-01    0.06       1.0  T
  15    -64.0615200 -0.121552E-02  0.214E-01    0.05       1.0  T
  16    -64.0628277 -0.130761E-02  0.154E-01    0.04       1.0  T
  17    -64.0636575 -0.829851E-03  0.107E-01    0.04       1.0  T
  18    -64.0642772 -0.619698E-03  0.778E-02    0.03       1.0  T
  19    -64.0643665 -0.892974E-04  0.681E-02    0.03       1.0  T
  20    -64.0643765 -0.996652E-05  0.654E-02    0.03       1.0  T
  21    -64.0645266 -0.150085E-03  0.492E-02    0.03       1.0  T
  22    -64.0645574 -0.308167E-04  0.433E-02    0.02       1.0  T
  23    -64.0644982  0.591407E-04  0.486E-02    0.02       1.0  T
  24    -64.0645748 -0.765775E-04  0.274E-02    0.02       1.0  T
  25    -64.0645837 -0.892699E-05  0.166E-02    0.03       1.0  T
  26    -64.0645845 -0.804729E-06  0.140E-02    0.02       1.0  T
  27    -64.0646033 -0.187301E-04  0.278E-03    0.02       4.5  T
  28    -64.0646035 -0.250664E-06  0.101E-03    0.02      12.5  T
  29    -64.0646035 -0.665877E-08  0.106E-03    0.02      11.9  T
  30    -64.0646035  0.277285E-07  0.101E-03    0.02      12.5  T
  31    -64.0646035 -0.284707E-07  0.607E-04    0.02      20.8  T
  32    -64.0646035 -0.187905E-07  0.313E-04    0.02      40.3  T
     SCC iter.                  ...        0 min,  1.466 sec
     gradient                   ...        0 min,  0.284 sec
 * total energy  :   -63.0393778 Eh     change       -0.5106738E-01 Eh
   gradient norm :     0.1053026 Eh/α   predicted    -0.5142378E-01 (   0.70%)
   displ. norm   :     0.7977573 α      lambda       -0.5951138E-01
   maximum displ.:     0.3327624 α      in ANC's #80, #54, #157, ...

........................................................................
.............................. CYCLE   35 ..............................
........................................................................

 iter      E             dE          RMSdq      gap      omega  full diag
   1    -64.0573640 -0.640574E+02  0.115E+00    0.11       0.0  T
   2    -62.0442887  0.201308E+01  0.327E+00    0.11       1.0  T
   3    -64.0639208 -0.201963E+01  0.777E-01    0.04       1.0  T
   4    -63.5272559  0.536665E+00  0.202E+00    0.22       1.0  T
   5    -64.0899167 -0.562661E+00  0.647E-01    0.03       1.0  T
   6    -63.7770993  0.312817E+00  0.135E+00    0.19       1.0  T
   7    -64.0250627 -0.247963E+00  0.776E-01    0.19       1.0  T
   8    -64.0719548 -0.468921E-01  0.508E-01    0.14       1.0  T
   9    -64.0948645 -0.229097E-01  0.420E-01    0.00       1.0  T
  10    -64.1089687 -0.141042E-01  0.165E-01    0.01       1.0  T
  11    -64.1068417  0.212704E-02  0.232E-01    0.01       1.0  T
  12    -64.1071288 -0.287122E-03  0.212E-01    0.01       1.0  T
  13    -64.1082840 -0.115521E-02  0.172E-01    0.00       1.0  T
  14    -64.1095279 -0.124389E-02  0.107E-01    0.00       1.0  T
  15    -64.1094999  0.280029E-04  0.130E-01    0.01       1.0  T
  16    -64.1100540 -0.554160E-03  0.114E-01    0.01       1.0  T
  17    -64.1100029  0.511060E-04  0.116E-01    0.01       1.0  T
  18    -64.1102295 -0.226581E-03  0.756E-02    0.01       1.0  T
  19    -64.1104334 -0.203921E-03  0.322E-02    0.01       1.0  T
  20    -64.1104657 -0.322453E-04  0.311E-02    0.01       1.0  T
  21    -64.1104762 -0.105492E-04  0.284E-02    0.01       1.0  T
  22    -64.1104760  0.228878E-06  0.284E-02    0.01       1.0  T
  23    -64.1104726  0.344457E-05  0.242E-02    0.01       1.0  T
  24    -64.1104674  0.519906E-05  0.222E-02    0.01       1.0  T
  25    -64.1104708 -0.347149E-05  0.186E-02    0.01       1.0  T
  26    -64.1104808 -0.997236E-05  0.864E-03    0.01       1.5  T
  27    -64.1104832 -0.245017E-05  0.347E-03    0.01       3.6  T
  28    -64.1104833 -0.276031E-07  0.370E-03    0.01       3.4  T
  29    -64.1104831  0.136791E-06  0.336E-03    0.01       3.8  T
  30    -64.1104832 -0.801151E-07  0.328E-03    0.01       3.8  T
  31    -64.1104834 -0.165140E-06  0.133E-03    0.01       9.5  T
  32    -64.1104834 -0.293427E-07  0.729E-04    0.01      17.3  T
  33    -64.1104834 -0.726078E-08  0.546E-04    0.01      23.1  T
     SCC iter.                  ...        0 min,  1.255 sec
     gradient                   ...        0 min,  0.148 sec
 * total energy  :   -63.0862171 Eh     change       -0.4683930E-01 Eh
   gradient norm :     0.1079556 Eh/α   predicted    -0.4869271E-01 (   3.96%)
   displ. norm   :     0.8404100 α      lambda       -0.5677354E-01
   maximum displ.:     0.3361064 α      in ANC's #29, #80, #54, ...

........................................................................
.............................. CYCLE   36 ..............................
........................................................................

 iter      E             dE          RMSdq      gap      omega  full diag
   1    -64.1026714 -0.641027E+02  0.109E+00    0.15       0.0  T
   2    -62.6142212  0.148845E+01  0.291E+00    0.07       1.0  T
   3    -64.0680846 -0.145386E+01  0.840E-01    0.14       1.0  T
   4    -63.6918783  0.376206E+00  0.191E+00    0.14       1.0  T
   5    -64.0818014 -0.389923E+00  0.896E-01    0.11       1.0  T
   6    -64.0708486  0.109528E-01  0.922E-01    0.11       1.0  T
   7    -64.0453222  0.255264E-01  0.989E-01    0.14       1.0  T
   8    -64.0435113  0.181093E-02  0.955E-01    0.13       1.0  T
   9    -64.0951966 -0.516853E-01  0.765E-01    0.12       1.0  T
  10    -64.1474914 -0.522948E-01  0.316E-01    0.01       1.0  T
  11    -64.1496282 -0.213687E-02  0.260E-01    0.01       1.0  T
  12    -64.1501022 -0.473951E-03  0.248E-01    0.01       1.0  T
  13    -64.1502166 -0.114434E-03  0.243E-01    0.01       1.0  T
  14    -64.1506274 -0.410823E-03  0.226E-01    0.01       1.0  T
  15    -64.1517274 -0.109995E-02  0.183E-01    0.01       1.0  T
  16    -64.1533231 -0.159569E-02  0.109E-01    0.01       1.0  T
  17    -64.1538223 -0.499234E-03  0.633E-02    0.01       1.0  T
  18    -64.1539170 -0.946567E-04  0.456E-02    0.01       1.0  T
  19    -64.1539160  0.923201E-06  0.449E-02    0.02       1.0  T
  20    -64.1539461 -0.300774E-04  0.404E-02    0.01       1.0  T
  21    -64.1540345 -0.883935E-04  0.206E-02    0.01       1.0  T
  22    -64.1540515 -0.169547E-04  0.153E-02    0.01       1.0  T
  23    -64.1540538 -0.229592E-05  0.136E-02    0.01       1.0  T
  24    -64.1540594 -0.561578E-05  0.105E-02    0.01       1.2  T
  25    -64.1540649 -0.553313E-05  0.521E-03    0.01       2.4  T
  26    -64.1540683 -0.342446E-05  0.334E-03    0.01       3.8  T
  27    -64.1540684 -0.745942E-07  0.150E-03    0.01       8.4  T
  28    -64.1540682  0.188698E-06  0.232E-03    0.01       5.4  T
  29    -64.1540685 -0.273566E-06  0.128E-03    0.01       9.9  T
  30    -64.1540686 -0.637150E-07  0.859E-04    0.01      14.7  T
  31    -64.1540686 -0.405427E-07  0.370E-04    0.01      34.0  T
     SCC iter.                  ...        0 min,  1.244 sec
     gradient                   ...        0 min,  0.112 sec
 * total energy  :   -63.1304791 Eh     change       -0.4426201E-01 Eh
   gradient norm :     0.1026384 Eh/α   predicted    -0.4843609E-01 (   9.43%)
   displ. norm   :     0.8115933 α      lambda       -0.5370472E-01
   maximum displ.:     0.3247826 α      in ANC's #54, #80, #81, ...

........................................................................
.............................. CYCLE   37 ..............................
........................................................................

 iter      E             dE          RMSdq      gap      omega  full diag
   1    -64.1626591 -0.641627E+02  0.903E-01    0.09       0.0  T
   2    -63.6619653  0.500694E+00  0.206E+00    0.22       1.0  T
   3    -64.1260332 -0.464068E+00  0.756E-01    0.15       1.0  T
   4    -63.9150650  0.210968E+00  0.174E+00    0.06       1.0  T
   5    -64.1141821 -0.199117E+00  0.825E-01    0.03       1.0  T
   6    -64.0597001  0.544820E-01  0.982E-01    0.11       1.0  T
   7    -64.1639833 -0.104283E+00  0.471E-01    0.02       1.0  T
   8    -64.1772290 -0.132457E-01  0.247E-01    0.02       1.0  T
   9    -64.1798282 -0.259921E-02  0.220E-01    0.02       1.0  T
  10    -64.1799491 -0.120873E-03  0.195E-01    0.03       1.0  T
  11    -64.1803462 -0.397114E-03  0.179E-01    0.03       1.0  T
  12    -64.1814936 -0.114734E-02  0.143E-01    0.03       1.0  T
  13    -64.1817069 -0.213286E-03  0.123E-01    0.03       1.0  T
  14    -64.1818579 -0.151080E-03  0.105E-01    0.03       1.0  T
  15    -64.1820655 -0.207535E-03  0.886E-02    0.03       1.0  T
  16    -64.1822011 -0.135571E-03  0.728E-02    0.03       1.0  T
  17    -64.1823043 -0.103231E-03  0.531E-02    0.03       1.0  T
  18    -64.1823761 -0.718256E-04  0.250E-02    0.04       1.0  T
  19    -64.1824001 -0.240368E-04  0.125E-02    0.04       1.0  T
  20    -64.1824050 -0.481829E-05  0.786E-03    0.04       1.6  T
  21    -64.1824095 -0.454659E-05  0.439E-03    0.04       2.9  T
  22    -64.1824096 -0.110046E-06  0.432E-03    0.04       2.9  T
  23    -64.1824101 -0.499844E-06  0.222E-03    0.04       5.7  T
  24    -64.1824102 -0.115750E-06  0.131E-03    0.04       9.6  T
  25    -64.1824104 -0.154062E-06  0.483E-04    0.04      26.1  T
  26    -64.1824104 -0.197929E-07  0.281E-04    0.04      44.8  T
     SCC iter.                  ...        0 min,  1.018 sec
     gradient                   ...        0 min,  0.122 sec
 * total energy  :   -63.1731126 Eh     change       -0.4263351E-01 Eh
   gradient norm :     0.0964898 Eh/α   predicted    -0.4453959E-01 (   4.47%)
   displ. norm   :     0.7909076 α      lambda       -0.4447951E-01
   maximum displ.:     0.3348171 α      in ANC's #54, #80, #81, ...

........................................................................
.............................. CYCLE   38 ..............................
........................................................................

 iter      E             dE          RMSdq      gap      omega  full diag
   1    -64.2110095 -0.642110E+02  0.804E-01    0.06       0.0  T
   2    -64.1160717  0.949378E-01  0.103E+00    0.03       1.0  T
   3    -64.0304243  0.856474E-01  0.123E+00    0.40       1.0  T
   4    -64.0962278 -0.658034E-01  0.112E+00    0.03       1.0  T
   5    -64.1628103 -0.665825E-01  0.651E-01    0.15       1.0  T
   6    -64.2033432 -0.405329E-01  0.359E-01    0.04       1.0  T
   7    -64.2116273 -0.828410E-02  0.292E-01    0.08       1.0  T
   8    -64.2161276 -0.450029E-02  0.216E-01    0.08       1.0  T
   9    -64.2177466 -0.161901E-02  0.182E-01    0.08       1.0  T
  10    -64.2183501 -0.603457E-03  0.159E-01    0.08       1.0  T
  11    -64.2188673 -0.517277E-03  0.129E-01    0.07       1.0  T
  12    -64.2204397 -0.157234E-02  0.622E-02    0.07       1.0  T
  13    -64.2206759 -0.236205E-03  0.317E-02    0.06       1.0  T
  14    -64.2206833 -0.744045E-05  0.310E-02    0.06       1.0  T
  15    -64.2206855 -0.213003E-05  0.297E-02    0.06       1.0  T
  16    -64.2206871 -0.160731E-05  0.214E-02    0.06       1.0  T
  17    -64.2207111 -0.239897E-04  0.113E-02    0.06       1.1  T
  18    -64.2207195 -0.840029E-05  0.645E-03    0.06       2.0  T
  19    -64.2207223 -0.281179E-05  0.400E-03    0.06       3.1  T
  20    -64.2207228 -0.486497E-06  0.343E-03    0.06       3.7  T
  21    -64.2207230 -0.273415E-06  0.254E-03    0.06       5.0  T
  22    -64.2207235 -0.436791E-06  0.993E-04    0.06      12.7  T
  23    -64.2207236 -0.874732E-07  0.341E-04    0.06      37.0  T
     SCC iter.                  ...        0 min,  1.019 sec
     gradient                   ...        0 min,  0.112 sec
 * total energy  :   -63.2018128 Eh     change       -0.2870020E-01 Eh
   gradient norm :     0.0825097 Eh/α   predicted    -0.3615151E-01 (  25.96%)
   displ. norm   :     0.6032720 α      lambda       -0.2712387E-01
   maximum displ.:     0.2546314 α      in ANC's #2, #84, #72, ...

........................................................................
.............................. CYCLE   39 ..............................
........................................................................

 iter      E             dE          RMSdq      gap      omega  full diag
   1    -64.2397688 -0.642398E+02  0.757E-01    0.08       0.0  T
   2    -64.0993176  0.140451E+00  0.111E+00    0.04       1.0  T
   3    -64.0264009  0.729167E-01  0.128E+00    0.30       1.0  T
   4    -64.1461992 -0.119798E+00  0.998E-01    0.02       1.0  T
   5    -64.1549117 -0.871251E-02  0.849E-01    0.19       1.0  T
   6    -64.2237529 -0.688411E-01  0.492E-01    0.04       1.0  T
   7    -64.2154505  0.830232E-02  0.570E-01    0.13       1.0  T
   8    -64.2454759 -0.300254E-01  0.256E-01    0.11       1.0  T
   9    -64.2438478  0.162808E-02  0.274E-01    0.09       1.0  T
  10    -64.2465324 -0.268460E-02  0.224E-01    0.09       1.0  T
  11    -64.2483276 -0.179516E-02  0.177E-01    0.07       1.0  T
  12    -64.2495565 -0.122893E-02  0.119E-01    0.07       1.0  T
  13    -64.2503020 -0.745521E-03  0.715E-02    0.07       1.0  T
  14    -64.2505353 -0.233241E-03  0.460E-02    0.07       1.0  T
  15    -64.2505996 -0.642775E-04  0.358E-02    0.07       1.0  T
  16    -64.2506107 -0.111567E-04  0.314E-02    0.07       1.0  T
  17    -64.2506452 -0.345129E-04  0.193E-02    0.07       1.0  T
  18    -64.2506658 -0.205294E-04  0.789E-03    0.07       1.6  T
  19    -64.2506672 -0.145298E-05  0.463E-03    0.07       2.7  T
  20    -64.2506676 -0.388502E-06  0.399E-03    0.07       3.2  T
  21    -64.2506679 -0.261055E-06  0.318E-03    0.07       4.0  T
  22    -64.2506683 -0.449189E-06  0.159E-03    0.07       7.9  T
  23    -64.2506685 -0.148864E-06  0.453E-04    0.07      27.8  T
  24    -64.2506685 -0.955222E-08  0.465E-04    0.07      27.1  T
     SCC iter.                  ...        0 min,  0.993 sec
     gradient                   ...        0 min,  0.156 sec
 * total energy  :   -63.1898952 Eh     change        0.1191758E-01 Eh
   gradient norm :     0.2041852 Eh/α   predicted    -0.1849763E-01 (-255.21%)
   displ. norm   :     0.4241623 α      lambda       -0.6416328E-01
   maximum displ.:     0.1818992 α      in ANC's #2, #84, #72, ...

........................................................................
.............................. CYCLE   40 ..............................
........................................................................

 iter      E             dE          RMSdq      gap      omega  full diag
   1    -64.2558944 -0.642559E+02  0.627E-01    0.06       0.0  T
   2    -64.1876072  0.682872E-01  0.760E-01    0.14       1.0  T
   3    -64.0862274  0.101380E+00  0.118E+00    0.02       1.0  T
   4    -64.2149075 -0.128680E+00  0.719E-01    0.11       1.0  T
   5    -64.1313493  0.835582E-01  0.105E+00    0.00       1.0  T
   6    -64.2466659 -0.115317E+00  0.375E-01    0.10       1.0  T
   7    -64.2534861 -0.682022E-02  0.284E-01    0.04       1.0  T
   8    -64.2611868 -0.770067E-02  0.159E-01    0.08       1.0  T
   9    -64.2617533 -0.566520E-03  0.143E-01    0.07       1.0  T
  10    -64.2620400 -0.286717E-03  0.135E-01    0.08       1.0  T
  11    -64.2622764 -0.236385E-03  0.117E-01    0.07       1.0  T
  12    -64.2631229 -0.846519E-03  0.596E-02    0.07       1.0  T
  13    -64.2632668 -0.143953E-03  0.457E-02    0.06       1.0  T
  14    -64.2633945 -0.127615E-03  0.327E-02    0.06       1.0  T
  15    -64.2634010 -0.651830E-05  0.301E-02    0.06       1.0  T
  16    -64.2634229 -0.219154E-04  0.262E-02    0.06       1.0  T
  17    -64.2634790 -0.561510E-04  0.867E-03    0.06       1.5  T
  18    -64.2634859 -0.690089E-05  0.354E-03    0.06       3.6  T
  19    -64.2634865 -0.568071E-06  0.219E-03    0.06       5.8  T
  20    -64.2634867 -0.171592E-06  0.162E-03    0.06       7.8  T
  21    -64.2634868 -0.831845E-07  0.116E-03    0.06      10.8  T
  22    -64.2634868 -0.507166E-07  0.547E-04    0.06      23.1  T
  23    -64.2634868 -0.238358E-07  0.209E-04    0.06      60.3  T
     SCC iter.                  ...        0 min,  0.970 sec
     gradient                   ...        0 min,  0.107 sec
 * total energy  :   -63.2161077 Eh     change       -0.2621248E-01 Eh
   gradient norm :     0.0872746 Eh/α   predicted    -0.3785355E-01 (  44.41%)
   displ. norm   :     0.5941675 α      lambda       -0.3493591E-01
   maximum displ.:     0.2699731 α      in ANC's #58, #91, #93, ...

........................................................................
.............................. CYCLE   41 ..............................
........................................................................

 iter      E             dE          RMSdq      gap      omega  full diag
   1    -64.2442017 -0.642442E+02  0.645E-01    0.09       0.0  T
   2    -64.2180807  0.261210E-01  0.603E-01    0.07       1.0  T
   3    -64.1182922  0.997885E-01  0.115E+00    0.10       1.0  T
   4    -64.1306892 -0.123971E-01  0.909E-01    0.28       1.0  T
   5    -64.1867988 -0.561096E-01  0.674E-01    0.03       1.0  T
   6    -64.2371082 -0.503094E-01  0.289E-01    0.15       1.0  T
   7    -64.2445005 -0.739226E-02  0.173E-01    0.08       1.0  T
   8    -64.2453549 -0.854429E-03  0.151E-01    0.11       1.0  T
   9    -64.2459397 -0.584779E-03  0.129E-01    0.10       1.0  T
  10    -64.2465481 -0.608450E-03  0.106E-01    0.10       1.0  T
  11    -64.2470949 -0.546782E-03  0.650E-02    0.09       1.0  T
  12    -64.2473220 -0.227064E-03  0.315E-02    0.09       1.0  T
  13    -64.2473847 -0.626754E-04  0.172E-02    0.09       1.0  T
  14    -64.2474005 -0.158353E-04  0.114E-02    0.09       1.1  T
  15    -64.2474031 -0.259500E-05  0.861E-03    0.09       1.5  T
  16    -64.2474024  0.666846E-06  0.825E-03    0.09       1.5  T
  17    -64.2474059 -0.351289E-05  0.451E-03    0.09       2.8  T
  18    -64.2474073 -0.132560E-05  0.197E-03    0.09       6.4  T
  19    -64.2474074 -0.132759E-06  0.128E-03    0.09       9.9  T
  20    -64.2474074 -0.697911E-08  0.101E-03    0.09      12.4  T
  21    -64.2474075 -0.515440E-07  0.719E-04    0.09      17.5  T
  22    -64.2474075 -0.322501E-07  0.294E-04    0.09      42.9  T
     SCC iter.                  ...        0 min,  0.829 sec
     gradient                   ...        0 min,  0.114 sec
 * total energy  :   -63.2139775 Eh     change        0.2130224E-02 Eh
   gradient norm :     0.1220840 Eh/α   predicted    -0.2363476E-01 (*******%)
   displ. norm   :     0.4097166 α      lambda       -0.3242478E-01
   maximum displ.:     0.1808565 α      in ANC's #72, #61, #91, ...

........................................................................
.............................. CYCLE   42 ..............................
........................................................................

 iter      E             dE          RMSdq      gap      omega  full diag
   1    -64.2440835 -0.642441E+02  0.447E-01    0.14       0.0  T
   2    -63.9836142  0.260469E+00  0.148E+00    0.03       1.0  T
   3    -64.2045526 -0.220938E+00  0.621E-01    0.21       1.0  T
   4    -64.2403054 -0.357528E-01  0.353E-01    0.14       1.0  T
   5    -64.2422029 -0.189748E-02  0.259E-01    0.09       1.0  T
   6    -64.2472248 -0.502187E-02  0.135E-01    0.10       1.0  T
   7    -64.2483732 -0.114848E-02  0.962E-02    0.12       1.0  T
   8    -64.2483618  0.114752E-04  0.938E-02    0.11       1.0  T
   9    -64.2484491 -0.873784E-04  0.825E-02    0.11       1.0  T
  10    -64.2478954  0.553691E-03  0.843E-02    0.10       1.0  T
  11    -64.2486005 -0.705038E-03  0.396E-02    0.10       1.0  T
  12    -64.2486971 -0.965749E-04  0.226E-02    0.10       1.0  T
  13    -64.2487207 -0.236510E-04  0.156E-02    0.10       1.0  T
  14    -64.2487262 -0.546459E-05  0.118E-02    0.10       1.1  T
  15    -64.2487273 -0.112761E-05  0.875E-03    0.10       1.4  T
  16    -64.2487288 -0.146073E-05  0.593E-03    0.10       2.1  T
  17    -64.2487315 -0.277221E-05  0.209E-03    0.10       6.0  T
  18    -64.2487319 -0.366190E-06  0.129E-03    0.10       9.7  T
  19    -64.2487320 -0.866921E-07  0.810E-04    0.10      15.6  T
  20    -64.2487320 -0.307622E-07  0.399E-04    0.10      31.6  T
     SCC iter.                  ...        0 min,  0.873 sec
     gradient                   ...        0 min,  0.160 sec
 * total energy  :   -63.2338843 Eh     change       -0.1990676E-01 Eh
   gradient norm :     0.0473371 Eh/α   predicted    -0.1893393E-01 (  -4.89%)
   displ. norm   :     0.5748785 α      lambda       -0.1484377E-01
   maximum displ.:     0.2752215 α      in ANC's #61, #72, #86, ...
 * RMSD in coord.:     1.3824562 α      energy gain  -0.1538062E+01 Eh

generating ANC from exact Hessian ...
Using Lindh-Hessian (1995)
 Shifting diagonal of input Hessian by   1.102219733565174E-002
 Lowest  eigenvalues of input Hessian
    0.010000    0.010130    0.010191    0.010226    0.010312    0.010463
    0.010470    0.010482    0.010566    0.010589    0.010619    0.010676
    0.010714    0.010717    0.010863    0.000000    0.010909    0.010922
 Highest eigenvalues
    1.432129    1.465476    1.465693    1.494459    1.498808    1.579647
 

........................................................................
.............................. CYCLE   43 ..............................
........................................................................

 iter      E             dE          RMSdq      gap      omega  full diag
   1    -64.2749943 -0.642750E+02  0.459E-01    0.13       0.0  T
   2    -64.2417425  0.332519E-01  0.581E-01    0.21       1.0  T
   3    -64.2256852  0.160573E-01  0.637E-01    0.04       1.0  T
   4    -64.2192868  0.639839E-02  0.649E-01    0.30       1.0  T
   5    -64.2120778  0.720899E-02  0.724E-01    0.17       1.0  T
   6    -64.2703837 -0.583059E-01  0.238E-01    0.18       1.0  T
   7    -64.2743141 -0.393040E-02  0.138E-01    0.16       1.0  T
   8    -64.2756913 -0.137714E-02  0.120E-01    0.15       1.0  T
   9    -64.2761013 -0.410018E-03  0.104E-01    0.15       1.0  T
  10    -64.2763376 -0.236310E-03  0.933E-02    0.15       1.0  T
  11    -64.2765497 -0.212121E-03  0.744E-02    0.14       1.0  T
  12    -64.2767593 -0.209594E-03  0.435E-02    0.15       1.0  T
  13    -64.2768282 -0.688938E-04  0.254E-02    0.15       1.0  T
  14    -64.2768400 -0.117553E-04  0.206E-02    0.15       1.0  T
  15    -64.2768397  0.225810E-06  0.203E-02    0.15       1.0  T
  16    -64.2768367  0.304384E-05  0.188E-02    0.15       1.0  T
  17    -64.2768456 -0.887185E-05  0.123E-02    0.15       1.0  T
  18    -64.2768542 -0.868133E-05  0.698E-03    0.15       1.8  T
  19    -64.2768557 -0.143583E-05  0.477E-03    0.15       2.6  T
  20    -64.2768560 -0.278594E-06  0.417E-03    0.15       3.0  T
  21    -64.2768562 -0.225404E-06  0.326E-03    0.15       3.9  T
  22    -64.2768567 -0.512380E-06  0.830E-04    0.15      15.2  T
  23    -64.2768567 -0.288914E-07  0.382E-04    0.15      33.0  T
     SCC iter.                  ...        0 min,  1.241 sec
     gradient                   ...        0 min,  0.140 sec
 * total energy  :   -63.2437623 Eh     change       -0.9878019E-02 Eh
   gradient norm :     0.0568808 Eh/α   predicted     0.0000000E+00 (-100.00%)
   displ. norm   :     0.4017379 α      lambda       -0.1167062E-01
   maximum displ.:     0.2316442 α      in ANC's #54, #60, #25, ...

........................................................................
.............................. CYCLE   44 ..............................
........................................................................

 iter      E             dE          RMSdq      gap      omega  full diag
   1    -64.2841517 -0.642842E+02  0.287E-01    0.17       0.0  T
   2    -64.2749903  0.916133E-02  0.347E-01    0.21       1.0  T
   3    -64.2754027 -0.412355E-03  0.269E-01    0.14       1.0  T
   4    -64.2553369  0.200658E-01  0.491E-01    0.23       1.0  T
   5    -64.2815463 -0.262094E-01  0.154E-01    0.19       1.0  T
   6    -64.2813785  0.167813E-03  0.137E-01    0.19       1.0  T
   7    -64.2840545 -0.267600E-02  0.706E-02    0.18       1.0  T
   8    -64.2846012 -0.546743E-03  0.388E-02    0.17       1.0  T
   9    -64.2846431 -0.418859E-04  0.371E-02    0.18       1.0  T
  10    -64.2846380  0.515287E-05  0.339E-02    0.18       1.0  T
  11    -64.2846010  0.369223E-04  0.375E-02    0.18       1.0  T
  12    -64.2846821 -0.810863E-04  0.176E-02    0.18       1.0  T
  13    -64.2847009 -0.187411E-04  0.919E-03    0.18       1.4  T
  14    -64.2847051 -0.425951E-05  0.532E-03    0.18       2.4  T
  15    -64.2847067 -0.161369E-05  0.346E-03    0.18       3.6  T
  16    -64.2847069 -0.159076E-06  0.286E-03    0.18       4.4  T
  17    -64.2847069  0.276103E-07  0.237E-03    0.18       5.3  T
  18    -64.2847071 -0.273035E-06  0.537E-04    0.18      23.4  T
  19    -64.2847072 -0.137352E-07  0.282E-04    0.18      44.7  T
     SCC iter.                  ...        0 min,  5.604 sec
     gradient                   ...        0 min,  0.244 sec
 * total energy  :   -63.2544114 Eh     change       -0.1064913E-01 Eh
   gradient norm :     0.0449972 Eh/α   predicted    -0.6777732E-02 ( -36.35%)
   displ. norm   :     0.7899560 α      lambda       -0.2207387E-01
   maximum displ.:     0.4505358 α      in ANC's #54, #60, #85, ...

........................................................................
.............................. CYCLE   45 ..............................
........................................................................

 iter      E             dE          RMSdq      gap      omega  full diag
   1    -64.2891837 -0.642892E+02  0.644E-01    0.23       0.0  T
   2    -64.1715250  0.117659E+00  0.113E+00    0.19       1.0  T
   3    -64.2828079 -0.111283E+00  0.428E-01    0.22       1.0  T
   4    -64.1032153  0.179593E+00  0.122E+00    0.19       1.0  T
   5    -64.2445926 -0.141377E+00  0.615E-01    0.34       1.0  T
   6    -64.2749047 -0.303121E-01  0.393E-01    0.26       1.0  T
   7    -64.2846219 -0.971722E-02  0.243E-01    0.28       1.0  T
   8    -64.2905919 -0.596999E-02  0.159E-01    0.27       1.0  T
   9    -64.2922065 -0.161457E-02  0.110E-01    0.27       1.0  T
  10    -64.2932516 -0.104518E-02  0.616E-02    0.26       1.0  T
  11    -64.2936166 -0.364943E-03  0.399E-02    0.26       1.0  T
  12    -64.2937140 -0.973890E-04  0.276E-02    0.26       1.0  T
  13    -64.2937381 -0.241288E-04  0.237E-02    0.26       1.0  T
  14    -64.2937674 -0.293310E-04  0.177E-02    0.26       1.0  T
  15    -64.2937982 -0.307882E-04  0.877E-03    0.26       1.4  T
  16    -64.2938023 -0.409955E-05  0.748E-03    0.26       1.7  T
  17    -64.2938044 -0.209849E-05  0.498E-03    0.26       2.5  T
  18    -64.2938052 -0.729230E-06  0.368E-03    0.26       3.4  T
  19    -64.2938056 -0.421969E-06  0.189E-03    0.26       6.7  T
  20    -64.2938057 -0.171562E-06  0.935E-04    0.26      13.5  T
  21    -64.2938058 -0.299739E-07  0.828E-04    0.26      15.2  T
     SCC iter.                  ...        0 min,  5.480 sec
     gradient                   ...        0 min,  0.122 sec
 * total energy  :   -63.2732717 Eh     change       -0.1886030E-01 Eh
   gradient norm :     0.0468696 Eh/α   predicted    -0.1792435E-01 (  -4.96%)
   displ. norm   :     0.7472340 α      lambda       -0.1673467E-01
   maximum displ.:     0.4376578 α      in ANC's #54, #60, #85, ...

........................................................................
.............................. CYCLE   46 ..............................
........................................................................

 iter      E             dE          RMSdq      gap      omega  full diag
   1    -64.2934397 -0.642934E+02  0.670E-01    0.30       0.0  T
   2    -63.9682325  0.325207E+00  0.150E+00    0.01       1.0  T
   3    -64.2816920 -0.313459E+00  0.539E-01    0.31       1.0  T
   4    -64.0867608  0.194931E+00  0.118E+00    0.12       1.0  T
   5    -64.2307839 -0.144023E+00  0.739E-01    0.22       1.0  T
   6    -64.2632998 -0.325159E-01  0.544E-01    0.31       1.0  T
   7    -64.2742539 -0.109541E-01  0.377E-01    0.27       1.0  T
   8    -64.2972171 -0.229632E-01  0.193E-01    0.30       1.0  T
   9    -64.3003441 -0.312700E-02  0.104E-01    0.30       1.0  T
  10    -64.2993599  0.984210E-03  0.122E-01    0.30       1.0  T
  11    -64.3011961 -0.183623E-02  0.664E-02    0.30       1.0  T
  12    -64.3016243 -0.428247E-03  0.412E-02    0.30       1.0  T
  13    -64.3018312 -0.206832E-03  0.231E-02    0.30       1.0  T
  14    -64.3018716 -0.404139E-04  0.162E-02    0.30       1.0  T
  15    -64.3018952 -0.236587E-04  0.962E-03    0.30       1.3  T
  16    -64.3018964 -0.117993E-05  0.802E-03    0.30       1.6  T
  17    -64.3018988 -0.238723E-05  0.513E-03    0.30       2.5  T
  18    -64.3019015 -0.272098E-05  0.206E-03    0.30       6.1  T
  19    -64.3019017 -0.176508E-06  0.160E-03    0.30       7.9  T
  20    -64.3019017  0.568971E-08  0.138E-03    0.30       9.1  T
  21    -64.3019017 -0.353490E-07  0.109E-03    0.30      11.5  T
  22    -64.3019018 -0.448120E-07  0.616E-04    0.30      20.5  T
  23    -64.3019018 -0.224630E-07  0.276E-04    0.30      45.7  T
     SCC iter.                  ...        0 min,  6.146 sec
     gradient                   ...        0 min,  0.140 sec
 * total energy  :   -63.2828405 Eh     change       -0.9568750E-02 Eh
   gradient norm :     0.0557150 Eh/α   predicted    -0.1303948E-01 (  36.27%)
   displ. norm   :     0.2191170 α      lambda       -0.5229012E-02
   maximum displ.:     0.1491850 α      in ANC's #54, #25, #53, ...

........................................................................
.............................. CYCLE   47 ..............................
........................................................................

 iter      E             dE          RMSdq      gap      omega  full diag
   1    -64.3041383 -0.643041E+02  0.232E-01    0.31       0.0  T
   2    -64.2970654  0.707291E-02  0.272E-01    0.30       1.0  T
   3    -64.2853848  0.116806E-01  0.389E-01    0.33       1.0  T
   4    -64.2949154 -0.953054E-02  0.309E-01    0.31       1.0  T
   5    -64.3026624 -0.774699E-02  0.117E-01    0.31       1.0  T
   6    -64.3021223  0.540101E-03  0.131E-01    0.30       1.0  T
   7    -64.3044289 -0.230669E-02  0.233E-02    0.30       1.0  T
   8    -64.3044380 -0.910164E-05  0.233E-02    0.30       1.0  T
   9    -64.3044270  0.110187E-04  0.226E-02    0.30       1.0  T
  10    -64.3043988  0.282061E-04  0.256E-02    0.30       1.0  T
  11    -64.3044347 -0.358334E-04  0.199E-02    0.30       1.0  T
  12    -64.3044727 -0.380778E-04  0.941E-03    0.30       1.3  T
  13    -64.3044835 -0.107725E-04  0.307E-03    0.30       4.1  T
  14    -64.3044845 -0.102356E-05  0.117E-03    0.30      10.8  T
  15    -64.3044845 -0.243601E-08  0.106E-03    0.30      11.8  T
  16    -64.3044844  0.858759E-07  0.129E-03    0.30       9.8  T
  17    -64.3044845 -0.525130E-07  0.114E-03    0.30      11.1  T
  18    -64.3044846 -0.150258E-06  0.489E-04    0.30      25.7  T
  19    -64.3044847 -0.308953E-07  0.696E-05    0.30     181.1  T
     SCC iter.                  ...        0 min,  4.230 sec
     gradient                   ...        0 min,  0.132 sec
 * total energy  :   -63.2872084 Eh     change       -0.4367973E-02 Eh
   gradient norm :     0.0381383 Eh/α   predicted    -0.2740054E-02 ( -37.27%)
   displ. norm   :     0.4770135 α      lambda       -0.8725299E-02
   maximum displ.:     0.3238618 α      in ANC's #54, #60, #53, ...

........................................................................
.............................. CYCLE   48 ..............................
........................................................................

 iter      E             dE          RMSdq      gap      omega  full diag
   1    -64.3116858 -0.643117E+02  0.604E-01    0.32       0.0  T
   2    -64.2855143  0.261716E-01  0.557E-01    0.27       1.0  T
   3    -64.1573412  0.128173E+00  0.102E+00    0.35       1.0  T
   4    -64.2411518 -0.838106E-01  0.727E-01    0.18       1.0  T
   5    -64.2574172 -0.162654E-01  0.583E-01    0.30       1.0  T
   6    -64.2974713 -0.400540E-01  0.359E-01    0.30       1.0  T
   7    -64.3094473 -0.119761E-01  0.160E-01    0.32       1.0  T
   8    -64.3128700 -0.342268E-02  0.102E-01    0.32       1.0  T
   9    -64.3130538 -0.183813E-03  0.991E-02    0.32       1.0  T
  10    -64.3130922 -0.383901E-04  0.972E-02    0.31       1.0  T
  11    -64.3131813 -0.890727E-04  0.865E-02    0.31       1.0  T
  12    -64.3134609 -0.279587E-03  0.681E-02    0.31       1.0  T
  13    -64.3137617 -0.300798E-03  0.269E-02    0.32       1.0  T
  14    -64.3138208 -0.591546E-04  0.146E-02    0.32       1.0  T
  15    -64.3138300 -0.914018E-05  0.125E-02    0.32       1.0  T
  16    -64.3138305 -0.549828E-06  0.113E-02    0.32       1.1  T
  17    -64.3138353 -0.475949E-05  0.622E-03    0.32       2.0  T
  18    -64.3138373 -0.199736E-05  0.303E-03    0.32       4.2  T
  19    -64.3138379 -0.658760E-06  0.758E-04    0.32      16.6  T
  20    -64.3138380 -0.261962E-07  0.570E-04    0.32      22.1  T
     SCC iter.                  ...        0 min,  2.117 sec
     gradient                   ...        0 min,  0.154 sec
 * total energy  :   -63.2930466 Eh     change       -0.5838153E-02 Eh
   gradient norm :     0.0251744 Eh/α   predicted    -0.5355388E-02 (  -8.27%)
   displ. norm   :     0.2834699 α      lambda       -0.2903624E-02
   maximum displ.:     0.1688280 α      in ANC's #54, #90, #132, ...

........................................................................
.............................. CYCLE   49 ..............................
........................................................................

 iter      E             dE          RMSdq      gap      omega  full diag
   1    -64.3163596 -0.643164E+02  0.401E-01    0.33       0.0  T
   2    -64.3089001  0.745950E-02  0.338E-01    0.31       1.0  T
   3    -64.2739276  0.349725E-01  0.605E-01    0.34       1.0  T
   4    -64.2793153 -0.538770E-02  0.573E-01    0.36       1.0  T
   5    -64.3101307 -0.308155E-01  0.226E-01    0.26       1.0  T
   6    -64.3134331 -0.330232E-02  0.146E-01    0.33       1.0  T
   7    -64.3168562 -0.342317E-02  0.575E-02    0.32       1.0  T
   8    -64.3171542 -0.297974E-03  0.336E-02    0.32       1.0  T
   9    -64.3170864  0.678360E-04  0.356E-02    0.32       1.0  T
  10    -64.3169335  0.152883E-03  0.472E-02    0.32       1.0  T
  11    -64.3171194 -0.185901E-03  0.323E-02    0.32       1.0  T
  12    -64.3172121 -0.927150E-04  0.131E-02    0.32       1.0  T
  13    -64.3172314 -0.193021E-04  0.488E-03    0.32       2.6  T
  14    -64.3172331 -0.171265E-05  0.311E-03    0.32       4.1  T
  15    -64.3172337 -0.545544E-06  0.177E-03    0.32       7.1  T
  16    -64.3172340 -0.371475E-06  0.680E-04    0.32      18.5  T
  17    -64.3172341 -0.430051E-07  0.425E-04    0.32      29.6  T
     SCC iter.                  ...        0 min,  1.230 sec
     gradient                   ...        0 min,  0.072 sec
 * total energy  :   -63.2952158 Eh     change       -0.2169198E-02 Eh
   gradient norm :     0.0285415 Eh/α   predicted    -0.1568484E-02 ( -27.69%)
   displ. norm   :     0.3495525 α      lambda       -0.3492120E-02
   maximum displ.:     0.1622897 α      in ANC's #54, #90, #132, ...

........................................................................
.............................. CYCLE   50 ..............................
........................................................................

 iter      E             dE          RMSdq      gap      omega  full diag
   1    -64.3189108 -0.643189E+02  0.517E-01    0.32       0.0  T
   2    -64.3087117  0.101991E-01  0.415E-01    0.27       1.0  T
   3    -64.2484582  0.602535E-01  0.721E-01    0.34       1.0  T
   4    -64.2505512 -0.209299E-02  0.673E-01    0.19       1.0  T
   5    -64.3097944 -0.592432E-01  0.272E-01    0.29       1.0  T
   6    -64.3182288 -0.843441E-02  0.102E-01    0.33       1.0  T
   7    -64.3172298  0.999013E-03  0.128E-01    0.31       1.0  T
   8    -64.3200337 -0.280387E-02  0.398E-02    0.31       1.0  T
   9    -64.3201667 -0.132993E-03  0.214E-02    0.32       1.0  T
  10    -64.3200673  0.993331E-04  0.320E-02    0.31       1.0  T
  11    -64.3201297 -0.623657E-04  0.244E-02    0.31       1.0  T
  12    -64.3201869 -0.572407E-04  0.105E-02    0.31       1.2  T
  13    -64.3201983 -0.113371E-04  0.448E-03    0.31       2.8  T
  14    -64.3202000 -0.170928E-05  0.304E-03    0.31       4.1  T
  15    -64.3202008 -0.839952E-06  0.116E-03    0.31      10.8  T
  16    -64.3202008  0.360369E-07  0.958E-04    0.31      13.2  T
  17    -64.3202008  0.159217E-07  0.958E-04    0.31      13.2  T
     SCC iter.                  ...        0 min,  1.594 sec
     gradient                   ...        0 min,  0.040 sec
 * total energy  :   -63.2983283 Eh     change       -0.3112549E-02 Eh
   gradient norm :     0.0364384 Eh/α   predicted    -0.1959408E-02 ( -37.05%)
   displ. norm   :     0.7090858 α      lambda       -0.8909429E-02
   maximum displ.:     0.2866558 α      in ANC's #90, #132, #54, ...

........................................................................
.............................. CYCLE   51 ..............................
........................................................................

 iter      E             dE          RMSdq      gap      omega  full diag
   1    -64.3200734 -0.643201E+02  0.105E+00    0.30       0.0  T
