63
Canonical beta12 borophene cluster B45H18
B     -6.096000     -3.906667      0.000000
B     -3.556000     -3.906667      0.000000
B     -6.096000     -2.930000      0.000000
B     -3.556000     -1.953333      0.000000
B     -6.096000     -1.953333      0.000000
B     -6.096000     -0.976667      0.000000
B     -3.556000     -0.976667      0.000000
B     -6.096000     -0.000000      0.000000
B     -3.556000      0.976667      0.000000
B     -6.096000      0.976667      0.000000
B     -6.096000      1.953333      0.000000
B     -3.556000      1.953333      0.000000
B     -6.096000      2.930000      0.000000
B     -3.556000      3.906667      0.000000
B     -6.096000      3.906667      0.000000
B     -1.016000     -3.906667      0.000000
B      1.524000     -3.906667      0.000000
B     -1.016000     -2.930000      0.000000
B      1.524000     -1.953333      0.000000
B     -1.016000     -1.953333      0.000000
B     -1.016000     -0.976667      0.000000
B      1.524000     -0.976667      0.000000
B     -1.016000     -0.000000      0.000000
B      1.524000      0.976667      0.000000
B     -1.016000      0.976667      0.000000
B     -1.016000      1.953333      0.000000
B      1.524000      1.953333      0.000000
B     -1.016000      2.930000      0.000000
B      1.524000      3.906667      0.000000
B     -1.016000      3.906667      0.000000
B      4.064000     -3.906667      0.000000
B      6.604000     -3.906667      0.000000
B      4.064000     -2.930000      0.000000
B      6.604000     -1.953333      0.000000
B      4.064000     -1.953333      0.000000
B      4.064000     -0.976667      0.000000
B      6.604000     -0.976667      0.000000
B      4.064000     -0.000000      0.000000
B      6.604000      0.976667      0.000000
B      4.064000      0.976667      0.000000
B      4.064000      1.953333      0.000000
B      6.604000      1.953333      0.000000
B      4.064000      2.930000      0.000000
B      6.604000      3.906667      0.000000
B      4.064000      3.906667      0.000000
H     -6.096000     -5.096667      0.000000
H     -3.556000     -3.143333      0.000000
H     -3.556000      0.213333      0.000000
H     -3.556000     -0.213333      0.000000
H     -3.556000      3.143333      0.000000
H     -6.096000      5.096667      0.000000
H     -1.016000     -5.096667      0.000000
H      1.524000     -3.143333      0.000000
H      1.524000      0.213333      0.000000
H      1.524000     -0.213333      0.000000
H      1.524000      3.143333      0.000000
H     -1.016000      5.096667      0.000000
H      4.064000     -5.096667      0.000000
H      6.604000     -3.143333      0.000000
H      6.604000      0.213333      0.000000
H      6.604000     -0.213333      0.000000
H      6.604000      3.143333      0.000000
H      4.064000      5.096667      0.000000
