      -----------------------------------------------------------      
     |                   =====================                   |     
     |                           x T B                           |     
     |                   =====================                   |     
     |                         S. Grimme                         |     
     |          Mulliken Center for Theoretical Chemistry        |     
     |                    University of Bonn                     |     
      -----------------------------------------------------------      

   * xtb version 6.7.1pre (5071a88) compiled by 'Marcel@Raven' on 2024-07-23

   xtb is free software: you can redistribute it and/or modify it under
   the terms of the GNU Lesser General Public License as published by
   the Free Software Foundation, either version 3 of the License, or
   (at your option) any later version.
   
   xtb is distributed in the hope that it will be useful,
   but WITHOUT ANY WARRANTY; without even the implied warranty of
   MERCHANTABILITY or FITNESS FOR A PARTICULAR PURPOSE.  See the
   GNU Lesser General Public License for more details.
   
   Cite this work as:
   * C. Bannwarth, E. Caldeweyher, S. Ehlert, A. Hansen, P. Pracht,
     J. Seibert, S. Spicher, S. Grimme, WIREs Comput. Mol. Sci., 2020, 11,
     e01493. DOI: 10.1002/wcms.1493
   
   for GFN2-xTB:
   * C. Bannwarth, S. Ehlert and S. Grimme., J. Chem. Theory Comput., 2019,
     15, 1652-1671. DOI: 10.1021/acs.jctc.8b01176
   for GFN1-xTB:
   * S. Grimme, C. Bannwarth, P. Shushkov, J. Chem. Theory Comput., 2017,
     13, 1989-2009. DOI: 10.1021/acs.jctc.7b00118
   for GFN0-xTB:
   * P. Pracht, E. Caldeweyher, S. Ehlert, S. Grimme, ChemRxiv, 2019, preprint.
     DOI: 10.26434/chemrxiv.8326202.v1
   for GFN-FF:
   * S. Spicher and S. Grimme, Angew. Chem. Int. Ed., 2020, 59, 15665-15673.
     DOI: 10.1002/anie.202004239
   
   for ALPB and GBSA implicit solvation:
   * S. Ehlert, M. Stahn, S. Spicher, S. Grimme, J. Chem. Theory Comput.,
     2021, 17, 4250-4261. DOI: 10.1021/acs.jctc.1c00471
   
   for ddCOSMO and CPCM-X implicit solvation:
   * M. Stahn, S. Ehlert, S. Grimme, J. Phys. Chem. A,
     2023, XX, XXXX-XXXX. DOI: 10.1021/acs.jpca.3c04382
   
   for DFT-D4:
   * E. Caldeweyher, C. Bannwarth and S. Grimme, J. Chem. Phys., 2017,
     147, 034112. DOI: 10.1063/1.4993215
   * E. Caldeweyher, S. Ehlert, A. Hansen, H. Neugebauer, S. Spicher,
     C. Bannwarth and S. Grimme, J. Chem. Phys., 2019, 150, 154122.
     DOI: 10.1063/1.5090222
   * E. Caldeweyher, J.-M. Mewes, S. Ehlert and S. Grimme, Phys. Chem. Chem. Phys.
     2020, 22, 8499-8512. DOI: 10.1039/D0CP00502A
   
   for sTDA-xTB:
   * S. Grimme and C. Bannwarth, J. Chem. Phys., 2016, 145, 054103.
     DOI: 10.1063/1.4959605
   
   in the mass-spec context:
   * V. Asgeirsson, C. Bauer and S. Grimme, Chem. Sci., 2017, 8, 4879.
     DOI: 10.1039/c7sc00601b
   * J. Koopman and S. Grimme, ACS Omega 2019, 4, 12, 15120-15133.
     DOI: 10.1021/acsomega.9b02011
   
   for metadynamics refer to:
   * S. Grimme, J. Chem. Theory Comput., 2019, 155, 2847-2862
     DOI: 10.1021/acs.jctc.9b00143
   
   for SPH calculations refer to:
   * S. Spicher and S. Grimme, J. Chem. Theory Comput., 2021, 17, 1701-1714
     DOI: 10.1021/acs.jctc.0c01306
   
   for ONIOM refer to:
   * C. Plett, A. Katbashev, S. Ehlert, S. Grimme, M. Bursch,
     Phys. Chem. Chem. Phys., 2023, 25, 17860-17868. DOI: 10.1039/D3CP02178E
   
   for DIPRO refer to:
   * J. Kohn, N. Gildemeister, S. Grimme, D. Fazzi, A. Hansen,
     J. Chem. Phys., 2023, just accepted.
   
   for PTB refer to:
   * S. Grimme, M. Mueller, A. Hansen, J. Chem. Phys., 2023, 158, 124111.
     DOI: 10.1063/5.0137838
   
   with help from (in alphabetical order)
   P. Atkinson, C. Bannwarth, F. Bohle, G. Brandenburg, E. Caldeweyher
   M. Checinski, S. Dohm, S. Ehlert, S. Ehrlich, I. Gerasimov, C. Hölzer
   A. Katbashev, J. Kohn, J. Koopman, C. Lavigne, S. Lehtola, F. März, M. Müller,
   F. Musil, H. Neugebauer, J. Pisarek, C. Plett, P. Pracht, F. Pultar,
   J. Seibert, P. Shushkov, S. Spicher, M. Stahn, M. Steiner, T. Strunk,
   J. Stückrath, T. Rose, and J. Unsleber
   
 * started run on 2026/09/01 at 16:57:40.228     
   ID    Z sym.   atoms
    1    5 B      1-45
    2    1 H      46-63

           -------------------------------------------------
          |                Calculation Setup                |
           -------------------------------------------------

          program call               : "c:\Users\Andre\Proyectos doctorado\nano-qsar-ai-papers\kras-pancreatic-gC3N4-ai\tools\xtb\xtb-6.7.1\bin\xtb.exe" "c:\Users\Andre\Proyectos doctorado\borophene-alzheimer-tau-ai\calculations\tau\beta12_B45H18_initial.xyz" --opt normal --gfn 2 --chrg 0 --uhf 0 --iterations 500 --cycles 300 --norestart
          coordinate file            : c:\Users\Andre\Proyectos doctorado\borophene-alzheimer-tau-ai\calculations\tau\beta12_B45H18_initial.xyz
          omp threads                :                    16


molecular fragmentation (1/2 indicates fragments):
121211212112121222222222222222222222222222222122221222222222222
# atoms in fragment 1/2:    11    52
 fragment masses (1/2) :       99.32      405.32
CMA distance (Bohr)    :  14.400
constraining FC (au)   :  0.0500

           -------------------------------------------------
          |                 G F N 2 - x T B                 |
           -------------------------------------------------

        Reference                      10.1021/acs.jctc.8b01176
      * Hamiltonian:
        H0-scaling (s, p, d)           1.850000    2.230000    2.230000
        zeta-weighting                 0.500000
      * Dispersion:
        s8                             2.700000
        a1                             0.520000
        a2                             5.000000
        s9                             5.000000
      * Repulsion:
        kExp                           1.500000    1.000000
        rExp                           1.000000
      * Coulomb:
        alpha                          2.000000
        third order                    shell-resolved
        anisotropic                    true
        a3                             3.000000
        a5                             4.000000
        cn-shift                       1.200000
        cn-exp                         4.000000
        max-rad                        5.000000


          ...................................................
          :                      SETUP                      :
          :.................................................:
          :  # basis functions                 198          :
          :  # atomic orbitals                 198          :
          :  # shells                          108          :
          :  # electrons                       153          :
          :  max. iterations                   500          :
          :  Hamiltonian                  GFN2-xTB          :
          :  restarted?                      false          :
          :  GBSA solvation                  false          :
          :  PC potential                    false          :
          :  electronic temp.          300.0000000     K    :
          :  accuracy                    1.0000000          :
          :  -> integral cutoff          0.2500000E+02      :
          :  -> integral neglect         0.1000000E-07      :
          :  -> SCF convergence          0.1000000E-05 Eh   :
          :  -> wf. convergence          0.1000000E-03 e    :
          :  Broyden damping             0.4000000          :
          :  net charge                          0          :
          :  unpaired electrons                  0          :
          ...................................................

 iter      E             dE          RMSdq      gap      omega  full diag
   1    -64.6951827 -0.646952E+02  0.170E+01    0.12       0.0  T
   2    -57.5858245  0.710936E+01  0.125E+01    0.02       1.0  T
   3     51.6424070  0.109228E+03  0.218E+01    0.02       1.0  T
   4     -1.3865032 -0.530289E+02  0.141E+01    0.16       1.0  T
   5     17.6358142  0.190223E+02  0.151E+01    0.03       1.0  T
   6      7.6868263 -0.994899E+01  0.153E+01    0.06       1.0  T
   7    -50.3220689 -0.580089E+02  0.843E+00    0.27       1.0  T
   8    -56.4638441 -0.614178E+01  0.733E+00    0.16       1.0  T
   9    -58.8956058 -0.243176E+01  0.784E+00    0.16       1.0  T
  10    -62.1346620 -0.323906E+01  0.553E+00    0.08       1.0  T
  11    -62.3355711 -0.200909E+00  0.551E+00    0.01       1.0  T
  12    -63.9758667 -0.164030E+01  0.478E+00    0.06       1.0  T
  13    -64.4406187 -0.464752E+00  0.459E+00    0.11       1.0  T
  14    -64.4491970 -0.857835E-02  0.456E+00    0.12       1.0  T
  15    -64.4893770 -0.401800E-01  0.466E+00    0.06       1.0  T
  16    -64.4629729  0.264042E-01  0.478E+00    0.07       1.0  T
  17    -64.6647098 -0.201737E+00  0.336E+00    0.02       1.0  T
  18    -64.7160427 -0.513330E-01  0.261E+00    0.04       1.0  T
  19    -64.8144543 -0.984115E-01  0.234E+00    0.04       1.0  T
  20    -64.7921877  0.222665E-01  0.233E+00    0.03       1.0  T
  21    -64.7753853  0.168024E-01  0.241E+00    0.03       1.0  T
  22    -64.7879362 -0.125509E-01  0.238E+00    0.03       1.0  T
  23    -64.7223589  0.655773E-01  0.259E+00    0.06       1.0  T
  24    -64.8543927 -0.132034E+00  0.268E+00    0.09       1.0  T
  25    -64.8310345  0.233582E-01  0.390E+00    0.09       1.0  T
  26    -64.8149257  0.161088E-01  0.321E+00    0.06       1.0  T
  27    -64.3741036  0.440822E+00  0.311E+00    0.10       1.0  T
  28    -64.7966330 -0.422529E+00  0.284E+00    0.05       1.0  T
  29    -64.8228665 -0.262335E-01  0.194E+00    0.09       1.0  T
  30    -64.7877322  0.351343E-01  0.209E+00    0.05       1.0  T
  31    -64.8952845 -0.107552E+00  0.174E+00    0.08       1.0  T
  32    -64.9644760 -0.691915E-01  0.140E+00    0.12       1.0  T
  33    -65.0836260 -0.119150E+00  0.870E-01    0.14       1.0  T
  34    -65.1075055 -0.238796E-01  0.954E-01    0.12       1.0  T
  35    -65.1142494 -0.674384E-02  0.967E-01    0.15       1.0  T
  36    -65.1050498  0.919953E-02  0.910E-01    0.15       1.0  T
  37    -65.0935455  0.115043E-01  0.966E-01    0.16       1.0  T
  38    -65.0560581  0.374874E-01  0.113E+00    0.18       1.0  T
  39    -65.1134768 -0.574187E-01  0.724E-01    0.14       1.0  T
  40    -65.1334417 -0.199650E-01  0.662E-01    0.11       1.0  T
  41    -65.1307989  0.264287E-02  0.679E-01    0.11       1.0  T
  42    -65.1320554 -0.125655E-02  0.653E-01    0.11       1.0  T
  43    -65.1427599 -0.107045E-01  0.442E-01    0.10       1.0  T
  44    -65.1467909 -0.403096E-02  0.342E-01    0.10       1.0  T
  45    -65.1540173 -0.722636E-02  0.206E-01    0.09       1.0  T
  46    -65.1555815 -0.156419E-02  0.195E-01    0.09       1.0  T
  47    -65.1554559  0.125528E-03  0.196E-01    0.09       1.0  T
  48    -65.1566104 -0.115445E-02  0.161E-01    0.09       1.0  T
  49    -65.1570221 -0.411721E-03  0.141E-01    0.09       1.0  T
  50    -65.1569797  0.424000E-04  0.133E-01    0.09       1.0  T
  51    -65.1574745 -0.494744E-03  0.114E-01    0.09       1.0  T
  52    -65.1576699 -0.195416E-03  0.889E-02    0.09       1.0  T
  53    -65.1581402 -0.470300E-03  0.676E-02    0.09       1.0  T
  54    -65.1582269 -0.867454E-04  0.543E-02    0.09       1.0  T
  55    -65.1582991 -0.722143E-04  0.367E-02    0.09       1.0  T
  56    -65.1583164 -0.172504E-04  0.296E-02    0.09       1.0  T
  57    -65.1583229 -0.650715E-05  0.278E-02    0.09       1.0  T
  58    -65.1583363 -0.133842E-04  0.236E-02    0.09       1.0  T
  59    -65.1583363 -0.567685E-07  0.228E-02    0.09       1.0  T
  60    -65.1583367 -0.400980E-06  0.219E-02    0.09       1.0  T
  61    -65.1583389 -0.218056E-05  0.208E-02    0.09       1.0  T
  62    -65.1583401 -0.115378E-05  0.199E-02    0.09       1.0  T
  63    -65.1583492 -0.917850E-05  0.155E-02    0.09       1.0  T
  64    -65.1583548 -0.553483E-05  0.118E-02    0.09       1.1  T
  65    -65.1583594 -0.458541E-05  0.747E-03    0.09       1.7  T
  66    -65.1583596 -0.253461E-06  0.700E-03    0.09       1.8  T
  67    -65.1583614 -0.173981E-05  0.385E-03    0.09       3.3  T
  68    -65.1583615 -0.159814E-06  0.358E-03    0.09       3.5  T
  69    -65.1583618 -0.335275E-06  0.252E-03    0.09       5.0  T
  70    -65.1583620 -0.183735E-06  0.167E-03    0.09       7.5  T
  71    -65.1583621 -0.773722E-07  0.108E-03    0.09      11.7  T
  72    -65.1583621 -0.420192E-07  0.680E-04    0.09      18.5  T
  73    -65.1583622 -0.779650E-09  0.705E-04    0.09      17.9  T

   *** convergence criteria satisfied after 73 iterations ***

         #    Occupation            Energy/Eh            Energy/eV
      -------------------------------------------------------------
         1        2.0000           -0.4622671             -12.5789
       ...           ...                  ...                  ...
        71        2.0000           -0.2376280              -6.4662
        72        2.0000           -0.2370485              -6.4504
        73        1.9999           -0.2359132              -6.4195
        74        1.9995           -0.2337972              -6.3619
        75        1.9993           -0.2335226              -6.3545
        76        1.8617           -0.2283977              -6.2150
        77        0.9848           -0.2248309              -6.1180 (HOMO)
        78        0.1514           -0.2214848              -6.0269 (LUMO)
        79        0.0034           -0.2177480              -5.9252
        80                         -0.2056315              -5.5955
        81                         -0.2013534              -5.4791
        82                         -0.2009351              -5.4677
       ...                                ...                  ...
       198                         16.0516000             436.7863
      -------------------------------------------------------------
                  HL-Gap            0.0033462 Eh            0.0911 eV
             Fermi-level           -0.2248914 Eh           -6.1196 eV

 SCC (total)                   0 d,  0 h,  0 min,  0.887 sec
 SCC setup                      ...        0 min,  0.001 sec (  0.113%)
 Dispersion                     ...        0 min,  0.001 sec (  0.113%)
 classical contributions        ...        0 min,  0.000 sec (  0.000%)
 integral evaluation            ...        0 min,  0.004 sec (  0.451%)
 iterations                     ...        0 min,  0.862 sec ( 97.182%)
 molecular gradient             ...        0 min,  0.016 sec (  1.804%)
 printout                       ...        0 min,  0.003 sec (  0.338%)

         :::::::::::::::::::::::::::::::::::::::::::::::::::::
         ::                     SUMMARY                     ::
         :::::::::::::::::::::::::::::::::::::::::::::::::::::
         :: total energy             -34.135303723522 Eh    ::
         :: gradient norm             11.393596041717 Eh/a0 ::
         :: HOMO-LUMO gap              0.091053938118 eV    ::
         ::.................................................::
         :: SCC energy               -65.158714035476 Eh    ::
         :: -> isotropic ES            0.065453099771 Eh    ::
         :: -> anisotropic ES          0.021550522067 Eh    ::
         :: -> anisotropic XC         -0.084843094991 Eh    ::
         :: -> dispersion             -0.079713856109 Eh    ::
         :: repulsion energy          31.023410311955 Eh    ::
         :: add. restraining           0.000000000000 Eh    ::
         :: total charge               0.000000000002 e     ::
         :::::::::::::::::::::::::::::::::::::::::::::::::::::

      ----------------------------------------------------------- 
     |                   =====================                   |
     |                        A N C O P T                        |
     |                   =====================                   |
     |               Approximate Normal Coordinate               |
     |                Rational Function Optimizer                |
      ----------------------------------------------------------- 
      ----------------------------------------------------------- 
     |                   =====================                   |
     |                        A N C O P T                        |
     |                   =====================                   |
     |               Approximate Normal Coordinate               |
     |                Rational Function Optimizer                |
      ----------------------------------------------------------- 

          ...................................................
          :                      SETUP                      :
          :.................................................:
          :   optimization level            normal          :
          :   max. optcycles                   300          :
          :   ANC micro-cycles                  20          :
          :   degrees of freedom               183          :
          :.................................................:
          :   RF solver                   davidson          :
          :   write xtbopt.log                true          :
          :   linear?                        false          :
          :   energy convergence         0.5000000E-05 Eh   :
          :   grad. convergence          0.1000000E-02 Eh/α :
          :   maxmium RF displ.          1.0000000          :
          :   Hlow (freq-cutoff)         0.1000000E-01      :
          :   Hmax (freq-cutoff)         5.0000000          :
          :   S6 in model hess.         20.0000000          :
          ...................................................

generating ANC from exact Hessian ...
Using Lindh-Hessian (1995)
 Shifting diagonal of input Hessian by   1.019029078747756E-002
 Lowest  eigenvalues of input Hessian
    0.010000    0.010077    0.010123    0.010149    0.010171    0.000000
    0.000000    0.000000    0.000000    0.000000    0.000000    0.010219
    0.010571    0.010596    0.010881    0.010964    0.011036    0.011137
 Highest eigenvalues
   13.056453   13.061603   13.061608   13.064282   13.077226   13.077262
 

........................................................................
.............................. CYCLE    1 ..............................
........................................................................

 iter      E             dE          RMSdq      gap      omega  full diag
   1    -65.1583622 -0.651584E+02  0.600E-04    0.09       0.0  T
   2    -65.1583573  0.485838E-05  0.694E-03    0.09       1.8  T
   3    -65.1583619 -0.459112E-05  0.172E-03    0.09       7.3  T
   4    -65.1583621 -0.183555E-06  0.113E-03    0.09      11.1  T
   5    -65.1583621 -0.247760E-07  0.946E-04    0.09      13.3  T
   6    -65.1583620  0.523032E-07  0.103E-03    0.09      12.3  T
   7    -65.1583621 -0.857895E-07  0.556E-04    0.09      22.7  T
     SCC iter.                  ...        0 min,  0.086 sec
     gradient                   ...        0 min,  0.012 sec
 * total energy  :   -34.1353037 Eh     change        0.1908903E-07 Eh
   gradient norm :    11.3935985 Eh/α   predicted     0.0000000E+00 (-100.00%)
   displ. norm   :     0.8952027 α      lambda       -0.1011711E+02
   maximum displ.:     0.3001699 α      in ANC's #144, #111, #135, ...

........................................................................
.............................. CYCLE    2 ..............................
........................................................................

 iter      E             dE          RMSdq      gap      omega  full diag
   1    -64.8339040 -0.648339E+02  0.244E+00    0.10       0.0  T
   2    -64.7132332  0.120671E+00  0.180E+00    0.10       1.0  T
   3    -59.7245063  0.498873E+01  0.510E+00    0.09       1.0  T
   4    -56.1389485  0.358556E+01  0.723E+00    0.15       1.0  T
   5    -64.4260740 -0.828713E+01  0.164E+00    0.18       1.0  T
   6    -64.3765946  0.494795E-01  0.190E+00    0.11       1.0  T
   7    -64.6750403 -0.298446E+00  0.129E+00    0.05       1.0  T
   8    -64.7339146 -0.588743E-01  0.950E-01    0.14       1.0  T
   9    -64.8044857 -0.705711E-01  0.830E-01    0.11       1.0  T
  10    -64.8364888 -0.320032E-01  0.569E-01    0.10       1.0  T
  11    -64.8421869 -0.569805E-02  0.421E-01    0.10       1.0  T
  12    -64.8466079 -0.442103E-02  0.365E-01    0.11       1.0  T
  13    -64.8491701 -0.256221E-02  0.341E-01    0.11       1.0  T
  14    -64.8497540 -0.583814E-03  0.319E-01    0.11       1.0  T
  15    -64.8527630 -0.300907E-02  0.265E-01    0.12       1.0  T
  16    -64.8508256  0.193747E-02  0.330E-01    0.12       1.0  T
  17    -64.8498099  0.101568E-02  0.341E-01    0.12       1.0  T
  18    -64.8501631 -0.353170E-03  0.330E-01    0.12       1.0  T
  19    -64.8505325 -0.369412E-03  0.318E-01    0.12       1.0  T
  20    -64.8539776 -0.344511E-02  0.179E-01    0.11       1.0  T
  21    -64.8550257 -0.104808E-02  0.885E-02    0.11       1.0  T
  22    -64.8549623  0.633944E-04  0.815E-02    0.11       1.0  T
  23    -64.8548503  0.111982E-03  0.806E-02    0.11       1.0  T
  24    -64.8551138 -0.263502E-03  0.668E-02    0.11       1.0  T
  25    -64.8551705 -0.566830E-04  0.596E-02    0.11       1.0  T
  26    -64.8551652  0.526909E-05  0.589E-02    0.11       1.0  T
  27    -64.8551762 -0.109804E-04  0.546E-02    0.11       1.0  T
  28    -64.8551682  0.792508E-05  0.473E-02    0.11       1.0  T
  29    -64.8551553  0.129323E-04  0.463E-02    0.11       1.0  T
  30    -64.8551969 -0.415945E-04  0.409E-02    0.11       1.0  T
  31    -64.8552191 -0.222256E-04  0.373E-02    0.11       1.0  T
  32    -64.8552280 -0.886144E-05  0.358E-02    0.11       1.0  T
  33    -64.8552402 -0.122146E-04  0.334E-02    0.11       1.0  T
  34    -64.8552658 -0.256140E-04  0.256E-02    0.11       1.0  T
  35    -64.8552749 -0.907734E-05  0.201E-02    0.11       1.0  T
  36    -64.8552830 -0.812957E-05  0.126E-02    0.11       1.0  T
  37    -64.8552869 -0.386940E-05  0.673E-03    0.11       1.9  T
  38    -64.8552879 -0.969026E-06  0.372E-03    0.11       3.4  T
  39    -64.8552883 -0.439728E-06  0.157E-03    0.11       8.0  T
  40    -64.8552884 -0.888266E-07  0.173E-04    0.11      72.6  T
  41    -64.8552884  0.160765E-08  0.319E-04    0.11      39.5  T
     SCC iter.                  ...        0 min,  0.473 sec
     gradient                   ...        0 min,  0.009 sec
 * total energy  :   -40.3910711 Eh     change       -0.6255767E+01 Eh
   gradient norm :     5.5572813 Eh/α   predicted    -0.9112855E+01 (  45.67%)
   displ. norm   :     0.9291344 α      lambda       -0.5099673E+01
   maximum displ.:     0.4443772 α      in ANC's #52, #75, #73, ...

........................................................................
.............................. CYCLE    3 ..............................
........................................................................

 iter      E             dE          RMSdq      gap      omega  full diag
   1    -64.3557437 -0.643557E+02  0.224E+00    0.01       0.0  T
   2    -54.6440137  0.971173E+01  0.998E+00    0.11       1.0  T
   3    -62.4522684 -0.780825E+01  0.538E+00    0.24       1.0  T
   4    -61.3903704  0.106190E+01  0.599E+00    0.03       1.0  T
   5    -60.3028089  0.108756E+01  0.483E+00    0.01       1.0  T
   6    -64.0757211 -0.377291E+01  0.217E+00    0.01       1.0  T
   7    -64.5050000 -0.429279E+00  0.142E+00    0.03       1.0  T
   8    -64.2798292  0.225171E+00  0.171E+00    0.07       1.0  T
   9    -63.6776069  0.602222E+00  0.217E+00    0.04       1.0  T
  10    -64.6990078 -0.102140E+01  0.950E-01    0.09       1.0  T
  11    -64.6863941  0.126138E-01  0.897E-01    0.00       1.0  T
  12    -64.6171203  0.692738E-01  0.104E+00    0.05       1.0  T
  13    -64.6475738 -0.304535E-01  0.885E-01    0.03       1.0  T
  14    -64.6647480 -0.171743E-01  0.743E-01    0.01       1.0  T
  15    -64.6948953 -0.301472E-01  0.614E-01    0.02       1.0  T
  16    -64.7440702 -0.491750E-01  0.487E-01    0.06       1.0  T
  17    -64.7564544 -0.123842E-01  0.467E-01    0.06       1.0  T
  18    -64.7549952  0.145924E-02  0.545E-01    0.04       1.0  T
  19    -64.7581655 -0.317028E-02  0.516E-01    0.05       1.0  T
  20    -64.7601141 -0.194863E-02  0.492E-01    0.05       1.0  T
  21    -64.7603874 -0.273278E-03  0.471E-01    0.06       1.0  T
  22    -64.7588387  0.154863E-02  0.476E-01    0.05       1.0  T
  23    -64.7603442 -0.150546E-02  0.439E-01    0.05       1.0  T
  24    -64.7717841 -0.114399E-01  0.218E-01    0.05       1.0  T
  25    -64.7714134  0.370733E-03  0.212E-01    0.04       1.0  T
  26    -64.7712484  0.164946E-03  0.209E-01    0.04       1.0  T
  27    -64.7724333 -0.118485E-02  0.186E-01    0.04       1.0  T
  28    -64.7737212 -0.128797E-02  0.152E-01    0.04       1.0  T
  29    -64.7752446 -0.152341E-02  0.952E-02    0.04       1.0  T
  30    -64.7758459 -0.601292E-03  0.597E-02    0.03       1.0  T
  31    -64.7755980  0.247909E-03  0.697E-02    0.03       1.0  T
  32    -64.7751885  0.409554E-03  0.913E-02    0.03       1.0  T
  33    -64.7751672  0.212578E-04  0.102E-01    0.03       1.0  T
  34    -64.7756797 -0.512493E-03  0.761E-02    0.03       1.0  T
  35    -64.7759477 -0.268026E-03  0.616E-02    0.03       1.0  T
  36    -64.7761235 -0.175778E-03  0.452E-02    0.03       1.0  T
  37    -64.7761979 -0.744386E-04  0.330E-02    0.03       1.0  T
  38    -64.7762261 -0.281284E-04  0.261E-02    0.03       1.0  T
  39    -64.7762222  0.390024E-05  0.255E-02    0.03       1.0  T
  40    -64.7762268 -0.464996E-05  0.241E-02    0.03       1.0  T
  41    -64.7762340 -0.714237E-05  0.210E-02    0.03       1.0  T
  42    -64.7762424 -0.844041E-05  0.181E-02    0.03       1.0  T
  43    -64.7762466 -0.422201E-05  0.163E-02    0.03       1.0  T
  44    -64.7762517 -0.512493E-05  0.140E-02    0.03       1.0  T
  45    -64.7762527 -0.987474E-06  0.130E-02    0.03       1.0  T
  46    -64.7762528 -0.567867E-07  0.127E-02    0.03       1.0  T
  47    -64.7762534 -0.565166E-06  0.118E-02    0.03       1.1  T
  48    -64.7762553 -0.199199E-05  0.102E-02    0.03       1.2  T
  49    -64.7762571 -0.174377E-05  0.855E-03    0.03       1.5  T
  50    -64.7762575 -0.429394E-06  0.742E-03    0.03       1.7  T
  51    -64.7762589 -0.136642E-05  0.479E-03    0.03       2.6  T
  52    -64.7762594 -0.552094E-06  0.241E-03    0.03       5.2  T
  53    -64.7762595 -0.686313E-07  0.139E-03    0.03       9.1  T
  54    -64.7762596 -0.884133E-07  0.464E-04    0.03      27.1  T
  55    -64.7762596 -0.442932E-08  0.390E-04    0.03      32.3  T
     SCC iter.                  ...        0 min,  6.608 sec
     gradient                   ...        0 min,  0.010 sec
 * total energy  :   -44.2868478 Eh     change       -0.3895777E+01 Eh
   gradient norm :     4.2339500 Eh/α   predicted    -0.4751089E+01 (  21.95%)
   displ. norm   :     0.9178085 α      lambda       -0.3637124E+01
   maximum displ.:     0.5314047 α      in ANC's #52, #75, #50, ...

........................................................................
.............................. CYCLE    4 ..............................
........................................................................

 iter      E             dE          RMSdq      gap      omega  full diag
   1    -64.3833507 -0.643834E+02  0.177E+00    0.02       0.0  T
   2    -52.2047692  0.121786E+02  0.946E+00    0.00       1.0  T
   3    -64.0943477 -0.118896E+02  0.236E+00    0.05       1.0  T
   4    -61.1801415  0.291421E+01  0.343E+00    0.06       1.0  T
   5    -64.0414063 -0.286126E+01  0.195E+00    0.20       1.0  T
   6    -64.3578397 -0.316433E+00  0.146E+00    0.03       1.0  T
   7    -64.3813371 -0.234974E-01  0.123E+00    0.06       1.0  T
   8    -64.2701243  0.111213E+00  0.153E+00    0.04       1.0  T
   9    -64.3083070 -0.381827E-01  0.133E+00    0.08       1.0  T
  10    -64.6096007 -0.301294E+00  0.788E-01    0.05       1.0  T
  11    -64.5039305  0.105670E+00  0.841E-01    0.05       1.0  T
  12    -64.5659923 -0.620618E-01  0.841E-01    0.05       1.0  T
  13    -64.6067875 -0.407952E-01  0.735E-01    0.04       1.0  T
  14    -64.6248927 -0.181052E-01  0.658E-01    0.05       1.0  T
  15    -64.6285422 -0.364953E-02  0.632E-01    0.05       1.0  T
  16    -64.6276877  0.854503E-03  0.623E-01    0.04       1.0  T
  17    -64.6245795  0.310823E-02  0.637E-01    0.04       1.0  T
  18    -64.6374245 -0.128450E-01  0.582E-01    0.04       1.0  T
  19    -64.6433886 -0.596410E-02  0.555E-01    0.04       1.0  T
  20    -64.6486501 -0.526150E-02  0.524E-01    0.04       1.0  T
  21    -64.6329262  0.157239E-01  0.565E-01    0.04       1.0  T
  22    -64.6320780  0.848202E-03  0.547E-01    0.04       1.0  T
  23    -64.6349100 -0.283199E-02  0.531E-01    0.04       1.0  T
  24    -64.6376010 -0.269104E-02  0.518E-01    0.04       1.0  T
  25    -64.6497537 -0.121527E-01  0.457E-01    0.04       1.0  T
  26    -64.6580807 -0.832695E-02  0.404E-01    0.04       1.0  T
  27    -64.6694602 -0.113795E-01  0.323E-01    0.04       1.0  T
  28    -64.6742713 -0.481107E-02  0.285E-01    0.04       1.0  T
  29    -64.6751005 -0.829240E-03  0.278E-01    0.04       1.0  T
  30    -64.6846493 -0.954879E-02  0.175E-01    0.04       1.0  T
  31    -64.6889538 -0.430453E-02  0.732E-02    0.04       1.0  T
  32    -64.6886996  0.254259E-03  0.865E-02    0.04       1.0  T
  33    -64.6878364  0.863134E-03  0.108E-01    0.04       1.0  T
  34    -64.6885508 -0.714344E-03  0.824E-02    0.04       1.0  T
  35    -64.6890038 -0.453006E-03  0.622E-02    0.04       1.0  T
  36    -64.6891532 -0.149363E-03  0.507E-02    0.04       1.0  T
  37    -64.6891136  0.395257E-04  0.486E-02    0.04       1.0  T
  38    -64.6891512 -0.375720E-04  0.424E-02    0.04       1.0  T
  39    -64.6893472 -0.195957E-03  0.147E-02    0.04       1.0  T
  40    -64.6893334  0.137322E-04  0.135E-02    0.04       1.0  T
  41    -64.6893393 -0.591748E-05  0.103E-02    0.04       1.2  T
  42    -64.6893482 -0.890447E-05  0.662E-03    0.04       1.9  T
  43    -64.6893473  0.898885E-06  0.573E-03    0.04       2.2  T
  44    -64.6893502 -0.283637E-05  0.267E-03    0.04       4.7  T
  45    -64.6893481  0.212073E-05  0.374E-03    0.04       3.4  T
  46    -64.6893512 -0.311401E-05  0.196E-03    0.04       6.4  T
  47    -64.6893512 -0.113945E-07  0.180E-03    0.04       7.0  T
  48    -64.6893515 -0.341919E-06  0.703E-04    0.04      17.9  T
  49    -64.6893516 -0.516887E-07  0.301E-04    0.04      41.9  T
     SCC iter.                  ...        0 min,  0.479 sec
     gradient                   ...        0 min,  0.009 sec
 * total energy  :   -47.1150011 Eh     change       -0.2828153E+01 Eh
   gradient norm :     3.1713838 Eh/α   predicted    -0.3350468E+01 (  18.47%)
   displ. norm   :     0.9021111 α      lambda       -0.2600933E+01
   maximum displ.:     0.6291552 α      in ANC's #52, #50, #47, ...

........................................................................
.............................. CYCLE    5 ..............................
........................................................................

 iter      E             dE          RMSdq      gap      omega  full diag
   1    -64.2992069 -0.642992E+02  0.164E+00    0.01       0.0  T
   2    -45.5025857  0.187966E+02  0.931E+00    0.07       1.0  T
   3    -62.5306791 -0.170281E+02  0.444E+00    0.02       1.0  T
   4    -57.8130166  0.471766E+01  0.557E+00    0.09       1.0  T
   5    -61.4516381 -0.363862E+01  0.339E+00    0.01       1.0  T
   6    -63.7624819 -0.231084E+01  0.235E+00    0.04       1.0  T
   7    -63.6750451  0.874368E-01  0.238E+00    0.10       1.0  T
   8    -63.2501462  0.424899E+00  0.221E+00    0.05       1.0  T
   9    -64.2242951 -0.974149E+00  0.122E+00    0.07       1.0  T
  10    -64.2049905  0.193046E-01  0.133E+00    0.06       1.0  T
  11    -64.3330056 -0.128015E+00  0.120E+00    0.07       1.0  T
  12    -63.9605588  0.372447E+00  0.131E+00    0.11       1.0  T
  13    -64.5452431 -0.584684E+00  0.521E-01    0.01       1.0  T
  14    -64.5367180  0.852515E-02  0.507E-01    0.03       1.0  T
  15    -64.5675567 -0.308388E-01  0.425E-01    0.01       1.0  T
  16    -64.5381436  0.294132E-01  0.514E-01    0.01       1.0  T
  17    -64.5158089  0.223347E-01  0.513E-01    0.03       1.0  T
  18    -64.5269949 -0.111860E-01  0.447E-01    0.03       1.0  T
  19    -64.5711999 -0.442050E-01  0.224E-01    0.02       1.0  T
  20    -64.5802540 -0.905415E-02  0.157E-01    0.02       1.0  T
  21    -64.5801320  0.122069E-03  0.148E-01    0.02       1.0  T
  22    -64.5799832  0.148778E-03  0.140E-01    0.02       1.0  T
  23    -64.5806103 -0.627132E-03  0.115E-01    0.02       1.0  T
  24    -64.5819176 -0.130727E-02  0.880E-02    0.02       1.0  T
  25    -64.5817811  0.136525E-03  0.812E-02    0.02       1.0  T
  26    -64.5818701 -0.890091E-04  0.691E-02    0.02       1.0  T
  27    -64.5824793 -0.609276E-03  0.486E-02    0.02       1.0  T
  28    -64.5825592 -0.799052E-04  0.458E-02    0.02       1.0  T
  29    -64.5826135 -0.542148E-04  0.389E-02    0.02       1.0  T
  30    -64.5824902  0.123265E-03  0.398E-02    0.02       1.0  T
  31    -64.5825091 -0.189076E-04  0.353E-02    0.02       1.0  T
  32    -64.5826107 -0.101559E-03  0.268E-02    0.02       1.0  T
  33    -64.5826317 -0.210628E-04  0.226E-02    0.02       1.0  T
  34    -64.5826504 -0.187145E-04  0.216E-02    0.02       1.0  T
  35    -64.5826503  0.113371E-06  0.203E-02    0.02       1.0  T
  36    -64.5826644 -0.140296E-04  0.188E-02    0.02       1.0  T
  37    -64.5826644 -0.372630E-07  0.183E-02    0.02       1.0  T
  38    -64.5826681 -0.370134E-05  0.176E-02    0.02       1.0  T
  39    -64.5826688 -0.751743E-06  0.171E-02    0.02       1.0  T
  40    -64.5826715 -0.262828E-05  0.153E-02    0.02       1.0  T
  41    -64.5826727 -0.125253E-05  0.143E-02    0.02       1.0  T
  42    -64.5826727  0.147531E-08  0.135E-02    0.02       1.0  T
  43    -64.5826733 -0.563234E-06  0.124E-02    0.02       1.0  T
  44    -64.5826753 -0.204715E-05  0.108E-02    0.02       1.2  T
  45    -64.5826751  0.187914E-06  0.984E-03    0.02       1.3  T
  46    -64.5826771 -0.195106E-05  0.812E-03    0.02       1.6  T
  47    -64.5826779 -0.849758E-06  0.724E-03    0.02       1.7  T
  48    -64.5826781 -0.103269E-06  0.709E-03    0.02       1.8  T
  49    -64.5826789 -0.874025E-06  0.595E-03    0.02       2.1  T
  50    -64.5826801 -0.114719E-05  0.394E-03    0.02       3.2  T
  51    -64.5826806 -0.502173E-06  0.272E-03    0.02       4.6  T
  52    -64.5826807 -0.136474E-06  0.224E-03    0.02       5.6  T
  53    -64.5826809 -0.152091E-06  0.138E-03    0.02       9.1  T
  54    -64.5826809 -0.272353E-07  0.118E-03    0.02      10.7  T
  55    -64.5826809 -0.417177E-07  0.957E-04    0.02      13.2  T
  56    -64.5826810 -0.416909E-07  0.700E-04    0.02      18.0  T
     SCC iter.                  ...        0 min,  0.555 sec
     gradient                   ...        0 min,  0.008 sec
 * total energy  :   -49.3032109 Eh     change       -0.2188210E+01 Eh
   gradient norm :     2.8047831 Eh/α   predicted    -0.2358794E+01 (   7.80%)
   displ. norm   :     0.9167029 α      lambda       -0.2304840E+01
   maximum displ.:     0.6369116 α      in ANC's #52, #50, #47, ...

........................................................................
.............................. CYCLE    6 ..............................
........................................................................

 iter      E             dE          RMSdq      gap      omega  full diag
   1    -64.3881744 -0.643882E+02  0.979E-01    0.07       0.0  T
   2    -54.2039704  0.101842E+02  0.703E+00    0.10       1.0  T
   3    -63.7699306 -0.956596E+01  0.241E+00    0.06       1.0  T
   4    -63.5682002  0.201730E+00  0.211E+00    0.08       1.0  T
   5    -64.4792240 -0.911024E+00  0.601E-01    0.01       1.0  T
   6    -64.3888897  0.903343E-01  0.851E-01    0.07       1.0  T
   7    -64.3911319 -0.224217E-02  0.597E-01    0.02       1.0  T
   8    -63.5540487  0.837083E+00  0.167E+00    0.11       1.0  T
   9    -64.4327376 -0.878689E+00  0.733E-01    0.04       1.0  T
  10    -64.2748398  0.157898E+00  0.896E-01    0.00       1.0  T
  11    -64.4717890 -0.196949E+00  0.457E-01    0.02       1.0  T
  12    -64.4979744 -0.261853E-01  0.312E-01    0.05       1.0  T
  13    -64.4971611  0.813228E-03  0.319E-01    0.04       1.0  T
  14    -64.4983435 -0.118232E-02  0.306E-01    0.04       1.0  T
  15    -64.4980849  0.258525E-03  0.304E-01    0.04       1.0  T
  16    -64.4987830 -0.698034E-03  0.264E-01    0.04       1.0  T
  17    -64.4970423  0.174065E-02  0.253E-01    0.04       1.0  T
  18    -64.4984993 -0.145700E-02  0.227E-01    0.03       1.0  T
  19    -64.4994846 -0.985250E-03  0.209E-01    0.03       1.0  T
  20    -64.5007080 -0.122346E-02  0.194E-01    0.03       1.0  T
  21    -64.5011309 -0.422835E-03  0.179E-01    0.03       1.0  T
  22    -64.5018917 -0.760865E-03  0.150E-01    0.04       1.0  T
  23    -64.5023346 -0.442862E-03  0.139E-01    0.04       1.0  T
  24    -64.5023520 -0.174229E-04  0.138E-01    0.04       1.0  T
  25    -64.5023412  0.108128E-04  0.137E-01    0.04       1.0  T
  26    -64.5023782 -0.370571E-04  0.125E-01    0.04       1.0  T
  27    -64.5026162 -0.237946E-03  0.105E-01    0.04       1.0  T
  28    -64.5027041 -0.878714E-04  0.960E-02    0.04       1.0  T
  29    -64.5027359 -0.318688E-04  0.874E-02    0.04       1.0  T
  30    -64.5027397 -0.374696E-05  0.743E-02    0.04       1.0  T
  31    -64.5027508 -0.111112E-04  0.730E-02    0.04       1.0  T
  32    -64.5028988 -0.147971E-03  0.451E-02    0.04       1.0  T
  33    -64.5029428 -0.440738E-04  0.365E-02    0.04       1.0  T
  34    -64.5029639 -0.210815E-04  0.287E-02    0.04       1.0  T
  35    -64.5029761 -0.121852E-04  0.145E-02    0.04       1.0  T
  36    -64.5029802 -0.405845E-05  0.445E-03    0.04       2.8  T
  37    -64.5029798  0.330797E-06  0.587E-03    0.04       2.1  T
  38    -64.5029801 -0.296247E-06  0.561E-03    0.04       2.2  T
  39    -64.5029808 -0.704716E-06  0.210E-03    0.04       6.0  T
  40    -64.5029809 -0.570185E-07  0.158E-03    0.04       8.0  T
  41    -64.5029809 -0.544516E-07  0.561E-04    0.04      22.5  T
  42    -64.5029809  0.259088E-07  0.563E-04    0.04      22.4  T
     SCC iter.                  ...        0 min,  0.429 sec
     gradient                   ...        0 min,  0.009 sec
 * total energy  :   -51.2749184 Eh     change       -0.1971707E+01 Eh
   gradient norm :     2.0515244 Eh/α   predicted    -0.2120850E+01 (   7.56%)
   displ. norm   :     0.9176244 α      lambda       -0.1806047E+01
   maximum displ.:     0.6391911 α      in ANC's #52, #50, #47, ...

........................................................................
.............................. CYCLE    7 ..............................
........................................................................

 iter      E             dE          RMSdq      gap      omega  full diag
   1    -64.3934958 -0.643935E+02  0.653E-01    0.00       0.0  T
   2    -61.8846936  0.250880E+01  0.318E+00    0.04       1.0  T
   3    -63.9629211 -0.207823E+01  0.152E+00    0.11       1.0  T
   4    -63.8357117  0.127209E+00  0.158E+00    0.18       1.0  T
   5    -64.3837965 -0.548085E+00  0.602E-01    0.03       1.0  T
   6    -64.3144034  0.693931E-01  0.772E-01    0.00       1.0  T
   7    -64.3641578 -0.497544E-01  0.556E-01    0.00       1.0  T
   8    -64.2647571  0.994007E-01  0.764E-01    0.03       1.0  T
   9    -64.4024710 -0.137714E+00  0.384E-01    0.02       1.0  T
  10    -64.3900261  0.124449E-01  0.340E-01    0.00       1.0  T
  11    -64.4173712 -0.273451E-01  0.235E-01    0.01       1.0  T
  12    -64.4156306  0.174061E-02  0.227E-01    0.01       1.0  T
  13    -64.4161153 -0.484723E-03  0.219E-01    0.01       1.0  T
  14    -64.4170655 -0.950197E-03  0.207E-01    0.00       1.0  T
  15    -64.4176586 -0.593064E-03  0.180E-01    0.01       1.0  T
  16    -64.4185325 -0.873931E-03  0.162E-01    0.00       1.0  T
  17    -64.4219300 -0.339749E-02  0.119E-01    0.00       1.0  T
  18    -64.4224824 -0.552408E-03  0.106E-01    0.00       1.0  T
  19    -64.4230937 -0.611286E-03  0.908E-02    0.00       1.0  T
  20    -64.4234234 -0.329702E-03  0.810E-02    0.00       1.0  T
  21    -64.4236499 -0.226499E-03  0.722E-02    0.00       1.0  T
  22    -64.4237850 -0.135137E-03  0.662E-02    0.00       1.0  T
  23    -64.4239790 -0.194005E-03  0.567E-02    0.00       1.0  T
  24    -64.4242670 -0.287920E-03  0.334E-02    0.01       1.0  T
  25    -64.4243034 -0.364962E-04  0.269E-02    0.01       1.0  T
  26    -64.4243471 -0.436823E-04  0.209E-02    0.01       1.0  T
  27    -64.4243595 -0.123744E-04  0.179E-02    0.01       1.0  T
  28    -64.4243512  0.832913E-05  0.164E-02    0.01       1.0  T
  29    -64.4243493  0.183301E-05  0.155E-02    0.01       1.0  T
  30    -64.4243458  0.352819E-05  0.137E-02    0.01       1.0  T
  31    -64.4243552 -0.937555E-05  0.113E-02    0.01       1.1  T
  32    -64.4243623 -0.715117E-05  0.918E-03    0.01       1.4  T
  33    -64.4243711 -0.879653E-05  0.466E-03    0.01       2.7  T
  34    -64.4243729 -0.180310E-05  0.186E-03    0.01       6.8  T
  35    -64.4243731 -0.130887E-06  0.803E-04    0.01      15.7  T
  36    -64.4243731  0.494150E-08  0.491E-04    0.01      25.6  T
     SCC iter.                  ...        0 min,  1.015 sec
     gradient                   ...        0 min,  0.010 sec
 * total energy  :   -52.9295205 Eh     change       -0.1654602E+01 Eh
   gradient norm :     1.7118117 Eh/α   predicted    -0.1663401E+01 (   0.53%)
   displ. norm   :     0.9160980 α      lambda       -0.1554014E+01
   maximum displ.:     0.6235096 α      in ANC's #52, #50, #47, ...

........................................................................
.............................. CYCLE    8 ..............................
........................................................................

 iter      E             dE          RMSdq      gap      omega  full diag
   1    -64.3033160 -0.643033E+02  0.624E-01    0.06       0.0  T
   2    -63.4707478  0.832568E+00  0.200E+00    0.12       1.0  T
   3    -64.2152103 -0.744462E+00  0.834E-01    0.03       1.0  T
   4    -63.5336291  0.681581E+00  0.164E+00    0.13       1.0  T
   5    -64.1072319 -0.573603E+00  0.102E+00    0.12       1.0  T
   6    -64.2379195 -0.130688E+00  0.645E-01    0.02       1.0  T
   7    -64.2910237 -0.531042E-01  0.371E-01    0.06       1.0  T
   8    -64.2923711 -0.134733E-02  0.348E-01    0.05       1.0  T
   9    -64.3144210 -0.220499E-01  0.204E-01    0.05       1.0  T
  10    -64.3162187 -0.179768E-02  0.183E-01    0.04       1.0  T
  11    -64.3146099  0.160872E-02  0.194E-01    0.05       1.0  T
  12    -64.3155405 -0.930506E-03  0.166E-01    0.05       1.0  T
  13    -64.3157235 -0.183090E-03  0.132E-01    0.05       1.0  T
  14    -64.3156944  0.291460E-04  0.124E-01    0.05       1.0  T
  15    -64.3181206 -0.242620E-02  0.682E-02    0.05       1.0  T
  16    -64.3184394 -0.318806E-03  0.518E-02    0.05       1.0  T
  17    -64.3186047 -0.165272E-03  0.423E-02    0.05       1.0  T
  18    -64.3186774 -0.727635E-04  0.375E-02    0.05       1.0  T
  19    -64.3187046 -0.272118E-04  0.350E-02    0.06       1.0  T
  20    -64.3187228 -0.181108E-04  0.321E-02    0.06       1.0  T
  21    -64.3187651 -0.422978E-04  0.247E-02    0.06       1.0  T
  22    -64.3187901 -0.250525E-04  0.171E-02    0.06       1.0  T
  23    -64.3187890  0.106940E-05  0.149E-02    0.06       1.0  T
  24    -64.3187783  0.107589E-04  0.150E-02    0.06       1.0  T
  25    -64.3187874 -0.907816E-05  0.135E-02    0.06       1.0  T
  26    -64.3188004 -0.130867E-04  0.954E-03    0.06       1.3  T
  27    -64.3188024 -0.193671E-05  0.772E-03    0.06       1.6  T
  28    -64.3188061 -0.371011E-05  0.565E-03    0.06       2.2  T
  29    -64.3188076 -0.146143E-05  0.467E-03    0.06       2.7  T
  30    -64.3188089 -0.130213E-05  0.299E-03    0.06       4.2  T
  31    -64.3188091 -0.270028E-06  0.210E-03    0.06       6.0  T
  32    -64.3188093 -0.157692E-06  0.151E-03    0.06       8.4  T
  33    -64.3188094 -0.116909E-06  0.769E-04    0.06      16.4  T
  34    -64.3188094  0.937845E-09  0.763E-04    0.06      16.5  T
     SCC iter.                  ...        0 min,  0.321 sec
     gradient                   ...        0 min,  0.009 sec
 * total energy  :   -54.3436058 Eh     change       -0.1414085E+01 Eh
   gradient norm :     1.4429921 Eh/α   predicted    -0.1429099E+01 (   1.06%)
   displ. norm   :     0.9188952 α      lambda       -0.1314946E+01
   maximum displ.:     0.6132609 α      in ANC's #52, #47, #50, ...

........................................................................
.............................. CYCLE    9 ..............................
........................................................................

 iter      E             dE          RMSdq      gap      omega  full diag
   1    -64.1639881 -0.641640E+02  0.705E-01    0.01       0.0  T
   2    -62.3127916  0.185120E+01  0.320E+00    0.02       1.0  T
   3    -64.1210536 -0.180826E+01  0.899E-01    0.06       1.0  T
   4    -63.9897064  0.131347E+00  0.965E-01    0.08       1.0  T
   5    -63.8967618  0.929446E-01  0.996E-01    0.01       1.0  T
   6    -63.9851809 -0.884191E-01  0.875E-01    0.04       1.0  T
   7    -64.1816958 -0.196515E+00  0.457E-01    0.07       1.0  T
   8    -64.1912153 -0.951954E-02  0.335E-01    0.07       1.0  T
   9    -64.2104962 -0.192808E-01  0.227E-01    0.06       1.0  T
  10    -64.2050876  0.540860E-02  0.259E-01    0.08       1.0  T
  11    -64.2117875 -0.669998E-02  0.192E-01    0.07       1.0  T
  12    -64.2046511  0.713647E-02  0.234E-01    0.07       1.0  T
  13    -64.2129145 -0.826343E-02  0.151E-01    0.08       1.0  T
  14    -64.2149527 -0.203819E-02  0.930E-02    0.08       1.0  T
  15    -64.2136833  0.126936E-02  0.114E-01    0.08       1.0  T
  16    -64.2162128 -0.252947E-02  0.453E-02    0.08       1.0  T
  17    -64.2164858 -0.273014E-03  0.244E-02    0.08       1.0  T
  18    -64.2164906 -0.474433E-05  0.242E-02    0.08       1.0  T
  19    -64.2165339 -0.433132E-04  0.182E-02    0.08       1.0  T
  20    -64.2165516 -0.177012E-04  0.128E-02    0.08       1.0  T
  21    -64.2165575 -0.596716E-05  0.896E-03    0.08       1.4  T
  22    -64.2165618 -0.426887E-05  0.755E-03    0.08       1.7  T
  23    -64.2165659 -0.407331E-05  0.507E-03    0.08       2.5  T
  24    -64.2165661 -0.162894E-06  0.449E-03    0.08       2.8  T
  25    -64.2165673 -0.128999E-05  0.319E-03    0.08       3.9  T
  26    -64.2165684 -0.102110E-05  0.164E-03    0.08       7.7  T
  27    -64.2165687 -0.319177E-06  0.874E-04    0.08      14.4  T
  28    -64.2165687 -0.186209E-07  0.611E-04    0.08      20.6  T
     SCC iter.                  ...        0 min,  0.260 sec
     gradient                   ...        0 min,  0.010 sec
 * total energy  :   -55.5536531 Eh     change       -0.1210047E+01 Eh
   gradient norm :     1.2258198 Eh/α   predicted    -0.1212622E+01 (   0.21%)
   displ. norm   :     0.9145066 α      lambda       -0.1118410E+01
   maximum displ.:     0.6091213 α      in ANC's #52, #47, #50, ...

........................................................................
.............................. CYCLE   10 ..............................
........................................................................

 iter      E             dE          RMSdq      gap      omega  full diag
   1    -63.7875089 -0.637875E+02  0.144E+00    0.02       0.0  T
   2    -40.5394105  0.232481E+02  0.104E+01    0.08       1.0  T
   3    -63.2655063 -0.227261E+02  0.267E+00    0.23       1.0  T
   4    -61.2465805  0.201893E+01  0.356E+00    0.10       1.0  T
   5    -63.6423278 -0.239575E+01  0.168E+00    0.17       1.0  T
   6    -63.0930309  0.549297E+00  0.182E+00    0.14       1.0  T
   7    -64.0295369 -0.936506E+00  0.738E-01    0.06       1.0  T
   8    -63.4660506  0.563486E+00  0.142E+00    0.02       1.0  T
   9    -63.8653327 -0.399282E+00  0.104E+00    0.02       1.0  T
  10    -63.7939019  0.714308E-01  0.102E+00    0.07       1.0  T
  11    -63.8250964 -0.311945E-01  0.892E-01    0.04       1.0  T
  12    -64.0917444 -0.266648E+00  0.444E-01    0.02       1.0  T
  13    -64.0779515  0.137930E-01  0.363E-01    0.02       1.0  T
  14    -64.0607585  0.171929E-01  0.469E-01    0.03       1.0  T
  15    -64.0956874 -0.349289E-01  0.379E-01    0.04       1.0  T
  16    -64.0913728  0.431465E-02  0.361E-01    0.03       1.0  T
  17    -64.0960572 -0.468442E-02  0.328E-01    0.03       1.0  T
  18    -64.1029627 -0.690553E-02  0.284E-01    0.02       1.0  T
  19    -64.1048824 -0.191963E-02  0.258E-01    0.02       1.0  T
  20    -64.1050621 -0.179787E-03  0.244E-01    0.02       1.0  T
  21    -64.1050963 -0.342062E-04  0.237E-01    0.02       1.0  T
  22    -64.1056502 -0.553831E-03  0.221E-01    0.02       1.0  T
  23    -64.1073021 -0.165194E-02  0.159E-01    0.02       1.0  T
  24    -64.1082401 -0.938025E-03  0.110E-01    0.02       1.0  T
  25    -64.1084012 -0.161088E-03  0.923E-02    0.02       1.0  T
  26    -64.1082405  0.160722E-03  0.835E-02    0.02       1.0  T
  27    -64.1086201 -0.379615E-03  0.683E-02    0.02       1.0  T
  28    -64.1088436 -0.223505E-03  0.586E-02    0.02       1.0  T
  29    -64.1089476 -0.104015E-03  0.572E-02    0.02       1.0  T
  30    -64.1088082  0.139411E-03  0.618E-02    0.02       1.0  T
  31    -64.1086977  0.110515E-03  0.693E-02    0.02       1.0  T
  32    -64.1087884 -0.907202E-04  0.666E-02    0.02       1.0  T
  33    -64.1088207 -0.322937E-04  0.655E-02    0.02       1.0  T
  34    -64.1088389 -0.181939E-04  0.712E-02    0.02       1.0  T
  35    -64.1088657 -0.267864E-04  0.682E-02    0.02       1.0  T
  36    -64.1089431 -0.774023E-04  0.561E-02    0.02       1.0  T
  37    -64.1090298 -0.867013E-04  0.303E-02    0.02       1.0  T
  38    -64.1090598 -0.300099E-04  0.126E-02    0.02       1.0  T
  39    -64.1090660 -0.622634E-05  0.626E-03    0.02       2.0  T
  40    -64.1090670 -0.993344E-06  0.416E-03    0.02       3.0  T
  41    -64.1090673 -0.230858E-06  0.323E-03    0.02       3.9  T
  42    -64.1090675 -0.240570E-06  0.140E-03    0.02       9.0  T
  43    -64.1090672  0.305415E-06  0.248E-03    0.02       5.1  T
  44    -64.1090674 -0.142110E-06  0.192E-03    0.02       6.6  T
  45    -64.1090675 -0.198212E-06  0.105E-03    0.02      12.0  T
  46    -64.1090676 -0.829924E-07  0.672E-04    0.02      18.8  T
  47    -64.1090677 -0.479724E-07  0.384E-04    0.02      32.8  T
     SCC iter.                  ...        0 min,  0.560 sec
     gradient                   ...        0 min,  0.008 sec
 * total energy  :   -56.5903302 Eh     change       -0.1036677E+01 Eh
   gradient norm :     1.0583191 Eh/α   predicted    -0.1026881E+01 (  -0.94%)
   displ. norm   :     0.9211259 α      lambda       -0.9713349E+00
   maximum displ.:     0.6083864 α      in ANC's #52, #47, #50, ...

........................................................................
.............................. CYCLE   11 ..............................
........................................................................

 iter      E             dE          RMSdq      gap      omega  full diag
   1    -63.8491427 -0.638491E+02  0.106E+00    0.14       0.0  T
   2    -51.3074925  0.125417E+02  0.765E+00    0.02       1.0  T
   3    -63.1233576 -0.118159E+02  0.251E+00    0.06       1.0  T
   4    -62.5491443  0.574213E+00  0.213E+00    0.04       1.0  T
   5    -63.7412918 -0.119215E+01  0.111E+00    0.03       1.0  T
   6    -63.4865346  0.254757E+00  0.150E+00    0.01       1.0  T
   7    -63.4905712 -0.403669E-02  0.138E+00    0.04       1.0  T
   8    -63.8389015 -0.348330E+00  0.766E-01    0.05       1.0  T
   9    -63.8489861 -0.100846E-01  0.755E-01    0.06       1.0  T
  10    -63.9165930 -0.676069E-01  0.563E-01    0.06       1.0  T
  11    -63.9914848 -0.748918E-01  0.329E-01    0.03       1.0  T
  12    -63.9914906 -0.579156E-05  0.308E-01    0.04       1.0  T
  13    -63.9917215 -0.230956E-03  0.298E-01    0.04       1.0  T
  14    -63.9841833  0.753820E-02  0.327E-01    0.04       1.0  T
  15    -64.0007441 -0.165607E-01  0.219E-01    0.03       1.0  T
  16    -64.0047027 -0.395862E-02  0.188E-01    0.03       1.0  T
  17    -64.0050013 -0.298594E-03  0.178E-01    0.03       1.0  T
  18    -64.0050583 -0.569735E-04  0.177E-01    0.03       1.0  T
  19    -64.0046938  0.364453E-03  0.188E-01    0.03       1.0  T
  20    -64.0046045  0.892744E-04  0.169E-01    0.03       1.0  T
  21    -64.0061685 -0.156397E-02  0.136E-01    0.03       1.0  T
  22    -64.0068616 -0.693048E-03  0.109E-01    0.03       1.0  T
  23    -64.0071207 -0.259172E-03  0.944E-02    0.03       1.0  T
  24    -64.0070653  0.554333E-04  0.842E-02    0.03       1.0  T
  25    -64.0072154 -0.150135E-03  0.739E-02    0.03       1.0  T
  26    -64.0072525 -0.370730E-04  0.652E-02    0.03       1.0  T
  27    -64.0072419  0.105830E-04  0.603E-02    0.03       1.0  T
  28    -64.0072494 -0.745758E-05  0.486E-02    0.03       1.0  T
  29    -64.0073092 -0.598414E-04  0.425E-02    0.03       1.0  T
  30    -64.0073092  0.503781E-07  0.383E-02    0.03       1.0  T
  31    -64.0073258 -0.166303E-04  0.312E-02    0.03       1.0  T
  32    -64.0073195  0.633512E-05  0.206E-02    0.03       1.0  T
  33    -64.0073285 -0.906495E-05  0.107E-02    0.03       1.2  T
  34    -64.0073364 -0.784133E-05  0.633E-03    0.03       2.0  T
  35    -64.0073391 -0.269044E-05  0.524E-03    0.03       2.4  T
  36    -64.0073426 -0.356466E-05  0.237E-03    0.03       5.3  T
  37    -64.0073435 -0.912793E-06  0.119E-03    0.03      10.5  T
  38    -64.0073439 -0.312495E-06  0.565E-04    0.03      22.3  T
  39    -64.0073439 -0.261457E-07  0.416E-04    0.03      30.3  T
     SCC iter.                  ...        0 min,  0.391 sec
     gradient                   ...        0 min,  0.011 sec
 * total energy  :   -57.4943120 Eh     change       -0.9039818E+00 Eh
   gradient norm :     0.9254529 Eh/α   predicted    -0.8977429E+00 (  -0.69%)
   displ. norm   :     0.9266706 α      lambda       -0.8533415E+00
   maximum displ.:     0.5928004 α      in ANC's #52, #47, #50, ...

........................................................................
.............................. CYCLE   12 ..............................
........................................................................

 iter      E             dE          RMSdq      gap      omega  full diag
   1    -63.8370995 -0.638371E+02  0.880E-01    0.13       0.0  T
   2    -58.9189663  0.491813E+01  0.666E+00    0.03       1.0  T
   3    -63.0981896 -0.417922E+01  0.223E+00    0.04       1.0  T
   4    -63.1734614 -0.752718E-01  0.185E+00    0.04       1.0  T
   5    -63.3835083 -0.210047E+00  0.129E+00    0.01       1.0  T
   6    -63.3904986 -0.699031E-02  0.129E+00    0.20       1.0  T
   7    -63.4768007 -0.863020E-01  0.126E+00    0.05       1.0  T
   8    -63.7565045 -0.279704E+00  0.706E-01    0.23       1.0  T
   9    -63.8070492 -0.505447E-01  0.669E-01    0.20       1.0  T
  10    -63.9038975 -0.968482E-01  0.241E-01    0.13       1.0  T
  11    -63.9087833 -0.488579E-02  0.202E-01    0.14       1.0  T
  12    -63.9092304 -0.447095E-03  0.162E-01    0.14       1.0  T
  13    -63.9085555  0.674838E-03  0.158E-01    0.14       1.0  T
  14    -63.8928253  0.157302E-01  0.276E-01    0.14       1.0  T
  15    -63.9105456 -0.177203E-01  0.877E-02    0.14       1.0  T
  16    -63.9105537 -0.809602E-05  0.805E-02    0.14       1.0  T
  17    -63.9109790 -0.425237E-03  0.706E-02    0.14       1.0  T
  18    -63.9111314 -0.152463E-03  0.668E-02    0.13       1.0  T
  19    -63.9115876 -0.456138E-03  0.510E-02    0.13       1.0  T
  20    -63.9118532 -0.265602E-03  0.367E-02    0.13       1.0  T
  21    -63.9118958 -0.426334E-04  0.317E-02    0.13       1.0  T
  22    -63.9119188 -0.229829E-04  0.279E-02    0.13       1.0  T
  23    -63.9119243 -0.549252E-05  0.235E-02    0.13       1.0  T
  24    -63.9119491 -0.248367E-04  0.201E-02    0.13       1.0  T
  25    -63.9119368  0.123186E-04  0.191E-02    0.13       1.0  T
  26    -63.9119451 -0.833194E-05  0.164E-02    0.13       1.0  T
  27    -63.9119476 -0.247806E-05  0.153E-02    0.13       1.0  T
  28    -63.9119478 -0.136115E-06  0.150E-02    0.13       1.0  T
  29    -63.9119517 -0.395321E-05  0.143E-02    0.13       1.0  T
  30    -63.9119578 -0.604347E-05  0.120E-02    0.13       1.1  T
  31    -63.9119579 -0.187947E-06  0.117E-02    0.13       1.1  T
  32    -63.9119585 -0.553358E-06  0.112E-02    0.13       1.1  T
  33    -63.9119607 -0.221026E-05  0.909E-03    0.13       1.4  T
  34    -63.9119621 -0.143565E-05  0.702E-03    0.13       1.8  T
  35    -63.9119632 -0.109672E-05  0.343E-03    0.13       3.7  T
  36    -63.9119635 -0.238570E-06  0.214E-03    0.13       5.9  T
  37    -63.9119636 -0.842539E-07  0.142E-03    0.13       8.9  T
  38    -63.9119636 -0.576130E-07  0.926E-04    0.13      13.6  T
  39    -63.9119637 -0.346715E-07  0.359E-04    0.13      35.1  T
     SCC iter.                  ...        0 min, 26.329 sec
     gradient                   ...        0 min,  0.057 sec
 * total energy  :   -58.2879578 Eh     change       -0.7936458E+00 Eh
   gradient norm :     0.8109248 Eh/α   predicted    -0.7930606E+00 (  -0.07%)
   displ. norm   :     0.9242734 α      lambda       -0.7409554E+00
   maximum displ.:     0.5834461 α      in ANC's #52, #47, #50, ...

........................................................................
.............................. CYCLE   13 ..............................
........................................................................

 iter      E             dE          RMSdq      gap      omega  full diag
   1    -63.7727085 -0.637727E+02  0.872E-01    0.10       0.0  T
   2    -60.6037493  0.316896E+01  0.496E+00    0.07       1.0  T
   3    -63.4469940 -0.284324E+01  0.147E+00    0.19       1.0  T
   4    -63.2356992  0.211295E+00  0.141E+00    0.05       1.0  T
   5    -63.1074272  0.128272E+00  0.147E+00    0.04       1.0  T
   6    -63.7154397 -0.608013E+00  0.856E-01    0.16       1.0  T
   7    -63.6224052  0.930345E-01  0.833E-01    0.14       1.0  T
   8    -63.7479712 -0.125566E+00  0.514E-01    0.10       1.0  T
   9    -63.8104777 -0.625065E-01  0.246E-01    0.12       1.0  T
  10    -63.8110226 -0.544869E-03  0.250E-01    0.11       1.0  T
  11    -63.8158969 -0.487435E-02  0.193E-01    0.11       1.0  T
  12    -63.8142395  0.165740E-02  0.194E-01    0.11       1.0  T
  13    -63.8096085  0.463104E-02  0.237E-01    0.12       1.0  T
  14    -63.8156556 -0.604716E-02  0.156E-01    0.12       1.0  T
  15    -63.8158223 -0.166667E-03  0.127E-01    0.11       1.0  T
  16    -63.8163424 -0.520119E-03  0.107E-01    0.12       1.0  T
  17    -63.8170802 -0.737812E-03  0.900E-02    0.11       1.0  T
  18    -63.8172597 -0.179456E-03  0.793E-02    0.12       1.0  T
  19    -63.8174430 -0.183360E-03  0.638E-02    0.12       1.0  T
  20    -63.8178482 -0.405166E-03  0.455E-02    0.12       1.0  T
  21    -63.8180404 -0.192227E-03  0.333E-02    0.12       1.0  T
  22    -63.8181148 -0.743871E-04  0.244E-02    0.12       1.0  T
  23    -63.8181103  0.451188E-05  0.247E-02    0.12       1.0  T
  24    -63.8181305 -0.201599E-04  0.219E-02    0.12       1.0  T
  25    -63.8181399 -0.940144E-05  0.201E-02    0.12       1.0  T
  26    -63.8181472 -0.732878E-05  0.177E-02    0.12       1.0  T
  27    -63.8181500 -0.281052E-05  0.158E-02    0.12       1.0  T
  28    -63.8181512 -0.115717E-05  0.153E-02    0.12       1.0  T
  29    -63.8181510  0.201329E-06  0.147E-02    0.12       1.0  T
  30    -63.8181519 -0.948372E-06  0.135E-02    0.12       1.0  T
  31    -63.8181526 -0.642505E-06  0.127E-02    0.12       1.0  T
  32    -63.8181538 -0.122212E-05  0.113E-02    0.12       1.1  T
  33    -63.8181547 -0.962904E-06  0.102E-02    0.12       1.2  T
  34    -63.8181550 -0.307503E-06  0.974E-03    0.12       1.3  T
  35    -63.8181566 -0.151102E-05  0.630E-03    0.12       2.0  T
  36    -63.8181573 -0.758731E-06  0.310E-03    0.12       4.1  T
  37    -63.8181572  0.845210E-07  0.266E-03    0.12       4.7  T
  38    -63.8181574 -0.178821E-06  0.142E-03    0.12       8.9  T
  39    -63.8181575 -0.619593E-07  0.370E-04    0.12      34.1  T
  40    -63.8181575 -0.479318E-09  0.151E-04    0.12      83.2  T
     SCC iter.                  ...        0 min,  1.275 sec
     gradient                   ...        0 min,  0.009 sec
 * total energy  :   -58.9761490 Eh     change       -0.6881912E+00 Eh
   gradient norm :     0.7074315 Eh/α   predicted    -0.6869697E+00 (  -0.18%)
   displ. norm   :     0.9217865 α      lambda       -0.6425525E+00
   maximum displ.:     0.5487565 α      in ANC's #52, #47, #50, ...

........................................................................
.............................. CYCLE   14 ..............................
........................................................................

 iter      E             dE          RMSdq      gap      omega  full diag
   1    -63.6816790 -0.636817E+02  0.100E+00    0.04       0.0  T
   2    -62.0854340  0.159625E+01  0.325E+00    0.04       1.0  T
   3    -63.5795830 -0.149415E+01  0.111E+00    0.09       1.0  T
   4    -62.8363490  0.743234E+00  0.208E+00    0.18       1.0  T
   5    -60.4162288  0.242012E+01  0.321E+00    0.11       1.0  T
   6    -63.5087171 -0.309249E+01  0.999E-01    0.06       1.0  T
   7    -63.6596155 -0.150898E+00  0.606E-01    0.06       1.0  T
   8    -63.6673462 -0.773066E-02  0.507E-01    0.02       1.0  T
   9    -63.6962774 -0.289312E-01  0.376E-01    0.02       1.0  T
  10    -63.7085992 -0.123219E-01  0.269E-01    0.02       1.0  T
  11    -63.7040098  0.458945E-02  0.271E-01    0.03       1.0  T
  12    -63.6932220  0.107877E-01  0.372E-01    0.02       1.0  T
  13    -63.7098291 -0.166070E-01  0.264E-01    0.02       1.0  T
  14    -63.7197618 -0.993275E-02  0.163E-01    0.03       1.0  T
  15    -63.7208991 -0.113730E-02  0.146E-01    0.03       1.0  T
  16    -63.7208951  0.399396E-05  0.143E-01    0.03       1.0  T
  17    -63.7209163 -0.211923E-04  0.141E-01    0.03       1.0  T
  18    -63.7212462 -0.329864E-03  0.126E-01    0.03       1.0  T
  19    -63.7219161 -0.669892E-03  0.894E-02    0.03       1.0  T
  20    -63.7223828 -0.466687E-03  0.734E-02    0.03       1.0  T
  21    -63.7224893 -0.106495E-03  0.660E-02    0.03       1.0  T
  22    -63.7225782 -0.889705E-04  0.578E-02    0.03       1.0  T
  23    -63.7227866 -0.208318E-03  0.379E-02    0.03       1.0  T
  24    -63.7229054 -0.118858E-03  0.160E-02    0.03       1.0  T
  25    -63.7229202 -0.147595E-04  0.955E-03    0.03       1.3  T
  26    -63.7229222 -0.206799E-05  0.570E-03    0.03       2.2  T
  27    -63.7229238 -0.155178E-05  0.313E-03    0.03       4.0  T
  28    -63.7229238 -0.310766E-07  0.241E-03    0.03       5.2  T
  29    -63.7229240 -0.223661E-06  0.209E-03    0.03       6.0  T
  30    -63.7229244 -0.308362E-06  0.144E-03    0.03       8.7  T
  31    -63.7229245 -0.163460E-06  0.824E-04    0.03      15.3  T
  32    -63.7229246 -0.455120E-07  0.557E-04    0.03      22.6  T
     SCC iter.                  ...        0 min,  0.284 sec
     gradient                   ...        0 min,  0.008 sec
 * total energy  :   -59.5730412 Eh     change       -0.5968922E+00 Eh
   gradient norm :     0.6194589 Eh/α   predicted    -0.5942616E+00 (  -0.44%)
   displ. norm   :     0.9171696 α      lambda       -0.5548851E+00
   maximum displ.:     0.5358617 α      in ANC's #52, #47, #45, ...

........................................................................
.............................. CYCLE   15 ..............................
........................................................................

 iter      E             dE          RMSdq      gap      omega  full diag
   1    -63.4581413 -0.634581E+02  0.153E+00    0.03       0.0  T
   2    -53.8031782  0.965496E+01  0.831E+00    0.22       1.0  T
   3    -62.9266320 -0.912345E+01  0.243E+00    0.14       1.0  T
   4    -63.3930150 -0.466383E+00  0.111E+00    0.09       1.0  T
   5    -62.2270135  0.116600E+01  0.218E+00    0.02       1.0  T
   6    -61.8309178  0.396096E+00  0.236E+00    0.13       1.0  T
   7    -63.4967940 -0.166588E+01  0.100E+00    0.12       1.0  T
   8    -63.4347299  0.620642E-01  0.877E-01    0.10       1.0  T
   9    -63.5530956 -0.118366E+00  0.696E-01    0.13       1.0  T
  10    -63.6031894 -0.500938E-01  0.350E-01    0.08       1.0  T
  11    -63.6057018 -0.251244E-02  0.369E-01    0.11       1.0  T
  12    -63.5901779  0.155239E-01  0.422E-01    0.10       1.0  T
  13    -63.6088453 -0.186673E-01  0.294E-01    0.10       1.0  T
  14    -63.6219513 -0.131060E-01  0.147E-01    0.09       1.0  T
  15    -63.6224960 -0.544674E-03  0.116E-01    0.08       1.0  T
  16    -63.6232737 -0.777713E-03  0.106E-01    0.09       1.0  T
  17    -63.6236469 -0.373274E-03  0.847E-02    0.08       1.0  T
  18    -63.6232830  0.363947E-03  0.895E-02    0.09       1.0  T
  19    -63.6240807 -0.797731E-03  0.633E-02    0.09       1.0  T
  20    -63.6245658 -0.485059E-03  0.382E-02    0.09       1.0  T
  21    -63.6246378 -0.719760E-04  0.308E-02    0.09       1.0  T
  22    -63.6246951 -0.573698E-04  0.256E-02    0.09       1.0  T
  23    -63.6247051 -0.100053E-04  0.241E-02    0.09       1.0  T
  24    -63.6247069 -0.173369E-05  0.238E-02    0.09       1.0  T
  25    -63.6247215 -0.146471E-04  0.164E-02    0.09       1.0  T
  26    -63.6247602 -0.387283E-04  0.666E-03    0.09       1.9  T
  27    -63.6247641 -0.383370E-05  0.345E-03    0.09       3.7  T
  28    -63.6247645 -0.432004E-06  0.277E-03    0.09       4.5  T
  29    -63.6247648 -0.325323E-06  0.183E-03    0.09       6.9  T
  30    -63.6247649 -0.743937E-07  0.174E-03    0.09       7.2  T
  31    -63.6247651 -0.216625E-06  0.165E-03    0.09       7.6  T
  32    -63.6247651  0.226590E-08  0.161E-03    0.09       7.8  T
  33    -63.6247652 -0.469512E-07  0.139E-03    0.09       9.0  T
  34    -63.6247652 -0.435998E-07  0.106E-03    0.09      11.9  T
  35    -63.6247652 -0.946395E-08  0.943E-04    0.09      13.4  T
  36    -63.6247652 -0.469052E-08  0.875E-04    0.09      14.4  T
     SCC iter.                  ...        0 min,  0.361 sec
     gradient                   ...        0 min,  0.008 sec
 * total energy  :   -60.0876631 Eh     change       -0.5146218E+00 Eh
   gradient norm :     0.5422848 Eh/α   predicted    -0.5108272E+00 (  -0.74%)
   displ. norm   :     0.9162097 α      lambda       -0.4805596E+00
   maximum displ.:     0.4907735 α      in ANC's #52, #47, #45, ...

........................................................................
.............................. CYCLE   16 ..............................
........................................................................

 iter      E             dE          RMSdq      gap      omega  full diag
   1    -63.3195863 -0.633196E+02  0.164E+00    0.12       0.0  T
   2    -47.0784409  0.162411E+02  0.101E+01    0.04       1.0  T
   3    -61.8289015 -0.147505E+02  0.342E+00    0.08       1.0  T
   4    -57.3687586  0.446014E+01  0.407E+00    0.03       1.0  T
   5    -60.3537829 -0.298502E+01  0.311E+00    0.07       1.0  T
   6    -63.2111046 -0.285732E+01  0.149E+00    0.06       1.0  T
   7    -62.9143458  0.296759E+00  0.179E+00    0.17       1.0  T
   8    -62.9997091 -0.853633E-01  0.148E+00    0.10       1.0  T
   9    -63.1637726 -0.164063E+00  0.142E+00    0.08       1.0  T
  10    -63.4752494 -0.311477E+00  0.660E-01    0.02       1.0  T
  11    -63.4967076 -0.214582E-01  0.569E-01    0.03       1.0  T
  12    -63.5049589 -0.825127E-02  0.518E-01    0.01       1.0  T
  13    -63.5188634 -0.139046E-01  0.413E-01    0.01       1.0  T
  14    -63.5163173  0.254612E-02  0.413E-01    0.03       1.0  T
  15    -63.4953431  0.209742E-01  0.482E-01    0.04       1.0  T
  16    -63.5249867 -0.296436E-01  0.289E-01    0.03       1.0  T
  17    -63.5300812 -0.509442E-02  0.206E-01    0.02       1.0  T
  18    -63.5310523 -0.971185E-03  0.165E-01    0.02       1.0  T
  19    -63.5315001 -0.447797E-03  0.147E-01    0.02       1.0  T
  20    -63.5314363  0.638822E-04  0.142E-01    0.02       1.0  T
  21    -63.5319418 -0.505493E-03  0.121E-01    0.02       1.0  T
  22    -63.5320757 -0.133969E-03  0.110E-01    0.02       1.0  T
  23    -63.5322798 -0.204061E-03  0.964E-02    0.02       1.0  T
  24    -63.5326910 -0.411246E-03  0.737E-02    0.02       1.0  T
  25    -63.5326959 -0.488644E-05  0.721E-02    0.02       1.0  T
  26    -63.5327433 -0.473886E-04  0.626E-02    0.02       1.0  T
  27    -63.5328260 -0.827195E-04  0.555E-02    0.02       1.0  T
  28    -63.5328638 -0.377520E-04  0.507E-02    0.02       1.0  T
  29    -63.5328665 -0.275664E-05  0.485E-02    0.02       1.0  T
  30    -63.5329046 -0.380331E-04  0.477E-02    0.02       1.0  T
  31    -63.5329253 -0.207645E-04  0.405E-02    0.02       1.0  T
  32    -63.5329502 -0.248263E-04  0.338E-02    0.02       1.0  T
  33    -63.5329639 -0.137387E-04  0.251E-02    0.02       1.0  T
  34    -63.5329752 -0.113024E-04  0.190E-02    0.02       1.0  T
  35    -63.5329864 -0.112236E-04  0.160E-02    0.02       1.0  T
  36    -63.5329919 -0.543572E-05  0.107E-02    0.02       1.2  T
  37    -63.5329928 -0.947742E-06  0.878E-03    0.02       1.4  T
  38    -63.5329933 -0.489404E-06  0.756E-03    0.02       1.7  T
  39    -63.5329936 -0.302447E-06  0.643E-03    0.02       2.0  T
  40    -63.5329937 -0.600761E-07  0.464E-03    0.02       2.7  T
  41    -63.5329938 -0.122215E-06  0.383E-03    0.02       3.3  T
  42    -63.5329941 -0.294008E-06  0.313E-03    0.02       4.0  T
  43    -63.5329943 -0.180633E-06  0.198E-03    0.02       6.4  T
  44    -63.5329943 -0.542962E-07  0.143E-03    0.02       8.8  T
  45    -63.5329944 -0.802840E-07  0.100E-03    0.02      12.5  T
  46    -63.5329945 -0.650886E-07  0.648E-04    0.02      19.4  T
  47    -63.5329945 -0.208399E-07  0.400E-04    0.02      31.5  T
     SCC iter.                  ...        0 min,  0.450 sec
     gradient                   ...        0 min,  0.008 sec
 * total energy  :   -60.5340970 Eh     change       -0.4464340E+00 Eh
   gradient norm :     0.4757554 Eh/α   predicted    -0.4419802E+00 (  -1.00%)
   displ. norm   :     0.9182969 α      lambda       -0.4185290E+00
   maximum displ.:     0.4755005 α      in ANC's #47, #52, #45, ...

........................................................................
.............................. CYCLE   17 ..............................
........................................................................

 iter      E             dE          RMSdq      gap      omega  full diag
   1    -63.2978112 -0.632978E+02  0.154E+00    0.22       0.0  T
   2    -53.9247551  0.937306E+01  0.829E+00    0.26       1.0  T
   3    -62.2617959 -0.833704E+01  0.288E+00    0.10       1.0  T
   4    -62.1248743  0.136922E+00  0.235E+00    0.03       1.0  T
   5    -59.2690325  0.285584E+01  0.375E+00    0.01       1.0  T
   6    -63.0362344 -0.376720E+01  0.160E+00    0.07       1.0  T
   7    -63.0873274 -0.510930E-01  0.162E+00    0.11       1.0  T
   8    -63.1719621 -0.846347E-01  0.146E+00    0.04       1.0  T
   9    -63.3693581 -0.197396E+00  0.856E-01    0.13       1.0  T
  10    -63.4340038 -0.646457E-01  0.555E-01    0.12       1.0  T
  11    -63.4385473 -0.454343E-02  0.457E-01    0.10       1.0  T
  12    -63.4395431 -0.995846E-03  0.495E-01    0.14       1.0  T
  13    -63.4475378 -0.799465E-02  0.373E-01    0.12       1.0  T
  14    -63.4344591  0.130787E-01  0.354E-01    0.09       1.0  T
  15    -63.4500545 -0.155954E-01  0.262E-01    0.12       1.0  T
  16    -63.4528072 -0.275273E-02  0.203E-01    0.10       1.0  T
  17    -63.4528418 -0.345867E-04  0.188E-01    0.10       1.0  T
  18    -63.4498043  0.303749E-02  0.215E-01    0.10       1.0  T
  19    -63.4539501 -0.414585E-02  0.147E-01    0.10       1.0  T
  20    -63.4555110 -0.156082E-02  0.995E-02    0.10       1.0  T
  21    -63.4554120  0.989781E-04  0.984E-02    0.11       1.0  T
  22    -63.4555659 -0.153939E-03  0.902E-02    0.11       1.0  T
  23    -63.4556270 -0.610365E-04  0.851E-02    0.11       1.0  T
  24    -63.4556523 -0.253387E-04  0.765E-02    0.11       1.0  T
  25    -63.4558117 -0.159439E-03  0.610E-02    0.10       1.0  T
  26    -63.4558666 -0.548962E-04  0.559E-02    0.10       1.0  T
  27    -63.4558512  0.154177E-04  0.556E-02    0.10       1.0  T
  28    -63.4558437  0.748590E-05  0.515E-02    0.11       1.0  T
  29    -63.4558703 -0.265537E-04  0.454E-02    0.11       1.0  T
  30    -63.4559106 -0.403340E-04  0.331E-02    0.11       1.0  T
  31    -63.4559323 -0.216509E-04  0.245E-02    0.10       1.0  T
  32    -63.4559439 -0.116595E-04  0.225E-02    0.10       1.0  T
  33    -63.4559448 -0.871780E-06  0.214E-02    0.10       1.0  T
  34    -63.4559546 -0.976275E-05  0.135E-02    0.10       1.0  T
  35    -63.4559646 -0.100385E-04  0.876E-03    0.10       1.4  T
  36    -63.4559691 -0.446954E-05  0.783E-03    0.10       1.6  T
  37    -63.4559692 -0.119293E-06  0.752E-03    0.10       1.7  T
  38    -63.4559710 -0.181216E-05  0.389E-03    0.10       3.2  T
  39    -63.4559712 -0.185545E-06  0.411E-03    0.10       3.1  T
  40    -63.4559714 -0.183564E-06  0.331E-03    0.10       3.8  T
  41    -63.4559717 -0.307084E-06  0.837E-04    0.10      15.1  T
  42    -63.4559717 -0.108004E-07  0.771E-04    0.10      16.3  T
     SCC iter.                  ...        0 min,  0.399 sec
     gradient                   ...        0 min,  0.009 sec
 * total energy  :   -60.9217828 Eh     change       -0.3876857E+00 Eh
   gradient norm :     0.4119227 Eh/α   predicted    -0.3857309E+00 (  -0.50%)
   displ. norm   :     0.9134295 α      lambda       -0.3581975E+00
   maximum displ.:     0.4566379 α      in ANC's #47, #52, #45, ...

........................................................................
.............................. CYCLE   18 ..............................
........................................................................

 iter      E             dE          RMSdq      gap      omega  full diag
   1    -63.2862008 -0.632862E+02  0.155E+00    0.11       0.0  T
   2    -57.8901977  0.539600E+01  0.607E+00    0.02       1.0  T
   3    -62.6144790 -0.472428E+01  0.247E+00    0.13       1.0  T
   4    -61.4422265  0.117225E+01  0.315E+00    0.07       1.0  T
   5    -59.8066674  0.163556E+01  0.399E+00    0.02       1.0  T
   6    -63.0271248 -0.322046E+01  0.173E+00    0.00       1.0  T
   7    -62.8234909  0.203634E+00  0.195E+00    0.15       1.0  T
   8    -62.8014106  0.220803E-01  0.183E+00    0.04       1.0  T
   9    -62.6657993  0.135611E+00  0.204E+00    0.02       1.0  T
  10    -63.2814710 -0.615672E+00  0.997E-01    0.15       1.0  T
  11    -63.1049322  0.176539E+00  0.137E+00    0.12       1.0  T
  12    -63.3609402 -0.256008E+00  0.681E-01    0.12       1.0  T
  13    -63.3715059 -0.105657E-01  0.624E-01    0.12       1.0  T
  14    -63.3784084 -0.690252E-02  0.570E-01    0.12       1.0  T
  15    -63.3714167  0.699170E-02  0.553E-01    0.11       1.0  T
  16    -63.3511370  0.202797E-01  0.591E-01    0.10       1.0  T
  17    -63.3791978 -0.280608E-01  0.469E-01    0.11       1.0  T
  18    -63.3930586 -0.138608E-01  0.361E-01    0.11       1.0  T
  19    -63.3962394 -0.318081E-02  0.307E-01    0.10       1.0  T
  20    -63.3960141  0.225222E-03  0.304E-01    0.10       1.0  T
  21    -63.3968832 -0.869032E-03  0.288E-01    0.10       1.0  T
  22    -63.3981124 -0.122922E-02  0.239E-01    0.08       1.0  T
  23    -63.3949275  0.318489E-02  0.256E-01    0.09       1.0  T
  24    -63.3984053 -0.347780E-02  0.178E-01    0.08       1.0  T
  25    -63.3991477 -0.742358E-03  0.155E-01    0.08       1.0  T
  26    -63.3978928  0.125486E-02  0.164E-01    0.07       1.0  T
  27    -63.3996548 -0.176195E-02  0.132E-01    0.07       1.0  T
  28    -63.4008858 -0.123103E-02  0.113E-01    0.07       1.0  T
  29    -63.4010954 -0.209650E-03  0.104E-01    0.07       1.0  T
  30    -63.4012528 -0.157378E-03  0.982E-02    0.07       1.0  T
  31    -63.4014105 -0.157727E-03  0.906E-02    0.07       1.0  T
  32    -63.4017426 -0.332101E-03  0.649E-02    0.07       1.0  T
  33    -63.4018642 -0.121581E-03  0.571E-02    0.07       1.0  T
  34    -63.4018707 -0.652317E-05  0.541E-02    0.07       1.0  T
  35    -63.4019408 -0.700683E-04  0.457E-02    0.07       1.0  T
  36    -63.4019704 -0.296229E-04  0.372E-02    0.08       1.0  T
  37    -63.4020013 -0.308309E-04  0.283E-02    0.08       1.0  T
  38    -63.4020207 -0.194261E-04  0.205E-02    0.08       1.0  T
  39    -63.4020273 -0.661021E-05  0.165E-02    0.08       1.0  T
  40    -63.4020287 -0.143014E-05  0.143E-02    0.08       1.0  T
  41    -63.4020328 -0.404712E-05  0.117E-02    0.08       1.1  T
  42    -63.4020352 -0.245362E-05  0.958E-03    0.08       1.3  T
  43    -63.4020367 -0.142478E-05  0.801E-03    0.08       1.6  T
  44    -63.4020384 -0.169320E-05  0.600E-03    0.08       2.1  T
  45    -63.4020397 -0.133425E-05  0.386E-03    0.08       3.3  T
  46    -63.4020400 -0.276493E-06  0.330E-03    0.08       3.8  T
  47    -63.4020404 -0.473208E-06  0.223E-03    0.08       5.7  T
  48    -63.4020406 -0.162077E-06  0.164E-03    0.08       7.7  T
  49    -63.4020406 -0.302092E-07  0.148E-03    0.08       8.5  T
  50    -63.4020407 -0.233807E-07  0.129E-03    0.08       9.7  T
  51    -63.4020407 -0.104196E-07  0.121E-03    0.08      10.4  T
  52    -63.4020407 -0.257890E-07  0.105E-03    0.08      12.0  T
  53    -63.4020407 -0.976483E-08  0.868E-04    0.08      14.5  T
  54    -63.4020407 -0.116419E-08  0.812E-04    0.08      15.5  T
     SCC iter.                  ...        0 min,  9.336 sec
     gradient                   ...        0 min,  0.033 sec
 * total energy  :   -61.2447231 Eh     change       -0.3229404E+00 Eh
   gradient norm :     0.3364768 Eh/α   predicted    -0.3285306E+00 (   1.73%)
   displ. norm   :     0.8800378 α      lambda       -0.2785500E+00
   maximum displ.:     0.4124593 α      in ANC's #47, #52, #45, ...

........................................................................
.............................. CYCLE   19 ..............................
........................................................................

 iter      E             dE          RMSdq      gap      omega  full diag
   1    -63.2748656 -0.632749E+02  0.143E+00    0.04       0.0  T
   2    -55.6780448  0.759682E+01  0.620E+00    0.08       1.0  T
   3    -62.8169554 -0.713891E+01  0.195E+00    0.06       1.0  T
   4    -60.8490177  0.196794E+01  0.386E+00    0.12       1.0  T
   5    -62.4896723 -0.164065E+01  0.270E+00    0.11       1.0  T
   6    -63.0602349 -0.570563E+00  0.138E+00    0.10       1.0  T
   7    -62.4355508  0.624684E+00  0.250E+00    0.12       1.0  T
   8    -63.1191534 -0.683603E+00  0.132E+00    0.00       1.0  T
   9    -62.6567550  0.462398E+00  0.180E+00    0.00       1.0  T
  10    -63.2792030 -0.622448E+00  0.623E-01    0.06       1.0  T
  11    -63.2611651  0.180378E-01  0.654E-01    0.08       1.0  T
  12    -63.3139055 -0.527403E-01  0.508E-01    0.11       1.0  T
  13    -63.3132221  0.683368E-03  0.579E-01    0.09       1.0  T
  14    -63.2771801  0.360420E-01  0.741E-01    0.08       1.0  T
  15    -63.2751169  0.206320E-02  0.554E-01    0.09       1.0  T
  16    -63.3343274 -0.592105E-01  0.398E-01    0.08       1.0  T
  17    -63.3338393  0.488131E-03  0.333E-01    0.07       1.0  T
  18    -63.3034748  0.303645E-01  0.546E-01    0.07       1.0  T
  19    -63.3377583 -0.342835E-01  0.281E-01    0.07       1.0  T
  20    -63.3387672 -0.100890E-02  0.263E-01    0.07       1.0  T
  21    -63.3382470  0.520160E-03  0.275E-01    0.07       1.0  T
  22    -63.3353109  0.293607E-02  0.297E-01    0.07       1.0  T
  23    -63.3383680 -0.305710E-02  0.272E-01    0.07       1.0  T
  24    -63.3422271 -0.385903E-02  0.205E-01    0.08       1.0  T
  25    -63.3446201 -0.239304E-02  0.141E-01    0.08       1.0  T
  26    -63.3453675 -0.747383E-03  0.117E-01    0.09       1.0  T
  27    -63.3453126  0.549130E-04  0.116E-01    0.09       1.0  T
  28    -63.3455055 -0.192963E-03  0.105E-01    0.09       1.0  T
  29    -63.3455061 -0.609302E-06  0.900E-02    0.09       1.0  T
  30    -63.3457125 -0.206308E-03  0.764E-02    0.09       1.0  T
  31    -63.3457736 -0.610984E-04  0.721E-02    0.09       1.0  T
  32    -63.3458220 -0.484456E-04  0.582E-02    0.09       1.0  T
  33    -63.3458550 -0.330463E-04  0.457E-02    0.09       1.0  T
  34    -63.3459630 -0.107909E-03  0.390E-02    0.09       1.0  T
  35    -63.3459666 -0.364975E-05  0.327E-02    0.09       1.0  T
  36    -63.3459072  0.594545E-04  0.345E-02    0.09       1.0  T
  37    -63.3459796 -0.724186E-04  0.288E-02    0.09       1.0  T
  38    -63.3460217 -0.421667E-04  0.241E-02    0.09       1.0  T
  39    -63.3460338 -0.120813E-04  0.223E-02    0.09       1.0  T
  40    -63.3460538 -0.200116E-04  0.173E-02    0.09       1.0  T
  41    -63.3460686 -0.147474E-04  0.130E-02    0.08       1.0  T
  42    -63.3460731 -0.455289E-05  0.110E-02    0.08       1.1  T
  43    -63.3460784 -0.529667E-05  0.756E-03    0.08       1.7  T
  44    -63.3460794 -0.943846E-06  0.602E-03    0.08       2.1  T
  45    -63.3460801 -0.717155E-06  0.419E-03    0.08       3.0  T
  46    -63.3460803 -0.239261E-06  0.302E-03    0.08       4.2  T
  47    -63.3460801  0.197397E-06  0.279E-03    0.08       4.5  T
  48    -63.3460802 -0.616691E-07  0.246E-03    0.08       5.1  T
  49    -63.3460805 -0.316044E-06  0.184E-03    0.08       6.8  T
  50    -63.3460805  0.238241E-08  0.173E-03    0.08       7.3  T
  51    -63.3460805 -0.417308E-07  0.160E-03    0.08       7.9  T
  52    -63.3460806 -0.258821E-07  0.145E-03    0.08       8.7  T
  53    -63.3460806 -0.342515E-07  0.125E-03    0.08      10.1  T
  54    -63.3460806 -0.258245E-07  0.104E-03    0.08      12.1  T
  55    -63.3460807 -0.232059E-07  0.685E-04    0.08      18.4  T
  56    -63.3460807 -0.242557E-07  0.351E-04    0.08      35.9  T
     SCC iter.                  ...        0 min, 14.298 sec
     gradient                   ...        0 min,  0.709 sec
 * total energy  :   -61.4906485 Eh     change       -0.2459254E+00 Eh
   gradient norm :     0.2910145 Eh/α   predicted    -0.2471386E+00 (   0.49%)
   displ. norm   :     0.9076061 α      lambda       -0.2321220E+00
   maximum displ.:     0.3753416 α      in ANC's #47, #52, #45, ...

........................................................................
.............................. CYCLE   20 ..............................
........................................................................

 iter      E             dE          RMSdq      gap      omega  full diag
   1    -63.2254426 -0.632254E+02  0.128E+00    0.06       0.0  T
   2    -58.9192379  0.430620E+01  0.456E+00    0.07       1.0  T
   3    -62.8964146 -0.397718E+01  0.159E+00    0.11       1.0  T
   4    -61.5744150  0.132200E+01  0.382E+00    0.02       1.0  T
   5    -62.5139143 -0.939499E+00  0.252E+00    0.02       1.0  T
   6    -62.3556408  0.158274E+00  0.203E+00    0.17       1.0  T
   7    -62.4208585 -0.652178E-01  0.232E+00    0.08       1.0  T
   8    -62.7591771 -0.338319E+00  0.180E+00    0.03       1.0  T
   9    -62.6951806  0.639965E-01  0.232E+00    0.06       1.0  T
  10    -62.7057954 -0.106147E-01  0.209E+00    0.03       1.0  T
  11    -63.1046756 -0.398880E+00  0.982E-01    0.08       1.0  T
  12    -63.0827685  0.219071E-01  0.112E+00    0.07       1.0  T
  13    -62.9499534  0.132815E+00  0.162E+00    0.03       1.0  T
  14    -63.2302880 -0.280335E+00  0.591E-01    0.06       1.0  T
  15    -63.2392513 -0.896333E-02  0.531E-01    0.07       1.0  T
  16    -63.2393247 -0.733384E-04  0.527E-01    0.07       1.0  T
  17    -63.2398736 -0.548899E-03  0.520E-01    0.07       1.0  T
  18    -63.2437444 -0.387086E-02  0.421E-01    0.07       1.0  T
  19    -63.2342739  0.947057E-02  0.380E-01    0.07       1.0  T
  20    -63.2373066 -0.303275E-02  0.357E-01    0.07       1.0  T
  21    -63.2447198 -0.741316E-02  0.341E-01    0.07       1.0  T
  22    -63.2396837  0.503604E-02  0.380E-01    0.07       1.0  T
  23    -63.2399190 -0.235300E-03  0.371E-01    0.07       1.0  T
  24    -63.2460566 -0.613755E-02  0.340E-01    0.07       1.0  T
  25    -63.2519925 -0.593590E-02  0.231E-01    0.07       1.0  T
  26    -63.2481480  0.384449E-02  0.320E-01    0.07       1.0  T
  27    -63.2479401  0.207869E-03  0.321E-01    0.08       1.0  T
  28    -63.2474764  0.463741E-03  0.333E-01    0.07       1.0  T
  29    -63.2521453 -0.466892E-02  0.242E-01    0.08       1.0  T
  30    -63.2554299 -0.328456E-02  0.134E-01    0.08       1.0  T
  31    -63.2559154 -0.485576E-03  0.116E-01    0.08       1.0  T
  32    -63.2558922  0.232286E-04  0.114E-01    0.08       1.0  T
  33    -63.2559862 -0.939707E-04  0.102E-01    0.07       1.0  T
  34    -63.2564607 -0.474483E-03  0.727E-02    0.08       1.0  T
  35    -63.2565255 -0.648598E-04  0.655E-02    0.08       1.0  T
  36    -63.2566034 -0.778775E-04  0.572E-02    0.08       1.0  T
  37    -63.2566388 -0.354163E-04  0.543E-02    0.08       1.0  T
  38    -63.2567362 -0.974029E-04  0.419E-02    0.08       1.0  T
  39    -63.2567663 -0.300636E-04  0.347E-02    0.07       1.0  T
  40    -63.2568275 -0.612116E-04  0.196E-02    0.07       1.0  T
  41    -63.2568342 -0.674398E-05  0.180E-02    0.07       1.0  T
  42    -63.2568525 -0.182682E-04  0.104E-02    0.07       1.2  T
  43    -63.2568556 -0.304687E-05  0.715E-03    0.07       1.8  T
  44    -63.2568573 -0.172795E-05  0.548E-03    0.07       2.3  T
  45    -63.2568585 -0.120073E-05  0.447E-03    0.07       2.8  T
  46    -63.2568597 -0.121720E-05  0.398E-03    0.07       3.2  T
  47    -63.2568598 -0.883037E-07  0.359E-03    0.07       3.5  T
  48    -63.2568605 -0.700978E-06  0.223E-03    0.07       5.7  T
  49    -63.2568606 -0.100070E-06  0.192E-03    0.07       6.6  T
  50    -63.2568607 -0.137431E-06  0.123E-03    0.07      10.2  T
  51    -63.2568608 -0.717296E-07  0.839E-04    0.07      15.0  T
  52    -63.2568608 -0.214338E-07  0.655E-04    0.07      19.2  T
     SCC iter.                  ...        0 min,  4.273 sec
     gradient                   ...        0 min,  0.012 sec
 * total energy  :   -61.6958222 Eh     change       -0.2051737E+00 Eh
   gradient norm :     0.2515809 Eh/α   predicted    -0.2116660E+00 (   3.16%)
   displ. norm   :     0.9034569 α      lambda       -0.1967302E+00
   maximum displ.:     0.3561915 α      in ANC's #47, #52, #70, ...
 * RMSD in coord.:     2.0795433 α      energy gain  -0.2756052E+02 Eh

generating ANC from exact Hessian ...
Using Lindh-Hessian (1995)
 Shifting diagonal of input Hessian by   1.343574623291486E-002
 Lowest  eigenvalues of input Hessian
    0.010000    0.011168    0.011737    0.012275    0.012296    0.012418
    0.012418    0.012741    0.012794    0.012794    0.012844    0.012897
    0.012916    0.012928    0.012931    0.012959    0.012996    0.013039
 Highest eigenvalues
    1.592800    1.623915    1.630277    1.669918    1.728542    1.840726
 

........................................................................
.............................. CYCLE   21 ..............................
........................................................................

 iter      E             dE          RMSdq      gap      omega  full diag
   1    -63.0606354 -0.630606E+02  0.196E+00    0.00       0.0  T
   2    -39.2976616  0.237630E+02  0.881E+00    0.13       1.0  T
   3    -61.0882812 -0.217906E+02  0.296E+00    0.15       1.0  T
   4    -58.7732413  0.231504E+01  0.465E+00    0.13       1.0  T
   5    -62.4589220 -0.368568E+01  0.178E+00    0.33       1.0  T
   6    -61.9704915  0.488431E+00  0.319E+00    0.02       1.0  T
   7    -61.1147479  0.855744E+00  0.307E+00    0.01       1.0  T
   8    -62.3418361 -0.122709E+01  0.188E+00    0.06       1.0  T
   9    -62.7240847 -0.382249E+00  0.150E+00    0.00       1.0  T
  10    -62.9344277 -0.210343E+00  0.184E+00    0.06       1.0  T
  11    -63.1473025 -0.212875E+00  0.121E+00    0.05       1.0  T
  12    -63.1985332 -0.512307E-01  0.101E+00    0.05       1.0  T
  13    -63.1909107  0.762250E-02  0.999E-01    0.05       1.0  T
  14    -63.2247855 -0.338748E-01  0.834E-01    0.06       1.0  T
  15    -63.2284903 -0.370490E-02  0.795E-01    0.06       1.0  T
  16    -63.2232164  0.527390E-02  0.812E-01    0.06       1.0  T
  17    -63.2226957  0.520789E-03  0.825E-01    0.06       1.0  T
  18    -63.2324503 -0.975468E-02  0.745E-01    0.05       1.0  T
  19    -63.2213801  0.110703E-01  0.686E-01    0.04       1.0  T
  20    -63.2184282  0.295187E-02  0.732E-01    0.04       1.0  T
  21    -63.1464289  0.719993E-01  0.875E-01    0.02       1.0  T
  22    -63.1743634 -0.279345E-01  0.802E-01    0.03       1.0  T
  23    -63.1809521 -0.658864E-02  0.769E-01    0.03       1.0  T
  24    -63.1900893 -0.913728E-02  0.728E-01    0.03       1.0  T
  25    -63.2125056 -0.224163E-01  0.561E-01    0.03       1.0  T
  26    -63.2125307 -0.250673E-04  0.472E-01    0.03       1.0  T
  27    -63.2363837 -0.238530E-01  0.359E-01    0.04       1.0  T
  28    -63.2316061  0.477755E-02  0.403E-01    0.04       1.0  T
  29    -63.2350205 -0.341438E-02  0.378E-01    0.04       1.0  T
  30    -63.2381159 -0.309542E-02  0.339E-01    0.04       1.0  T
  31    -63.2472370 -0.912106E-02  0.245E-01    0.05       1.0  T
  32    -63.2527136 -0.547658E-02  0.184E-01    0.05       1.0  T
  33    -63.2533320 -0.618407E-03  0.160E-01    0.05       1.0  T
  34    -63.2535222 -0.190184E-03  0.164E-01    0.05       1.0  T
  35    -63.2532872  0.235012E-03  0.182E-01    0.05       1.0  T
  36    -63.2536565 -0.369345E-03  0.160E-01    0.05       1.0  T
  37    -63.2535903  0.662362E-04  0.160E-01    0.05       1.0  T
  38    -63.2536145 -0.242741E-04  0.155E-01    0.05       1.0  T
  39    -63.2535712  0.433483E-04  0.141E-01    0.05       1.0  T
  40    -63.2537609 -0.189744E-03  0.128E-01    0.05       1.0  T
  41    -63.2538035 -0.425396E-04  0.127E-01    0.05       1.0  T
  42    -63.2538854 -0.819473E-04  0.121E-01    0.05       1.0  T
  43    -63.2542372 -0.351774E-03  0.933E-02    0.05       1.0  T
  44    -63.2543993 -0.162061E-03  0.741E-02    0.05       1.0  T
  45    -63.2545095 -0.110208E-03  0.549E-02    0.05       1.0  T
  46    -63.2545339 -0.243936E-04  0.471E-02    0.05       1.0  T
  47    -63.2546054 -0.715701E-04  0.312E-02    0.05       1.0  T
  48    -63.2546166 -0.111925E-04  0.175E-02    0.05       1.0  T
  49    -63.2546154  0.119160E-05  0.143E-02    0.05       1.0  T
  50    -63.2546269 -0.114482E-04  0.117E-02    0.05       1.1  T
  51    -63.2546332 -0.634597E-05  0.121E-02    0.05       1.0  T
  52    -63.2546390 -0.580297E-05  0.778E-03    0.05       1.6  T
  53    -63.2546388  0.264159E-06  0.743E-03    0.05       1.7  T
  54    -63.2546388 -0.770863E-07  0.697E-03    0.05       1.8  T
  55    -63.2546409 -0.208391E-05  0.608E-03    0.05       2.1  T
  56    -63.2546433 -0.238422E-05  0.398E-03    0.05       3.2  T
  57    -63.2546440 -0.674291E-06  0.282E-03    0.05       4.5  T
  58    -63.2546443 -0.283909E-06  0.217E-03    0.05       5.8  T
  59    -63.2546446 -0.338836E-06  0.158E-03    0.05       8.0  T
  60    -63.2546446  0.928748E-08  0.147E-03    0.05       8.6  T
  61    -63.2546446 -0.364112E-07  0.131E-03    0.05       9.6  T
  62    -63.2546447 -0.632508E-07  0.819E-04    0.05      15.4  T
  63    -63.2546447 -0.268418E-07  0.459E-04    0.05      27.5  T
     SCC iter.                  ...        0 min,  0.574 sec
     gradient                   ...        0 min,  0.008 sec
 * total energy  :   -61.8673339 Eh     change       -0.1715116E+00 Eh
   gradient norm :     0.2473449 Eh/α   predicted     0.0000000E+00 (-100.00%)
   displ. norm   :     0.7480620 α      lambda       -0.1613845E+00
   maximum displ.:     0.2812220 α      in ANC's #76, #106, #97, ...

........................................................................
.............................. CYCLE   22 ..............................
........................................................................

 iter      E             dE          RMSdq      gap      omega  full diag
   1    -63.2365969 -0.632366E+02  0.130E+00    0.04       0.0  T
   2    -49.8095901  0.134270E+02  0.707E+00    0.04       1.0  T
   3    -62.4907943 -0.126812E+02  0.266E+00    0.09       1.0  T
   4    -62.6125987 -0.121804E+00  0.249E+00    0.07       1.0  T
   5    -62.8374239 -0.224825E+00  0.186E+00    0.07       1.0  T
   6    -62.3471393  0.490285E+00  0.285E+00    0.01       1.0  T
   7    -62.8989806 -0.551841E+00  0.193E+00    0.02       1.0  T
   8    -62.8194610  0.795196E-01  0.212E+00    0.03       1.0  T
   9    -62.5931262  0.226335E+00  0.227E+00    0.11       1.0  T
  10    -62.9466389 -0.353513E+00  0.151E+00    0.00       1.0  T
  11    -62.8863661  0.602728E-01  0.194E+00    0.02       1.0  T
  12    -63.1514864 -0.265120E+00  0.116E+00    0.02       1.0  T
  13    -63.2401298 -0.886434E-01  0.115E+00    0.10       1.0  T
  14    -63.2500061 -0.987636E-02  0.109E+00    0.11       1.0  T
  15    -63.2989140 -0.489079E-01  0.874E-01    0.11       1.0  T
  16    -63.3076969 -0.878286E-02  0.835E-01    0.11       1.0  T
  17    -63.3078507 -0.153757E-03  0.834E-01    0.11       1.0  T
  18    -63.3104226 -0.257195E-02  0.796E-01    0.11       1.0  T
  19    -63.3161019 -0.567925E-02  0.713E-01    0.11       1.0  T
  20    -63.3219581 -0.585625E-02  0.444E-01    0.09       1.0  T
  21    -63.3145065  0.745163E-02  0.527E-01    0.06       1.0  T
  22    -63.3045411  0.996536E-02  0.668E-01    0.05       1.0  T
  23    -63.2884069  0.161342E-01  0.757E-01    0.04       1.0  T
  24    -63.2913769 -0.297004E-02  0.737E-01    0.05       1.0  T
  25    -63.2979556 -0.657871E-02  0.690E-01    0.05       1.0  T
  26    -63.3177151 -0.197595E-01  0.510E-01    0.06       1.0  T
  27    -63.3415817 -0.238666E-01  0.326E-01    0.09       1.0  T
  28    -63.3403957  0.118602E-02  0.334E-01    0.08       1.0  T
  29    -63.3426892 -0.229348E-02  0.289E-01    0.08       1.0  T
  30    -63.3422346  0.454542E-03  0.286E-01    0.08       1.0  T
  31    -63.3426941 -0.459517E-03  0.273E-01    0.08       1.0  T
  32    -63.3421462  0.547919E-03  0.282E-01    0.08       1.0  T
  33    -63.3411052  0.104101E-02  0.295E-01    0.07       1.0  T
  34    -63.3415849 -0.479740E-03  0.285E-01    0.08       1.0  T
  35    -63.3449725 -0.338760E-02  0.195E-01    0.09       1.0  T
  36    -63.3461600 -0.118745E-02  0.155E-01    0.09       1.0  T
  37    -63.3464736 -0.313654E-03  0.137E-01    0.09       1.0  T
  38    -63.3468118 -0.338175E-03  0.118E-01    0.09       1.0  T
  39    -63.3469806 -0.168779E-03  0.105E-01    0.10       1.0  T
  40    -63.3471281 -0.147488E-03  0.852E-02    0.10       1.0  T
  41    -63.3472635 -0.135452E-03  0.665E-02    0.10       1.0  T
  42    -63.3471762  0.873357E-04  0.708E-02    0.10       1.0  T
  43    -63.3472709 -0.946519E-04  0.590E-02    0.10       1.0  T
  44    -63.3473999 -0.129091E-03  0.401E-02    0.10       1.0  T
  45    -63.3474230 -0.230830E-04  0.332E-02    0.10       1.0  T
  46    -63.3474379 -0.148265E-04  0.279E-02    0.09       1.0  T
  47    -63.3474720 -0.341394E-04  0.166E-02    0.09       1.0  T
  48    -63.3474811 -0.907763E-05  0.119E-02    0.09       1.1  T
  49    -63.3474824 -0.133478E-05  0.100E-02    0.09       1.3  T
  50    -63.3474837 -0.126417E-05  0.874E-03    0.09       1.4  T
  51    -63.3474853 -0.165896E-05  0.665E-03    0.09       1.9  T
  52    -63.3474855 -0.206140E-06  0.583E-03    0.09       2.2  T
  53    -63.3474856 -0.558648E-07  0.549E-03    0.09       2.3  T
  54    -63.3474860 -0.425713E-06  0.416E-03    0.09       3.0  T
  55    -63.3474864 -0.422830E-06  0.296E-03    0.09       4.3  T
  56    -63.3474867 -0.256502E-06  0.249E-03    0.09       5.1  T
  57    -63.3474869 -0.159067E-06  0.176E-03    0.09       7.2  T
  58    -63.3474870 -0.183698E-06  0.116E-03    0.09      10.9  T
  59    -63.3474871 -0.618657E-07  0.866E-04    0.09      14.5  T
  60    -63.3474871 -0.112269E-07  0.794E-04    0.09      15.9  T
     SCC iter.                  ...        0 min,  5.777 sec
     gradient                   ...        0 min,  0.400 sec
 * total energy  :   -62.0144893 Eh     change       -0.1471555E+00 Eh
   gradient norm :     0.2067446 Eh/α   predicted    -0.1258550E+00 ( -14.47%)
   displ. norm   :     0.9072128 α      lambda       -0.1815722E+00
   maximum displ.:     0.3234126 α      in ANC's #106, #76, #117, ...

........................................................................
.............................. CYCLE   23 ..............................
........................................................................

 iter      E             dE          RMSdq      gap      omega  full diag
   1    -63.3888578 -0.633889E+02  0.147E+00    0.03       0.0  T
   2    -55.8417413  0.754712E+01  0.483E+00    0.10       1.0  T
   3    -59.7025393 -0.386080E+01  0.395E+00    0.11       1.0  T
   4    -62.3890588 -0.268652E+01  0.273E+00    0.02       1.0  T
   5    -63.3654888 -0.976430E+00  0.105E+00    0.05       1.0  T
   6    -62.4262252  0.939264E+00  0.339E+00    0.18       1.0  T
   7    -63.2381094 -0.811884E+00  0.132E+00    0.01       1.0  T
   8    -63.3164344 -0.783250E-01  0.112E+00    0.19       1.0  T
   9    -63.3851009 -0.686665E-01  0.932E-01    0.14       1.0  T
  10    -63.4134608 -0.283599E-01  0.853E-01    0.15       1.0  T
  11    -63.4159993 -0.253852E-02  0.818E-01    0.12       1.0  T
  12    -63.4349774 -0.189781E-01  0.721E-01    0.13       1.0  T
  13    -63.4374160 -0.243856E-02  0.700E-01    0.14       1.0  T
  14    -63.4297249  0.769107E-02  0.719E-01    0.15       1.0  T
  15    -63.4330434 -0.331843E-02  0.680E-01    0.15       1.0  T
  16    -63.4419853 -0.894199E-02  0.612E-01    0.14       1.0  T
  17    -63.4529132 -0.109279E-01  0.493E-01    0.13       1.0  T
  18    -63.4566208 -0.370761E-02  0.439E-01    0.13       1.0  T
  19    -63.4606824 -0.406162E-02  0.364E-01    0.11       1.0  T
  20    -63.4610235 -0.341064E-03  0.362E-01    0.11       1.0  T
  21    -63.4610280 -0.451520E-05  0.362E-01    0.11       1.0  T
  22    -63.4576907  0.333731E-02  0.385E-01    0.13       1.0  T
  23    -63.4630500 -0.535923E-02  0.269E-01    0.11       1.0  T
  24    -63.4647340 -0.168408E-02  0.196E-01    0.11       1.0  T
  25    -63.4649643 -0.230223E-03  0.177E-01    0.11       1.0  T
  26    -63.4649845 -0.202110E-04  0.173E-01    0.11       1.0  T
  27    -63.4653617 -0.377217E-03  0.149E-01    0.11       1.0  T
  28    -63.4660085 -0.646823E-03  0.997E-02    0.10       1.0  T
  29    -63.4662955 -0.286991E-03  0.603E-02    0.10       1.0  T
  30    -63.4662815  0.139943E-04  0.579E-02    0.10       1.0  T
  31    -63.4662901 -0.864420E-05  0.567E-02    0.10       1.0  T
  32    -63.4663491 -0.589864E-04  0.487E-02    0.10       1.0  T
  33    -63.4664899 -0.140740E-03  0.278E-02    0.10       1.0  T
  34    -63.4664875  0.236380E-05  0.245E-02    0.10       1.0  T
  35    -63.4665105 -0.229957E-04  0.129E-02    0.10       1.0  T
  36    -63.4665140 -0.345775E-05  0.890E-03    0.10       1.4  T
  37    -63.4665153 -0.138504E-05  0.795E-03    0.10       1.6  T
  38    -63.4665169 -0.159542E-05  0.780E-03    0.10       1.6  T
  39    -63.4665211 -0.416886E-05  0.497E-03    0.10       2.5  T
  40    -63.4665220 -0.843168E-06  0.507E-03    0.10       2.5  T
  41    -63.4665228 -0.802776E-06  0.459E-03    0.10       2.7  T
  42    -63.4665241 -0.130095E-05  0.314E-03    0.10       4.0  T
  43    -63.4665246 -0.513573E-06  0.166E-03    0.10       7.6  T
  44    -63.4665246 -0.513316E-07  0.112E-03    0.10      11.2  T
  45    -63.4665246 -0.227426E-07  0.931E-04    0.10      13.5  T
  46    -63.4665247 -0.217835E-07  0.561E-04    0.10      22.5  T
     SCC iter.                  ...        0 min,  3.061 sec
     gradient                   ...        0 min,  0.076 sec
 * total energy  :   -62.1803628 Eh     change       -0.1658735E+00 Eh
   gradient norm :     0.1725948 Eh/α   predicted    -0.1655062E+00 (  -0.22%)
   displ. norm   :     0.8910755 α      lambda       -0.1458833E+00
   maximum displ.:     0.3095059 α      in ANC's #106, #76, #117, ...

........................................................................
.............................. CYCLE   24 ..............................
........................................................................

 iter      E             dE          RMSdq      gap      omega  full diag
   1    -63.5346561 -0.635347E+02  0.132E+00    0.05       0.0  T
   2    -62.8208743  0.713782E+00  0.232E+00    0.05       1.0  T
   3    -61.8604178  0.960456E+00  0.376E+00    0.06       1.0  T
   4    -62.6872526 -0.826835E+00  0.278E+00    0.02       1.0  T
   5    -62.1917208  0.495532E+00  0.300E+00    0.01       1.0  T
   6    -62.7530792 -0.561358E+00  0.247E+00    0.02       1.0  T
   7    -63.2578161 -0.504737E+00  0.146E+00    0.15       1.0  T
   8    -63.1601230  0.976931E-01  0.159E+00    0.04       1.0  T
   9    -63.2373021 -0.771791E-01  0.166E+00    0.01       1.0  T
  10    -63.4497746 -0.212473E+00  0.108E+00    0.09       1.0  T
  11    -63.5536457 -0.103871E+00  0.542E-01    0.09       1.0  T
  12    -63.5319098  0.217359E-01  0.701E-01    0.13       1.0  T
  13    -63.5398070 -0.789718E-02  0.705E-01    0.15       1.0  T
  14    -63.5433414 -0.353437E-02  0.676E-01    0.15       1.0  T
  15    -63.5442344 -0.892997E-03  0.665E-01    0.15       1.0  T
  16    -63.5362753  0.795904E-02  0.695E-01    0.17       1.0  T
  17    -63.5532970 -0.170217E-01  0.530E-01    0.13       1.0  T
  18    -63.5614474 -0.815038E-02  0.450E-01    0.09       1.0  T
  19    -63.5620172 -0.569801E-03  0.431E-01    0.09       1.0  T
  20    -63.5625078 -0.490540E-03  0.423E-01    0.09       1.0  T
  21    -63.5626272 -0.119433E-03  0.410E-01    0.09       1.0  T
  22    -63.5610383  0.158892E-02  0.387E-01    0.10       1.0  T
  23    -63.5593012  0.173707E-02  0.356E-01    0.10       1.0  T
  24    -63.5580412  0.126003E-02  0.361E-01    0.11       1.0  T
  25    -63.5579921  0.490901E-04  0.360E-01    0.11       1.0  T
  26    -63.5589525 -0.960430E-03  0.332E-01    0.11       1.0  T
  27    -63.5598288 -0.876329E-03  0.304E-01    0.11       1.0  T
  28    -63.5591418  0.687091E-03  0.294E-01    0.12       1.0  T
  29    -63.5593549 -0.213093E-03  0.284E-01    0.12       1.0  T
  30    -63.5599965 -0.641677E-03  0.266E-01    0.11       1.0  T
  31    -63.5611028 -0.110623E-02  0.223E-01    0.11       1.0  T
  32    -63.5619599 -0.857169E-03  0.195E-01    0.11       1.0  T
  33    -63.5624479 -0.487990E-03  0.181E-01    0.11       1.0  T
  34    -63.5635180 -0.107007E-02  0.148E-01    0.10       1.0  T
  35    -63.5642127 -0.694672E-03  0.122E-01    0.09       1.0  T
  36    -63.5643643 -0.151687E-03  0.117E-01    0.09       1.0  T
  37    -63.5645126 -0.148291E-03  0.108E-01    0.09       1.0  T
  38    -63.5647888 -0.276122E-03  0.942E-02    0.09       1.0  T
  39    -63.5648470 -0.582470E-04  0.896E-02    0.09       1.0  T
  40    -63.5650179 -0.170918E-03  0.771E-02    0.09       1.0  T
  41    -63.5652022 -0.184255E-03  0.603E-02    0.09       1.0  T
  42    -63.5653422 -0.140053E-03  0.394E-02    0.09       1.0  T
  43    -63.5654087 -0.664612E-04  0.263E-02    0.09       1.0  T
  44    -63.5654314 -0.226606E-04  0.217E-02    0.09       1.0  T
  45    -63.5654437 -0.123385E-04  0.173E-02    0.08       1.0  T
  46    -63.5654602 -0.164702E-04  0.890E-03    0.08       1.4  T
  47    -63.5654646 -0.444749E-05  0.404E-03    0.08       3.1  T
  48    -63.5654646  0.606217E-07  0.397E-03    0.08       3.2  T
  49    -63.5654659 -0.134036E-05  0.168E-03    0.08       7.5  T
  50    -63.5654659 -0.223078E-07  0.125E-03    0.08      10.1  T
  51    -63.5654661 -0.150138E-06  0.650E-04    0.08      19.4  T
  52    -63.5654661  0.356287E-09  0.514E-04    0.08      24.5  T
     SCC iter.                  ...        0 min,  6.908 sec
     gradient                   ...        0 min,  0.436 sec
 * total energy  :   -62.2986278 Eh     change       -0.1182650E+00 Eh
   gradient norm :     0.1527896 Eh/α   predicted    -0.1308584E+00 (  10.65%)
   displ. norm   :     0.8325929 α      lambda       -0.1044819E+00
   maximum displ.:     0.2979698 α      in ANC's #76, #83, #106, ...

........................................................................
.............................. CYCLE   25 ..............................
........................................................................

 iter      E             dE          RMSdq      gap      omega  full diag
   1    -63.5686366 -0.635686E+02  0.958E-01    0.05       0.0  T
   2    -62.7455906  0.823046E+00  0.250E+00    0.03       1.0  T
   3    -63.2603145 -0.514724E+00  0.138E+00    0.09       1.0  T
   4    -62.0676528  0.119266E+01  0.312E+00    0.05       1.0  T
   5    -62.6486577 -0.581005E+00  0.228E+00    0.01       1.0  T
   6    -63.3799360 -0.731278E+00  0.142E+00    0.05       1.0  T
   7    -62.1628299  0.121711E+01  0.258E+00    0.01       1.0  T
   8    -63.0236751 -0.860845E+00  0.175E+00    0.14       1.0  T
   9    -63.5065256 -0.482851E+00  0.753E-01    0.00       1.0  T
  10    -63.3599490  0.146577E+00  0.140E+00    0.01       1.0  T
  11    -63.5715341 -0.211585E+00  0.429E-01    0.08       1.0  T
  12    -63.5555482  0.159859E-01  0.520E-01    0.11       1.0  T
  13    -63.5642405 -0.869228E-02  0.467E-01    0.12       1.0  T
