55
Canonical beta12 borophene cluster B40H15 (eta=1/6)
B     -4.976070     -4.563000      0.000000
B     -4.976070     -2.873000      0.000000
B     -4.976070     -1.183000      0.000000
B     -3.512520     -3.718000      0.000000
B     -3.512520     -0.338000      0.000000
B     -4.976070      0.507000      0.000000
B     -4.976070      2.197000      0.000000
B     -4.976070      3.887000      0.000000
B     -3.512520      1.352000      0.000000
B     -3.512520      4.732000      0.000000
B     -2.048970     -4.563000      0.000000
B     -2.048970     -2.873000      0.000000
B     -2.048970     -1.183000      0.000000
B     -0.585420     -3.718000      0.000000
B     -0.585420     -0.338000      0.000000
B     -2.048970      0.507000      0.000000
B     -2.048970      2.197000      0.000000
B     -2.048970      3.887000      0.000000
B     -0.585420      1.352000      0.000000
B     -0.585420      4.732000      0.000000
B      0.878130     -4.563000      0.000000
B      0.878130     -2.873000      0.000000
B      0.878130     -1.183000      0.000000
B      2.341680     -3.718000      0.000000
B      2.341680     -0.338000      0.000000
B      0.878130      0.507000      0.000000
B      0.878130      2.197000      0.000000
B      0.878130      3.887000      0.000000
B      2.341680      1.352000      0.000000
B      2.341680      4.732000      0.000000
B      3.805230     -4.563000      0.000000
B      3.805230     -2.873000      0.000000
B      3.805230     -1.183000      0.000000
B      5.268780     -3.718000      0.000000
B      5.268780     -0.338000      0.000000
B      3.805230      0.507000      0.000000
B      3.805230      2.197000      0.000000
B      3.805230      3.887000      0.000000
B      5.268780      1.352000      0.000000
B      5.268780      4.732000      0.000000
H     -5.571060     -5.593576      0.000000
H     -6.006634     -2.277990      0.000000
H     -6.006634     -1.778010      0.000000
H     -6.006634      2.792010      0.000000
H     -6.006634      4.482010      0.000000
H     -3.512520      5.922000      0.000000
H     -2.048970     -5.753000      0.000000
H     -0.585420      5.922000      0.000000
H      0.878130     -5.753000      0.000000
H      2.341680      5.922000      0.000000
H      3.805230     -5.753000      0.000000
H      6.458780     -3.718000      0.000000
H      6.299344     -0.933010      0.000000
H      6.299344      1.947010      0.000000
H      6.299344      5.327010      0.000000
