      -----------------------------------------------------------      
     |                   =====================                   |     
     |                           x T B                           |     
     |                   =====================                   |     
     |                         S. Grimme                         |     
     |          Mulliken Center for Theoretical Chemistry        |     
     |                    University of Bonn                     |     
      -----------------------------------------------------------      

   * xtb version 6.7.1pre (5071a88) compiled by 'Marcel@Raven' on 2024-07-23

   xtb is free software: you can redistribute it and/or modify it under
   the terms of the GNU Lesser General Public License as published by
   the Free Software Foundation, either version 3 of the License, or
   (at your option) any later version.
   
   xtb is distributed in the hope that it will be useful,
   but WITHOUT ANY WARRANTY; without even the implied warranty of
   MERCHANTABILITY or FITNESS FOR A PARTICULAR PURPOSE.  See the
   GNU Lesser General Public License for more details.
   
   Cite this work as:
   * C. Bannwarth, E. Caldeweyher, S. Ehlert, A. Hansen, P. Pracht,
     J. Seibert, S. Spicher, S. Grimme, WIREs Comput. Mol. Sci., 2020, 11,
     e01493. DOI: 10.1002/wcms.1493
   
   for GFN2-xTB:
   * C. Bannwarth, S. Ehlert and S. Grimme., J. Chem. Theory Comput., 2019,
     15, 1652-1671. DOI: 10.1021/acs.jctc.8b01176
   for GFN1-xTB:
   * S. Grimme, C. Bannwarth, P. Shushkov, J. Chem. Theory Comput., 2017,
     13, 1989-2009. DOI: 10.1021/acs.jctc.7b00118
   for GFN0-xTB:
   * P. Pracht, E. Caldeweyher, S. Ehlert, S. Grimme, ChemRxiv, 2019, preprint.
     DOI: 10.26434/chemrxiv.8326202.v1
   for GFN-FF:
   * S. Spicher and S. Grimme, Angew. Chem. Int. Ed., 2020, 59, 15665-15673.
     DOI: 10.1002/anie.202004239
   
   for ALPB and GBSA implicit solvation:
   * S. Ehlert, M. Stahn, S. Spicher, S. Grimme, J. Chem. Theory Comput.,
     2021, 17, 4250-4261. DOI: 10.1021/acs.jctc.1c00471
   
   for ddCOSMO and CPCM-X implicit solvation:
   * M. Stahn, S. Ehlert, S. Grimme, J. Phys. Chem. A,
     2023, XX, XXXX-XXXX. DOI: 10.1021/acs.jpca.3c04382
   
   for DFT-D4:
   * E. Caldeweyher, C. Bannwarth and S. Grimme, J. Chem. Phys., 2017,
     147, 034112. DOI: 10.1063/1.4993215
   * E. Caldeweyher, S. Ehlert, A. Hansen, H. Neugebauer, S. Spicher,
     C. Bannwarth and S. Grimme, J. Chem. Phys., 2019, 150, 154122.
     DOI: 10.1063/1.5090222
   * E. Caldeweyher, J.-M. Mewes, S. Ehlert and S. Grimme, Phys. Chem. Chem. Phys.
     2020, 22, 8499-8512. DOI: 10.1039/D0CP00502A
   
   for sTDA-xTB:
   * S. Grimme and C. Bannwarth, J. Chem. Phys., 2016, 145, 054103.
     DOI: 10.1063/1.4959605
   
   in the mass-spec context:
   * V. Asgeirsson, C. Bauer and S. Grimme, Chem. Sci., 2017, 8, 4879.
     DOI: 10.1039/c7sc00601b
   * J. Koopman and S. Grimme, ACS Omega 2019, 4, 12, 15120-15133.
     DOI: 10.1021/acsomega.9b02011
   
   for metadynamics refer to:
   * S. Grimme, J. Chem. Theory Comput., 2019, 155, 2847-2862
     DOI: 10.1021/acs.jctc.9b00143
   
   for SPH calculations refer to:
   * S. Spicher and S. Grimme, J. Chem. Theory Comput., 2021, 17, 1701-1714
     DOI: 10.1021/acs.jctc.0c01306
   
   for ONIOM refer to:
   * C. Plett, A. Katbashev, S. Ehlert, S. Grimme, M. Bursch,
     Phys. Chem. Chem. Phys., 2023, 25, 17860-17868. DOI: 10.1039/D3CP02178E
   
   for DIPRO refer to:
   * J. Kohn, N. Gildemeister, S. Grimme, D. Fazzi, A. Hansen,
     J. Chem. Phys., 2023, just accepted.
   
   for PTB refer to:
   * S. Grimme, M. Mueller, A. Hansen, J. Chem. Phys., 2023, 158, 124111.
     DOI: 10.1063/5.0137838
   
   with help from (in alphabetical order)
   P. Atkinson, C. Bannwarth, F. Bohle, G. Brandenburg, E. Caldeweyher
   M. Checinski, S. Dohm, S. Ehlert, S. Ehrlich, I. Gerasimov, C. Hölzer
   A. Katbashev, J. Kohn, J. Koopman, C. Lavigne, S. Lehtola, F. März, M. Müller,
   F. Musil, H. Neugebauer, J. Pisarek, C. Plett, P. Pracht, F. Pultar,
   J. Seibert, P. Shushkov, S. Spicher, M. Stahn, M. Steiner, T. Strunk,
   J. Stückrath, T. Rose, and J. Unsleber
   
 * started run on 2026/09/01 at 20:27:49.201     
   ID    Z sym.   atoms
    1    5 B      1-40
    2    1 H      41-55

           -------------------------------------------------
          |                Calculation Setup                |
           -------------------------------------------------

          program call               : "c:\Users\Andre\Proyectos doctorado\nano-qsar-ai-papers\kras-pancreatic-gC3N4-ai\tools\xtb\xtb-6.7.1\bin\xtb.exe" "c:\Users\Andre\Proyectos doctorado\borophene-alzheimer-tau-ai\calculations\tau\beta12_B40H15_initial.xyz" --opt vloose --gfn 2 --chrg 0 --uhf 0 --iterations 500 --cycles 200 --norestart
          coordinate file            : c:\Users\Andre\Proyectos doctorado\borophene-alzheimer-tau-ai\calculations\tau\beta12_B40H15_initial.xyz
          omp threads                :                    16


molecular fragmentation (1/2 indicates fragments):
1111111111111111111111111111111111111111112121111111111
# atoms in fragment 1/2:    53     2
 fragment masses (1/2) :      445.54        2.02
CMA distance (Bohr)    :  11.673
constraining FC (au)   :  0.0500

           -------------------------------------------------
          |                 G F N 2 - x T B                 |
           -------------------------------------------------

        Reference                      10.1021/acs.jctc.8b01176
      * Hamiltonian:
        H0-scaling (s, p, d)           1.850000    2.230000    2.230000
        zeta-weighting                 0.500000
      * Dispersion:
        s8                             2.700000
        a1                             0.520000
        a2                             5.000000
        s9                             5.000000
      * Repulsion:
        kExp                           1.500000    1.000000
        rExp                           1.000000
      * Coulomb:
        alpha                          2.000000
        third order                    shell-resolved
        anisotropic                    true
        a3                             3.000000
        a5                             4.000000
        cn-shift                       1.200000
        cn-exp                         4.000000
        max-rad                        5.000000


          ...................................................
          :                      SETUP                      :
          :.................................................:
          :  # basis functions                 175          :
          :  # atomic orbitals                 175          :
          :  # shells                           95          :
          :  # electrons                       135          :
          :  max. iterations                   500          :
          :  Hamiltonian                  GFN2-xTB          :
          :  restarted?                      false          :
          :  GBSA solvation                  false          :
          :  PC potential                    false          :
          :  electronic temp.          300.0000000     K    :
          :  accuracy                    1.0000000          :
          :  -> integral cutoff          0.2500000E+02      :
          :  -> integral neglect         0.1000000E-07      :
          :  -> SCF convergence          0.1000000E-05 Eh   :
          :  -> wf. convergence          0.1000000E-03 e    :
          :  Broyden damping             0.4000000          :
          :  net charge                          0          :
          :  unpaired electrons                  0          :
          ...................................................

 iter      E             dE          RMSdq      gap      omega  full diag
   1    -54.5650993 -0.545651E+02  0.183E+01    0.34       0.0  T
   2     -8.2564049  0.463087E+02  0.162E+01    0.14       1.0  T
   3    174.1382130  0.182395E+03  0.300E+01    0.23       1.0  T
   4    -27.6612998 -0.201800E+03  0.142E+01    0.05       1.0  T
   5     36.8648684  0.645262E+02  0.178E+01    0.01       1.0  T
   6    -43.4853816 -0.803503E+02  0.968E+00    0.05       1.0  T
   7    -20.8137447  0.226716E+02  0.139E+01    0.04       1.0  T
   8    -50.2990809 -0.294853E+02  0.845E+00    0.30       1.0  T
   9    -47.2371952  0.306189E+01  0.766E+00    0.07       1.0  T
  10    -55.4745352 -0.823734E+01  0.612E+00    0.13       1.0  T
  11    -55.5239166 -0.493814E-01  0.554E+00    0.24       1.0  T
  12    -55.8713017 -0.347385E+00  0.524E+00    0.24       1.0  T
  13    -55.8303379  0.409638E-01  0.492E+00    0.31       1.0  T
  14    -55.9806752 -0.150337E+00  0.459E+00    0.23       1.0  T
  15    -55.9800030  0.672234E-03  0.413E+00    0.17       1.0  T
  16    -56.1845409 -0.204538E+00  0.303E+00    0.26       1.0  T
  17    -56.1954785 -0.109377E-01  0.281E+00    0.20       1.0  T
  18    -56.1818791  0.135994E-01  0.249E+00    0.23       1.0  T
  19    -56.2524477 -0.705686E-01  0.232E+00    0.20       1.0  T
  20    -56.2583789 -0.593114E-02  0.200E+00    0.14       1.0  T
  21    -56.3000144 -0.416355E-01  0.157E+00    0.13       1.0  T
  22    -56.2992683  0.746038E-03  0.157E+00    0.13       1.0  T
  23    -56.2736749  0.255934E-01  0.148E+00    0.14       1.0  T
  24    -56.3207029 -0.470280E-01  0.128E+00    0.12       1.0  T
  25    -56.3438132 -0.231103E-01  0.928E-01    0.12       1.0  T
  26    -56.3721770 -0.283638E-01  0.792E-01    0.09       1.0  T
  27    -56.3829525 -0.107754E-01  0.722E-01    0.10       1.0  T
  28    -56.3909339 -0.798146E-02  0.625E-01    0.08       1.0  T
  29    -56.3943755 -0.344154E-02  0.549E-01    0.09       1.0  T
  30    -56.3996924 -0.531693E-02  0.449E-01    0.08       1.0  T
  31    -56.4014190 -0.172657E-02  0.376E-01    0.08       1.0  T
  32    -56.4052958 -0.387680E-02  0.273E-01    0.08       1.0  T
  33    -56.4044295  0.866303E-03  0.226E-01    0.07       1.0  T
  34    -56.4042292  0.200219E-03  0.221E-01    0.07       1.0  T
  35    -56.4037111  0.518157E-03  0.193E-01    0.06       1.0  T
  36    -56.4068401 -0.312903E-02  0.130E-01    0.08       1.0  T
  37    -56.4070000 -0.159933E-03  0.116E-01    0.08       1.0  T
  38    -56.4069791  0.209385E-04  0.108E-01    0.07       1.0  T
  39    -56.4073483 -0.369223E-03  0.848E-02    0.07       1.0  T
  40    -56.4076211 -0.272815E-03  0.567E-02    0.08       1.0  T
  41    -56.4077199 -0.987135E-04  0.400E-02    0.08       1.0  T
  42    -56.4077567 -0.368851E-04  0.248E-02    0.08       1.0  T
  43    -56.4077627 -0.598748E-05  0.174E-02    0.08       1.0  T
  44    -56.4077798 -0.170305E-04  0.105E-02    0.08       1.3  T
  45    -56.4077869 -0.714794E-05  0.612E-03    0.08       2.2  T
  46    -56.4077891 -0.216908E-05  0.227E-03    0.08       5.9  T
  47    -56.4077891 -0.591435E-08  0.187E-03    0.08       7.2  T
  48    -56.4077892 -0.815434E-07  0.135E-03    0.08      10.0  T
  49    -56.4077893 -0.144710E-06  0.844E-04    0.08      16.0  T
  50    -56.4077893 -0.283523E-07  0.388E-04    0.08      34.8  T

   *** convergence criteria satisfied after 50 iterations ***

         #    Occupation            Energy/Eh            Energy/eV
      -------------------------------------------------------------
         1        2.0000           -0.5283418             -14.3769
       ...           ...                  ...                  ...
        62        2.0000           -0.2602834              -7.0827
        63        2.0000           -0.2569327              -6.9915
        64        1.9999           -0.2481441              -6.7523
        65        1.9999           -0.2478244              -6.7436
        66        1.9952           -0.2443389              -6.6488
        67        1.9128           -0.2415146              -6.5719
        68        0.9103           -0.2370162              -6.4495 (HOMO)
        69        0.1807           -0.2340837              -6.3697 (LUMO)
        70        0.0012           -0.2291290              -6.2349
        71        0.0001           -0.2262395              -6.1563
        72        0.0000           -0.2230377              -6.0692
        73                         -0.2102698              -5.7217
       ...                                ...                  ...
       175                          2.7322355              74.3479
      -------------------------------------------------------------
                  HL-Gap            0.0029325 Eh            0.0798 eV
             Fermi-level           -0.2374045 Eh           -6.4601 eV

 SCC (total)                   0 d,  0 h,  0 min,  0.251 sec
 SCC setup                      ...        0 min,  0.000 sec (  0.000%)
 Dispersion                     ...        0 min,  0.001 sec (  0.398%)
 classical contributions        ...        0 min,  0.000 sec (  0.000%)
 integral evaluation            ...        0 min,  0.003 sec (  1.195%)
 iterations                     ...        0 min,  0.239 sec ( 95.219%)
 molecular gradient             ...        0 min,  0.007 sec (  2.789%)
 printout                       ...        0 min,  0.001 sec (  0.398%)

         :::::::::::::::::::::::::::::::::::::::::::::::::::::
         ::                     SUMMARY                     ::
         :::::::::::::::::::::::::::::::::::::::::::::::::::::
         :: total energy             -55.633016308140 Eh    ::
         :: gradient norm              0.754546881368 Eh/a0 ::
         :: HOMO-LUMO gap              0.079796517802 eV    ::
         ::.................................................::
         :: SCC energy               -56.408229787795 Eh    ::
         :: -> isotropic ES            0.290627445255 Eh    ::
         :: -> anisotropic ES          0.009802212509 Eh    ::
         :: -> anisotropic XC         -0.025522031650 Eh    ::
         :: -> dispersion             -0.062745481519 Eh    ::
         :: repulsion energy           0.775213479655 Eh    ::
         :: add. restraining           0.000000000000 Eh    ::
         :: total charge              -0.000000000002 e     ::
         :::::::::::::::::::::::::::::::::::::::::::::::::::::

      ----------------------------------------------------------- 
     |                   =====================                   |
     |                        A N C O P T                        |
     |                   =====================                   |
     |               Approximate Normal Coordinate               |
     |                Rational Function Optimizer                |
      ----------------------------------------------------------- 
      ----------------------------------------------------------- 
     |                   =====================                   |
     |                        A N C O P T                        |
     |                   =====================                   |
     |               Approximate Normal Coordinate               |
     |                Rational Function Optimizer                |
      ----------------------------------------------------------- 

          ...................................................
          :                      SETUP                      :
          :.................................................:
          :   optimization level            normal          :
          :   max. optcycles                   200          :
          :   ANC micro-cycles                  20          :
          :   degrees of freedom               159          :
          :.................................................:
          :   RF solver                   davidson          :
          :   write xtbopt.log                true          :
          :   linear?                        false          :
          :   energy convergence         0.5000000E-05 Eh   :
          :   grad. convergence          0.1000000E-02 Eh/α :
          :   maxmium RF displ.          1.0000000          :
          :   Hlow (freq-cutoff)         0.1000000E-01      :
          :   Hmax (freq-cutoff)         5.0000000          :
          :   S6 in model hess.         20.0000000          :
          ...................................................

generating ANC from exact Hessian ...
Using Lindh-Hessian (1995)
 Shifting diagonal of input Hessian by   1.040027809381114E-002
 Lowest  eigenvalues of input Hessian
    0.010000    0.010037    0.010045    0.010086    0.010148    0.010176
    0.010200    0.000000    0.010227    0.010250    0.010285    0.000000
    0.000000    0.000000    0.000000    0.000000    0.010580    0.011032
 Highest eigenvalues
    1.255021    1.276133    1.317187    1.336710    2.095873    2.259585
 

........................................................................
.............................. CYCLE    1 ..............................
........................................................................

 iter      E             dE          RMSdq      gap      omega  full diag
   1    -56.4077893 -0.564078E+02  0.211E-04    0.08       0.0  T
   2    -56.4077889  0.424907E-06  0.156E-03    0.08       8.6  T
   3    -56.4077893 -0.367541E-06  0.639E-04    0.08      21.1  T
   4    -56.4077892  0.420969E-07  0.829E-04    0.08      16.3  T
     SCC iter.                  ...        0 min,  0.020 sec
     gradient                   ...        0 min,  0.006 sec
 * total energy  :   -55.6330162 Eh     change        0.9282252E-07 Eh
   gradient norm :     0.7545508 Eh/α   predicted     0.0000000E+00 (-100.00%)
   displ. norm   :     0.4049377 α      lambda       -0.2648288E+00
   maximum displ.:     0.2785515 α      in ANC's #159, #53, #156, ...

........................................................................
.............................. CYCLE    2 ..............................
........................................................................

 iter      E             dE          RMSdq      gap      omega  full diag
   1    -56.4557770 -0.564558E+02  0.815E-01    0.13       0.0  T
   2    -56.1482006  0.307576E+00  0.179E+00    0.13       1.0  T
   3    -56.2699492 -0.121749E+00  0.129E+00    0.05       1.0  T
   4    -56.0945527  0.175397E+00  0.153E+00    0.29       1.0  T
   5    -56.3813026 -0.286750E+00  0.813E-01    0.12       1.0  T
   6    -56.4291664 -0.478637E-01  0.571E-01    0.12       1.0  T
   7    -56.4542002 -0.250338E-01  0.286E-01    0.12       1.0  T
   8    -56.4509623  0.323791E-02  0.285E-01    0.19       1.0  T
   9    -56.4621477 -0.111854E-01  0.162E-01    0.11       1.0  T
  10    -56.4635340 -0.138629E-02  0.140E-01    0.13       1.0  T
  11    -56.4632165  0.317524E-03  0.125E-01    0.13       1.0  T
  12    -56.4637311 -0.514616E-03  0.903E-02    0.13       1.0  T
  13    -56.4639695 -0.238376E-03  0.600E-02    0.13       1.0  T
  14    -56.4643366 -0.367143E-03  0.261E-02    0.13       1.0  T
  15    -56.4643558 -0.192231E-04  0.222E-02    0.13       1.0  T
  16    -56.4643537  0.217893E-05  0.192E-02    0.13       1.0  T
  17    -56.4643715 -0.178833E-04  0.108E-02    0.13       1.2  T
  18    -56.4643756 -0.406201E-05  0.699E-03    0.13       1.9  T
  19    -56.4643769 -0.126682E-05  0.644E-03    0.13       2.1  T
  20    -56.4643782 -0.132511E-05  0.539E-03    0.13       2.5  T
  21    -56.4643790 -0.841836E-06  0.311E-03    0.13       4.3  T
  22    -56.4643798 -0.804750E-06  0.992E-04    0.13      13.6  T
  23    -56.4643799 -0.297174E-07  0.547E-04    0.13      24.6  T
     SCC iter.                  ...        0 min,  0.100 sec
     gradient                   ...        0 min,  0.006 sec
 * total energy  :   -55.7938833 Eh     change       -0.1608671E+00 Eh
   gradient norm :     0.2620275 Eh/α   predicted    -0.1541279E+00 (  -4.19%)
   displ. norm   :     0.5010296 α      lambda       -0.8469903E-01
   maximum displ.:     0.2194209 α      in ANC's #53, #48, #159, ...

........................................................................
.............................. CYCLE    3 ..............................
........................................................................

 iter      E             dE          RMSdq      gap      omega  full diag
   1    -56.5441206 -0.565441E+02  0.656E-01    0.23       0.0  T
   2    -56.1362751  0.407846E+00  0.186E+00    0.14       1.0  T
   3    -56.3704015 -0.234126E+00  0.116E+00    0.23       1.0  T
   4    -56.4822954 -0.111894E+00  0.827E-01    0.23       1.0  T
   5    -56.4880702 -0.577473E-02  0.704E-01    0.19       1.0  T
   6    -56.4988261 -0.107560E-01  0.554E-01    0.32       1.0  T
   7    -56.5385585 -0.397324E-01  0.302E-01    0.15       1.0  T
   8    -56.5521247 -0.135662E-01  0.117E-01    0.23       1.0  T
   9    -56.5519653  0.159365E-03  0.115E-01    0.21       1.0  T
  10    -56.5517897  0.175658E-03  0.117E-01    0.23       1.0  T
  11    -56.5518771 -0.874013E-04  0.845E-02    0.21       1.0  T
  12    -56.5523378 -0.460727E-03  0.469E-02    0.22       1.0  T
  13    -56.5524875 -0.149727E-03  0.303E-02    0.22       1.0  T
  14    -56.5525286 -0.410192E-04  0.209E-02    0.22       1.0  T
  15    -56.5525323 -0.370108E-05  0.197E-02    0.22       1.0  T
  16    -56.5525356 -0.332312E-05  0.162E-02    0.22       1.0  T
  17    -56.5525421 -0.653891E-05  0.105E-02    0.22       1.3  T
  18    -56.5525470 -0.488634E-05  0.559E-03    0.22       2.4  T
  19    -56.5525478 -0.760349E-06  0.346E-03    0.22       3.9  T
  20    -56.5525480 -0.241069E-06  0.298E-03    0.22       4.5  T
  21    -56.5525482 -0.161183E-06  0.202E-03    0.22       6.7  T
  22    -56.5525484 -0.190287E-06  0.772E-04    0.22      17.5  T
  23    -56.5525484 -0.363235E-07  0.360E-04    0.22      37.5  T
     SCC iter.                  ...        0 min,  0.106 sec
     gradient                   ...        0 min,  0.007 sec
 * total energy  :   -55.8596970 Eh     change       -0.6581368E-01 Eh
   gradient norm :     0.1618683 Eh/α   predicted    -0.5298057E-01 ( -19.50%)
   displ. norm   :     0.5163067 α      lambda       -0.5405440E-01
   maximum displ.:     0.2277083 α      in ANC's #53, #159, #48, ...

........................................................................
.............................. CYCLE    4 ..............................
........................................................................

 iter      E             dE          RMSdq      gap      omega  full diag
   1    -56.6288886 -0.566289E+02  0.553E-01    0.29       0.0  T
   2    -56.5442653  0.846232E-01  0.994E-01    0.36       1.0  T
   3    -56.6002482 -0.559828E-01  0.562E-01    0.22       1.0  T
   4    -56.3252539  0.274994E+00  0.144E+00    0.36       1.0  T
   5    -56.5035808 -0.178327E+00  0.892E-01    0.42       1.0  T
   6    -56.6185140 -0.114933E+00  0.326E-01    0.27       1.0  T
   7    -56.6256018 -0.708777E-02  0.255E-01    0.31       1.0  T
   8    -56.6317145 -0.611273E-02  0.113E-01    0.30       1.0  T
   9    -56.6318764 -0.161938E-03  0.133E-01    0.30       1.0  T
  10    -56.6316842  0.192206E-03  0.120E-01    0.29       1.0  T
  11    -56.6324332 -0.748980E-03  0.796E-02    0.30       1.0  T
  12    -56.6327183 -0.285110E-03  0.535E-02    0.30       1.0  T
  13    -56.6328731 -0.154790E-03  0.268E-02    0.30       1.0  T
  14    -56.6329014 -0.282400E-04  0.192E-02    0.30       1.0  T
  15    -56.6329061 -0.474596E-05  0.169E-02    0.30       1.0  T
  16    -56.6329117 -0.554852E-05  0.120E-02    0.30       1.1  T
  17    -56.6329164 -0.472634E-05  0.498E-03    0.31       2.7  T
  18    -56.6329175 -0.116484E-05  0.187E-03    0.31       7.2  T
  19    -56.6329177 -0.123128E-06  0.101E-03    0.31      13.3  T
  20    -56.6329177 -0.568849E-07  0.571E-04    0.31      23.6  T
  21    -56.6329177 -0.116085E-07  0.343E-04    0.31      39.3  T
     SCC iter.                  ...        0 min,  0.102 sec
     gradient                   ...        0 min,  0.007 sec
 * total energy  :   -55.8984074 Eh     change       -0.3871039E-01 Eh
   gradient norm :     0.1148746 Eh/α   predicted    -0.3423191E-01 ( -11.57%)
   displ. norm   :     0.4971652 α      lambda       -0.3017661E-01
   maximum displ.:     0.1920743 α      in ANC's #53, #33, #159, ...

........................................................................
.............................. CYCLE    5 ..............................
........................................................................

 iter      E             dE          RMSdq      gap      omega  full diag
   1    -56.6797862 -0.566798E+02  0.517E-01    0.32       0.0  T
   2    -56.5531814  0.126605E+00  0.106E+00    0.41       1.0  T
   3    -56.6563464 -0.103165E+00  0.518E-01    0.32       1.0  T
   4    -56.5253346  0.131012E+00  0.105E+00    0.37       1.0  T
   5    -56.5717039 -0.463693E-01  0.827E-01    0.42       1.0  T
   6    -56.6735583 -0.101854E+00  0.359E-01    0.29       1.0  T
   7    -56.6816888 -0.813046E-02  0.183E-01    0.35       1.0  T
   8    -56.6833610 -0.167215E-02  0.130E-01    0.33       1.0  T
   9    -56.6840955 -0.734552E-03  0.913E-02    0.33       1.0  T
  10    -56.6842140 -0.118451E-03  0.797E-02    0.33       1.0  T
  11    -56.6846063 -0.392385E-03  0.455E-02    0.33       1.0  T
  12    -56.6846880 -0.816460E-04  0.258E-02    0.33       1.0  T
  13    -56.6847466 -0.586429E-04  0.993E-03    0.33       1.4  T
  14    -56.6847548 -0.811807E-05  0.624E-03    0.33       2.2  T
  15    -56.6847560 -0.124358E-05  0.484E-03    0.33       2.8  T
  16    -56.6847562 -0.229551E-06  0.418E-03    0.33       3.2  T
  17    -56.6847561  0.125235E-06  0.289E-03    0.33       4.7  T
  18    -56.6847571 -0.101469E-05  0.102E-03    0.33      13.3  T
  19    -56.6847572 -0.119416E-06  0.483E-04    0.33      27.9  T
  20    -56.6847572 -0.698429E-08  0.352E-04    0.33      38.3  T
     SCC iter.                  ...        0 min,  0.093 sec
     gradient                   ...        0 min,  0.007 sec
 * total energy  :   -55.9231114 Eh     change       -0.2470400E-01 Eh
   gradient norm :     0.1055712 Eh/α   predicted    -0.1881774E-01 ( -23.83%)
   displ. norm   :     0.6124469 α      lambda       -0.3516949E-01
   maximum displ.:     0.2827270 α      in ANC's #159, #33, #53, ...

........................................................................
.............................. CYCLE    6 ..............................
........................................................................

 iter      E             dE          RMSdq      gap      omega  full diag
   1    -56.7372369 -0.567372E+02  0.721E-01    0.33       0.0  T
   2    -56.6803897  0.568472E-01  0.891E-01    0.37       1.0  T
   3    -56.5250945  0.155295E+00  0.126E+00    0.31       1.0  T
   4    -56.4632591  0.618354E-01  0.141E+00    0.36       1.0  T
   5    -56.6615817 -0.198323E+00  0.786E-01    0.37       1.0  T
   6    -56.7184408 -0.568591E-01  0.455E-01    0.30       1.0  T
   7    -56.7258899 -0.744908E-02  0.343E-01    0.36       1.0  T
   8    -56.7398009 -0.139110E-01  0.224E-01    0.32       1.0  T
   9    -56.7398508 -0.499486E-04  0.183E-01    0.34       1.0  T
  10    -56.7408695 -0.101871E-02  0.170E-01    0.33       1.0  T
  11    -56.7417270 -0.857497E-03  0.109E-01    0.33       1.0  T
  12    -56.7423193 -0.592237E-03  0.673E-02    0.34       1.0  T
  13    -56.7425308 -0.211510E-03  0.343E-02    0.33       1.0  T
  14    -56.7425924 -0.616214E-04  0.219E-02    0.34       1.0  T
  15    -56.7426001 -0.771439E-05  0.174E-02    0.34       1.0  T
  16    -56.7426055 -0.541577E-05  0.111E-02    0.34       1.2  T
  17    -56.7426126 -0.711929E-05  0.398E-03    0.34       3.4  T
  18    -56.7426139 -0.128201E-05  0.244E-03    0.34       5.5  T
  19    -56.7426142 -0.273423E-06  0.137E-03    0.34       9.8  T
  20    -56.7426142  0.113997E-07  0.102E-03    0.34      13.3  T
  21    -56.7426143 -0.899843E-07  0.497E-04    0.34      27.1  T
  22    -56.7426143 -0.163018E-07  0.262E-04    0.34      51.5  T
     SCC iter.                  ...        0 min,  0.107 sec
     gradient                   ...        0 min,  0.007 sec
 * total energy  :   -55.9542739 Eh     change       -0.3116246E-01 Eh
   gradient norm :     0.1093818 Eh/α   predicted    -0.2418065E-01 ( -22.40%)
   displ. norm   :     0.7296809 α      lambda       -0.4622776E-01
   maximum displ.:     0.4322336 α      in ANC's #159, #74, #33, ...

........................................................................
.............................. CYCLE    7 ..............................
........................................................................

 iter      E             dE          RMSdq      gap      omega  full diag
   1    -56.7901145 -0.567901E+02  0.787E-01    0.28       0.0  T
   2    -56.7543370  0.357775E-01  0.828E-01    0.32       1.0  T
   3    -56.6324466  0.121890E+00  0.110E+00    0.22       1.0  T
   4    -56.3081353  0.324311E+00  0.181E+00    0.32       1.0  T
   5    -56.7592325 -0.451097E+00  0.575E-01    0.34       1.0  T
   6    -56.7771660 -0.179335E-01  0.392E-01    0.28       1.0  T
   7    -56.7865021 -0.933607E-02  0.278E-01    0.31       1.0  T
   8    -56.7925643 -0.606226E-02  0.191E-01    0.31       1.0  T
   9    -56.7925910 -0.266682E-04  0.177E-01    0.31       1.0  T
  10    -56.7934601 -0.869129E-03  0.151E-01    0.31       1.0  T
  11    -56.7950966 -0.163648E-02  0.909E-02    0.30       1.0  T
  12    -56.7954794 -0.382749E-03  0.454E-02    0.30       1.0  T
  13    -56.7956735 -0.194144E-03  0.217E-02    0.30       1.0  T
  14    -56.7957020 -0.285241E-04  0.128E-02    0.30       1.1  T
  15    -56.7957005  0.153617E-05  0.118E-02    0.30       1.1  T
  16    -56.7957021 -0.159872E-05  0.786E-03    0.30       1.7  T
  17    -56.7957068 -0.473825E-05  0.294E-03    0.30       4.6  T
  18    -56.7957075 -0.666131E-06  0.129E-03    0.30      10.4  T
  19    -56.7957076 -0.667043E-07  0.641E-04    0.30      21.0  T
  20    -56.7957076  0.942362E-08  0.475E-04    0.30      28.4  T
     SCC iter.                  ...        0 min,  0.089 sec
     gradient                   ...        0 min,  0.006 sec
 * total energy  :   -55.9912737 Eh     change       -0.3699982E-01 Eh
   gradient norm :     0.0970382 Eh/α   predicted    -0.3542054E-01 (  -4.27%)
   displ. norm   :     0.5820010 α      lambda       -0.3090430E-01
   maximum displ.:     0.3619943 α      in ANC's #159, #74, #23, ...

........................................................................
.............................. CYCLE    8 ..............................
........................................................................

 iter      E             dE          RMSdq      gap      omega  full diag
   1    -56.8147830 -0.568148E+02  0.538E-01    0.24       0.0  T
   2    -56.7752979  0.394852E-01  0.696E-01    0.29       1.0  T
   3    -56.7674031  0.789473E-02  0.717E-01    0.22       1.0  T
   4    -56.6358977  0.131505E+00  0.116E+00    0.21       1.0  T
   5    -56.7590761 -0.123178E+00  0.640E-01    0.31       1.0  T
   6    -56.8084063 -0.493302E-01  0.308E-01    0.26       1.0  T
   7    -56.8168968 -0.849052E-02  0.103E-01    0.25       1.0  T
   8    -56.8169905 -0.936925E-04  0.116E-01    0.26       1.0  T
   9    -56.8177230 -0.732520E-03  0.846E-02    0.26       1.0  T
  10    -56.8174127  0.310286E-03  0.872E-02    0.26       1.0  T
  11    -56.8178528 -0.440120E-03  0.542E-02    0.26       1.0  T
  12    -56.8180479 -0.195015E-03  0.180E-02    0.26       1.0  T
  13    -56.8180766 -0.287877E-04  0.945E-03    0.26       1.4  T
  14    -56.8180801 -0.348677E-05  0.588E-03    0.26       2.3  T
  15    -56.8180799  0.236015E-06  0.518E-03    0.26       2.6  T
  16    -56.8180802 -0.341064E-06  0.339E-03    0.26       4.0  T
  17    -56.8180810 -0.789167E-06  0.106E-03    0.26      12.7  T
  18    -56.8180811 -0.820328E-07  0.439E-04    0.26      30.7  T
  19    -56.8180811 -0.134157E-07  0.226E-04    0.26      59.6  T
     SCC iter.                  ...        0 min,  0.090 sec
     gradient                   ...        0 min,  0.006 sec
 * total energy  :   -56.0137356 Eh     change       -0.2246196E-01 Eh
   gradient norm :     0.0715316 Eh/α   predicted    -0.2068621E-01 (  -7.91%)
   displ. norm   :     0.4472372 α      lambda       -0.1666928E-01
   maximum displ.:     0.2272305 α      in ANC's #159, #23, #26, ...

........................................................................
.............................. CYCLE    9 ..............................
........................................................................

 iter      E             dE          RMSdq      gap      omega  full diag
   1    -56.8205004 -0.568205E+02  0.410E-01    0.23       0.0  T
   2    -56.7830908  0.374096E-01  0.608E-01    0.28       1.0  T
   3    -56.7741583  0.893245E-02  0.649E-01    0.24       1.0  T
   4    -56.7416897  0.324687E-01  0.775E-01    0.19       1.0  T
   5    -56.8046932 -0.630035E-01  0.382E-01    0.27       1.0  T
   6    -56.8179950 -0.133018E-01  0.210E-01    0.25       1.0  T
   7    -56.8226248 -0.462986E-02  0.616E-02    0.25       1.0  T
   8    -56.8227034 -0.786061E-04  0.600E-02    0.24       1.0  T
   9    -56.8228824 -0.178957E-03  0.466E-02    0.25       1.0  T
  10    -56.8228449  0.374929E-04  0.422E-02    0.24       1.0  T
  11    -56.8229138 -0.688988E-04  0.255E-02    0.25       1.0  T
  12    -56.8229604 -0.466234E-04  0.804E-03    0.24       1.7  T
  13    -56.8229656 -0.516487E-05  0.357E-03    0.25       3.8  T
  14    -56.8229662 -0.660438E-06  0.264E-03    0.25       5.1  T
  15    -56.8229665 -0.236463E-06  0.144E-03    0.25       9.4  T
  16    -56.8229666 -0.107982E-06  0.102E-03    0.25      13.2  T
  17    -56.8229667 -0.109605E-06  0.429E-04    0.25      31.5  T
  18    -56.8229667 -0.141587E-07  0.178E-04    0.25      75.7  T
     SCC iter.                  ...        0 min,  0.084 sec
     gradient                   ...        0 min,  0.006 sec
 * total energy  :   -56.0258158 Eh     change       -0.1208021E-01 Eh
   gradient norm :     0.0493362 Eh/α   predicted    -0.1000176E-01 ( -17.21%)
   displ. norm   :     0.4165514 α      lambda       -0.9034050E-02
   maximum displ.:     0.2141793 α      in ANC's #23, #159, #26, ...

........................................................................
.............................. CYCLE   10 ..............................
........................................................................

 iter      E             dE          RMSdq      gap      omega  full diag
   1    -56.8250924 -0.568251E+02  0.348E-01    0.23       0.0  T
   2    -56.7906022  0.344902E-01  0.564E-01    0.26       1.0  T
   3    -56.7891939  0.140821E-02  0.549E-01    0.24       1.0  T
   4    -56.7877498  0.144409E-02  0.556E-01    0.20       1.0  T
   5    -56.8172573 -0.295074E-01  0.295E-01    0.26       1.0  T
   6    -56.8247519 -0.749461E-02  0.145E-01    0.24       1.0  T
   7    -56.8269290 -0.217710E-02  0.427E-02    0.24       1.0  T
   8    -56.8269843 -0.552858E-04  0.364E-02    0.24       1.0  T
   9    -56.8270563 -0.720514E-04  0.277E-02    0.24       1.0  T
  10    -56.8270238  0.324915E-04  0.254E-02    0.24       1.0  T
  11    -56.8270557 -0.318698E-04  0.173E-02    0.24       1.0  T
  12    -56.8270803 -0.246278E-04  0.588E-03    0.24       2.3  T
  13    -56.8270834 -0.309181E-05  0.215E-03    0.24       6.3  T
  14    -56.8270836 -0.211169E-06  0.162E-03    0.24       8.3  T
  15    -56.8270837 -0.927791E-07  0.752E-04    0.24      17.9  T
  16    -56.8270838 -0.462660E-07  0.376E-04    0.24      35.9  T
     SCC iter.                  ...        0 min,  0.070 sec
     gradient                   ...        0 min,  0.007 sec
 * total energy  :   -56.0323963 Eh     change       -0.6580459E-02 Eh
   gradient norm :     0.0377131 Eh/α   predicted    -0.5300816E-02 ( -19.45%)
   displ. norm   :     0.3854253 α      lambda       -0.5376155E-02
   maximum displ.:     0.2254416 α      in ANC's #23, #159, #26, ...

........................................................................
.............................. CYCLE   11 ..............................
........................................................................

 iter      E             dE          RMSdq      gap      omega  full diag
   1    -56.8300647 -0.568301E+02  0.313E-01    0.23       0.0  T
   2    -56.8049402  0.251245E-01  0.487E-01    0.25       1.0  T
   3    -56.8004245  0.451572E-02  0.493E-01    0.25       1.0  T
   4    -56.8069139 -0.648938E-02  0.454E-01    0.21       1.0  T
   5    -56.8257070 -0.187932E-01  0.228E-01    0.25       1.0  T
   6    -56.8306930 -0.498601E-02  0.908E-02    0.24       1.0  T
   7    -56.8314419 -0.748861E-03  0.308E-02    0.24       1.0  T
   8    -56.8314670 -0.250661E-04  0.253E-02    0.24       1.0  T
   9    -56.8315033 -0.363625E-04  0.186E-02    0.24       1.0  T
  10    -56.8314703  0.329832E-04  0.195E-02    0.24       1.0  T
  11    -56.8314948 -0.244171E-04  0.129E-02    0.24       1.0  T
  12    -56.8315112 -0.164493E-04  0.419E-03    0.24       3.2  T
  13    -56.8315129 -0.170078E-05  0.176E-03    0.24       7.7  T
  14    -56.8315130 -0.957655E-07  0.127E-03    0.24      10.6  T
  15    -56.8315131 -0.729611E-07  0.499E-04    0.24      27.0  T
  16    -56.8315131 -0.163192E-07  0.255E-04    0.24      52.9  T
     SCC iter.                  ...        0 min,  0.076 sec
     gradient                   ...        0 min,  0.008 sec
 * total energy  :   -56.0363444 Eh     change       -0.3948076E-02 Eh
   gradient norm :     0.0313736 Eh/α   predicted    -0.3087400E-02 ( -21.80%)
   displ. norm   :     0.3629133 α      lambda       -0.3727136E-02
   maximum displ.:     0.2029554 α      in ANC's #23, #159, #26, ...

........................................................................
.............................. CYCLE   12 ..............................
........................................................................

 iter      E             dE          RMSdq      gap      omega  full diag
   1    -56.8345876 -0.568346E+02  0.334E-01    0.24       0.0  T
   2    -56.8234331  0.111544E-01  0.372E-01    0.25       1.0  T
   3    -56.7918753  0.315578E-01  0.589E-01    0.25       1.0  T
   4    -56.8019778 -0.101025E-01  0.525E-01    0.22       1.0  T
   5    -56.8317967 -0.298189E-01  0.186E-01    0.26       1.0  T
   6    -56.8351117 -0.331497E-02  0.653E-02    0.24       1.0  T
   7    -56.8354549 -0.343174E-03  0.318E-02    0.25       1.0  T
   8    -56.8355023 -0.474142E-04  0.221E-02    0.25       1.0  T
   9    -56.8355126 -0.102830E-04  0.193E-02    0.25       1.0  T
  10    -56.8354931  0.194554E-04  0.192E-02    0.25       1.0  T
  11    -56.8355229 -0.297411E-04  0.730E-03    0.25       1.8  T
  12    -56.8355276 -0.476819E-05  0.319E-03    0.25       4.2  T
  13    -56.8355286 -0.948729E-06  0.222E-03    0.25       6.1  T
  14    -56.8355287 -0.117969E-06  0.127E-03    0.25      10.6  T
  15    -56.8355288 -0.958056E-07  0.410E-04    0.25      32.9  T
  16    -56.8355288 -0.659961E-08  0.262E-04    0.25      51.4  T
     SCC iter.                  ...        0 min,  0.076 sec
     gradient                   ...        0 min,  0.007 sec
 * total energy  :   -56.0391164 Eh     change       -0.2771988E-02 Eh
   gradient norm :     0.0259064 Eh/α   predicted    -0.2109016E-02 ( -23.92%)
   displ. norm   :     0.3791107 α      lambda       -0.2980483E-02
   maximum displ.:     0.1686230 α      in ANC's #17, #23, #28, ...

........................................................................
.............................. CYCLE   13 ..............................
........................................................................

 iter      E             dE          RMSdq      gap      omega  full diag
   1    -56.8380893 -0.568381E+02  0.392E-01    0.26       0.0  T
   2    -56.8343315  0.375777E-02  0.322E-01    0.26       1.0  T
   3    -56.8209077  0.134238E-01  0.463E-01    0.25       1.0  T
   4    -56.8123524  0.855531E-02  0.473E-01    0.25       1.0  T
   5    -56.8296792 -0.173267E-01  0.263E-01    0.27       1.0  T
   6    -56.8382278 -0.854864E-02  0.660E-02    0.26       1.0  T
   7    -56.8387196 -0.491808E-03  0.291E-02    0.26       1.0  T
   8    -56.8387786 -0.590034E-04  0.154E-02    0.26       1.0  T
   9    -56.8387844 -0.576089E-05  0.128E-02    0.26       1.1  T
  10    -56.8387832  0.116580E-05  0.113E-02    0.26       1.2  T
  11    -56.8387910 -0.780074E-05  0.631E-03    0.26       2.1  T
  12    -56.8387954 -0.443821E-05  0.180E-03    0.26       7.5  T
  13    -56.8387956 -0.187012E-06  0.126E-03    0.26      10.7  T
  14    -56.8387957 -0.342246E-07  0.965E-04    0.26      14.0  T
  15    -56.8387958 -0.954205E-07  0.359E-04    0.26      37.5  T
     SCC iter.                  ...        0 min,  0.070 sec
     gradient                   ...        0 min,  0.007 sec
 * total energy  :   -56.0414264 Eh     change       -0.2310012E-02 Eh
   gradient norm :     0.0226401 Eh/α   predicted    -0.1704427E-02 ( -26.22%)
   displ. norm   :     0.4900848 α      lambda       -0.3281403E-02
   maximum displ.:     0.3003213 α      in ANC's #17, #28, #159, ...

........................................................................
.............................. CYCLE   14 ..............................
........................................................................

 iter      E             dE          RMSdq      gap      omega  full diag
   1    -56.8397827 -0.568398E+02  0.521E-01    0.27       0.0  T
   2    -56.8261458  0.136369E-01  0.493E-01    0.28       1.0  T
   3    -56.7330247  0.931212E-01  0.913E-01    0.25       1.0  T
   4    -56.7551269 -0.221023E-01  0.844E-01    0.31       1.0  T
   5    -56.8372721 -0.821452E-01  0.206E-01    0.28       1.0  T
   6    -56.8392985 -0.202636E-02  0.116E-01    0.27       1.0  T
   7    -56.8408610 -0.156246E-02  0.624E-02    0.28       1.0  T
   8    -56.8411014 -0.240434E-03  0.385E-02    0.28       1.0  T
   9    -56.8410905  0.109222E-04  0.369E-02    0.28       1.0  T
  10    -56.8410963 -0.582554E-05  0.249E-02    0.28       1.0  T
  11    -56.8411341 -0.378039E-04  0.811E-03    0.28       1.7  T
  12    -56.8411396 -0.552906E-05  0.509E-03    0.28       2.7  T
  13    -56.8411401 -0.488724E-06  0.315E-03    0.28       4.3  T
  14    -56.8411403 -0.138610E-06  0.196E-03    0.28       6.9  T
  15    -56.8411403 -0.783613E-07  0.125E-03    0.28      10.8  T
  16    -56.8411404 -0.573054E-07  0.749E-04    0.28      18.0  T
  17    -56.8411404 -0.579025E-07  0.251E-04    0.28      53.8  T
     SCC iter.                  ...        0 min,  0.077 sec
     gradient                   ...        0 min,  0.007 sec
 * total energy  :   -56.0441675 Eh     change       -0.2741155E-02 Eh
   gradient norm :     0.0253302 Eh/α   predicted    -0.2034772E-02 ( -25.77%)
   displ. norm   :     0.6345730 α      lambda       -0.4581313E-02
   maximum displ.:     0.4073483 α      in ANC's #17, #28, #33, ...

........................................................................
.............................. CYCLE   15 ..............................
........................................................................

 iter      E             dE          RMSdq      gap      omega  full diag
   1    -56.8403836 -0.568404E+02  0.681E-01    0.29       0.0  T
   2    -56.7765364  0.638472E-01  0.848E-01    0.31       1.0  T
   3    -56.6677876  0.108749E+00  0.114E+00    0.23       1.0  T
   4    -56.7740828 -0.106295E+00  0.811E-01    0.36       1.0  T
   5    -56.8372291 -0.631464E-01  0.299E-01    0.28       1.0  T
   6    -56.8420785 -0.484940E-02  0.148E-01    0.30       1.0  T
   7    -56.8438856 -0.180709E-02  0.941E-02    0.30       1.0  T
   8    -56.8440450 -0.159336E-03  0.769E-02    0.30       1.0  T
   9    -56.8440433  0.169872E-05  0.757E-02    0.30       1.0  T
  10    -56.8441084 -0.651547E-04  0.375E-02    0.29       1.0  T
  11    -56.8442353 -0.126907E-03  0.156E-02    0.30       1.0  T
  12    -56.8442446 -0.932209E-05  0.872E-03    0.30       1.5  T
  13    -56.8442450 -0.354917E-06  0.718E-03    0.30       1.9  T
  14    -56.8442458 -0.760380E-06  0.460E-03    0.30       2.9  T
  15    -56.8442458  0.136162E-07  0.275E-03    0.30       4.9  T
  16    -56.8442463 -0.574955E-06  0.112E-03    0.30      12.0  T
  17    -56.8442465 -0.134383E-06  0.540E-04    0.30      25.0  T
  18    -56.8442465 -0.975724E-08  0.280E-04    0.30      48.1  T
     SCC iter.                  ...        0 min,  0.086 sec
     gradient                   ...        0 min,  0.007 sec
 * total energy  :   -56.0474111 Eh     change       -0.3243516E-02 Eh
   gradient norm :     0.0351841 Eh/α   predicted    -0.3213075E-02 (  -0.94%)
   displ. norm   :     0.3720836 α      lambda       -0.3982586E-02
   maximum displ.:     0.1980507 α      in ANC's #17, #28, #33, ...

........................................................................
.............................. CYCLE   16 ..............................
........................................................................

 iter      E             dE          RMSdq      gap      omega  full diag
   1    -56.8452041 -0.568452E+02  0.376E-01    0.29       0.0  T
   2    -56.7725091  0.726950E-01  0.768E-01    0.30       1.0  T
   3    -56.8255820 -0.530729E-01  0.417E-01    0.26       1.0  T
   4    -56.8297543 -0.417230E-02  0.415E-01    0.33       1.0  T
   5    -56.8430327 -0.132784E-01  0.219E-01    0.27       1.0  T
   6    -56.8471243 -0.409159E-02  0.857E-02    0.29       1.0  T
   7    -56.8478061 -0.681760E-03  0.325E-02    0.29       1.0  T
   8    -56.8478749 -0.688794E-04  0.253E-02    0.29       1.0  T
   9    -56.8478890 -0.140222E-04  0.199E-02    0.29       1.0  T
  10    -56.8478578  0.311785E-04  0.214E-02    0.29       1.0  T
  11    -56.8479043 -0.465494E-04  0.773E-03    0.29       1.7  T
  12    -56.8479093 -0.501389E-05  0.282E-03    0.29       4.8  T
  13    -56.8479099 -0.589101E-06  0.146E-03    0.29       9.3  T
  14    -56.8479100 -0.401060E-07  0.101E-03    0.29      13.3  T
  15    -56.8479100 -0.561866E-07  0.512E-04    0.29      26.3  T
  16    -56.8479101 -0.225899E-07  0.324E-04    0.29      41.7  T
     SCC iter.                  ...        0 min,  0.076 sec
     gradient                   ...        0 min,  0.008 sec
 * total energy  :   -56.0508538 Eh     change       -0.3442790E-02 Eh
   gradient norm :     0.0362213 Eh/α   predicted    -0.2266998E-02 ( -34.15%)
   displ. norm   :     0.7552784 α      lambda       -0.8976861E-02
   maximum displ.:     0.4335373 α      in ANC's #17, #28, #33, ...

........................................................................
.............................. CYCLE   17 ..............................
........................................................................

 iter      E             dE          RMSdq      gap      omega  full diag
   1    -56.8200322 -0.568200E+02  0.852E-01    0.19       0.0  T
   2    -56.2054133  0.614619E+00  0.216E+00    0.26       1.0  T
   3    -56.8208445 -0.615431E+00  0.555E-01    0.25       1.0  T
   4    -56.7328871  0.879574E-01  0.948E-01    0.17       1.0  T
   5    -56.7976901 -0.648030E-01  0.634E-01    0.28       1.0  T
   6    -56.8419561 -0.442660E-01  0.218E-01    0.24       1.0  T
   7    -56.8431560 -0.119988E-02  0.188E-01    0.22       1.0  T
   8    -56.8463812 -0.322525E-02  0.831E-02    0.24       1.0  T
   9    -56.8469356 -0.554405E-03  0.384E-02    0.24       1.0  T
  10    -56.8469508 -0.152102E-04  0.349E-02    0.24       1.0  T
  11    -56.8470288 -0.779342E-04  0.170E-02    0.24       1.0  T
  12    -56.8470603 -0.315712E-04  0.523E-03    0.24       2.6  T
  13    -56.8470587  0.158927E-05  0.614E-03    0.24       2.2  T
  14    -56.8470623 -0.358779E-05  0.175E-03    0.24       7.7  T
  15    -56.8470624 -0.117490E-06  0.129E-03    0.24      10.4  T
  16    -56.8470625 -0.956990E-07  0.880E-04    0.24      15.3  T
  17    -56.8470626 -0.584771E-07  0.400E-04    0.24      33.7  T
     SCC iter.                  ...        0 min,  0.086 sec
     gradient                   ...        0 min,  0.007 sec
 * total energy  :   -56.0564889 Eh     change       -0.5635016E-02 Eh
   gradient norm :     0.0537484 Eh/α   predicted    -0.7048834E-02 (  25.09%)
   displ. norm   :     0.3747651 α      lambda       -0.6712974E-02
   maximum displ.:     0.1803658 α      in ANC's #17, #159, #23, ...

........................................................................
.............................. CYCLE   18 ..............................
........................................................................

 iter      E             dE          RMSdq      gap      omega  full diag
   1    -56.8503438 -0.568503E+02  0.390E-01    0.22       0.0  T
   2    -56.8442156  0.612815E-02  0.350E-01    0.20       1.0  T
   3    -56.7951409  0.490747E-01  0.666E-01    0.26       1.0  T
   4    -56.7874492  0.769176E-02  0.655E-01    0.14       1.0  T
   5    -56.8467182 -0.592691E-01  0.190E-01    0.24       1.0  T
   6    -56.8500871 -0.336882E-02  0.970E-02    0.20       1.0  T
   7    -56.8510482 -0.961138E-03  0.377E-02    0.21       1.0  T
   8    -56.8511416 -0.933757E-04  0.328E-02    0.21       1.0  T
   9    -56.8511487 -0.710674E-05  0.288E-02    0.21       1.0  T
  10    -56.8511627 -0.139830E-04  0.185E-02    0.21       1.0  T
  11    -56.8511811 -0.184575E-04  0.682E-03    0.21       2.0  T
  12    -56.8511845 -0.336181E-05  0.310E-03    0.21       4.3  T
  13    -56.8511846 -0.148107E-06  0.223E-03    0.21       6.0  T
  14    -56.8511848 -0.171170E-06  0.129E-03    0.21      10.4  T
  15    -56.8511848 -0.355335E-07  0.103E-03    0.21      13.1  T
  16    -56.8511849 -0.900437E-07  0.473E-04    0.21      28.5  T
  17    -56.8511849 -0.191219E-07  0.188E-04    0.21      71.8  T
     SCC iter.                  ...        0 min,  0.092 sec
     gradient                   ...        0 min,  0.008 sec
 * total energy  :   -56.0581640 Eh     change       -0.1675106E-02 Eh
   gradient norm :     0.0501140 Eh/α   predicted    -0.3827920E-02 ( 128.52%)
   displ. norm   :     0.2212928 α      lambda       -0.4826556E-02
   maximum displ.:     0.1311522 α      in ANC's #17, #28, #87, ...

........................................................................
.............................. CYCLE   19 ..............................
........................................................................

 iter      E             dE          RMSdq      gap      omega  full diag
   1    -56.8507511 -0.568508E+02  0.245E-01    0.19       0.0  T
   2    -56.8051616  0.455895E-01  0.586E-01    0.27       1.0  T
   3    -56.8382230 -0.330614E-01  0.323E-01    0.17       1.0  T
   4    -56.8423377 -0.411461E-02  0.302E-01    0.20       1.0  T
   5    -56.8503880 -0.805034E-02  0.127E-01    0.21       1.0  T
   6    -56.8518828 -0.149485E-02  0.567E-02    0.20       1.0  T
   7    -56.8521236 -0.240738E-03  0.253E-02    0.21       1.0  T
   8    -56.8521357 -0.121506E-04  0.229E-02    0.20       1.0  T
   9    -56.8521445 -0.881518E-05  0.175E-02    0.21       1.0  T
  10    -56.8521594 -0.148545E-04  0.124E-02    0.20       1.1  T
  11    -56.8521719 -0.124642E-04  0.326E-03    0.20       4.1  T
  12    -56.8521726 -0.748051E-06  0.155E-03    0.20       8.7  T
  13    -56.8521727 -0.652879E-07  0.122E-03    0.20      11.0  T
  14    -56.8521727 -0.209167E-07  0.699E-04    0.20      19.3  T
  15    -56.8521727 -0.284980E-07  0.502E-04    0.20      26.9  T
     SCC iter.                  ...        0 min,  0.073 sec
     gradient                   ...        0 min,  0.007 sec
 * total energy  :   -56.0613241 Eh     change       -0.3160131E-02 Eh
   gradient norm :     0.0264224 Eh/α   predicted    -0.2531462E-02 ( -19.89%)
   displ. norm   :     0.2438109 α      lambda       -0.3013087E-02
   maximum displ.:     0.0967030 α      in ANC's #33, #28, #17, ...

........................................................................
.............................. CYCLE   20 ..............................
........................................................................

 iter      E             dE          RMSdq      gap      omega  full diag
   1    -56.8517711 -0.568518E+02  0.261E-01    0.20       0.0  T
   2    -56.8480077  0.376339E-02  0.242E-01    0.22       1.0  T
   3    -56.8417516  0.625613E-02  0.327E-01    0.21       1.0  T
   4    -56.8225922  0.191594E-01  0.458E-01    0.13       1.0  T
   5    -56.8466905 -0.240984E-01  0.215E-01    0.24       1.0  T
   6    -56.8522462 -0.555570E-02  0.499E-02    0.21       1.0  T
   7    -56.8524356 -0.189418E-03  0.252E-02    0.21       1.0  T
   8    -56.8524620 -0.263728E-04  0.221E-02    0.21       1.0  T
   9    -56.8524798 -0.177795E-04  0.148E-02    0.21       1.0  T
  10    -56.8524853 -0.553870E-05  0.126E-02    0.21       1.1  T
  11    -56.8524997 -0.144024E-04  0.366E-03    0.21       3.7  T
  12    -56.8525005 -0.762498E-06  0.178E-03    0.21       7.6  T
  13    -56.8525005 -0.610566E-07  0.125E-03    0.21      10.8  T
  14    -56.8525006 -0.576207E-07  0.620E-04    0.21      21.7  T
  15    -56.8525006  0.909061E-09  0.425E-04    0.21      31.7  T
     SCC iter.                  ...        0 min,  0.070 sec
     gradient                   ...        0 min,  0.006 sec
 * total energy  :   -56.0616313 Eh     change       -0.3071779E-03 Eh
   gradient norm :     0.0306314 Eh/α   predicted    -0.1596101E-02 ( 419.60%)
   displ. norm   :     0.2422078 α      lambda       -0.2612444E-02
   maximum displ.:     0.1089720 α      in ANC's #28, #33, #38, ...
 * RMSD in coord.:     0.7423064 α      energy gain  -0.4286150E+00 Eh

generating ANC from exact Hessian ...
Using Lindh-Hessian (1995)
 Shifting diagonal of input Hessian by   1.051283119062756E-002
 Lowest  eigenvalues of input Hessian
    0.010000    0.010105    0.010162    0.010220    0.010256    0.010292
    0.010333    0.000000    0.010363    0.010399    0.000000    0.000000
    0.000000    0.000000    0.000000    0.010667    0.010718    0.011043
 Highest eigenvalues
    1.326562    1.339830    1.366171    1.385521    1.395760    1.433420
 

........................................................................
.............................. CYCLE   21 ..............................
........................................................................

 iter      E             dE          RMSdq      gap      omega  full diag
   1    -56.8568610 -0.568569E+02  0.279E-01    0.14       0.0  T
   2    -56.7596481  0.972129E-01  0.851E-01    0.29       1.0  T
   3    -56.8569116 -0.972635E-01  0.181E-01    0.16       1.0  T
   4    -56.8415155  0.153962E-01  0.384E-01    0.18       1.0  T
   5    -56.8556912 -0.141757E-01  0.192E-01    0.19       1.0  T
   6    -56.8592649 -0.357367E-02  0.666E-02    0.17       1.0  T
   7    -56.8594135 -0.148620E-03  0.558E-02    0.16       1.0  T
   8    -56.8597299 -0.316383E-03  0.204E-02    0.16       1.0  T
   9    -56.8597697 -0.398492E-04  0.824E-03    0.16       1.6  T
  10    -56.8597710 -0.131135E-05  0.687E-03    0.16       2.0  T
  11    -56.8597733 -0.224207E-05  0.411E-03    0.16       3.3  T
  12    -56.8597748 -0.148329E-05  0.179E-03    0.16       7.5  T
  13    -56.8597749 -0.101753E-06  0.124E-03    0.16      10.8  T
  14    -56.8597750 -0.996475E-07  0.590E-04    0.16      22.8  T
  15    -56.8597750 -0.209833E-07  0.406E-04    0.16      33.2  T
     SCC iter.                  ...        0 min,  0.086 sec
     gradient                   ...        0 min,  0.008 sec
 * total energy  :   -56.0629479 Eh     change       -0.1316584E-02 Eh
   gradient norm :     0.0166332 Eh/α   predicted     0.0000000E+00 (-100.00%)
   displ. norm   :     0.0912200 α      lambda       -0.7289649E-03
   maximum displ.:     0.0322058 α      in ANC's #31, #69, #74, ...

........................................................................
.............................. CYCLE   22 ..............................
........................................................................

 iter      E             dE          RMSdq      gap      omega  full diag
   1    -56.8595271 -0.568595E+02  0.779E-02    0.17       0.0  T
   2    -56.8587788  0.748250E-03  0.829E-02    0.15       1.0  T
   3    -56.8548581  0.392076E-02  0.186E-01    0.20       1.0  T
   4    -56.8585555 -0.369745E-02  0.923E-02    0.17       1.0  T
   5    -56.8593449 -0.789440E-03  0.436E-02    0.17       1.0  T
   6    -56.8595496 -0.204654E-03  0.129E-02    0.17       1.0  T
   7    -56.8595624 -0.127826E-04  0.471E-03    0.17       2.9  T
   8    -56.8595627 -0.295819E-06  0.367E-03    0.17       3.7  T
   9    -56.8595630 -0.274190E-06  0.312E-03    0.17       4.3  T
  10    -56.8595633 -0.389543E-06  0.219E-03    0.17       6.1  T
  11    -56.8595638 -0.413707E-06  0.713E-04    0.17      18.9  T
  12    -56.8595638 -0.395690E-07  0.295E-04    0.17      45.8  T
     SCC iter.                  ...        0 min,  0.064 sec
     gradient                   ...        0 min,  0.006 sec
 * total energy  :   -56.0634901 Eh     change       -0.5422506E-03 Eh
   gradient norm :     0.0104290 Eh/α   predicted    -0.3675155E-03 ( -32.22%)
   displ. norm   :     0.1701749 α      lambda       -0.8338695E-03
   maximum displ.:     0.0573146 α      in ANC's #31, #73, #26, ...

........................................................................
.............................. CYCLE   23 ..............................
........................................................................

 iter      E             dE          RMSdq      gap      omega  full diag
   1    -56.8587480 -0.568587E+02  0.176E-01    0.18       0.0  T
   2    -56.8577352  0.101285E-02  0.136E-01    0.16       1.0  T
   3    -56.8350160  0.227191E-01  0.413E-01    0.24       1.0  T
   4    -56.8515872 -0.165711E-01  0.237E-01    0.16       1.0  T
   5    -56.8580346 -0.644744E-02  0.836E-02    0.18       1.0  T
   6    -56.8587718 -0.737219E-03  0.278E-02    0.17       1.0  T
   7    -56.8588361 -0.642640E-04  0.112E-02    0.18       1.2  T
   8    -56.8588442 -0.809025E-05  0.712E-03    0.18       1.9  T
   9    -56.8588427  0.149535E-05  0.741E-03    0.18       1.8  T
  10    -56.8588432 -0.475760E-06  0.543E-03    0.18       2.5  T
  11    -56.8588458 -0.267728E-05  0.159E-03    0.18       8.5  T
  12    -56.8588460 -0.196492E-06  0.820E-04    0.18      16.5  T
  13    -56.8588461 -0.129183E-07  0.598E-04    0.18      22.6  T
     SCC iter.                  ...        0 min,  0.056 sec
     gradient                   ...        0 min,  0.006 sec
 * total energy  :   -56.0636783 Eh     change       -0.1881802E-03 Eh
   gradient norm :     0.0106570 Eh/α   predicted    -0.4290294E-03 ( 127.99%)
   displ. norm   :     0.1272897 α      lambda       -0.7272371E-03
   maximum displ.:     0.0464585 α      in ANC's #34, #39, #16, ...

........................................................................
.............................. CYCLE   24 ..............................
........................................................................

 iter      E             dE          RMSdq      gap      omega  full diag
   1    -56.8592212 -0.568592E+02  0.167E-01    0.18       0.0  T
   2    -56.8590258  0.195329E-03  0.114E-01    0.19       1.0  T
   3    -56.8424442  0.165817E-01  0.350E-01    0.13       1.0  T
   4    -56.8531439 -0.106998E-01  0.209E-01    0.21       1.0  T
   5    -56.8590518 -0.590789E-02  0.418E-02    0.18       1.0  T
   6    -56.8592382 -0.186412E-03  0.134E-02    0.18       1.0  T
   7    -56.8592492 -0.109232E-04  0.819E-03    0.18       1.6  T
   8    -56.8592531 -0.390366E-05  0.461E-03    0.18       2.9  T
   9    -56.8592518  0.128782E-05  0.538E-03    0.18       2.5  T
  10    -56.8592535 -0.174988E-05  0.294E-03    0.18       4.6  T
  11    -56.8592543 -0.783916E-06  0.842E-04    0.18      16.0  T
  12    -56.8592544 -0.423928E-07  0.420E-04    0.18      32.1  T
     SCC iter.                  ...        0 min,  0.056 sec
     gradient                   ...        0 min,  0.007 sec
 * total energy  :   -56.0639510 Eh     change       -0.2726803E-03 Eh
   gradient norm :     0.0097944 Eh/α   predicted    -0.3695109E-03 (  35.51%)
   displ. norm   :     0.0817374 α      lambda       -0.2997690E-03
   maximum displ.:     0.0331658 α      in ANC's #39, #14, #16, ...

........................................................................
.............................. CYCLE   25 ..............................
........................................................................

 iter      E             dE          RMSdq      gap      omega  full diag
   1    -56.8595453 -0.568595E+02  0.104E-01    0.18       0.0  T
   2    -56.8586272  0.918039E-03  0.102E-01    0.20       1.0  T
   3    -56.8498676  0.875964E-02  0.265E-01    0.14       1.0  T
   4    -56.8582659 -0.839831E-02  0.986E-02    0.18       1.0  T
   5    -56.8594848 -0.121891E-02  0.272E-02    0.18       1.0  T
   6    -56.8595622 -0.774448E-04  0.113E-02    0.18       1.2  T
   7    -56.8595715 -0.924628E-05  0.549E-03    0.18       2.5  T
   8    -56.8595710  0.433999E-06  0.578E-03    0.18       2.3  T
   9    -56.8595715 -0.457487E-06  0.488E-03    0.18       2.8  T
  10    -56.8595728 -0.128099E-05  0.235E-03    0.18       5.7  T
  11    -56.8595732 -0.414202E-06  0.669E-04    0.18      20.2  T
  12    -56.8595732 -0.328511E-07  0.370E-04    0.18      36.4  T
     SCC iter.                  ...        0 min,  0.058 sec
     gradient                   ...        0 min,  0.007 sec
 * total energy  :   -56.0641075 Eh     change       -0.1565275E-03 Eh
   gradient norm :     0.0066531 Eh/α   predicted    -0.1508876E-03 (  -3.60%)
   displ. norm   :     0.2594821 α      lambda       -0.7410623E-03
   maximum displ.:     0.1189221 α      in ANC's #14, #16, #9, ...

........................................................................
.............................. CYCLE   26 ..............................
........................................................................

 iter      E             dE          RMSdq      gap      omega  full diag
   1    -56.8595709 -0.568596E+02  0.306E-01    0.21       0.0  T
   2    -56.8319656  0.276052E-01  0.452E-01    0.28       1.0  T
   3    -56.7944046  0.375610E-01  0.717E-01    0.17       1.0  T
   4    -56.8508148 -0.564102E-01  0.288E-01    0.20       1.0  T
   5    -56.8568813 -0.606650E-02  0.160E-01    0.22       1.0  T
   6    -56.8600283 -0.314701E-02  0.679E-02    0.22       1.0  T
   7    -56.8602229 -0.194633E-03  0.473E-02    0.23       1.0  T
   8    -56.8602137  0.918485E-05  0.477E-02    0.23       1.0  T
   9    -56.8602194 -0.571872E-05  0.409E-02    0.23       1.0  T
  10    -56.8602916 -0.721607E-04  0.218E-02    0.22       1.0  T
  11    -56.8603112 -0.196095E-04  0.100E-02    0.22       1.3  T
  12    -56.8603161 -0.487053E-05  0.530E-03    0.22       2.5  T
  13    -56.8603162 -0.692760E-07  0.446E-03    0.22       3.0  T
  14    -56.8603160  0.130956E-06  0.237E-03    0.22       5.7  T
  15    -56.8603163 -0.249859E-06  0.679E-04    0.22      19.9  T
  16    -56.8603163 -0.365333E-07  0.301E-04    0.22      44.7  T
     SCC iter.                  ...        0 min,  0.076 sec
     gradient                   ...        0 min,  0.006 sec
 * total energy  :   -56.0648334 Eh     change       -0.7259330E-03 Eh
   gradient norm :     0.0120450 Eh/α   predicted    -0.3954800E-03 ( -45.52%)
   displ. norm   :     0.9279817 α      lambda       -0.2680674E-02
   maximum displ.:     0.4374318 α      in ANC's #14, #16, #9, ...

........................................................................
.............................. CYCLE   27 ..............................
........................................................................

 iter      E             dE          RMSdq      gap      omega  full diag
   1    -56.8417569 -0.568418E+02  0.887E-01    0.37       0.0  T
   2    -56.7119475  0.129809E+00  0.103E+00    0.34       1.0  T
   3    -56.4430838  0.268864E+00  0.172E+00    0.48       1.0  T
   4    -56.8055310 -0.362447E+00  0.716E-01    0.34       1.0  T
   5    -56.8251897 -0.196587E-01  0.482E-01    0.38       1.0  T
   6    -56.8467456 -0.215559E-01  0.185E-01    0.37       1.0  T
   7    -56.8480798 -0.133422E-02  0.145E-01    0.36       1.0  T
   8    -56.8480438  0.359957E-04  0.139E-01    0.36       1.0  T
   9    -56.8478741  0.169700E-03  0.130E-01    0.35       1.0  T
  10    -56.8481348 -0.260737E-03  0.804E-02    0.36       1.0  T
  11    -56.8483192 -0.184366E-03  0.473E-02    0.36       1.0  T
  12    -56.8483724 -0.531650E-04  0.326E-02    0.36       1.0  T
  13    -56.8483794 -0.707649E-05  0.300E-02    0.36       1.0  T
  14    -56.8483850 -0.555220E-05  0.211E-02    0.36       1.0  T
  15    -56.8483883 -0.330250E-05  0.924E-03    0.36       1.5  T
  16    -56.8483910 -0.274369E-05  0.277E-03    0.36       4.9  T
  17    -56.8483914 -0.410095E-06  0.135E-03    0.36      10.0  T
  18    -56.8483915 -0.135023E-07  0.121E-03    0.36      11.1  T
  19    -56.8483915 -0.699685E-08  0.546E-04    0.36      24.7  T
  20    -56.8483915 -0.258311E-07  0.191E-04    0.36      70.6  T
     SCC iter.                  ...        0 min,  0.091 sec
     gradient                   ...        0 min,  0.007 sec
 * total energy  :   -56.0617518 Eh     change        0.3081669E-02 Eh
   gradient norm :     0.0657646 Eh/α   predicted    -0.2494558E-02 (-180.95%)
   displ. norm   :     0.4122909 α      lambda       -0.8720219E-02
   maximum displ.:     0.1849351 α      in ANC's #36, #14, #21, ...

........................................................................
.............................. CYCLE   28 ..............................
........................................................................

 iter      E             dE          RMSdq      gap      omega  full diag
   1    -56.8596361 -0.568596E+02  0.455E-01    0.32       0.0  T
   2    -56.8341501  0.254860E-01  0.494E-01    0.31       1.0  T
   3    -56.7447387  0.894114E-01  0.905E-01    0.34       1.0  T
   4    -56.8292867 -0.845480E-01  0.494E-01    0.31       1.0  T
   5    -56.8575551 -0.282684E-01  0.189E-01    0.30       1.0  T
   6    -56.8602547 -0.269964E-02  0.945E-02    0.31       1.0  T
   7    -56.8609628 -0.708117E-03  0.508E-02    0.31       1.0  T
   8    -56.8609932 -0.303433E-04  0.449E-02    0.31       1.0  T
   9    -56.8609745  0.187220E-04  0.426E-02    0.31       1.0  T
  10    -56.8609644  0.100447E-04  0.232E-02    0.31       1.0  T
  11    -56.8609945 -0.301034E-04  0.841E-03    0.31       1.6  T
  12    -56.8609974 -0.287326E-05  0.454E-03    0.31       3.0  T
  13    -56.8609985 -0.113965E-05  0.163E-03    0.31       8.3  T
  14    -56.8609985  0.263492E-07  0.124E-03    0.31      10.8  T
  15    -56.8609984  0.598169E-07  0.131E-03    0.31      10.3  T
  16    -56.8609986 -0.143658E-06  0.493E-04    0.31      27.4  T
  17    -56.8609986 -0.132712E-07  0.290E-04    0.31      46.5  T
     SCC iter.                  ...        0 min,  0.078 sec
     gradient                   ...        0 min,  0.008 sec
 * total energy  :   -56.0662116 Eh     change       -0.4459800E-02 Eh
   gradient norm :     0.0314696 Eh/α   predicted    -0.5101276E-02 (  14.38%)
   displ. norm   :     0.1726237 α      lambda       -0.1427122E-02
   maximum displ.:     0.0940018 α      in ANC's #21, #20, #23, ...

........................................................................
.............................. CYCLE   29 ..............................
........................................................................

 iter      E             dE          RMSdq      gap      omega  full diag
   1    -56.8631985 -0.568632E+02  0.175E-01    0.31       0.0  T
   2    -56.8631108  0.877674E-04  0.112E-01    0.31       1.0  T
   3    -56.8580005  0.511027E-02  0.207E-01    0.30       1.0  T
   4    -56.8620256 -0.402509E-02  0.927E-02    0.31       1.0  T
   5    -56.8629380 -0.912465E-03  0.432E-02    0.31       1.0  T
   6    -56.8632044 -0.266372E-03  0.111E-02    0.31       1.2  T
   7    -56.8632163 -0.119142E-04  0.527E-03    0.31       2.6  T
   8    -56.8632173 -0.102054E-05  0.395E-03    0.31       3.4  T
   9    -56.8632185 -0.110315E-05  0.213E-03    0.31       6.3  T
  10    -56.8632188 -0.313169E-06  0.122E-03    0.31      11.0  T
  11    -56.8632189 -0.946559E-07  0.549E-04    0.31      24.6  T
  12    -56.8632189 -0.148700E-07  0.356E-04    0.31      37.9  T
     SCC iter.                  ...        0 min,  0.055 sec
     gradient                   ...        0 min,  0.006 sec
 * total energy  :   -56.0672485 Eh     change       -0.1036948E-02 Eh
   gradient norm :     0.0250798 Eh/α   predicted    -0.7348225E-03 ( -29.14%)
   displ. norm   :     0.4752805 α      lambda       -0.3347442E-02
   maximum displ.:     0.2496436 α      in ANC's #14, #16, #13, ...

........................................................................
.............................. CYCLE   30 ..............................
........................................................................

 iter      E             dE          RMSdq      gap      omega  full diag
   1    -56.8670387 -0.568670E+02  0.375E-01    0.31       0.0  T
   2    -56.8605941  0.644459E-02  0.322E-01    0.31       1.0  T
   3    -56.7370143  0.123580E+00  0.958E-01    0.32       1.0  T
   4    -56.8596659 -0.122652E+00  0.272E-01    0.33       1.0  T
   5    -56.8655019 -0.583596E-02  0.122E-01    0.30       1.0  T
   6    -56.8669476 -0.144574E-02  0.547E-02    0.31       1.0  T
   7    -56.8672849 -0.337251E-03  0.269E-02    0.31       1.0  T
   8    -56.8672772  0.768106E-05  0.257E-02    0.31       1.0  T
   9    -56.8672897 -0.124748E-04  0.204E-02    0.31       1.0  T
  10    -56.8673001 -0.104636E-04  0.961E-03    0.31       1.4  T
  11    -56.8673055 -0.536141E-05  0.531E-03    0.31       2.5  T
  12    -56.8673061 -0.611844E-06  0.341E-03    0.31       4.0  T
  13    -56.8673061 -0.309379E-07  0.224E-03    0.31       6.0  T
  14    -56.8673061  0.213016E-07  0.161E-03    0.31       8.4  T
  15    -56.8673062 -0.636982E-07  0.667E-04    0.31      20.2  T
  16    -56.8673062 -0.181090E-07  0.253E-04    0.31      53.2  T
     SCC iter.                  ...        0 min,  0.075 sec
     gradient                   ...        0 min,  0.007 sec
 * total energy  :   -56.0701792 Eh     change       -0.2930724E-02 Eh
   gradient norm :     0.0194377 Eh/α   predicted    -0.2051801E-02 ( -29.99%)
   displ. norm   :     0.7861878 α      lambda       -0.5725366E-02
   maximum displ.:     0.4474721 α      in ANC's #14, #16, #13, ...

........................................................................
.............................. CYCLE   31 ..............................
........................................................................

 iter      E             dE          RMSdq      gap      omega  full diag
   1    -56.8680288 -0.568680E+02  0.607E-01    0.33       0.0  T
   2    -56.8538830  0.141459E-01  0.498E-01    0.29       1.0  T
   3    -56.6538172  0.200066E+00  0.127E+00    0.40       1.0  T
   4    -56.8302420 -0.176425E+00  0.551E-01    0.31       1.0  T
   5    -56.8604035 -0.301615E-01  0.261E-01    0.31       1.0  T
   6    -56.8681305 -0.772698E-02  0.971E-02    0.33       1.0  T
   7    -56.8690372 -0.906749E-03  0.520E-02    0.31       1.0  T
   8    -56.8690462 -0.898727E-05  0.467E-02    0.32       1.0  T
   9    -56.8690527 -0.651398E-05  0.430E-02    0.31       1.0  T
  10    -56.8691134 -0.606147E-04  0.214E-02    0.32       1.0  T
  11    -56.8691304 -0.170167E-04  0.111E-02    0.32       1.2  T
  12    -56.8691333 -0.293109E-05  0.636E-03    0.32       2.1  T
  13    -56.8691340 -0.672531E-06  0.493E-03    0.32       2.7  T
  14    -56.8691336  0.326167E-06  0.407E-03    0.32       3.3  T
  15    -56.8691340 -0.359097E-06  0.148E-03    0.32       9.1  T
  16    -56.8691341 -0.111803E-06  0.459E-04    0.32      29.4  T
  17    -56.8691341 -0.442955E-08  0.329E-04    0.32      41.0  T
     SCC iter.                  ...        0 min,  0.089 sec
     gradient                   ...        0 min,  0.008 sec
 * total energy  :   -56.0747790 Eh     change       -0.4599758E-02 Eh
   gradient norm :     0.0250321 Eh/α   predicted    -0.4632077E-02 (   0.70%)
   displ. norm   :     0.6392726 α      lambda       -0.6131498E-02
   maximum displ.:     0.3283937 α      in ANC's #14, #3, #16, ...

........................................................................
.............................. CYCLE   32 ..............................
........................................................................

 iter      E             dE          RMSdq      gap      omega  full diag
   1    -56.8695850 -0.568696E+02  0.573E-01    0.30       0.0  T
   2    -56.8593042  0.102808E-01  0.449E-01    0.29       1.0  T
   3    -56.7551883  0.104116E+00  0.977E-01    0.40       1.0  T
   4    -56.8272094 -0.720210E-01  0.548E-01    0.23       1.0  T
   5    -56.8655643 -0.383549E-01  0.205E-01    0.33       1.0  T
   6    -56.8703936 -0.482935E-02  0.607E-02    0.31       1.0  T
   7    -56.8707009 -0.307279E-03  0.343E-02    0.30       1.0  T
   8    -56.8707391 -0.381232E-04  0.271E-02    0.30       1.0  T
   9    -56.8707239  0.151070E-04  0.275E-02    0.30       1.0  T
  10    -56.8707423 -0.183964E-04  0.160E-02    0.30       1.0  T
  11    -56.8707604 -0.180382E-04  0.513E-03    0.30       2.6  T
  12    -56.8707615 -0.112848E-05  0.271E-03    0.30       5.0  T
  13    -56.8707618 -0.342536E-06  0.149E-03    0.30       9.0  T
  14    -56.8707619 -0.923119E-08  0.109E-03    0.30      12.4  T
  15    -56.8707618  0.187895E-07  0.822E-04    0.30      16.4  T
  16    -56.8707619 -0.655528E-07  0.232E-04    0.30      58.1  T
     SCC iter.                  ...        0 min,  0.090 sec
     gradient                   ...        0 min,  0.007 sec
 * total energy  :   -56.0794270 Eh     change       -0.4647976E-02 Eh
   gradient norm :     0.0273222 Eh/α   predicted    -0.4318630E-02 (  -7.09%)
   displ. norm   :     0.6329444 α      lambda       -0.5858351E-02
   maximum displ.:     0.2912445 α      in ANC's #14, #3, #9, ...

........................................................................
.............................. CYCLE   33 ..............................
........................................................................

 iter      E             dE          RMSdq      gap      omega  full diag
   1    -56.8693025 -0.568693E+02  0.571E-01    0.29       0.0  T
   2    -56.8645779  0.472462E-02  0.411E-01    0.33       1.0  T
   3    -56.8169123  0.476656E-01  0.704E-01    0.21       1.0  T
   4    -56.8607914 -0.438791E-01  0.299E-01    0.32       1.0  T
   5    -56.8681786 -0.738720E-02  0.118E-01    0.30       1.0  T
   6    -56.8699423 -0.176363E-02  0.481E-02    0.31       1.0  T
   7    -56.8701931 -0.250889E-03  0.194E-02    0.30       1.0  T
   8    -56.8702159 -0.227623E-04  0.107E-02    0.30       1.3  T
   9    -56.8702084  0.750164E-05  0.121E-02    0.30       1.1  T
  10    -56.8702085 -0.103270E-06  0.110E-02    0.30       1.2  T
  11    -56.8702213 -0.127726E-04  0.229E-03    0.30       5.9  T
  12    -56.8702215 -0.261146E-06  0.139E-03    0.30       9.7  T
  13    -56.8702216 -0.532224E-07  0.111E-03    0.30      12.2  T
  14    -56.8702217 -0.106252E-06  0.367E-04    0.30      36.7  T
  15    -56.8702217 -0.682613E-08  0.269E-04    0.30      50.1  T
     SCC iter.                  ...        0 min,  0.078 sec
     gradient                   ...        0 min,  0.007 sec
 * total energy  :   -56.0834728 Eh     change       -0.4045869E-02 Eh
   gradient norm :     0.0329955 Eh/α   predicted    -0.4102653E-02 (   1.40%)
   displ. norm   :     0.6330882 α      lambda       -0.6977548E-02
   maximum displ.:     0.2298807 α      in ANC's #17, #3, #14, ...

........................................................................
.............................. CYCLE   34 ..............................
........................................................................

 iter      E             dE          RMSdq      gap      omega  full diag
   1    -56.8760494 -0.568760E+02  0.606E-01    0.30       0.0  T
   2    -56.8639242  0.121251E-01  0.520E-01    0.35       1.0  T
   3    -56.8024964  0.614279E-01  0.769E-01    0.23       1.0  T
   4    -56.8261462 -0.236498E-01  0.631E-01    0.37       1.0  T
   5    -56.8742661 -0.481199E-01  0.171E-01    0.31       1.0  T
   6    -56.8773368 -0.307071E-02  0.592E-02    0.32       1.0  T
   7    -56.8776429 -0.306062E-03  0.274E-02    0.31       1.0  T
   8    -56.8776726 -0.296970E-04  0.205E-02    0.31       1.0  T
   9    -56.8776569  0.156283E-04  0.204E-02    0.31       1.0  T
  10    -56.8776667 -0.980750E-05  0.108E-02    0.31       1.2  T
  11    -56.8776751 -0.840162E-05  0.321E-03    0.31       4.2  T
  12    -56.8776755 -0.338088E-06  0.200E-03    0.31       6.7  T
  13    -56.8776757 -0.183945E-06  0.126E-03    0.31      10.7  T
  14    -56.8776758 -0.109557E-06  0.584E-04    0.31      23.1  T
  15    -56.8776758 -0.173664E-07  0.440E-04    0.31      30.7  T
     SCC iter.                  ...        0 min,  0.068 sec
     gradient                   ...        0 min,  0.007 sec
 * total energy  :   -56.0861418 Eh     change       -0.2669003E-02 Eh
   gradient norm :     0.0441959 Eh/α   predicted    -0.4887070E-02 (  83.10%)
   displ. norm   :     0.5269248 α      lambda       -0.8157626E-02
   maximum displ.:     0.2144103 α      in ANC's #14, #17, #20, ...

........................................................................
.............................. CYCLE   35 ..............................
........................................................................

 iter      E             dE          RMSdq      gap      omega  full diag
   1    -56.8769775 -0.568770E+02  0.569E-01    0.30       0.0  T
   2    -56.8625820  0.143955E-01  0.498E-01    0.35       1.0  T
   3    -56.7851873  0.773946E-01  0.853E-01    0.23       1.0  T
   4    -56.8592558 -0.740685E-01  0.390E-01    0.33       1.0  T
   5    -56.8764758 -0.172199E-01  0.122E-01    0.31       1.0  T
   6    -56.8778286 -0.135284E-02  0.568E-02    0.31       1.0  T
   7    -56.8780664 -0.237749E-03  0.303E-02    0.31       1.0  T
   8    -56.8780855 -0.191144E-04  0.240E-02    0.31       1.0  T
   9    -56.8780549  0.306004E-04  0.193E-02    0.31       1.0  T
  10    -56.8780876 -0.327249E-04  0.610E-03    0.31       2.2  T
  11    -56.8780902 -0.261798E-05  0.345E-03    0.31       3.9  T
  12    -56.8780906 -0.423321E-06  0.188E-03    0.31       7.2  T
  13    -56.8780908 -0.164831E-06  0.908E-04    0.31      14.9  T
  14    -56.8780908 -0.526501E-08  0.803E-04    0.31      16.8  T
     SCC iter.                  ...        0 min,  0.064 sec
     gradient                   ...        0 min,  0.007 sec
 * total energy  :   -56.0893666 Eh     change       -0.3224765E-02 Eh
   gradient norm :     0.0447991 Eh/α   predicted    -0.5211296E-02 (  61.60%)
   displ. norm   :     0.4841237 α      lambda       -0.8732593E-02
   maximum displ.:     0.1671520 α      in ANC's #17, #14, #52, ...

........................................................................
.............................. CYCLE   36 ..............................
........................................................................

 iter      E             dE          RMSdq      gap      omega  full diag
   1    -56.8846705 -0.568847E+02  0.512E-01    0.26       0.0  T
   2    -56.8775411  0.712943E-02  0.407E-01    0.30       1.0  T
   3    -56.8020614  0.754797E-01  0.798E-01    0.20       1.0  T
   4    -56.8719209 -0.698596E-01  0.353E-01    0.28       1.0  T
   5    -56.8841361 -0.122151E-01  0.103E-01    0.28       1.0  T
   6    -56.8851840 -0.104792E-02  0.514E-02    0.26       1.0  T
   7    -56.8853923 -0.208310E-03  0.222E-02    0.27       1.0  T
   8    -56.8853996 -0.732831E-05  0.180E-02    0.27       1.0  T
   9    -56.8853655  0.341371E-04  0.196E-02    0.27       1.0  T
  10    -56.8853962 -0.306892E-04  0.827E-03    0.27       1.6  T
  11    -56.8854028 -0.663910E-05  0.263E-03    0.27       5.1  T
  12    -56.8854031 -0.292755E-06  0.180E-03    0.27       7.5  T
  13    -56.8854032 -0.140131E-06  0.822E-04    0.27      16.4  T
  14    -56.8854033 -0.504826E-07  0.484E-04    0.27      27.9  T
     SCC iter.                  ...        0 min,  0.062 sec
     gradient                   ...        0 min,  0.006 sec
 * total energy  :   -56.0911235 Eh     change       -0.1756876E-02 Eh
   gradient norm :     0.0495375 Eh/α   predicted    -0.5389650E-02 ( 206.77%)
   displ. norm   :     0.4297502 α      lambda       -0.7855006E-02
   maximum displ.:     0.1615988 α      in ANC's #17, #14, #30, ...

........................................................................
.............................. CYCLE   37 ..............................
........................................................................

 iter      E             dE          RMSdq      gap      omega  full diag
   1    -56.8852359 -0.568852E+02  0.465E-01    0.23       0.0  T
   2    -56.8828380  0.239790E-02  0.329E-01    0.27       1.0  T
   3    -56.8123968  0.704412E-01  0.754E-01    0.13       1.0  T
   4    -56.8784057 -0.660088E-01  0.244E-01    0.25       1.0  T
   5    -56.8849337 -0.652800E-02  0.716E-02    0.25       1.0  T
   6    -56.8854179 -0.484220E-03  0.363E-02    0.24       1.0  T
   7    -56.8855282 -0.110284E-03  0.167E-02    0.24       1.0  T
   8    -56.8855381 -0.992059E-05  0.126E-02    0.24       1.1  T
   9    -56.8855148  0.232969E-04  0.155E-02    0.24       1.0  T
  10    -56.8855376 -0.228432E-04  0.534E-03    0.24       2.5  T
  11    -56.8855405 -0.285627E-05  0.175E-03    0.24       7.7  T
  12    -56.8855407 -0.160245E-06  0.126E-03    0.24      10.7  T
  13    -56.8855408 -0.966038E-07  0.621E-04    0.24      21.7  T
  14    -56.8855408 -0.256266E-07  0.339E-04    0.24      39.7  T
     SCC iter.                  ...        0 min,  0.059 sec
     gradient                   ...        0 min,  0.006 sec
 * total energy  :   -56.0950444 Eh     change       -0.3920892E-02 Eh
   gradient norm :     0.0257608 Eh/α   predicted    -0.4652858E-02 (  18.67%)
   displ. norm   :     0.4863247 α      lambda       -0.5211439E-02
   maximum displ.:     0.2323155 α      in ANC's #17, #1, #16, ...

........................................................................
.............................. CYCLE   38 ..............................
........................................................................

 iter      E             dE          RMSdq      gap      omega  full diag
   1    -56.8897714 -0.568898E+02  0.497E-01    0.22       0.0  T
   2    -56.8831704  0.660103E-02  0.407E-01    0.28       1.0  T
   3    -56.8342613  0.489091E-01  0.680E-01    0.16       1.0  T
   4    -56.8739572 -0.396959E-01  0.376E-01    0.25       1.0  T
   5    -56.8895681 -0.156108E-01  0.893E-02    0.25       1.0  T
   6    -56.8903654 -0.797334E-03  0.416E-02    0.23       1.0  T
   7    -56.8904999 -0.134460E-03  0.203E-02    0.24       1.0  T
   8    -56.8905114 -0.115070E-04  0.175E-02    0.24       1.0  T
   9    -56.8904946  0.167570E-04  0.154E-02    0.24       1.0  T
  10    -56.8905127 -0.180685E-04  0.649E-03    0.24       2.1  T
  11    -56.8905164 -0.373296E-05  0.193E-03    0.24       7.0  T
  12    -56.8905166 -0.138069E-06  0.128E-03    0.24      10.5  T
  13    -56.8905167 -0.108774E-06  0.528E-04    0.24      25.6  T
  14    -56.8905167 -0.619715E-08  0.427E-04    0.24      31.5  T
     SCC iter.                  ...        0 min,  0.061 sec
     gradient                   ...        0 min,  0.006 sec
 * total energy  :   -56.0973325 Eh     change       -0.2288136E-02 Eh
   gradient norm :     0.0269519 Eh/α   predicted    -0.3222001E-02 (  40.81%)
   displ. norm   :     0.4941682 α      lambda       -0.4062399E-02
   maximum displ.:     0.1963787 α      in ANC's #17, #14, #10, ...

........................................................................
.............................. CYCLE   39 ..............................
........................................................................

 iter      E             dE          RMSdq      gap      omega  full diag
   1    -56.8893451 -0.568893E+02  0.504E-01    0.21       0.0  T
   2    -56.8826158  0.672930E-02  0.411E-01    0.27       1.0  T
   3    -56.8380923  0.445235E-01  0.636E-01    0.12       1.0  T
   4    -56.8756089 -0.375166E-01  0.365E-01    0.28       1.0  T
   5    -56.8891177 -0.135088E-01  0.958E-02    0.24       1.0  T
   6    -56.8897993 -0.681626E-03  0.624E-02    0.22       1.0  T
   7    -56.8901830 -0.383686E-03  0.257E-02    0.23       1.0  T
   8    -56.8902087 -0.256982E-04  0.215E-02    0.23       1.0  T
   9    -56.8901892  0.194572E-04  0.196E-02    0.23       1.0  T
  10    -56.8902110 -0.218339E-04  0.775E-03    0.23       1.7  T
  11    -56.8902159 -0.488247E-05  0.244E-03    0.23       5.5  T
  12    -56.8902161 -0.202698E-06  0.162E-03    0.23       8.3  T
  13    -56.8902163 -0.158235E-06  0.598E-04    0.23      22.6  T
  14    -56.8902163 -0.412161E-08  0.542E-04    0.23      24.9  T
     SCC iter.                  ...        0 min,  0.064 sec
     gradient                   ...        0 min,  0.006 sec
 * total energy  :   -56.0999290 Eh     change       -0.2596531E-02 Eh
   gradient norm :     0.0260038 Eh/α   predicted    -0.2527219E-02 (  -2.67%)
   displ. norm   :     0.5366922 α      lambda       -0.5377312E-02
   maximum displ.:     0.1843940 α      in ANC's #10, #62, #17, ...

........................................................................
.............................. CYCLE   40 ..............................
........................................................................

 iter      E             dE          RMSdq      gap      omega  full diag
   1    -56.9003142 -0.569003E+02  0.552E-01    0.21       0.0  T
   2    -56.8885874  0.117268E-01  0.474E-01    0.29       1.0  T
   3    -56.8438443  0.447431E-01  0.686E-01    0.13       1.0  T
   4    -56.8848371 -0.409928E-01  0.391E-01    0.30       1.0  T
   5    -56.9012898 -0.164526E-01  0.793E-02    0.23       1.0  T
   6    -56.9012007  0.891200E-04  0.758E-02    0.23       1.0  T
   7    -56.9017575 -0.556846E-03  0.351E-02    0.23       1.0  T
   8    -56.9017870 -0.295325E-04  0.308E-02    0.23       1.0  T
   9    -56.9017463  0.407856E-04  0.283E-02    0.23       1.0  T
  10    -56.9017938 -0.475948E-04  0.959E-03    0.23       1.4  T
  11    -56.9017990 -0.514897E-05  0.416E-03    0.23       3.2  T
  12    -56.9017994 -0.395820E-06  0.258E-03    0.23       5.2  T
  13    -56.9017997 -0.327513E-06  0.765E-04    0.23      17.6  T
  14    -56.9017997 -0.130875E-07  0.557E-04    0.23      24.2  T
     SCC iter.                  ...        0 min,  0.064 sec
     gradient                   ...        0 min,  0.006 sec
 * total energy  :   -56.1025751 Eh     change       -0.2646091E-02 Eh
   gradient norm :     0.0282820 Eh/α   predicted    -0.3463090E-02 (  30.88%)
   displ. norm   :     0.5698855 α      lambda       -0.4172726E-02
   maximum displ.:     0.2548066 α      in ANC's #17, #3, #10, ...

........................................................................
.............................. CYCLE   41 ..............................
........................................................................

 iter      E             dE          RMSdq      gap      omega  full diag
   1    -56.8969503 -0.568970E+02  0.540E-01    0.23       0.0  T
   2    -56.8849180  0.120323E-01  0.456E-01    0.31       1.0  T
   3    -56.8257284  0.591896E-01  0.758E-01    0.16       1.0  T
   4    -56.8796700 -0.539416E-01  0.386E-01    0.32       1.0  T
   5    -56.8971431 -0.174731E-01  0.126E-01    0.25       1.0  T
   6    -56.8973907 -0.247674E-03  0.102E-01    0.26       1.0  T
   7    -56.8983339 -0.943130E-03  0.509E-02    0.26       1.0  T
   8    -56.8983962 -0.623194E-04  0.464E-02    0.26       1.0  T
   9    -56.8983971 -0.926975E-06  0.390E-02    0.26       1.0  T
  10    -56.8984938 -0.966968E-04  0.148E-02    0.25       1.0  T
  11    -56.8985021 -0.825557E-05  0.737E-03    0.25       1.8  T
  12    -56.8985031 -0.100149E-05  0.476E-03    0.25       2.8  T
  13    -56.8985038 -0.738043E-06  0.238E-03    0.25       5.7  T
  14    -56.8985039 -0.574083E-07  0.190E-03    0.25       7.1  T
  15    -56.8985040 -0.179907E-06  0.609E-04    0.25      22.1  T
  16    -56.8985041 -0.316036E-07  0.239E-04    0.25      56.5  T
     SCC iter.                  ...        0 min,  0.074 sec
     gradient                   ...        0 min,  0.006 sec
 * total energy  :   -56.1051881 Eh     change       -0.2613007E-02 Eh
   gradient norm :     0.0252253 Eh/α   predicted    -0.2763950E-02 (   5.78%)
   displ. norm   :     0.6403773 α      lambda       -0.6028172E-02
   maximum displ.:     0.2319869 α      in ANC's #17, #10, #62, ...

........................................................................
.............................. CYCLE   42 ..............................
........................................................................

 iter      E             dE          RMSdq      gap      omega  full diag
   1    -56.9028269 -0.569028E+02  0.621E-01    0.28       0.0  T
   2    -56.8880965  0.147305E-01  0.512E-01    0.35       1.0  T
   3    -56.8102459  0.778506E-01  0.868E-01    0.24       1.0  T
   4    -56.8741054 -0.638595E-01  0.471E-01    0.33       1.0  T
   5    -56.9029842 -0.288787E-01  0.134E-01    0.30       1.0  T
   6    -56.9042102 -0.122607E-02  0.735E-02    0.30       1.0  T
   7    -56.9046676 -0.457348E-03  0.412E-02    0.30       1.0  T
   8    -56.9046884 -0.208533E-04  0.373E-02    0.30       1.0  T
   9    -56.9046371  0.513754E-04  0.348E-02    0.30       1.0  T
  10    -56.9047221 -0.850932E-04  0.123E-02    0.30       1.1  T
  11    -56.9047310 -0.886432E-05  0.554E-03    0.30       2.4  T
  12    -56.9047312 -0.208288E-06  0.344E-03    0.30       3.9  T
  13    -56.9047315 -0.312999E-06  0.185E-03    0.30       7.3  T
  14    -56.9047317 -0.122828E-06  0.134E-03    0.30      10.0  T
  15    -56.9047317 -0.827638E-07  0.657E-04    0.30      20.5  T
  16    -56.9047318 -0.361813E-07  0.210E-04    0.30      64.4  T
     SCC iter.                  ...        0 min,  0.074 sec
     gradient                   ...        0 min,  0.006 sec
 * total energy  :   -56.1077598 Eh     change       -0.2571683E-02 Eh
   gradient norm :     0.0310720 Eh/α   predicted    -0.4250109E-02 (  65.27%)
   displ. norm   :     0.5780337 α      lambda       -0.5085421E-02
   maximum displ.:     0.2443821 α      in ANC's #17, #3, #10, ...
 * RMSD in coord.:     0.8573556 α      energy gain  -0.4612855E-01 Eh

generating ANC from exact Hessian ...
Using Lindh-Hessian (1995)
 Shifting diagonal of input Hessian by   1.035829756790956E-002
 Lowest  eigenvalues of input Hessian
    0.010000    0.010149    0.010168    0.000000    0.010202    0.000000
    0.000000    0.000000    0.000000    0.000000    0.010519    0.010574
    0.010652    0.011247    0.011402    0.011486    0.012159    0.012614
 Highest eigenvalues
    1.320188    1.325609    1.341869    1.365376    1.390981    1.416788
 

........................................................................
.............................. CYCLE   43 ..............................
........................................................................

 iter      E             dE          RMSdq      gap      omega  full diag
   1    -56.8874440 -0.568874E+02  0.604E-01    0.31       0.0  T
   2    -56.8710067  0.164373E-01  0.499E-01    0.35       1.0  T
   3    -56.7779171  0.930896E-01  0.913E-01    0.29       1.0  T
   4    -56.8715629 -0.936459E-01  0.372E-01    0.34       1.0  T
   5    -56.8873979 -0.158350E-01  0.127E-01    0.32       1.0  T
   6    -56.8885364 -0.113854E-02  0.729E-02    0.32       1.0  T
   7    -56.8889951 -0.458704E-03  0.359E-02    0.32       1.0  T
   8    -56.8890187 -0.235247E-04  0.323E-02    0.32       1.0  T
   9    -56.8889773  0.413433E-04  0.302E-02    0.32       1.0  T
  10    -56.8890364 -0.591010E-04  0.122E-02    0.32       1.1  T
  11    -56.8890458 -0.933583E-05  0.402E-03    0.32       3.4  T
  12    -56.8890459 -0.139253E-06  0.289E-03    0.32       4.7  T
  13    -56.8890461 -0.206025E-06  0.132E-03    0.32      10.2  T
  14    -56.8890461  0.320887E-07  0.126E-03    0.32      10.7  T
  15    -56.8890462 -0.127694E-06  0.529E-04    0.32      25.5  T
  16    -56.8890462 -0.250735E-07  0.267E-04    0.32      50.6  T
     SCC iter.                  ...        0 min,  0.074 sec
     gradient                   ...        0 min,  0.007 sec
 * total energy  :   -56.1095470 Eh     change       -0.1787210E-02 Eh
   gradient norm :     0.0354925 Eh/α   predicted     0.0000000E+00 (-100.00%)
   displ. norm   :     0.3162895 α      lambda       -0.4210460E-02
   maximum displ.:     0.1451945 α      in ANC's #8, #4, #5, ...

........................................................................
.............................. CYCLE   44 ..............................
........................................................................

 iter      E             dE          RMSdq      gap      omega  full diag
   1    -56.9007524 -0.569008E+02  0.302E-01    0.32       0.0  T
   2    -56.8996499  0.110250E-02  0.203E-01    0.33       1.0  T
   3    -56.8757865  0.238634E-01  0.452E-01    0.30       1.0  T
   4    -56.8963084 -0.205218E-01  0.188E-01    0.34       1.0  T
   5    -56.9007273 -0.441891E-02  0.427E-02    0.33       1.0  T
   6    -56.9009171 -0.189781E-03  0.127E-02    0.33       1.1  T
   7    -56.9009250 -0.797787E-05  0.874E-03    0.32       1.5  T
   8    -56.9009296 -0.458402E-05  0.600E-03    0.33       2.2  T
   9    -56.9009291  0.515125E-06  0.534E-03    0.33       2.5  T
  10    -56.9009309 -0.181168E-05  0.371E-03    0.33       3.6  T
  11    -56.9009323 -0.137541E-05  0.123E-03    0.33      11.0  T
  12    -56.9009324 -0.122136E-06  0.542E-04    0.33      24.9  T
  13    -56.9009324 -0.103512E-08  0.436E-04    0.33      30.9  T
     SCC iter.                  ...        0 min,  0.062 sec
     gradient                   ...        0 min,  0.006 sec
 * total energy  :   -56.1126313 Eh     change       -0.3084250E-02 Eh
   gradient norm :     0.0179430 Eh/α   predicted    -0.2315961E-02 ( -24.91%)
   displ. norm   :     0.5539206 α      lambda       -0.4431771E-02
   maximum displ.:     0.2339577 α      in ANC's #4, #8, #15, ...

........................................................................
.............................. CYCLE   45 ..............................
........................................................................

 iter      E             dE          RMSdq      gap      omega  full diag
   1    -56.9146240 -0.569146E+02  0.439E-01    0.33       0.0  T
   2    -56.9047778  0.984622E-02  0.370E-01    0.35       1.0  T
   3    -56.8554651  0.493127E-01  0.674E-01    0.34       1.0  T
   4    -56.9076413 -0.521762E-01  0.249E-01    0.34       1.0  T
   5    -56.9149437 -0.730237E-02  0.682E-02    0.34       1.0  T
   6    -56.9153793 -0.435667E-03  0.303E-02    0.34       1.0  T
   7    -56.9154430 -0.636140E-04  0.170E-02    0.34       1.0  T
   8    -56.9154452 -0.229388E-05  0.143E-02    0.34       1.0  T
   9    -56.9154245  0.207566E-04  0.158E-02    0.34       1.0  T
  10    -56.9154435 -0.190465E-04  0.748E-03    0.34       1.8  T
  11    -56.9154495 -0.595506E-05  0.228E-03    0.34       5.9  T
  12    -56.9154497 -0.172789E-06  0.145E-03    0.34       9.3  T
  13    -56.9154497 -0.642262E-07  0.818E-04    0.34      16.5  T
  14    -56.9154498 -0.514283E-07  0.397E-04    0.34      34.0  T
     SCC iter.                  ...        0 min,  0.075 sec
     gradient                   ...        0 min,  0.007 sec
 * total energy  :   -56.1148455 Eh     change       -0.2214254E-02 Eh
   gradient norm :     0.0227765 Eh/α   predicted    -0.2895784E-02 (  30.78%)
   displ. norm   :     0.5227785 α      lambda       -0.3441538E-02
   maximum displ.:     0.2255954 α      in ANC's #8, #4, #5, ...

........................................................................
.............................. CYCLE   46 ..............................
........................................................................

 iter      E             dE          RMSdq      gap      omega  full diag
   1    -56.9178855 -0.569179E+02  0.465E-01    0.36       0.0  T
   2    -56.9041451  0.137404E-01  0.418E-01    0.36       1.0  T
   3    -56.8632020  0.409430E-01  0.662E-01    0.38       1.0  T
   4    -56.9064433 -0.432413E-01  0.310E-01    0.35       1.0  T
   5    -56.9182515 -0.118082E-01  0.780E-02    0.36       1.0  T
   6    -56.9188722 -0.620707E-03  0.319E-02    0.36       1.0  T
   7    -56.9189452 -0.730284E-04  0.164E-02    0.36       1.0  T
   8    -56.9189475 -0.224893E-05  0.145E-02    0.36       1.0  T
   9    -56.9189367  0.107436E-04  0.147E-02    0.36       1.0  T
  10    -56.9189473 -0.106072E-04  0.762E-03    0.36       1.8  T
  11    -56.9189527 -0.537708E-05  0.227E-03    0.36       5.9  T
  12    -56.9189528 -0.138602E-06  0.147E-03    0.36       9.2  T
  13    -56.9189529 -0.951810E-07  0.860E-04    0.36      15.7  T
  14    -56.9189530 -0.533777E-07  0.390E-04    0.36      34.6  T
     SCC iter.                  ...        0 min,  0.081 sec
     gradient                   ...        0 min,  0.006 sec
 * total energy  :   -56.1173274 Eh     change       -0.2481867E-02 Eh
   gradient norm :     0.0270804 Eh/α   predicted    -0.2191054E-02 ( -11.72%)
   displ. norm   :     0.6544388 α      lambda       -0.4251878E-02
   maximum displ.:     0.3016776 α      in ANC's #8, #4, #5, ...

........................................................................
.............................. CYCLE   47 ..............................
........................................................................

 iter      E             dE          RMSdq      gap      omega  full diag
   1    -56.9114222 -0.569114E+02  0.591E-01    0.40       0.0  T
   2    -56.8858491  0.255731E-01  0.540E-01    0.38       1.0  T
   3    -56.8278182  0.580309E-01  0.813E-01    0.45       1.0  T
   4    -56.8902633 -0.624451E-01  0.424E-01    0.35       1.0  T
   5    -56.9115965 -0.213332E-01  0.122E-01    0.40       1.0  T
   6    -56.9130125 -0.141598E-02  0.617E-02    0.40       1.0  T
   7    -56.9133615 -0.349071E-03  0.309E-02    0.39       1.0  T
   8    -56.9134030 -0.414824E-04  0.234E-02    0.39       1.0  T
   9    -56.9133776  0.254501E-04  0.248E-02    0.40       1.0  T
  10    -56.9134089 -0.313771E-04  0.101E-02    0.39       1.3  T
  11    -56.9134169 -0.798977E-05  0.423E-03    0.39       3.2  T
  12    -56.9134175 -0.546697E-06  0.263E-03    0.39       5.1  T
  13    -56.9134178 -0.335464E-06  0.145E-03    0.39       9.3  T
  14    -56.9134179 -0.710230E-07  0.929E-04    0.39      14.5  T
  15    -56.9134179 -0.401069E-07  0.582E-04    0.39      23.2  T
     SCC iter.                  ...        0 min,  0.075 sec
     gradient                   ...        0 min,  0.008 sec
 * total energy  :   -56.1203503 Eh     change       -0.3022943E-02 Eh
   gradient norm :     0.0217652 Eh/α   predicted    -0.3036458E-02 (   0.45%)
   displ. norm   :     0.6633455 α      lambda       -0.4225337E-02
   maximum displ.:     0.2809014 α      in ANC's #4, #8, #5, ...

........................................................................
.............................. CYCLE   48 ..............................
........................................................................

 iter      E             dE          RMSdq      gap      omega  full diag
   1    -56.9081619 -0.569082E+02  0.491E-01    0.44       0.0  T
   2    -56.8837802  0.243816E-01  0.488E-01    0.38       1.0  T
   3    -56.8550541  0.287261E-01  0.638E-01    0.50       1.0  T
   4    -56.8944665 -0.394124E-01  0.367E-01    0.39       1.0  T
   5    -56.9087849 -0.143184E-01  0.108E-01    0.43       1.0  T
   6    -56.9099192 -0.113426E-02  0.464E-02    0.43       1.0  T
   7    -56.9100779 -0.158672E-03  0.249E-02    0.43       1.0  T
   8    -56.9101022 -0.243240E-04  0.181E-02    0.43       1.0  T
   9    -56.9100538  0.483971E-04  0.244E-02    0.43       1.0  T
  10    -56.9100975 -0.437336E-04  0.103E-02    0.43       1.3  T
  11    -56.9101080 -0.104311E-04  0.345E-03    0.43       3.9  T
  12    -56.9101083 -0.348389E-06  0.229E-03    0.43       5.9  T
  13    -56.9101086 -0.259363E-06  0.119E-03    0.43      11.4  T
  14    -56.9101086 -0.767694E-07  0.677E-04    0.43      19.9  T
  15    -56.9101087 -0.325146E-07  0.307E-04    0.43      43.9  T
     SCC iter.                  ...        0 min,  0.084 sec
     gradient                   ...        0 min,  0.008 sec
 * total energy  :   -56.1235120 Eh     change       -0.3161668E-02 Eh
   gradient norm :     0.0206014 Eh/α   predicted    -0.3042302E-02 (  -3.78%)
   displ. norm   :     0.6762839 α      lambda       -0.4108005E-02
   maximum displ.:     0.2870495 α      in ANC's #4, #9, #8, ...

........................................................................
.............................. CYCLE   49 ..............................
........................................................................

 iter      E             dE          RMSdq      gap      omega  full diag
   1    -56.9098166 -0.569098E+02  0.488E-01    0.45       0.0  T
   2    -56.8972338  0.125829E-01  0.405E-01    0.40       1.0  T
   3    -56.8441513  0.530824E-01  0.678E-01    0.54       1.0  T
   4    -56.8983170 -0.541657E-01  0.326E-01    0.40       1.0  T
   5    -56.9099243 -0.116073E-01  0.919E-02    0.45       1.0  T
   6    -56.9107844 -0.860077E-03  0.400E-02    0.44       1.0  T
   7    -56.9109061 -0.121672E-03  0.236E-02    0.44       1.0  T
   8    -56.9109313 -0.252513E-04  0.171E-02    0.44       1.0  T
   9    -56.9109102  0.210544E-04  0.198E-02    0.44       1.0  T
  10    -56.9109354 -0.251729E-04  0.765E-03    0.44       1.8  T
  11    -56.9109410 -0.559145E-05  0.288E-03    0.44       4.7  T
  12    -56.9109414 -0.366388E-06  0.186E-03    0.44       7.2  T
  13    -56.9109415 -0.152148E-06  0.105E-03    0.44      12.9  T
  14    -56.9109416 -0.391230E-07  0.763E-04    0.44      17.7  T
  15    -56.9109416 -0.184975E-07  0.571E-04    0.44      23.6  T
     SCC iter.                  ...        0 min,  0.075 sec
     gradient                   ...        0 min,  0.006 sec
 * total energy  :   -56.1264403 Eh     change       -0.2928247E-02 Eh
   gradient norm :     0.0207118 Eh/α   predicted    -0.2993421E-02 (   2.23%)
   displ. norm   :     0.6664518 α      lambda       -0.3913844E-02
   maximum displ.:     0.2934043 α      in ANC's #9, #4, #5, ...

........................................................................
.............................. CYCLE   50 ..............................
........................................................................

 iter      E             dE          RMSdq      gap      omega  full diag
   1    -56.9165684 -0.569166E+02  0.496E-01    0.46       0.0  T
   2    -56.9095005  0.706793E-02  0.370E-01    0.42       1.0  T
   3    -56.8395260  0.699745E-01  0.719E-01    0.54       1.0  T
   4    -56.9064515 -0.669255E-01  0.297E-01    0.42       1.0  T
   5    -56.9165470 -0.100956E-01  0.809E-02    0.46       1.0  T
   6    -56.9171562 -0.609203E-03  0.376E-02    0.46       1.0  T
   7    -56.9172605 -0.104265E-03  0.238E-02    0.46       1.0  T
   8    -56.9172979 -0.374210E-04  0.149E-02    0.46       1.0  T
   9    -56.9172744  0.235291E-04  0.183E-02    0.46       1.0  T
  10    -56.9172969 -0.225649E-04  0.699E-03    0.46       1.9  T
  11    -56.9173012 -0.427344E-05  0.249E-03    0.46       5.4  T
  12    -56.9173014 -0.147674E-06  0.168E-03    0.46       8.0  T
  13    -56.9173015 -0.111571E-06  0.109E-03    0.46      12.3  T
  14    -56.9173015 -0.646314E-07  0.609E-04    0.46      22.1  T
  15    -56.9173016 -0.141260E-07  0.415E-04    0.46      32.5  T
     SCC iter.                  ...        0 min,  0.070 sec
     gradient                   ...        0 min,  0.007 sec
 * total energy  :   -56.1294194 Eh     change       -0.2979115E-02 Eh
   gradient norm :     0.0217062 Eh/α   predicted    -0.2826112E-02 (  -5.14%)
   displ. norm   :     0.6671000 α      lambda       -0.3797919E-02
   maximum displ.:     0.2986943 α      in ANC's #9, #4, #5, ...

........................................................................
.............................. CYCLE   51 ..............................
........................................................................

 iter      E             dE          RMSdq      gap      omega  full diag
   1    -56.9247568 -0.569248E+02  0.491E-01    0.47       0.0  T
   2    -56.9231894  0.156740E-02  0.323E-01    0.46       1.0  T
   3    -56.8799056  0.432838E-01  0.594E-01    0.49       1.0  T
   4    -56.9195758 -0.396702E-01  0.198E-01    0.44       1.0  T
   5    -56.9246377 -0.506186E-02  0.544E-02    0.48       1.0  T
   6    -56.9250378 -0.400137E-03  0.180E-02    0.47       1.0  T
   7    -56.9250566 -0.187528E-04  0.107E-02    0.47       1.3  T
   8    -56.9250617 -0.515977E-05  0.786E-03    0.47       1.7  T
   9    -56.9250522  0.951838E-05  0.987E-03    0.47       1.4  T
  10    -56.9250603 -0.811114E-05  0.600E-03    0.47       2.2  T
  11    -56.9250657 -0.534809E-05  0.133E-03    0.47      10.1  T
  12    -56.9250658 -0.111175E-06  0.757E-04    0.47      17.8  T
  13    -56.9250658  0.119423E-07  0.696E-04    0.47      19.4  T
     SCC iter.                  ...        0 min,  0.058 sec
     gradient                   ...        0 min,  0.007 sec
 * total energy  :   -56.1324668 Eh     change       -0.3047414E-02 Eh
   gradient norm :     0.0192249 Eh/α   predicted    -0.2744046E-02 (  -9.95%)
   displ. norm   :     0.6777194 α      lambda       -0.3914129E-02
   maximum displ.:     0.3225813 α      in ANC's #9, #5, #4, ...

........................................................................
.............................. CYCLE   52 ..............................
........................................................................

 iter      E             dE          RMSdq      gap      omega  full diag
   1    -56.9360709 -0.569361E+02  0.522E-01    0.48       0.0  T
   2    -56.9340127  0.205825E-02  0.353E-01    0.48       1.0  T
   3    -56.8830862  0.509265E-01  0.641E-01    0.49       1.0  T
   4    -56.9265305 -0.434443E-01  0.265E-01    0.47       1.0  T
   5    -56.9355653 -0.903479E-02  0.808E-02    0.48       1.0  T
   6    -56.9364844 -0.919154E-03  0.216E-02    0.48       1.0  T
   7    -56.9365163 -0.318682E-04  0.122E-02    0.48       1.1  T
   8    -56.9365188 -0.249332E-05  0.989E-03    0.48       1.4  T
   9    -56.9365136  0.514142E-05  0.104E-02    0.48       1.3  T
  10    -56.9365198 -0.613835E-05  0.778E-03    0.48       1.7  T
  11    -56.9365273 -0.754273E-05  0.164E-03    0.48       8.2  T
  12    -56.9365274 -0.114178E-06  0.121E-03    0.48      11.1  T
  13    -56.9365275 -0.333394E-07  0.873E-04    0.48      15.4  T
  14    -56.9365275 -0.671061E-07  0.296E-04    0.48      45.6  T
     SCC iter.                  ...        0 min,  0.065 sec
     gradient                   ...        0 min,  0.007 sec
 * total energy  :   -56.1346725 Eh     change       -0.2205675E-02 Eh
   gradient norm :     0.0244596 Eh/α   predicted    -0.2855952E-02 (  29.48%)
   displ. norm   :     0.6925778 α      lambda       -0.4293564E-02
   maximum displ.:     0.3123369 α      in ANC's #9, #4, #5, ...

........................................................................
.............................. CYCLE   53 ..............................
........................................................................

 iter      E             dE          RMSdq      gap      omega  full diag
   1    -56.9287046 -0.569287E+02  0.553E-01    0.49       0.0  T
   2    -56.9266333  0.207132E-02  0.367E-01    0.48       1.0  T
   3    -56.8645344  0.620989E-01  0.680E-01    0.52       1.0  T
   4    -56.9212538 -0.567194E-01  0.229E-01    0.47       1.0  T
   5    -56.9284933 -0.723949E-02  0.659E-02    0.50       1.0  T
   6    -56.9290734 -0.580092E-03  0.286E-02    0.49       1.0  T
   7    -56.9291293 -0.559478E-04  0.167E-02    0.49       1.0  T
   8    -56.9291315 -0.217493E-05  0.146E-02    0.49       1.0  T
   9    -56.9291237  0.782353E-05  0.144E-02    0.49       1.0  T
  10    -56.9291423 -0.186381E-04  0.770E-03    0.49       1.8  T
  11    -56.9291508 -0.845948E-05  0.189E-03    0.49       7.1  T
  12    -56.9291510 -0.155393E-06  0.130E-03    0.49      10.3  T
  13    -56.9291510 -0.491071E-07  0.716E-04    0.49      18.8  T
  14    -56.9291510 -0.409572E-07  0.374E-04    0.49      36.1  T
     SCC iter.                  ...        0 min,  0.062 sec
     gradient                   ...        0 min,  0.008 sec
 * total energy  :   -56.1370470 Eh     change       -0.2374560E-02 Eh
   gradient norm :     0.0240840 Eh/α   predicted    -0.3176516E-02 (  33.77%)
   displ. norm   :     0.4893263 α      lambda       -0.2771354E-02
   maximum displ.:     0.2940882 α      in ANC's #9, #5, #4, ...

........................................................................
.............................. CYCLE   54 ..............................
........................................................................

 iter      E             dE          RMSdq      gap      omega  full diag
   1    -56.9337469 -0.569337E+02  0.375E-01    0.51       0.0  T
   2    -56.9326357  0.111119E-02  0.249E-01    0.51       1.0  T
   3    -56.9164787  0.161570E-01  0.397E-01    0.50       1.0  T
   4    -56.9315123 -0.150335E-01  0.139E-01    0.52       1.0  T
   5    -56.9338340 -0.232176E-02  0.397E-02    0.51       1.0  T
   6    -56.9340246 -0.190567E-03  0.180E-02    0.51       1.0  T
   7    -56.9340553 -0.306869E-04  0.108E-02    0.51       1.3  T
   8    -56.9340624 -0.712478E-05  0.608E-03    0.51       2.2  T
   9    -56.9340627 -0.256171E-06  0.510E-03    0.51       2.6  T
  10    -56.9340637 -0.104145E-05  0.423E-03    0.51       3.2  T
  11    -56.9340663 -0.258336E-05  0.127E-03    0.51      10.6  T
  12    -56.9340664 -0.128632E-06  0.716E-04    0.51      18.8  T
  13    -56.9340664 -0.122974E-07  0.469E-04    0.51      28.8  T
     SCC iter.                  ...        0 min,  0.061 sec
     gradient                   ...        0 min,  0.006 sec
 * total energy  :   -56.1386666 Eh     change       -0.1619567E-02 Eh
   gradient norm :     0.0224122 Eh/α   predicted    -0.1717466E-02 (   6.04%)
   displ. norm   :     0.5795958 α      lambda       -0.3133019E-02
   maximum displ.:     0.2834825 α      in ANC's #9, #15, #5, ...

........................................................................
.............................. CYCLE   55 ..............................
........................................................................

 iter      E             dE          RMSdq      gap      omega  full diag
   1    -56.9312184 -0.569312E+02  0.474E-01    0.52       0.0  T
   2    -56.9294357  0.178268E-02  0.315E-01    0.52       1.0  T
   3    -56.8982987  0.311370E-01  0.529E-01    0.54       1.0  T
   4    -56.9193839 -0.210852E-01  0.291E-01    0.50       1.0  T
   5    -56.9307680 -0.113841E-01  0.805E-02    0.53       1.0  T
   6    -56.9316793 -0.911238E-03  0.220E-02    0.52       1.0  T
   7    -56.9317052 -0.259202E-04  0.149E-02    0.52       1.0  T
   8    -56.9317153 -0.101269E-04  0.105E-02    0.52       1.3  T
   9    -56.9317181 -0.277030E-05  0.919E-03    0.52       1.5  T
  10    -56.9317240 -0.592238E-05  0.655E-03    0.52       2.1  T
  11    -56.9317285 -0.452828E-05  0.165E-03    0.52       8.2  T
  12    -56.9317287 -0.125375E-06  0.950E-04    0.52      14.2  T
  13    -56.9317286  0.488389E-08  0.786E-04    0.52      17.2  T
     SCC iter.                  ...        0 min,  0.059 sec
     gradient                   ...        0 min,  0.006 sec
 * total energy  :   -56.1402710 Eh     change       -0.1604371E-02 Eh
   gradient norm :     0.0195776 Eh/α   predicted    -0.2092748E-02 (  30.44%)
   displ. norm   :     0.4684764 α      lambda       -0.2695682E-02
   maximum displ.:     0.2024591 α      in ANC's #15, #9, #8, ...

........................................................................
.............................. CYCLE   56 ..............................
........................................................................

 iter      E             dE          RMSdq      gap      omega  full diag
   1    -56.9450337 -0.569450E+02  0.413E-01    0.52       0.0  T
   2    -56.9412260  0.380765E-02  0.305E-01    0.52       1.0  T
   3    -56.9186253  0.226007E-01  0.461E-01    0.54       1.0  T
   4    -56.9253333 -0.670799E-02  0.376E-01    0.52       1.0  T
   5    -56.9448486 -0.195153E-01  0.887E-02    0.53       1.0  T
   6    -56.9457410 -0.892453E-03  0.373E-02    0.52       1.0  T
   7    -56.9458841 -0.143038E-03  0.172E-02    0.52       1.0  T
   8    -56.9458995 -0.154421E-04  0.116E-02    0.52       1.2  T
   9    -56.9459023 -0.277934E-05  0.102E-02    0.52       1.3  T
  10    -56.9459041 -0.179347E-05  0.877E-03    0.52       1.5  T
  11    -56.9459120 -0.788910E-05  0.218E-03    0.52       6.2  T
  12    -56.9459123 -0.300092E-06  0.109E-03    0.52      12.4  T
  13    -56.9459123 -0.183994E-07  0.789E-04    0.52      17.1  T
  14    -56.9459124 -0.501890E-07  0.297E-04    0.52      45.3  T
     SCC iter.                  ...        0 min,  0.068 sec
     gradient                   ...        0 min,  0.006 sec
 * total energy  :   -56.1415921 Eh     change       -0.1321126E-02 Eh
   gradient norm :     0.0186223 Eh/α   predicted    -0.1643652E-02 (  24.41%)
   displ. norm   :     0.5600790 α      lambda       -0.1872721E-02
   maximum displ.:     0.3125439 α      in ANC's #9, #4, #5, ...

........................................................................
.............................. CYCLE   57 ..............................
........................................................................

 iter      E             dE          RMSdq      gap      omega  full diag
   1    -56.9350818 -0.569351E+02  0.426E-01    0.54       0.0  T
   2    -56.9343379  0.743958E-03  0.269E-01    0.54       1.0  T
   3    -56.9165429  0.177950E-01  0.412E-01    0.54       1.0  T
   4    -56.9340769 -0.175339E-01  0.955E-02    0.55       1.0  T
   5    -56.9351381 -0.106120E-02  0.343E-02    0.54       1.0  T
   6    -56.9352743 -0.136240E-03  0.182E-02    0.54       1.0  T
   7    -56.9352977 -0.234116E-04  0.132E-02    0.54       1.0  T
   8    -56.9353175 -0.197460E-04  0.524E-03    0.54       2.6  T
   9    -56.9353183 -0.880524E-06  0.387E-03    0.54       3.5  T
  10    -56.9353180  0.300590E-06  0.366E-03    0.54       3.7  T
  11    -56.9353200 -0.193747E-05  0.131E-03    0.54      10.3  T
  12    -56.9353201 -0.172830E-06  0.552E-04    0.54      24.4  T
  13    -56.9353202 -0.147984E-07  0.347E-04    0.54      38.8  T
     SCC iter.                  ...        0 min,  0.061 sec
     gradient                   ...        0 min,  0.007 sec
 * total energy  :   -56.1424205 Eh     change       -0.8283813E-03 Eh
   gradient norm :     0.0161286 Eh/α   predicted    -0.1230086E-02 (  48.49%)
   displ. norm   :     0.3189864 α      lambda       -0.1506498E-02
   maximum displ.:     0.1247838 α      in ANC's #9, #7, #5, ...

........................................................................
.............................. CYCLE   58 ..............................
........................................................................

 iter      E             dE          RMSdq      gap      omega  full diag
   1    -56.9407406 -0.569407E+02  0.268E-01    0.54       0.0  T
   2    -56.9399551  0.785459E-03  0.179E-01    0.54       1.0  T
   3    -56.9267017  0.132534E-01  0.348E-01    0.52       1.0  T
   4    -56.9358309 -0.912922E-02  0.182E-01    0.56       1.0  T
   5    -56.9406912 -0.486031E-02  0.414E-02    0.54       1.0  T
   6    -56.9408668 -0.175609E-03  0.167E-02    0.54       1.0  T
   7    -56.9408956 -0.287846E-04  0.828E-03    0.54       1.6  T
   8    -56.9408983 -0.266650E-05  0.518E-03    0.54       2.6  T
   9    -56.9408977  0.571222E-06  0.508E-03    0.54       2.7  T
  10    -56.9408988 -0.114718E-05  0.380E-03    0.54       3.6  T
  11    -56.9409010 -0.217336E-05  0.976E-04    0.54      13.8  T
  12    -56.9409011 -0.685991E-07  0.471E-04    0.54      28.6  T
  13    -56.9409011  0.204461E-08  0.415E-04    0.54      32.5  T
     SCC iter.                  ...        0 min,  0.066 sec
     gradient                   ...        0 min,  0.007 sec
 * total energy  :   -56.1428524 Eh     change       -0.4319333E-03 Eh
   gradient norm :     0.0171294 Eh/α   predicted    -0.8298965E-03 (  92.14%)
   displ. norm   :     0.2740369 α      lambda       -0.1281359E-02
   maximum displ.:     0.0997353 α      in ANC's #9, #5, #4, ...

........................................................................
.............................. CYCLE   59 ..............................
........................................................................

 iter      E             dE          RMSdq      gap      omega  full diag
   1    -56.9410322 -0.569410E+02  0.218E-01    0.55       0.0  T
   2    -56.9401236  0.908614E-03  0.152E-01    0.54       1.0  T
   3    -56.9249355  0.151881E-01  0.335E-01    0.57       1.0  T
   4    -56.9384918 -0.135564E-01  0.140E-01    0.54       1.0  T
   5    -56.9409974 -0.250559E-02  0.349E-02    0.55       1.0  T
   6    -56.9411445 -0.147085E-03  0.107E-02    0.55       1.3  T
   7    -56.9411466 -0.204376E-05  0.900E-03    0.55       1.5  T
   8    -56.9411533 -0.675028E-05  0.507E-03    0.55       2.7  T
   9    -56.9411536 -0.263163E-06  0.454E-03    0.55       3.0  T
  10    -56.9411554 -0.181642E-05  0.289E-03    0.55       4.7  T
  11    -56.9411563 -0.915968E-06  0.845E-04    0.55      16.0  T
  12    -56.9411563 -0.463741E-07  0.458E-04    0.55      29.5  T
     SCC iter.                  ...        0 min,  0.061 sec
     gradient                   ...        0 min,  0.007 sec
 * total energy  :   -56.1434709 Eh     change       -0.6185469E-03 Eh
   gradient norm :     0.0134632 Eh/α   predicted    -0.6887887E-03 (  11.36%)
   displ. norm   :     0.2507475 α      lambda       -0.8493902E-03
   maximum displ.:     0.1001379 α      in ANC's #7, #8, #9, ...

........................................................................
.............................. CYCLE   60 ..............................
........................................................................

 iter      E             dE          RMSdq      gap      omega  full diag
   1    -56.9475056 -0.569475E+02  0.194E-01    0.55       0.0  T
   2    -56.9469339  0.571690E-03  0.137E-01    0.55       1.0  T
   3    -56.9375752  0.935875E-02  0.265E-01    0.54       1.0  T
   4    -56.9460192 -0.844404E-02  0.105E-01    0.55       1.0  T
   5    -56.9475016 -0.148232E-02  0.267E-02    0.55       1.0  T
   6    -56.9475826 -0.810418E-04  0.997E-03    0.55       1.4  T
   7    -56.9475871 -0.451411E-05  0.740E-03    0.55       1.8  T
   8    -56.9475918 -0.467831E-05  0.454E-03    0.55       3.0  T
   9    -56.9475937 -0.195586E-05  0.276E-03    0.55       4.9  T
  10    -56.9475940 -0.288398E-06  0.215E-03    0.55       6.3  T
  11    -56.9475945 -0.505351E-06  0.618E-04    0.55      21.8  T
  12    -56.9475946 -0.234500E-07  0.331E-04    0.55      40.7  T
     SCC iter.                  ...        0 min,  0.062 sec
     gradient                   ...        0 min,  0.007 sec
 * total energy  :   -56.1437341 Eh     change       -0.2631952E-03 Eh
   gradient norm :     0.0146666 Eh/α   predicted    -0.4513984E-03 (  71.51%)
   displ. norm   :     0.3076799 α      lambda       -0.7420610E-03
   maximum displ.:     0.1305163 α      in ANC's #7, #5, #4, ...

........................................................................
.............................. CYCLE   61 ..............................
........................................................................

 iter      E             dE          RMSdq      gap      omega  full diag
   1    -56.9440874 -0.569441E+02  0.193E-01    0.55       0.0  T
   2    -56.9438911  0.196322E-03  0.125E-01    0.55       1.0  T
   3    -56.9381429  0.574820E-02  0.229E-01    0.55       1.0  T
   4    -56.9435210 -0.537811E-02  0.734E-02    0.56       1.0  T
   5    -56.9440598 -0.538755E-03  0.221E-02    0.55       1.0  T
   6    -56.9441228 -0.630168E-04  0.938E-03    0.55       1.4  T
   7    -56.9441306 -0.784028E-05  0.643E-03    0.55       2.1  T
   8    -56.9441329 -0.224835E-05  0.405E-03    0.55       3.3  T
   9    -56.9441347 -0.178948E-05  0.205E-03    0.55       6.6  T
  10    -56.9441351 -0.414860E-06  0.123E-03    0.55      10.9  T
  11    -56.9441352 -0.155447E-06  0.565E-04    0.55      23.9  T
  12    -56.9441352 -0.223962E-07  0.275E-04    0.55      49.1  T
     SCC iter.                  ...        0 min,  0.071 sec
     gradient                   ...        0 min,  0.008 sec
 * total energy  :   -56.1441576 Eh     change       -0.4234517E-03 Eh
   gradient norm :     0.0093961 Eh/α   predicted    -0.4061579E-03 (  -4.08%)
   displ. norm   :     0.2924753 α      lambda       -0.6856988E-03
   maximum displ.:     0.1209323 α      in ANC's #7, #5, #8, ...

........................................................................
.............................. CYCLE   62 ..............................
........................................................................

 iter      E             dE          RMSdq      gap      omega  full diag
   1    -56.9451278 -0.569451E+02  0.201E-01    0.55       0.0  T
   2    -56.9446805  0.447275E-03  0.139E-01    0.56       1.0  T
   3    -56.9348996  0.978088E-02  0.285E-01    0.54       1.0  T
   4    -56.9427600 -0.786042E-02  0.125E-01    0.57       1.0  T
   5    -56.9450787 -0.231870E-02  0.305E-02    0.55       1.0  T
   6    -56.9451898 -0.111055E-03  0.914E-03    0.55       1.5  T
   7    -56.9451975 -0.771628E-05  0.489E-03    0.55       2.8  T
   8    -56.9451990 -0.149781E-05  0.263E-03    0.55       5.1  T
   9    -56.9451982  0.782766E-06  0.292E-03    0.55       4.6  T
  10    -56.9451990 -0.770019E-06  0.214E-03    0.55       6.3  T
  11    -56.9451996 -0.577948E-06  0.704E-04    0.55      19.2  T
  12    -56.9451996 -0.438036E-07  0.332E-04    0.55      40.6  T
     SCC iter.                  ...        0 min,  0.065 sec
     gradient                   ...        0 min,  0.010 sec
 * total energy  :   -56.1444308 Eh     change       -0.2731762E-03 Eh
   gradient norm :     0.0128435 Eh/α   predicted    -0.3721806E-03 (  36.24%)
   displ. norm   :     0.3648829 α      lambda       -0.6218001E-03
   maximum displ.:     0.1676357 α      in ANC's #7, #5, #4, ...

........................................................................
.............................. CYCLE   63 ..............................
........................................................................

 iter      E             dE          RMSdq      gap      omega  full diag
   1    -56.9435201 -0.569435E+02  0.229E-01    0.55       0.0  T
   2    -56.9430508  0.469338E-03  0.154E-01    0.55       1.0  T
   3    -56.9346261  0.842463E-02  0.272E-01    0.56       1.0  T
   4    -56.9410786 -0.645249E-02  0.138E-01    0.55       1.0  T
   5    -56.9434836 -0.240500E-02  0.312E-02    0.56       1.0  T
   6    -56.9436028 -0.119197E-03  0.117E-02    0.55       1.2  T
   7    -56.9436169 -0.140946E-04  0.672E-03    0.55       2.0  T
   8    -56.9436199 -0.296080E-05  0.425E-03    0.55       3.2  T
   9    -56.9436216 -0.173560E-05  0.241E-03    0.55       5.6  T
  10    -56.9436217 -0.692419E-07  0.225E-03    0.55       6.0  T
  11    -56.9436223 -0.579613E-06  0.791E-04    0.55      17.0  T
  12    -56.9436223 -0.480227E-07  0.374E-04    0.55      36.0  T
     SCC iter.                  ...        0 min,  0.061 sec
     gradient                   ...        0 min,  0.007 sec
 * total energy  :   -56.1447999 Eh     change       -0.3691498E-03 Eh
   gradient norm :     0.0101646 Eh/α   predicted    -0.3522948E-03 (  -4.57%)
   displ. norm   :     0.3868933 α      lambda       -0.8284827E-03
   maximum displ.:     0.1902276 α      in ANC's #7, #8, #5, ...

........................................................................
.............................. CYCLE   64 ..............................
........................................................................

 iter      E             dE          RMSdq      gap      omega  full diag
   1    -56.9502860 -0.569503E+02  0.240E-01    0.55       0.0  T
   2    -56.9497076  0.578443E-03  0.168E-01    0.56       1.0  T
   3    -56.9363469  0.133607E-01  0.329E-01    0.52       1.0  T
   4    -56.9484716 -0.121247E-01  0.113E-01    0.56       1.0  T
   5    -56.9502276 -0.175608E-02  0.322E-02    0.55       1.0  T
   6    -56.9503633 -0.135655E-03  0.114E-02    0.55       1.2  T
   7    -56.9503695 -0.618964E-05  0.884E-03    0.55       1.5  T
   8    -56.9503761 -0.666387E-05  0.462E-03    0.55       2.9  T
   9    -56.9503766 -0.464253E-06  0.392E-03    0.55       3.4  T
  10    -56.9503779 -0.130181E-05  0.259E-03    0.55       5.2  T
  11    -56.9503785 -0.627117E-06  0.881E-04    0.55      15.3  T
  12    -56.9503786 -0.515417E-07  0.569E-04    0.55      23.7  T
     SCC iter.                  ...        0 min,  0.056 sec
     gradient                   ...        0 min,  0.007 sec
 * total energy  :   -56.1450508 Eh     change       -0.2509273E-03 Eh
   gradient norm :     0.0163624 Eh/α   predicted    -0.4762493E-03 (  89.80%)
   displ. norm   :     0.3363374 α      lambda       -0.8331161E-03
   maximum displ.:     0.1521513 α      in ANC's #7, #4, #5, ...

........................................................................
.............................. CYCLE   65 ..............................
........................................................................

 iter      E             dE          RMSdq      gap      omega  full diag
   1    -56.9466411 -0.569466E+02  0.202E-01    0.55       0.0  T
   2    -56.9463925  0.248607E-03  0.132E-01    0.55       1.0  T
   3    -56.9404145  0.597797E-02  0.228E-01    0.54       1.0  T
   4    -56.9449498 -0.453523E-02  0.110E-01    0.56       1.0  T
   5    -56.9466231 -0.167334E-02  0.231E-02    0.55       1.0  T
   6    -56.9466896 -0.665058E-04  0.117E-02    0.55       1.1  T
   7    -56.9466989 -0.923861E-05  0.773E-03    0.55       1.7  T
   8    -56.9467021 -0.327826E-05  0.498E-03    0.55       2.7  T
   9    -56.9467051 -0.296387E-05  0.231E-03    0.55       5.8  T
  10    -56.9467055 -0.351690E-06  0.188E-03    0.55       7.2  T
  11    -56.9467058 -0.326110E-06  0.606E-04    0.55      22.3  T
  12    -56.9467058 -0.314621E-07  0.336E-04    0.55      40.2  T
     SCC iter.                  ...        0 min,  0.055 sec
     gradient                   ...        0 min,  0.007 sec
 * total energy  :   -56.1454433 Eh     change       -0.3924754E-03 Eh
   gradient norm :     0.0127062 Eh/α   predicted    -0.4636828E-03 (  18.14%)
   displ. norm   :     0.3013226 α      lambda       -0.6641354E-03
   maximum displ.:     0.1217438 α      in ANC's #7, #5, #4, ...

........................................................................
.............................. CYCLE   66 ..............................
........................................................................

 iter      E             dE          RMSdq      gap      omega  full diag
   1    -56.9461537 -0.569462E+02  0.197E-01    0.55       0.0  T
   2    -56.9452914  0.862275E-03  0.143E-01    0.55       1.0  T
   3    -56.9340996  0.111918E-01  0.291E-01    0.54       1.0  T
   4    -56.9442025 -0.101029E-01  0.114E-01    0.55       1.0  T
   5    -56.9461342 -0.193165E-02  0.308E-02    0.55       1.0  T
   6    -56.9462311 -0.968856E-04  0.121E-02    0.55       1.1  T
   7    -56.9462473 -0.162792E-04  0.775E-03    0.55       1.7  T
   8    -56.9462522 -0.485191E-05  0.433E-03    0.55       3.1  T
   9    -56.9462509  0.131270E-05  0.481E-03    0.55       2.8  T
  10    -56.9462521 -0.127166E-05  0.223E-03    0.55       6.0  T
  11    -56.9462526 -0.505702E-06  0.598E-04    0.55      22.6  T
  12    -56.9462527 -0.102854E-07  0.442E-04    0.55      30.5  T
     SCC iter.                  ...        0 min,  0.054 sec
     gradient                   ...        0 min,  0.006 sec
 * total energy  :   -56.1457513 Eh     change       -0.3079944E-03 Eh
   gradient norm :     0.0105368 Eh/α   predicted    -0.3622184E-03 (  17.61%)
   displ. norm   :     0.3845817 α      lambda       -0.6021098E-03
   maximum displ.:     0.1717496 α      in ANC's #7, #5, #4, ...
 * RMSD in coord.:     1.2698922 α      energy gain  -0.3799150E-01 Eh

generating ANC from exact Hessian ...
Using Lindh-Hessian (1995)
 Shifting diagonal of input Hessian by   1.035785351088220E-002
 Lowest  eigenvalues of input Hessian
    0.010000    0.010126    0.000000    0.000000    0.010240    0.000000
    0.000000    0.000000    0.000000    0.010625    0.010730    0.010851
    0.011481    0.011666    0.012027    0.012581    0.012710    0.013460
 Highest eigenvalues
    1.305908    1.323854    1.345459    1.361464    1.390552    1.407376
 

........................................................................
.............................. CYCLE   67 ..............................
........................................................................

 iter      E             dE          RMSdq      gap      omega  full diag
   1    -56.9442144 -0.569442E+02  0.239E-01    0.55       0.0  T
   2    -56.9437973  0.417139E-03  0.158E-01    0.55       1.0  T
   3    -56.9341949  0.960237E-02  0.279E-01    0.54       1.0  T
   4    -56.9417744 -0.757955E-02  0.130E-01    0.56       1.0  T
   5    -56.9442212 -0.244676E-02  0.251E-02    0.55       1.0  T
   6    -56.9443014 -0.801838E-04  0.884E-03    0.55       1.5  T
   7    -56.9443068 -0.542251E-05  0.548E-03    0.55       2.5  T
   8    -56.9443070 -0.180306E-06  0.439E-03    0.55       3.1  T
   9    -56.9443078 -0.783936E-06  0.355E-03    0.55       3.8  T
  10    -56.9443085 -0.700280E-06  0.295E-03    0.55       4.6  T
  11    -56.9443095 -0.101971E-05  0.713E-04    0.55      18.9  T
  12    -56.9443095 -0.327285E-07  0.313E-04    0.55      43.1  T
  13    -56.9443095  0.396522E-08  0.311E-04    0.55      43.3  T
     SCC iter.                  ...        0 min,  0.058 sec
     gradient                   ...        0 min,  0.006 sec
 * total energy  :   -56.1460472 Eh     change       -0.2958658E-03 Eh
   gradient norm :     0.0106472 Eh/α   predicted     0.0000000E+00 (-100.00%)
   displ. norm   :     0.1445796 α      lambda       -0.5496900E-03
   maximum displ.:     0.0683457 α      in ANC's #3, #13, #17, ...

........................................................................
.............................. CYCLE   68 ..............................
........................................................................

 iter      E             dE          RMSdq      gap      omega  full diag
   1    -56.9473509 -0.569474E+02  0.148E-01    0.55       0.0  T
   2    -56.9472493  0.101540E-03  0.945E-02    0.55       1.0  T
   3    -56.9407055  0.654377E-02  0.209E-01    0.53       1.0  T
   4    -56.9469527 -0.624714E-02  0.534E-02    0.55       1.0  T
   5    -56.9473470 -0.394359E-03  0.124E-02    0.55       1.1  T
   6    -56.9473630 -0.159991E-04  0.545E-03    0.55       2.5  T
   7    -56.9473641 -0.102889E-05  0.459E-03    0.55       2.9  T
   8    -56.9473665 -0.244726E-05  0.249E-03    0.55       5.4  T
   9    -56.9473670 -0.432943E-06  0.137E-03    0.55       9.8  T
  10    -56.9473670 -0.520477E-07  0.104E-03    0.55      12.9  T
  11    -56.9473671 -0.110627E-06  0.360E-04    0.55      37.4  T
  12    -56.9473671 -0.102542E-07  0.208E-04    0.55      64.8  T
     SCC iter.                  ...        0 min,  0.052 sec
     gradient                   ...        0 min,  0.006 sec
 * total energy  :   -56.1463180 Eh     change       -0.2708369E-03 Eh
   gradient norm :     0.0061051 Eh/α   predicted    -0.2805907E-03 (   3.60%)
   displ. norm   :     0.2581090 α      lambda       -0.7347910E-03
   maximum displ.:     0.1324744 α      in ANC's #3, #1, #4, ...

........................................................................
.............................. CYCLE   69 ..............................
........................................................................

 iter      E             dE          RMSdq      gap      omega  full diag
   1    -56.9525396 -0.569525E+02  0.219E-01    0.54       0.0  T
   2    -56.9522714  0.268170E-03  0.147E-01    0.55       1.0  T
   3    -56.9426087  0.966277E-02  0.291E-01    0.51       1.0  T
   4    -56.9514817 -0.887308E-02  0.862E-02    0.55       1.0  T
   5    -56.9524572 -0.975481E-03  0.310E-02    0.54       1.0  T
   6    -56.9525836 -0.126328E-03  0.711E-03    0.54       1.9  T
   7    -56.9525853 -0.171132E-05  0.537E-03    0.54       2.5  T
   8    -56.9525860 -0.748390E-06  0.391E-03    0.54       3.4  T
   9    -56.9525869 -0.918792E-06  0.301E-03    0.54       4.5  T
  10    -56.9525878 -0.879593E-06  0.199E-03    0.54       6.8  T
  11    -56.9525882 -0.351893E-06  0.724E-04    0.54      18.6  T
  12    -56.9525882 -0.334892E-07  0.412E-04    0.54      32.7  T
     SCC iter.                  ...        0 min,  0.057 sec
     gradient                   ...        0 min,  0.006 sec
 * total energy  :   -56.1465618 Eh     change       -0.2437599E-03 Eh
   gradient norm :     0.0088144 Eh/α   predicted    -0.3918728E-03 (  60.76%)
   displ. norm   :     0.1638696 α      lambda       -0.4589655E-03
   maximum displ.:     0.0961155 α      in ANC's #3, #6, #4, ...

........................................................................
.............................. CYCLE   70 ..............................
........................................................................

 iter      E             dE          RMSdq      gap      omega  full diag
   1    -56.9531674 -0.569532E+02  0.141E-01    0.54       0.0  T
   2    -56.9530315  0.135912E-03  0.890E-02    0.54       1.0  T
   3    -56.9478136  0.521791E-02  0.190E-01    0.55       1.0  T
   4    -56.9525658 -0.475218E-02  0.661E-02    0.54       1.0  T
   5    -56.9531705 -0.604671E-03  0.131E-02    0.54       1.0  T
   6    -56.9531874 -0.169313E-04  0.505E-03    0.54       2.7  T
   7    -56.9531887 -0.129755E-05  0.363E-03    0.54       3.7  T
   8    -56.9531895 -0.784688E-06  0.285E-03    0.54       4.7  T
   9    -56.9531902 -0.665073E-06  0.163E-03    0.54       8.3  T
  10    -56.9531903 -0.114410E-06  0.983E-04    0.54      13.7  T
  11    -56.9531904 -0.110943E-06  0.298E-04    0.54      45.2  T
     SCC iter.                  ...        0 min,  0.054 sec
     gradient                   ...        0 min,  0.006 sec
 * total energy  :   -56.1468589 Eh     change       -0.2971298E-03 Eh
   gradient norm :     0.0075858 Eh/α   predicted    -0.2356455E-03 ( -20.69%)
   displ. norm   :     0.2965523 α      lambda       -0.5714956E-03
   maximum displ.:     0.1803552 α      in ANC's #3, #6, #4, ...

........................................................................
.............................. CYCLE   71 ..............................
........................................................................

 iter      E             dE          RMSdq      gap      omega  full diag
   1    -56.9515814 -0.569516E+02  0.216E-01    0.53       0.0  T
   2    -56.9514996  0.817997E-04  0.137E-01    0.53       1.0  T
   3    -56.9481969  0.330275E-02  0.174E-01    0.53       1.0  T
   4    -56.9510517 -0.285483E-02  0.668E-02    0.53       1.0  T
   5    -56.9515920 -0.540339E-03  0.137E-02    0.53       1.0  T
   6    -56.9516125 -0.204798E-04  0.598E-03    0.53       2.3  T
   7    -56.9516144 -0.189937E-05  0.470E-03    0.53       2.9  T
   8    -56.9516165 -0.208459E-05  0.199E-03    0.53       6.8  T
   9    -56.9516166 -0.696436E-07  0.154E-03    0.53       8.7  T
  10    -56.9516165  0.703799E-07  0.158E-03    0.53       8.5  T
  11    -56.9516168 -0.352087E-06  0.452E-04    0.53      29.8  T
  12    -56.9516169 -0.218064E-07  0.218E-04    0.53      61.8  T
     SCC iter.                  ...        0 min,  0.110 sec
     gradient                   ...        0 min,  0.008 sec
 * total energy  :   -56.1472263 Eh     change       -0.3673462E-03 Eh
   gradient norm :     0.0058907 Eh/α   predicted    -0.3108780E-03 ( -15.37%)
   displ. norm   :     0.4524286 α      lambda       -0.6900135E-03
   maximum displ.:     0.2789274 α      in ANC's #3, #6, #4, ...

........................................................................
.............................. CYCLE   72 ..............................
........................................................................

 iter      E             dE          RMSdq      gap      omega  full diag
   1    -56.9491484 -0.569491E+02  0.259E-01    0.52       0.0  T
   2    -56.9488492  0.299275E-03  0.170E-01    0.52       1.0  T
   3    -56.9380792  0.107699E-01  0.286E-01    0.49       1.0  T
   4    -56.9464842 -0.840498E-02  0.137E-01    0.53       1.0  T
   5    -56.9491090 -0.262481E-02  0.297E-02    0.52       1.0  T
   6    -56.9492305 -0.121500E-03  0.882E-03    0.52       1.5  T
   7    -56.9492356 -0.506718E-05  0.474E-03    0.52       2.8  T
   8    -56.9492356 -0.589880E-07  0.353E-03    0.52       3.8  T
   9    -56.9492348  0.807297E-06  0.381E-03    0.52       3.5  T
  10    -56.9492362 -0.139413E-05  0.230E-03    0.52       5.9  T
  11    -56.9492369 -0.688975E-06  0.637E-04    0.52      21.2  T
  12    -56.9492369 -0.289793E-07  0.297E-04    0.52      45.3  T
     SCC iter.                  ...        0 min,  0.098 sec
     gradient                   ...        0 min,  0.008 sec
 * total energy  :   -56.1477644 Eh     change       -0.5381489E-03 Eh
   gradient norm :     0.0069221 Eh/α   predicted    -0.4156272E-03 ( -22.77%)
   displ. norm   :     0.6069600 α      lambda       -0.8312280E-03
   maximum displ.:     0.3794586 α      in ANC's #3, #6, #4, ...

........................................................................
.............................. CYCLE   73 ..............................
........................................................................

 iter      E             dE          RMSdq      gap      omega  full diag
   1    -56.9468487 -0.569468E+02  0.339E-01    0.50       0.0  T
   2    -56.9461054  0.743280E-03  0.228E-01    0.51       1.0  T
   3    -56.9240555  0.220500E-01  0.410E-01    0.46       1.0  T
   4    -56.9420005 -0.179450E-01  0.187E-01    0.52       1.0  T
   5    -56.9467263 -0.472583E-02  0.474E-02    0.50       1.0  T
   6    -56.9470258 -0.299542E-03  0.109E-02    0.50       1.2  T
   7    -56.9470331 -0.730150E-05  0.611E-03    0.50       2.2  T
   8    -56.9470344 -0.124615E-05  0.416E-03    0.50       3.2  T
   9    -56.9470318  0.257678E-05  0.523E-03    0.50       2.6  T
  10    -56.9470338 -0.202026E-05  0.341E-03    0.50       4.0  T
  11    -56.9470353 -0.150613E-05  0.901E-04    0.50      15.0  T
  12    -56.9470354 -0.716050E-07  0.425E-04    0.50      31.7  T
  13    -56.9470354 -0.951225E-09  0.295E-04    0.50      45.8  T
     SCC iter.                  ...        0 min,  0.074 sec
     gradient                   ...        0 min,  0.008 sec
 * total energy  :   -56.1484655 Eh     change       -0.7010900E-03 Eh
   gradient norm :     0.0089179 Eh/α   predicted    -0.5687293E-03 ( -18.88%)
   displ. norm   :     0.6227753 α      lambda       -0.9092286E-03
   maximum displ.:     0.4023321 α      in ANC's #3, #6, #4, ...

........................................................................
.............................. CYCLE   74 ..............................
........................................................................

 iter      E             dE          RMSdq      gap      omega  full diag
   1    -56.9469423 -0.569469E+02  0.328E-01    0.49       0.0  T
   2    -56.9461523  0.789992E-03  0.222E-01    0.49       1.0  T
   3    -56.9313083  0.148440E-01  0.356E-01    0.46       1.0  T
   4    -56.9418313 -0.105229E-01  0.197E-01    0.51       1.0  T
   5    -56.9468466 -0.501537E-02  0.484E-02    0.48       1.0  T
   6    -56.9471743 -0.327681E-03  0.119E-02    0.49       1.1  T
   7    -56.9471837 -0.940028E-05  0.689E-03    0.49       2.0  T
   8    -56.9471857 -0.203098E-05  0.423E-03    0.49       3.2  T
   9    -56.9471847  0.107441E-05  0.442E-03    0.49       3.0  T
  10    -56.9471853 -0.646235E-06  0.355E-03    0.49       3.8  T
  11    -56.9471870 -0.167661E-05  0.101E-03    0.49      13.4  T
  12    -56.9471871 -0.872783E-07  0.516E-04    0.49      26.1  T
  13    -56.9471871  0.627921E-09  0.428E-04    0.49      31.5  T
     SCC iter.                  ...        0 min,  0.077 sec
     gradient                   ...        0 min,  0.007 sec
 * total energy  :   -56.1491668 Eh     change       -0.7012819E-03 Eh
   gradient norm :     0.0092853 Eh/α   predicted    -0.6309391E-03 ( -10.03%)
   displ. norm   :     0.5287484 α      lambda       -0.7748862E-03
   maximum displ.:     0.3526019 α      in ANC's #3, #6, #4, ...

........................................................................
.............................. CYCLE   75 ..............................
........................................................................

 iter      E             dE          RMSdq      gap      omega  full diag
   1    -56.9501984 -0.569502E+02  0.289E-01    0.48       0.0  T
   2    -56.9496377  0.560676E-03  0.191E-01    0.48       1.0  T
   3    -56.9395769  0.100607E-01  0.305E-01    0.46       1.0  T
   4    -56.9473453 -0.776832E-02  0.151E-01    0.49       1.0  T
   5    -56.9501447 -0.279941E-02  0.390E-02    0.48       1.0  T
   6    -56.9503656 -0.220950E-03  0.102E-02    0.48       1.3  T
   7    -56.9503732 -0.754349E-05  0.599E-03    0.48       2.3  T
   8    -56.9503748 -0.159747E-05  0.394E-03    0.48       3.4  T
   9    -56.9503751 -0.295962E-06  0.304E-03    0.48       4.4  T
  10    -56.9503752 -0.112159E-06  0.285E-03    0.48       4.7  T
  11    -56.9503762 -0.103232E-05  0.888E-04    0.48      15.2  T
  12    -56.9503763 -0.638041E-07  0.466E-04    0.48      28.9  T
  13    -56.9503763  0.814097E-09  0.422E-04    0.48      32.0  T
     SCC iter.                  ...        0 min,  0.078 sec
     gradient                   ...        0 min,  0.007 sec
 * total energy  :   -56.1497370 Eh     change       -0.5702235E-03 Eh
   gradient norm :     0.0084827 Eh/α   predicted    -0.4957655E-03 ( -13.06%)
   displ. norm   :     0.5053717 α      lambda       -0.7628769E-03
   maximum displ.:     0.3346084 α      in ANC's #3, #6, #4, ...

........................................................................
.............................. CYCLE   76 ..............................
........................................................................

 iter      E             dE          RMSdq      gap      omega  full diag
   1    -56.9549309 -0.569549E+02  0.282E-01    0.47       0.0  T
   2    -56.9545189  0.411964E-03  0.183E-01    0.47       1.0  T
   3    -56.9469064  0.761251E-02  0.270E-01    0.46       1.0  T
   4    -56.9536712 -0.676483E-02  0.109E-01    0.47       1.0  T
   5    -56.9549641 -0.129285E-02  0.291E-02    0.47       1.0  T
   6    -56.9550760 -0.111896E-03  0.786E-03    0.47       1.7  T
   7    -56.9550791 -0.310435E-05  0.562E-03    0.47       2.4  T
   8    -56.9550810 -0.189592E-05  0.360E-03    0.47       3.7  T
   9    -56.9550814 -0.445237E-06  0.264E-03    0.47       5.1  T
  10    -56.9550812  0.242169E-06  0.273E-03    0.47       4.9  T
  11    -56.9550822 -0.104923E-05  0.672E-04    0.47      20.1  T
  12    -56.9550823 -0.247915E-07  0.407E-04    0.47      33.2  T
  13    -56.9550823 -0.336577E-09  0.343E-04    0.47      39.3  T
     SCC iter.                  ...        0 min,  0.075 sec
     gradient                   ...        0 min,  0.006 sec
 * total energy  :   -56.1503188 Eh     change       -0.5818391E-03 Eh
   gradient norm :     0.0072753 Eh/α   predicted    -0.4788580E-03 ( -17.70%)
   displ. norm   :     0.4839985 α      lambda       -0.6890209E-03
   maximum displ.:     0.3156927 α      in ANC's #3, #6, #4, ...

........................................................................
.............................. CYCLE   77 ..............................
........................................................................

 iter      E             dE          RMSdq      gap      omega  full diag
   1    -56.9584038 -0.569584E+02  0.281E-01    0.46       0.0  T
   2    -56.9580290  0.374853E-03  0.184E-01    0.46       1.0  T
   3    -56.9487398  0.928917E-02  0.285E-01    0.46       1.0  T
   4    -56.9571200 -0.838013E-02  0.104E-01    0.46       1.0  T
   5    -56.9583733 -0.125332E-02  0.328E-02    0.47       1.0  T
   6    -56.9585214 -0.148100E-03  0.702E-03    0.46       1.9  T
   7    -56.9585217 -0.318555E-06  0.651E-03    0.46       2.1  T
   8    -56.9585259 -0.416646E-05  0.318E-03    0.46       4.2  T
   9    -56.9585262 -0.364204E-06  0.246E-03    0.46       5.5  T
  10    -56.9585264 -0.125963E-06  0.212E-03    0.46       6.4  T
  11    -56.9585269 -0.554068E-06  0.546E-04    0.46      24.7  T
  12    -56.9585269 -0.192471E-07  0.328E-04    0.46      41.1  T
     SCC iter.                  ...        0 min,  0.066 sec
     gradient                   ...        0 min,  0.008 sec
 * total energy  :   -56.1508645 Eh     change       -0.5456384E-03 Eh
   gradient norm :     0.0081139 Eh/α   predicted    -0.4252163E-03 ( -22.07%)
   displ. norm   :     0.5262738 α      lambda       -0.6251524E-03
   maximum displ.:     0.3410917 α      in ANC's #3, #6, #4, ...

........................................................................
.............................. CYCLE   78 ..............................
........................................................................

 iter      E             dE          RMSdq      gap      omega  full diag
   1    -56.9590140 -0.569590E+02  0.292E-01    0.45       0.0  T
   2    -56.9585819  0.432133E-03  0.194E-01    0.46       1.0  T
   3    -56.9482824  0.102995E-01  0.303E-01    0.44       1.0  T
   4    -56.9578831 -0.960071E-02  0.107E-01    0.46       1.0  T
   5    -56.9590323 -0.114911E-02  0.295E-02    0.46       1.0  T
   6    -56.9591437 -0.111441E-03  0.770E-03    0.45       1.8  T
   7    -56.9591452 -0.152426E-05  0.676E-03    0.46       2.0  T
   8    -56.9591499 -0.465536E-05  0.321E-03    0.46       4.2  T
   9    -56.9591500 -0.138611E-06  0.279E-03    0.46       4.8  T
  10    -56.9591503 -0.256536E-06  0.218E-03    0.46       6.2  T
  11    -56.9591509 -0.639029E-06  0.607E-04    0.46      22.2  T
  12    -56.9591509 -0.277571E-07  0.346E-04    0.46      39.0  T
     SCC iter.                  ...        0 min,  0.086 sec
     gradient                   ...        0 min,  0.008 sec
 * total energy  :   -56.1513873 Eh     change       -0.5228360E-03 Eh
   gradient norm :     0.0087315 Eh/α   predicted    -0.3991492E-03 ( -23.66%)
   displ. norm   :     0.5942787 α      lambda       -0.6950811E-03
   maximum displ.:     0.3749877 α      in ANC's #3, #6, #4, ...

........................................................................
.............................. CYCLE   79 ..............................
........................................................................

 iter      E             dE          RMSdq      gap      omega  full diag
   1    -56.9591889 -0.569592E+02  0.339E-01    0.45       0.0  T
   2    -56.9584866  0.702277E-03  0.229E-01    0.45       1.0  T
   3    -56.9425164  0.159702E-01  0.384E-01    0.42       1.0  T
   4    -56.9575784 -0.150620E-01  0.126E-01    0.45       1.0  T
   5    -56.9592185 -0.164006E-02  0.333E-02    0.45       1.0  T
   6    -56.9593606 -0.142177E-03  0.967E-03    0.45       1.4  T
   7    -56.9593657 -0.504017E-05  0.773E-03    0.45       1.7  T
   8    -56.9593717 -0.606998E-05  0.349E-03    0.45       3.9  T
   9    -56.9593711  0.646262E-06  0.377E-03    0.45       3.6  T
  10    -56.9593719 -0.800891E-06  0.259E-03    0.45       5.2  T
  11    -56.9593728 -0.915824E-06  0.745E-04    0.45      18.1  T
  12    -56.9593729 -0.427363E-07  0.385E-04    0.45      35.0  T
     SCC iter.                  ...        0 min,  0.060 sec
     gradient                   ...        0 min,  0.008 sec
 * total energy  :   -56.1519585 Eh     change       -0.5711748E-03 Eh
   gradient norm :     0.0089266 Eh/α   predicted    -0.4702851E-03 ( -17.66%)
   displ. norm   :     0.6175756 α      lambda       -0.6811646E-03
   maximum displ.:     0.3956318 α      in ANC's #3, #6, #4, ...

........................................................................
.............................. CYCLE   80 ..............................
........................................................................

 iter      E             dE          RMSdq      gap      omega  full diag
   1    -56.9577191 -0.569577E+02  0.333E-01    0.44       0.0  T
   2    -56.9569231  0.796092E-03  0.228E-01    0.44       1.0  T
   3    -56.9405797  0.163433E-01  0.394E-01    0.41       1.0  T
   4    -56.9564132 -0.158335E-01  0.117E-01    0.45       1.0  T
   5    -56.9577717 -0.135846E-02  0.298E-02    0.44       1.0  T
   6    -56.9578878 -0.116136E-03  0.110E-02    0.44       1.2  T
   7    -56.9578988 -0.109996E-04  0.734E-03    0.44       1.8  T
   8    -56.9579031 -0.426006E-05  0.354E-03    0.44       3.8  T
   9    -56.9579015  0.159042E-05  0.429E-03    0.44       3.1  T
  10    -56.9579030 -0.152935E-05  0.289E-03    0.44       4.7  T
  11    -56.9579041 -0.110005E-05  0.735E-04    0.44      18.4  T
  12    -56.9579042 -0.341568E-07  0.417E-04    0.44      32.4  T
  13    -56.9579042 -0.701592E-08  0.266E-04    0.44      50.7  T
     SCC iter.                  ...        0 min,  0.070 sec
     gradient                   ...        0 min,  0.007 sec
 * total energy  :   -56.1524871 Eh     change       -0.5286142E-03 Eh
   gradient norm :     0.0077862 Eh/α   predicted    -0.4704827E-03 ( -11.00%)
   displ. norm   :     0.5900477 α      lambda       -0.5843042E-03
   maximum displ.:     0.3773512 α      in ANC's #3, #6, #4, ...

........................................................................
.............................. CYCLE   81 ..............................
........................................................................

 iter      E             dE          RMSdq      gap      omega  full diag
   1    -56.9557800 -0.569558E+02  0.354E-01    0.43       0.0  T
   2    -56.9549859  0.794104E-03  0.241E-01    0.44       1.0  T
   3    -56.9370879  0.178981E-01  0.419E-01    0.40       1.0  T
   4    -56.9545743 -0.174864E-01  0.114E-01    0.44       1.0  T
   5    -56.9558555 -0.128125E-02  0.264E-02    0.43       1.0  T
   6    -56.9559397 -0.841703E-04  0.111E-02    0.43       1.2  T
   7    -56.9559513 -0.115645E-04  0.708E-03    0.43       1.9  T
   8    -56.9559558 -0.449530E-05  0.331E-03    0.43       4.1  T
   9    -56.9559545  0.129133E-05  0.387E-03    0.43       3.5  T
  10    -56.9559554 -0.942791E-06  0.296E-03    0.43       4.6  T
  11    -56.9559566 -0.122383E-05  0.720E-04    0.43      18.7  T
  12    -56.9559567 -0.293470E-07  0.426E-04    0.43      31.6  T
  13    -56.9559567 -0.946454E-08  0.242E-04    0.43      55.7  T
     SCC iter.                  ...        0 min,  0.073 sec
     gradient                   ...        0 min,  0.007 sec
 * total energy  :   -56.1528713 Eh     change       -0.3841512E-03 Eh
   gradient norm :     0.0097425 Eh/α   predicted    -0.3938701E-03 (   2.53%)
   displ. norm   :     0.4440921 α      lambda       -0.6476534E-03
   maximum displ.:     0.2603520 α      in ANC's #3, #4, #14, ...

........................................................................
.............................. CYCLE   82 ..............................
........................................................................

 iter      E             dE          RMSdq      gap      omega  full diag
   1    -56.9627399 -0.569627E+02  0.242E-01    0.43       0.0  T
   2    -56.9618009  0.939043E-03  0.176E-01    0.44       1.0  T
   3    -56.9522888  0.951212E-02  0.290E-01    0.40       1.0  T
   4    -56.9616199 -0.933112E-02  0.100E-01    0.43       1.0  T
   5    -56.9627496 -0.112970E-02  0.328E-02    0.43       1.0  T
   6    -56.9629044 -0.154759E-03  0.808E-03    0.43       1.7  T
   7    -56.9629082 -0.381631E-05  0.573E-03    0.43       2.4  T
   8    -56.9629107 -0.255400E-05  0.259E-03    0.43       5.2  T
   9    -56.9629103  0.441702E-06  0.251E-03    0.43       5.4  T
  10    -56.9629105 -0.229387E-06  0.185E-03    0.43       7.3  T
  11    -56.9629110 -0.454482E-06  0.715E-04    0.43      18.8  T
  12    -56.9629110 -0.419689E-07  0.344E-04    0.43      39.2  T
     SCC iter.                  ...        0 min,  0.068 sec
     gradient                   ...        0 min,  0.008 sec
 * total energy  :   -56.1530987 Eh     change       -0.2274067E-03 Eh
   gradient norm :     0.0097677 Eh/α   predicted    -0.3876965E-03 (  70.49%)
   displ. norm   :     0.4228466 α      lambda       -0.5702298E-03
   maximum displ.:     0.2756040 α      in ANC's #3, #4, #6, ...

........................................................................
.............................. CYCLE   83 ..............................
........................................................................

 iter      E             dE          RMSdq      gap      omega  full diag
   1    -56.9577478 -0.569577E+02  0.233E-01    0.42       0.0  T
   2    -56.9574646  0.283198E-03  0.156E-01    0.42       1.0  T
   3    -56.9499216  0.754305E-02  0.248E-01    0.42       1.0  T
   4    -56.9566860 -0.676445E-02  0.852E-02    0.42       1.0  T
   5    -56.9577713 -0.108524E-02  0.209E-02    0.42       1.0  T
   6    -56.9578233 -0.519991E-04  0.601E-03    0.42       2.2  T
   7    -56.9578236 -0.306774E-06  0.535E-03    0.42       2.5  T
   8    -56.9578264 -0.280912E-05  0.281E-03    0.42       4.8  T
   9    -56.9578269 -0.545900E-06  0.184E-03    0.42       7.3  T
  10    -56.9578272 -0.232605E-06  0.124E-03    0.42      10.8  T
  11    -56.9578273 -0.154541E-06  0.406E-04    0.42      33.2  T
  12    -56.9578273 -0.733260E-08  0.259E-04    0.42      52.0  T
     SCC iter.                  ...        0 min,  0.063 sec
     gradient                   ...        0 min,  0.008 sec
 * total energy  :   -56.1534518 Eh     change       -0.3531352E-03 Eh
   gradient norm :     0.0084083 Eh/α   predicted    -0.3360939E-03 (  -4.83%)
   displ. norm   :     0.2929634 α      lambda       -0.4085004E-03
   maximum displ.:     0.1849306 α      in ANC's #3, #4, #6, ...

........................................................................
.............................. CYCLE   84 ..............................
........................................................................

 iter      E             dE          RMSdq      gap      omega  full diag
   1    -56.9597667 -0.569598E+02  0.189E-01    0.42       0.0  T
   2    -56.9596046  0.162115E-03  0.126E-01    0.42       1.0  T
   3    -56.9538394  0.576520E-02  0.207E-01    0.41       1.0  T
   4    -56.9592960 -0.545657E-02  0.548E-02    0.42       1.0  T
   5    -56.9597758 -0.479863E-03  0.157E-02    0.42       1.0  T
   6    -56.9598016 -0.257471E-04  0.538E-03    0.42       2.5  T
   7    -56.9598030 -0.139406E-05  0.372E-03    0.42       3.6  T
   8    -56.9598041 -0.111146E-05  0.234E-03    0.42       5.8  T
   9    -56.9598045 -0.455939E-06  0.142E-03    0.42       9.5  T
  10    -56.9598047 -0.154333E-06  0.931E-04    0.42      14.5  T
  11    -56.9598048 -0.828061E-07  0.331E-04    0.42      40.8  T
     SCC iter.                  ...        0 min,  0.053 sec
     gradient                   ...        0 min,  0.007 sec
 * total energy  :   -56.1537155 Eh     change       -0.2637289E-03 Eh
   gradient norm :     0.0089596 Eh/α   predicted    -0.2217806E-03 ( -15.91%)
   displ. norm   :     0.3854388 α      lambda       -0.4167527E-03
   maximum displ.:     0.2483605 α      in ANC's #3, #4, #14, ...

........................................................................
.............................. CYCLE   85 ..............................
........................................................................

 iter      E             dE          RMSdq      gap      omega  full diag
   1    -56.9615089 -0.569615E+02  0.213E-01    0.42       0.0  T
   2    -56.9611005  0.408347E-03  0.148E-01    0.42       1.0  T
   3    -56.9516605  0.943997E-02  0.253E-01    0.42       1.0  T
   4    -56.9602668 -0.860627E-02  0.910E-02    0.42       1.0  T
   5    -56.9615351 -0.126827E-02  0.215E-02    0.42       1.0  T
   6    -56.9615828 -0.477181E-04  0.662E-03    0.42       2.0  T
   7    -56.9615863 -0.345068E-05  0.390E-03    0.42       3.5  T
   8    -56.9615868 -0.576516E-06  0.324E-03    0.42       4.2  T
   9    -56.9615877 -0.866524E-06  0.186E-03    0.42       7.3  T
  10    -56.9615879 -0.182099E-06  0.131E-03    0.42      10.3  T
  11    -56.9615880 -0.158336E-06  0.474E-04    0.42      28.5  T
  12    -56.9615880 -0.144144E-07  0.253E-04    0.42      53.3  T
     SCC iter.                  ...        0 min,  0.069 sec
     gradient                   ...        0 min,  0.009 sec
 * total energy  :   -56.1540243 Eh     change       -0.3087303E-03 Eh
   gradient norm :     0.0080680 Eh/α   predicted    -0.2393386E-03 ( -22.48%)
   displ. norm   :     0.4644883 α      lambda       -0.4854852E-03
   maximum displ.:     0.2908827 α      in ANC's #3, #4, #14, ...

........................................................................
.............................. CYCLE   86 ..............................
........................................................................

 iter      E             dE          RMSdq      gap      omega  full diag
   1    -56.9644663 -0.569645E+02  0.264E-01    0.42       0.0  T
   2    -56.9637666  0.699727E-03  0.182E-01    0.42       1.0  T
   3    -56.9469019  0.168647E-01  0.331E-01    0.42       1.0  T
   4    -56.9630636 -0.161617E-01  0.101E-01    0.42       1.0  T
   5    -56.9645118 -0.144827E-02  0.257E-02    0.43       1.0  T
   6    -56.9645785 -0.666672E-04  0.757E-03    0.42       1.8  T
   7    -56.9645819 -0.343094E-05  0.502E-03    0.42       2.7  T
   8    -56.9645830 -0.108633E-05  0.385E-03    0.42       3.5  T
   9    -56.9645839 -0.912845E-06  0.267E-03    0.42       5.0  T
  10    -56.9645843 -0.335985E-06  0.202E-03    0.42       6.7  T
  11    -56.9645847 -0.417069E-06  0.555E-04    0.42      24.3  T
  12    -56.9645847 -0.212055E-07  0.288E-04    0.42      46.9  T
     SCC iter.                  ...        0 min,  0.075 sec
     gradient                   ...        0 min,  0.007 sec
 * total energy  :   -56.1543563 Eh     change       -0.3320675E-03 Eh
   gradient norm :     0.0073561 Eh/α   predicted    -0.2951183E-03 ( -11.13%)
   displ. norm   :     0.6202178 α      lambda       -0.4724084E-03
   maximum displ.:     0.4007129 α      in ANC's #3, #4, #6, ...

........................................................................
.............................. CYCLE   87 ..............................
........................................................................

 iter      E             dE          RMSdq      gap      omega  full diag
   1    -56.9619494 -0.569619E+02  0.351E-01    0.42       0.0  T
   2    -56.9612449  0.704506E-03  0.239E-01    0.42       1.0  T
   3    -56.9417264  0.195186E-01  0.397E-01    0.42       1.0  T
   4    -56.9588631 -0.171367E-01  0.143E-01    0.42       1.0  T
   5    -56.9619849 -0.312183E-02  0.307E-02    0.43       1.0  T
   6    -56.9620976 -0.112739E-03  0.102E-02    0.42       1.3  T
   7    -56.9621072 -0.956143E-05  0.533E-03    0.42       2.5  T
   8    -56.9621087 -0.152079E-05  0.343E-03    0.42       3.9  T
   9    -56.9621090 -0.287705E-06  0.256E-03    0.42       5.3  T
  10    -56.9621091 -0.136302E-06  0.228E-03    0.42       5.9  T
  11    -56.9621098 -0.668940E-06  0.791E-04    0.42      17.1  T
  12    -56.9621099 -0.439140E-07  0.422E-04    0.42      32.0  T
     SCC iter.                  ...        0 min,  0.065 sec
     gradient                   ...        0 min,  0.008 sec
 * total energy  :   -56.1546985 Eh     change       -0.3421593E-03 Eh
   gradient norm :     0.0070080 Eh/α   predicted    -0.3270668E-03 (  -4.41%)
   displ. norm   :     0.5207166 α      lambda       -0.4064178E-03
   maximum displ.:     0.3287258 α      in ANC's #3, #4, #14, ...

........................................................................
.............................. CYCLE   88 ..............................
........................................................................

 iter      E             dE          RMSdq      gap      omega  full diag
   1    -56.9607443 -0.569607E+02  0.322E-01    0.42       0.0  T
   2    -56.9603676  0.376689E-03  0.213E-01    0.43       1.0  T
   3    -56.9454234  0.149442E-01  0.341E-01    0.42       1.0  T
   4    -56.9589020 -0.134787E-01  0.109E-01    0.42       1.0  T
   5    -56.9607540 -0.185195E-02  0.256E-02    0.43       1.0  T
   6    -56.9608333 -0.793459E-04  0.871E-03    0.42       1.5  T
   7    -56.9608384 -0.509310E-05  0.544E-03    0.43       2.5  T
   8    -56.9608399 -0.151525E-05  0.360E-03    0.43       3.7  T
   9    -56.9608408 -0.844293E-06  0.237E-03    0.43       5.7  T
  10    -56.9608411 -0.259217E-06  0.193E-03    0.43       7.0  T
  11    -56.9608415 -0.412745E-06  0.654E-04    0.43      20.6  T
  12    -56.9608415 -0.276984E-07  0.376E-04    0.43      35.9  T
     SCC iter.                  ...        0 min,  0.067 sec
     gradient                   ...        0 min,  0.008 sec
 * total energy  :   -56.1549825 Eh     change       -0.2840475E-03 Eh
   gradient norm :     0.0068731 Eh/α   predicted    -0.2583096E-03 (  -9.06%)
   displ. norm   :     0.4553675 α      lambda       -0.3985133E-03
   maximum displ.:     0.2753431 α      in ANC's #3, #4, #22, ...

........................................................................
.............................. CYCLE   89 ..............................
........................................................................

 iter      E             dE          RMSdq      gap      omega  full diag
   1    -56.9613102 -0.569613E+02  0.295E-01    0.43       0.0  T
   2    -56.9610330  0.277183E-03  0.193E-01    0.43       1.0  T
   3    -56.9485149  0.125180E-01  0.301E-01    0.43       1.0  T
   4    -56.9596804 -0.111654E-01  0.997E-02    0.43       1.0  T
   5    -56.9613160 -0.163562E-02  0.230E-02    0.43       1.0  T
   6    -56.9613804 -0.643992E-04  0.819E-03    0.43       1.6  T
   7    -56.9613845 -0.415851E-05  0.513E-03    0.43       2.6  T
   8    -56.9613855 -0.922824E-06  0.390E-03    0.43       3.5  T
   9    -56.9613869 -0.140331E-05  0.228E-03    0.43       5.9  T
  10    -56.9613872 -0.302816E-06  0.168E-03    0.43       8.0  T
  11    -56.9613874 -0.254242E-06  0.514E-04    0.43      26.2  T
  12    -56.9613874 -0.135467E-07  0.316E-04    0.43      42.7  T
     SCC iter.                  ...        0 min,  0.061 sec
     gradient                   ...        0 min,  0.007 sec
 * total energy  :   -56.1552134 Eh     change       -0.2308231E-03 Eh
   gradient norm :     0.0075258 Eh/α   predicted    -0.2405776E-03 (   4.23%)
   displ. norm   :     0.4941525 α      lambda       -0.3283839E-03
   maximum displ.:     0.3334509 α      in ANC's #3, #4, #6, ...

........................................................................
.............................. CYCLE   90 ..............................
........................................................................

 iter      E             dE          RMSdq      gap      omega  full diag
   1    -56.9580493 -0.569580E+02  0.279E-01    0.43       0.0  T
   2    -56.9577502  0.299095E-03  0.186E-01    0.43       1.0  T
   3    -56.9460932  0.116570E-01  0.321E-01    0.43       1.0  T
   4    -56.9569737 -0.108806E-01  0.908E-02    0.43       1.0  T
   5    -56.9580521 -0.107837E-02  0.224E-02    0.43       1.0  T
   6    -56.9581133 -0.612109E-04  0.801E-03    0.43       1.7  T
   7    -56.9581187 -0.539398E-05  0.503E-03    0.43       2.7  T
   8    -56.9581208 -0.209703E-05  0.239E-03    0.43       5.6  T
   9    -56.9581208 -0.106830E-07  0.188E-03    0.43       7.2  T
  10    -56.9581208 -0.566602E-08  0.174E-03    0.43       7.8  T
  11    -56.9581213 -0.483703E-06  0.356E-04    0.43      37.8  T
  12    -56.9581213 -0.149429E-08  0.280E-04    0.43      48.2  T
     SCC iter.                  ...        0 min,  0.063 sec
     gradient                   ...        0 min,  0.007 sec
 * total energy  :   -56.1554183 Eh     change       -0.2049747E-03 Eh
   gradient norm :     0.0085151 Eh/α   predicted    -0.2042909E-03 (  -0.33%)
   displ. norm   :     0.3109996 α      lambda       -0.5419084E-03
   maximum displ.:     0.1217510 α      in ANC's #8, #10, #3, ...

........................................................................
.............................. CYCLE   91 ..............................
........................................................................

 iter      E             dE          RMSdq      gap      omega  full diag
   1    -56.9667314 -0.569667E+02  0.272E-01    0.43       0.0  T
   2    -56.9664105  0.320877E-03  0.173E-01    0.43       1.0  T
   3    -56.9586249  0.778563E-02  0.274E-01    0.43       1.0  T
   4    -56.9659858 -0.736092E-02  0.867E-02    0.43       1.0  T
   5    -56.9667862 -0.800383E-03  0.204E-02    0.43       1.0  T
   6    -56.9668253 -0.390588E-04  0.893E-03    0.43       1.5  T
   7    -56.9668293 -0.401169E-05  0.723E-03    0.43       1.9  T
   8    -56.9668355 -0.620464E-05  0.252E-03    0.43       5.3  T
   9    -56.9668357 -0.254575E-06  0.187E-03    0.43       7.2  T
  10    -56.9668359 -0.105569E-06  0.152E-03    0.43       8.9  T
  11    -56.9668361 -0.259226E-06  0.639E-04    0.43      21.1  T
  12    -56.9668361 -0.341934E-07  0.403E-04    0.43      33.5  T
     SCC iter.                  ...        0 min,  0.062 sec
     gradient                   ...        0 min,  0.008 sec
 * total energy  :   -56.1554113 Eh     change        0.7073680E-05 Eh
   gradient norm :     0.0130605 Eh/α   predicted    -0.2971625E-03 (*******%)
   displ. norm   :     0.2924163 α      lambda       -0.6474327E-03
   maximum displ.:     0.1972794 α      in ANC's #3, #4, #6, ...

........................................................................
.............................. CYCLE   92 ..............................
........................................................................

 iter      E             dE          RMSdq      gap      omega  full diag
   1    -56.9636544 -0.569637E+02  0.159E-01    0.43       0.0  T
   2    -56.9634619  0.192427E-03  0.110E-01    0.43       1.0  T
   3    -56.9607925  0.266939E-02  0.167E-01    0.43       1.0  T
   4    -56.9627495 -0.195701E-02  0.834E-02    0.43       1.0  T
   5    -56.9636741 -0.924560E-03  0.158E-02    0.43       1.0  T
   6    -56.9637056 -0.314701E-04  0.597E-03    0.43       2.3  T
   7    -56.9637085 -0.288379E-05  0.375E-03    0.43       3.6  T
   8    -56.9637092 -0.753592E-06  0.215E-03    0.43       6.3  T
   9    -56.9637095 -0.282537E-06  0.126E-03    0.43      10.7  T
  10    -56.9637095 -0.380370E-07  0.107E-03    0.43      12.6  T
  11    -56.9637097 -0.167652E-06  0.367E-04    0.43      36.8  T
  12    -56.9637097 -0.804616E-08  0.225E-04    0.43      59.9  T
     SCC iter.                  ...        0 min,  0.061 sec
     gradient                   ...        0 min,  0.007 sec
 * total energy  :   -56.1557728 Eh     change       -0.3615666E-03 Eh
   gradient norm :     0.0083294 Eh/α   predicted    -0.3514009E-03 (  -2.81%)
   displ. norm   :     0.3156954 α      lambda       -0.2918570E-03
   maximum displ.:     0.2122279 α      in ANC's #3, #4, #14, ...
 * RMSD in coord.:     1.3626401 α      energy gain  -0.1002150E-01 Eh

generating ANC from exact Hessian ...
Using Lindh-Hessian (1995)
 Shifting diagonal of input Hessian by   1.027085324209964E-002
 Lowest  eigenvalues of input Hessian
    0.010000    0.000000    0.000000    0.010173    0.000000    0.000000
    0.000000    0.000000    0.010458    0.010697    0.010773    0.011107
    0.011303    0.011771    0.012116    0.012443    0.012591    0.013356
 Highest eigenvalues
    1.302226    1.304496    1.320093    1.371082    1.392438    1.408867
 

........................................................................
.............................. CYCLE   93 ..............................
........................................................................

 iter      E             dE          RMSdq      gap      omega  full diag
   1    -56.9596487 -0.569596E+02  0.187E-01    0.42       0.0  T
   2    -56.9593770  0.271713E-03  0.130E-01    0.43       1.0  T
   3    -56.9513698  0.800721E-02  0.234E-01    0.42       1.0  T
   4    -56.9588095 -0.743972E-02  0.747E-02    0.42       1.0  T
   5    -56.9596501 -0.840530E-03  0.196E-02    0.43       1.0  T
   6    -56.9596935 -0.434451E-04  0.532E-03    0.42       2.5  T
   7    -56.9596946 -0.113704E-05  0.384E-03    0.43       3.5  T
   8    -56.9596954 -0.717804E-06  0.297E-03    0.43       4.5  T
   9    -56.9596961 -0.788052E-06  0.159E-03    0.42       8.5  T
  10    -56.9596963 -0.166325E-06  0.110E-03    0.42      12.2  T
  11    -56.9596964 -0.107900E-06  0.296E-04    0.42      45.5  T
  12    -56.9596964 -0.516870E-09  0.231E-04    0.42      58.3  T
     SCC iter.                  ...        0 min,  0.053 sec
     gradient                   ...        0 min,  0.007 sec
 * total energy  :   -56.1559300 Eh     change       -0.1572220E-03 Eh
   gradient norm :     0.0079451 Eh/α   predicted     0.0000000E+00 (-100.00%)
   displ. norm   :     0.1110415 α      lambda       -0.3010260E-03
   maximum displ.:     0.0557629 α      in ANC's #6, #5, #15, ...

........................................................................
.............................. CYCLE   94 ..............................
........................................................................

 iter      E             dE          RMSdq      gap      omega  full diag
   1    -56.9623059 -0.569623E+02  0.143E-01    0.43       0.0  T
   2    -56.9621601  0.145729E-03  0.948E-02    0.43       1.0  T
   3    -56.9581674  0.399278E-02  0.179E-01    0.42       1.0  T
   4    -56.9619513 -0.378394E-02  0.529E-02    0.43       1.0  T
   5    -56.9623211 -0.369767E-03  0.937E-03    0.43       1.4  T
   6    -56.9623311 -0.999213E-05  0.316E-03    0.43       4.3  T
   7    -56.9623311 -0.489558E-08  0.274E-03    0.43       4.9  T
   8    -56.9623315 -0.425488E-06  0.174E-03    0.43       7.7  T
   9    -56.9623317 -0.222218E-06  0.118E-03    0.43      11.4  T
  10    -56.9623318 -0.136843E-06  0.685E-04    0.43      19.7  T
  11    -56.9623319 -0.566202E-07  0.206E-04    0.43      65.6  T
     SCC iter.                  ...        0 min,  0.049 sec
     gradient                   ...        0 min,  0.007 sec
 * total energy  :   -56.1561136 Eh     change       -0.1835549E-03 Eh
   gradient norm :     0.0054816 Eh/α   predicted    -0.1532678E-03 ( -16.50%)
   displ. norm   :     0.2530990 α      lambda       -0.5190946E-03
   maximum displ.:     0.1429184 α      in ANC's #6, #5, #15, ...

........................................................................
.............................. CYCLE   95 ..............................
........................................................................

 iter      E             dE          RMSdq      gap      omega  full diag
   1    -56.9674554 -0.569675E+02  0.252E-01    0.43       0.0  T
   2    -56.9665911  0.864326E-03  0.182E-01    0.43       1.0  T
   3    -56.9536981  0.128930E-01  0.319E-01    0.42       1.0  T
   4    -56.9654252 -0.117271E-01  0.128E-01    0.43       1.0  T
   5    -56.9675217 -0.209647E-02  0.268E-02    0.43       1.0  T
   6    -56.9676011 -0.793697E-04  0.814E-03    0.43       1.7  T
   7    -56.9676032 -0.209274E-05  0.556E-03    0.43       2.4  T
   8    -56.9676038 -0.662030E-06  0.482E-03    0.43       2.8  T
   9    -56.9676055 -0.163802E-05  0.311E-03    0.43       4.3  T
  10    -56.9676058 -0.345157E-06  0.244E-03    0.43       5.5  T
  11    -56.9676065 -0.687224E-06  0.578E-04    0.43      23.3  T
  12    -56.9676065 -0.185978E-07  0.400E-04    0.43      33.7  T
     SCC iter.                  ...        0 min,  0.053 sec
     gradient                   ...        0 min,  0.007 sec
 * total energy  :   -56.1563700 Eh     change       -0.2564411E-03 Eh
   gradient norm :     0.0078409 Eh/α   predicted    -0.2761744E-03 (   7.70%)
   displ. norm   :     0.2652031 α      lambda       -0.4493575E-03
   maximum displ.:     0.1478926 α      in ANC's #6, #5, #15, ...

........................................................................
.............................. CYCLE   96 ..............................
........................................................................

 iter      E             dE          RMSdq      gap      omega  full diag
   1    -56.9692367 -0.569692E+02  0.246E-01    0.42       0.0  T
   2    -56.9686200  0.616696E-03  0.175E-01    0.43       1.0  T
   3    -56.9569164  0.117036E-01  0.302E-01    0.41       1.0  T
   4    -56.9673145 -0.103981E-01  0.121E-01    0.43       1.0  T
   5    -56.9692909 -0.197640E-02  0.233E-02    0.43       1.0  T
   6    -56.9693524 -0.615274E-04  0.682E-03    0.42       2.0  T
   7    -56.9693541 -0.167005E-05  0.458E-03    0.43       2.9  T
   8    -56.9693552 -0.106482E-05  0.341E-03    0.43       4.0  T
   9    -56.9693555 -0.296436E-06  0.275E-03    0.43       4.9  T
  10    -56.9693559 -0.451118E-06  0.204E-03    0.43       6.6  T
  11    -56.9693564 -0.468796E-06  0.473E-04    0.43      28.5  T
  12    -56.9693564 -0.167726E-07  0.282E-04    0.43      47.7  T
     SCC iter.                  ...        0 min,  0.056 sec
     gradient                   ...        0 min,  0.006 sec
 * total energy  :   -56.1567937 Eh     change       -0.4236123E-03 Eh
   gradient norm :     0.0098462 Eh/α   predicted    -0.2404871E-03 ( -43.23%)
   displ. norm   :     0.7766626 α      lambda       -0.1537138E-02
   maximum displ.:     0.4203133 α      in ANC's #6, #5, #24, ...

........................................................................
.............................. CYCLE   97 ..............................
........................................................................

 iter      E             dE          RMSdq      gap      omega  full diag
   1    -56.9661574 -0.569662E+02  0.674E-01    0.39       0.0  T
   2    -56.9597773  0.638008E-02  0.493E-01    0.40       1.0  T
   3    -56.8584436  0.101334E+00  0.873E-01    0.34       1.0  T
   4    -56.9519454 -0.935018E-01  0.339E-01    0.41       1.0  T
   5    -56.9664067 -0.144612E-01  0.831E-02    0.39       1.0  T
   6    -56.9670841 -0.677396E-03  0.395E-02    0.39       1.0  T
   7    -56.9671984 -0.114334E-03  0.223E-02    0.39       1.0  T
   8    -56.9672164 -0.179559E-04  0.196E-02    0.39       1.0  T
   9    -56.9672055  0.108939E-04  0.169E-02    0.39       1.0  T
  10    -56.9672213 -0.158017E-04  0.794E-03    0.39       1.7  T
  11    -56.9672261 -0.481886E-05  0.233E-03    0.39       5.8  T
  12    -56.9672262 -0.132480E-06  0.146E-03    0.39       9.2  T
  13    -56.9672263 -0.747103E-07  0.713E-04    0.39      18.9  T
  14    -56.9672263 -0.240251E-07  0.407E-04    0.39      33.1  T
     SCC iter.                  ...        0 min,  0.062 sec
     gradient                   ...        0 min,  0.007 sec
 * total energy  :   -56.1579187 Eh     change       -0.1125050E-02 Eh
   gradient norm :     0.0221096 Eh/α   predicted    -0.1232177E-02 (   9.52%)
   displ. norm   :     0.3866776 α      lambda       -0.1366437E-02
   maximum displ.:     0.1616092 α      in ANC's #5, #6, #24, ...

........................................................................
.............................. CYCLE   98 ..............................
........................................................................

 iter      E             dE          RMSdq      gap      omega  full diag
   1    -56.9642379 -0.569642E+02  0.333E-01    0.35       0.0  T
   2    -56.9627392  0.149868E-02  0.239E-01    0.37       1.0  T
   3    -56.9342149  0.285244E-01  0.456E-01    0.34       1.0  T
   4    -56.9598422 -0.256273E-01  0.180E-01    0.36       1.0  T
   5    -56.9642068 -0.436464E-02  0.451E-02    0.36       1.0  T
   6    -56.9644669 -0.260098E-03  0.137E-02    0.36       1.0  T
   7    -56.9644776 -0.106989E-04  0.970E-03    0.36       1.4  T
   8    -56.9644836 -0.603967E-05  0.713E-03    0.36       1.9  T
   9    -56.9644830  0.652821E-06  0.695E-03    0.36       1.9  T
  10    -56.9644855 -0.255290E-05  0.334E-03    0.36       4.0  T
  11    -56.9644866 -0.103321E-05  0.763E-04    0.36      17.7  T
  12    -56.9644866 -0.183333E-07  0.568E-04    0.36      23.8  T
  13    -56.9644866 -0.144817E-07  0.314E-04    0.36      43.0  T
     SCC iter.                  ...        0 min,  0.062 sec
     gradient                   ...        0 min,  0.007 sec
 * total energy  :   -56.1587512 Eh     change       -0.8324644E-03 Eh
   gradient norm :     0.0217143 Eh/α   predicted    -0.7853729E-03 (  -5.66%)
   displ. norm   :     0.4236199 α      lambda       -0.1799928E-02
   maximum displ.:     0.1959349 α      in ANC's #5, #6, #15, ...

........................................................................
.............................. CYCLE   99 ..............................
........................................................................

 iter      E             dE          RMSdq      gap      omega  full diag
   1    -56.9649681 -0.569650E+02  0.355E-01    0.33       0.0  T
   2    -56.9616719  0.329623E-02  0.279E-01    0.34       1.0  T
   3    -56.9311725  0.304994E-01  0.483E-01    0.32       1.0  T
   4    -56.9594173 -0.282448E-01  0.209E-01    0.33       1.0  T
   5    -56.9648061 -0.538882E-02  0.616E-02    0.34       1.0  T
   6    -56.9653555 -0.549420E-03  0.190E-02    0.33       1.0  T
   7    -56.9653806 -0.250552E-04  0.126E-02    0.33       1.1  T
   8    -56.9653893 -0.874272E-05  0.955E-03    0.33       1.4  T
   9    -56.9653894 -0.513973E-07  0.838E-03    0.33       1.6  T
  10    -56.9653924 -0.306311E-05  0.389E-03    0.33       3.5  T
  11    -56.9653938 -0.137309E-05  0.974E-04    0.33      13.9  T
  12    -56.9653938 -0.327747E-07  0.650E-04    0.33      20.8  T
  13    -56.9653939 -0.156362E-07  0.309E-04    0.33      43.6  T
     SCC iter.                  ...        0 min,  0.059 sec
     gradient                   ...        0 min,  0.007 sec
 * total energy  :   -56.1603405 Eh     change       -0.1589332E-02 Eh
   gradient norm :     0.0215065 Eh/α   predicted    -0.1061467E-02 ( -33.21%)
   displ. norm   :     0.4634307 α      lambda       -0.4910617E-02
   maximum displ.:     0.1136757 α      in ANC's #74, #3, #4, ...

........................................................................
.............................. CYCLE  100 ..............................
........................................................................

 iter      E             dE          RMSdq      gap      omega  full diag
   1    -56.9758944 -0.569759E+02  0.461E-01    0.31       0.0  T
   2    -56.9690038  0.689066E-02  0.376E-01    0.32       1.0  T
   3    -56.9129419  0.560619E-01  0.638E-01    0.37       1.0  T
   4    -56.9687952 -0.558533E-01  0.246E-01    0.31       1.0  T
   5    -56.9763272 -0.753200E-02  0.538E-02    0.32       1.0  T
   6    -56.9765819 -0.254642E-03  0.255E-02    0.31       1.0  T
   7    -56.9766209 -0.390693E-04  0.185E-02    0.31       1.0  T
   8    -56.9766440 -0.230577E-04  0.129E-02    0.31       1.0  T
   9    -56.9766337  0.102439E-04  0.136E-02    0.31       1.0  T
  10    -56.9766481 -0.143675E-04  0.550E-03    0.31       2.5  T
  11    -56.9766511 -0.297560E-05  0.144E-03    0.31       9.4  T
  12    -56.9766511 -0.522460E-07  0.112E-03    0.31      12.0  T
  13    -56.9766512 -0.764679E-07  0.507E-04    0.31      26.6  T
  14    -56.9766512 -0.149471E-07  0.268E-04    0.31      50.3  T
     SCC iter.                  ...        0 min,  0.065 sec
     gradient                   ...        0 min,  0.007 sec
 * total energy  :   -56.1608411 Eh     change       -0.5005637E-03 Eh
   gradient norm :     0.0328572 Eh/α   predicted    -0.2982641E-02 ( 495.86%)
   displ. norm   :     0.5079000 α      lambda       -0.5139894E-02
   maximum displ.:     0.2877125 α      in ANC's #6, #5, #15, ...

........................................................................
.............................. CYCLE  101 ..............................
........................................................................

 iter      E             dE          RMSdq      gap      omega  full diag
   1    -56.9665236 -0.569665E+02  0.459E-01    0.28       0.0  T
   2    -56.9629829  0.354078E-02  0.330E-01    0.30       1.0  T
   3    -56.8990532  0.639297E-01  0.662E-01    0.26       1.0  T
   4    -56.9601565 -0.611033E-01  0.236E-01    0.29       1.0  T
   5    -56.9657910 -0.563448E-02  0.866E-02    0.29       1.0  T
   6    -56.9669194 -0.112836E-02  0.320E-02    0.28       1.0  T
   7    -56.9670072 -0.878730E-04  0.194E-02    0.29       1.0  T
   8    -56.9670314 -0.241369E-04  0.137E-02    0.28       1.0  T
   9    -56.9670259  0.549896E-05  0.124E-02    0.28       1.1  T
  10    -56.9670367 -0.108507E-04  0.523E-03    0.28       2.6  T
  11    -56.9670388 -0.210148E-05  0.187E-03    0.28       7.2  T
  12    -56.9670389 -0.583896E-07  0.126E-03    0.28      10.7  T
  13    -56.9670389 -0.615773E-07  0.570E-04    0.28      23.6  T
  14    -56.9670389  0.151046E-08  0.388E-04    0.28      34.8  T
     SCC iter.                  ...        0 min,  0.063 sec
     gradient                   ...        0 min,  0.006 sec
 * total energy  :   -56.1630188 Eh     change       -0.2177753E-02 Eh
   gradient norm :     0.0192108 Eh/α   predicted    -0.3232906E-02 (  48.45%)
   displ. norm   :     0.1461381 α      lambda       -0.1051056E-02
   maximum displ.:     0.0584228 α      in ANC's #4, #18, #13, ...

........................................................................
.............................. CYCLE  102 ..............................
........................................................................

 iter      E             dE          RMSdq      gap      omega  full diag
   1    -56.9678818 -0.569679E+02  0.155E-01    0.30       0.0  T
   2    -56.9674583  0.423535E-03  0.111E-01    0.29       1.0  T
   3    -56.9604382  0.702006E-02  0.221E-01    0.32       1.0  T
   4    -56.9672800 -0.684183E-02  0.723E-02    0.30       1.0  T
   5    -56.9678490 -0.568932E-03  0.241E-02    0.29       1.0  T
   6    -56.9679346 -0.856732E-04  0.746E-03    0.29       1.8  T
   7    -56.9679374 -0.270441E-05  0.641E-03    0.29       2.1  T
   8    -56.9679410 -0.363172E-05  0.302E-03    0.29       4.5  T
   9    -56.9679417 -0.670931E-06  0.161E-03    0.29       8.4  T
  10    -56.9679418 -0.985061E-07  0.111E-03    0.29      12.2  T
  11    -56.9679419 -0.125834E-06  0.402E-04    0.29      33.6  T
  12    -56.9679419 -0.102140E-07  0.210E-04    0.29      64.3  T
     SCC iter.                  ...        0 min,  0.055 sec
     gradient                   ...        0 min,  0.008 sec
 * total energy  :   -56.1636577 Eh     change       -0.6388912E-03 Eh
   gradient norm :     0.0108033 Eh/α   predicted    -0.5367525E-03 ( -15.99%)
   displ. norm   :     0.4979027 α      lambda       -0.1223945E-02
   maximum displ.:     0.2121661 α      in ANC's #3, #5, #6, ...

........................................................................
.............................. CYCLE  103 ..............................
........................................................................

 iter      E             dE          RMSdq      gap      omega  full diag
   1    -56.9663725 -0.569664E+02  0.381E-01    0.28       0.0  T
   2    -56.9617876  0.458490E-02  0.305E-01    0.29       1.0  T
   3    -56.9176334  0.441542E-01  0.563E-01    0.34       1.0  T
   4    -56.9621462 -0.445128E-01  0.195E-01    0.28       1.0  T
   5    -56.9664931 -0.434697E-02  0.507E-02    0.28       1.0  T
   6    -56.9667927 -0.299528E-03  0.200E-02    0.28       1.0  T
   7    -56.9668210 -0.283588E-04  0.125E-02    0.28       1.1  T
   8    -56.9668281 -0.702904E-05  0.970E-03    0.28       1.4  T
   9    -56.9668171  0.109538E-04  0.118E-02    0.28       1.1  T
  10    -56.9668294 -0.122784E-04  0.400E-03    0.28       3.4  T
  11    -56.9668309 -0.146894E-05  0.945E-04    0.28      14.3  T
  12    -56.9668309 -0.545973E-08  0.789E-04    0.28      17.1  T
  13    -56.9668309 -0.347680E-07  0.392E-04    0.28      34.4  T
     SCC iter.                  ...        0 min,  0.059 sec
     gradient                   ...        0 min,  0.006 sec
 * total energy  :   -56.1643300 Eh     change       -0.6722642E-03 Eh
   gradient norm :     0.0133604 Eh/α   predicted    -0.7636880E-03 (  13.60%)
   displ. norm   :     0.2973336 α      lambda       -0.1329152E-02
   maximum displ.:     0.1306257 α      in ANC's #3, #4, #8, ...

........................................................................
.............................. CYCLE  104 ..............................
........................................................................

 iter      E             dE          RMSdq      gap      omega  full diag
   1    -56.9709539 -0.569710E+02  0.229E-01    0.30       0.0  T
   2    -56.9696415  0.131234E-02  0.175E-01    0.28       1.0  T
   3    -56.9580032  0.116384E-01  0.288E-01    0.34       1.0  T
   4    -56.9673183 -0.931516E-02  0.164E-01    0.30       1.0  T
   5    -56.9708391 -0.352076E-02  0.471E-02    0.29       1.0  T
   6    -56.9711445 -0.305401E-03  0.134E-02    0.30       1.0  T
   7    -56.9711643 -0.198171E-04  0.809E-03    0.30       1.7  T
   8    -56.9711679 -0.365523E-05  0.537E-03    0.30       2.5  T
   9    -56.9711687 -0.735985E-06  0.430E-03    0.30       3.1  T
  10    -56.9711695 -0.847123E-06  0.269E-03    0.30       5.0  T
  11    -56.9711703 -0.763145E-06  0.720E-04    0.30      18.7  T
  12    -56.9711703 -0.490531E-07  0.345E-04    0.30      39.1  T
     SCC iter.                  ...        0 min,  0.048 sec
     gradient                   ...        0 min,  0.008 sec
 * total energy  :   -56.1649441 Eh     change       -0.6140883E-03 Eh
   gradient norm :     0.0108353 Eh/α   predicted    -0.7233353E-03 (  17.79%)
   displ. norm   :     0.3024096 α      lambda       -0.7058272E-03
   maximum displ.:     0.1440421 α      in ANC's #3, #5, #6, ...

........................................................................
.............................. CYCLE  105 ..............................
........................................................................

 iter      E             dE          RMSdq      gap      omega  full diag
   1    -56.9693778 -0.569694E+02  0.251E-01    0.28       0.0  T
   2    -56.9673465  0.203125E-02  0.197E-01    0.28       1.0  T
   3    -56.9478273  0.195192E-01  0.381E-01    0.31       1.0  T
   4    -56.9669963 -0.191689E-01  0.144E-01    0.28       1.0  T
   5    -56.9693676 -0.237137E-02  0.397E-02    0.29       1.0  T
   6    -56.9695777 -0.210018E-03  0.126E-02    0.28       1.1  T
   7    -56.9695896 -0.119493E-04  0.776E-03    0.28       1.7  T
   8    -56.9695937 -0.409928E-05  0.520E-03    0.28       2.6  T
   9    -56.9695906  0.312397E-05  0.653E-03    0.28       2.1  T
  10    -56.9695943 -0.367389E-05  0.251E-03    0.28       5.4  T
  11    -56.9695949 -0.600040E-06  0.661E-04    0.28      20.4  T
  12    -56.9695949 -0.242356E-07  0.490E-04    0.28      27.5  T
     SCC iter.                  ...        0 min,  0.061 sec
     gradient                   ...        0 min,  0.007 sec
 * total energy  :   -56.1653287 Eh     change       -0.3846104E-03 Eh
   gradient norm :     0.0092846 Eh/α   predicted    -0.3851997E-03 (   0.15%)
   displ. norm   :     0.1592193 α      lambda       -0.3993284E-03
   maximum displ.:     0.0920459 α      in ANC's #3, #4, #5, ...

........................................................................
.............................. CYCLE  106 ..............................
........................................................................

 iter      E             dE          RMSdq      gap      omega  full diag
   1    -56.9709767 -0.569710E+02  0.131E-01    0.28       0.0  T
   2    -56.9705484  0.428297E-03  0.938E-02    0.28       1.0  T
   3    -56.9658214  0.472701E-02  0.197E-01    0.30       1.0  T
   4    -56.9698808 -0.405942E-02  0.881E-02    0.28       1.0  T
   5    -56.9709622 -0.108142E-02  0.235E-02    0.28       1.0  T
   6    -56.9710304 -0.681724E-04  0.577E-03    0.28       2.3  T
   7    -56.9710322 -0.183589E-05  0.390E-03    0.28       3.5  T
   8    -56.9710330 -0.806989E-06  0.208E-03    0.28       6.5  T
   9    -56.9710329  0.146894E-06  0.203E-03    0.28       6.6  T
  10    -56.9710331 -0.231421E-06  0.140E-03    0.28       9.6  T
  11    -56.9710334 -0.272354E-06  0.403E-04    0.28      33.4  T
  12    -56.9710334 -0.104346E-07  0.244E-04    0.28      55.3  T
     SCC iter.                  ...        0 min,  0.088 sec
     gradient                   ...        0 min,  0.010 sec
 * total energy  :   -56.1655688 Eh     change       -0.2400835E-03 Eh
   gradient norm :     0.0090580 Eh/α   predicted    -0.2047266E-03 ( -14.73%)
   displ. norm   :     0.2647706 α      lambda       -0.4451405E-03
   maximum displ.:     0.1600892 α      in ANC's #3, #4, #7, ...

........................................................................
.............................. CYCLE  107 ..............................
........................................................................

 iter      E             dE          RMSdq      gap      omega  full diag
   1    -56.9723995 -0.569724E+02  0.193E-01    0.28       0.0  T
   2    -56.9720368  0.362740E-03  0.130E-01    0.28       1.0  T
   3    -56.9631307  0.890607E-02  0.263E-01    0.31       1.0  T
   4    -56.9707397 -0.760901E-02  0.106E-01    0.28       1.0  T
   5    -56.9723314 -0.159170E-02  0.308E-02    0.28       1.0  T
   6    -56.9724594 -0.128030E-03  0.749E-03    0.28       1.8  T
   7    -56.9724632 -0.378911E-05  0.481E-03    0.28       2.8  T
   8    -56.9724647 -0.148026E-05  0.241E-03    0.28       5.6  T
   9    -56.9724644  0.281278E-06  0.246E-03    0.28       5.5  T
  10    -56.9724646 -0.171108E-06  0.183E-03    0.28       7.4  T
  11    -56.9724651 -0.458054E-06  0.519E-04    0.28      26.0  T
  12    -56.9724651 -0.242089E-07  0.267E-04    0.28      50.5  T
     SCC iter.                  ...        0 min,  0.083 sec
     gradient                   ...        0 min,  0.007 sec
 * total energy  :   -56.1658663 Eh     change       -0.2975219E-03 Eh
   gradient norm :     0.0066050 Eh/α   predicted    -0.2381743E-03 ( -19.95%)
   displ. norm   :     0.3382435 α      lambda       -0.3403481E-03
   maximum displ.:     0.2059269 α      in ANC's #3, #4, #7, ...

........................................................................
.............................. CYCLE  108 ..............................
........................................................................

 iter      E             dE          RMSdq      gap      omega  full diag
   1    -56.9706786 -0.569707E+02  0.230E-01    0.29       0.0  T
   2    -56.9704251  0.253452E-03  0.150E-01    0.29       1.0  T
   3    -56.9622475  0.817766E-02  0.262E-01    0.31       1.0  T
   4    -56.9693904 -0.714290E-02  0.945E-02    0.28       1.0  T
   5    -56.9706189 -0.122847E-02  0.281E-02    0.29       1.0  T
   6    -56.9707361 -0.117228E-03  0.729E-03    0.29       1.9  T
   7    -56.9707394 -0.336527E-05  0.518E-03    0.29       2.6  T
   8    -56.9707414 -0.193372E-05  0.256E-03    0.29       5.3  T
   9    -56.9707414 -0.359914E-07  0.209E-03    0.29       6.5  T
  10    -56.9707415 -0.882745E-07  0.167E-03    0.29       8.1  T
  11    -56.9707419 -0.373000E-06  0.515E-04    0.29      26.2  T
  12    -56.9707419 -0.252791E-07  0.223E-04    0.29      60.4  T
     SCC iter.                  ...        0 min,  0.098 sec
     gradient                   ...        0 min,  0.012 sec
 * total energy  :   -56.1660880 Eh     change       -0.2217272E-03 Eh
   gradient norm :     0.0065366 Eh/α   predicted    -0.1896463E-03 ( -14.47%)
   displ. norm   :     0.2579420 α      lambda       -0.2672601E-03
   maximum displ.:     0.1459348 α      in ANC's #3, #4, #2, ...

........................................................................
.............................. CYCLE  109 ..............................
........................................................................

 iter      E             dE          RMSdq      gap      omega  full diag
   1    -56.9718006 -0.569718E+02  0.168E-01    0.29       0.0  T
   2    -56.9715901  0.210496E-03  0.113E-01    0.29       1.0  T
   3    -56.9642797  0.731043E-02  0.229E-01    0.29       1.0  T
   4    -56.9709258 -0.664611E-02  0.815E-02    0.30       1.0  T
   5    -56.9717757 -0.849925E-03  0.216E-02    0.29       1.0  T
   6    -56.9718334 -0.576211E-04  0.580E-03    0.29       2.3  T
   7    -56.9718361 -0.271841E-05  0.438E-03    0.29       3.1  T
   8    -56.9718379 -0.178089E-05  0.176E-03    0.29       7.7  T
   9    -56.9718379 -0.263918E-07  0.144E-03    0.29       9.4  T
  10    -56.9718380 -0.918527E-07  0.102E-03    0.29      13.2  T
  11    -56.9718381 -0.128818E-06  0.337E-04    0.29      40.0  T
  12    -56.9718381 -0.888478E-08  0.175E-04    0.29      77.1  T
     SCC iter.                  ...        0 min,  0.074 sec
     gradient                   ...        0 min,  0.008 sec
 * total energy  :   -56.1662718 Eh     change       -0.1837759E-03 Eh
   gradient norm :     0.0063680 Eh/α   predicted    -0.1425215E-03 ( -22.45%)
   displ. norm   :     0.3135801 α      lambda       -0.2535400E-03
   maximum displ.:     0.1813024 α      in ANC's #3, #4, #2, ...

........................................................................
.............................. CYCLE  110 ..............................
........................................................................

 iter      E             dE          RMSdq      gap      omega  full diag
   1    -56.9706317 -0.569706E+02  0.205E-01    0.30       0.0  T
   2    -56.9704906  0.141077E-03  0.132E-01    0.30       1.0  T
   3    -56.9649113  0.557925E-02  0.217E-01    0.29       1.0  T
   4    -56.9701658 -0.525450E-02  0.647E-02    0.30       1.0  T
   5    -56.9706207 -0.454831E-03  0.186E-02    0.30       1.0  T
   6    -56.9706636 -0.429396E-04  0.604E-03    0.30       2.2  T
   7    -56.9706666 -0.299874E-05  0.418E-03    0.30       3.2  T
   8    -56.9706678 -0.123915E-05  0.252E-03    0.30       5.4  T
   9    -56.9706684 -0.523811E-06  0.142E-03    0.30       9.5  T
  10    -56.9706685 -0.899810E-07  0.105E-03    0.30      12.8  T
  11    -56.9706686 -0.144702E-06  0.378E-04    0.30      35.6  T
  12    -56.9706686 -0.121747E-07  0.156E-04    0.30      86.5  T
     SCC iter.                  ...        0 min,  0.104 sec
     gradient                   ...        0 min,  0.008 sec
 * total energy  :   -56.1664587 Eh     change       -0.1869171E-03 Eh
   gradient norm :     0.0066342 Eh/α   predicted    -0.1392381E-03 ( -25.51%)
   displ. norm   :     0.3163607 α      lambda       -0.3167400E-03
   maximum displ.:     0.1631952 α      in ANC's #3, #4, #2, ...

........................................................................
.............................. CYCLE  111 ..............................
........................................................................

 iter      E             dE          RMSdq      gap      omega  full diag
   1    -56.9710628 -0.569711E+02  0.213E-01    0.30       0.0  T
   2    -56.9708506  0.212168E-03  0.137E-01    0.30       1.0  T
   3    -56.9588486  0.120020E-01  0.279E-01    0.28       1.0  T
   4    -56.9698792 -0.110305E-01  0.914E-02    0.31       1.0  T
   5    -56.9710578 -0.117868E-02  0.199E-02    0.30       1.0  T
   6    -56.9711001 -0.422562E-04  0.571E-03    0.30       2.4  T
   7    -56.9711021 -0.201236E-05  0.347E-03    0.30       3.9  T
   8    -56.9711028 -0.695570E-06  0.207E-03    0.30       6.5  T
   9    -56.9711029 -0.456966E-07  0.173E-03    0.30       7.8  T
  10    -56.9711031 -0.230502E-06  0.851E-04    0.30      15.8  T
  11    -56.9711031 -0.658576E-07  0.241E-04    0.30      55.9  T
     SCC iter.                  ...        0 min,  0.060 sec
     gradient                   ...        0 min,  0.008 sec
 * total energy  :   -56.1666623 Eh     change       -0.2036006E-03 Eh
   gradient norm :     0.0065132 Eh/α   predicted    -0.1742217E-03 ( -14.43%)
   displ. norm   :     0.3196149 α      lambda       -0.2500792E-03
   maximum displ.:     0.1741438 α      in ANC's #4, #3, #2, ...

........................................................................
.............................. CYCLE  112 ..............................
........................................................................

 iter      E             dE          RMSdq      gap      omega  full diag
   1    -56.9699600 -0.569700E+02  0.220E-01    0.30       0.0  T
   2    -56.9698078  0.152273E-03  0.140E-01    0.30       1.0  T
   3    -56.9618294  0.797837E-02  0.237E-01    0.28       1.0  T
   4    -56.9689105 -0.708107E-02  0.842E-02    0.31       1.0  T
   5    -56.9699547 -0.104427E-02  0.184E-02    0.30       1.0  T
   6    -56.9699938 -0.391187E-04  0.538E-03    0.30       2.5  T
   7    -56.9699957 -0.181873E-05  0.349E-03    0.30       3.9  T
   8    -56.9699964 -0.746727E-06  0.204E-03    0.30       6.6  T
   9    -56.9699966 -0.157290E-06  0.144E-03    0.30       9.4  T
  10    -56.9699967 -0.126576E-06  0.868E-04    0.30      15.5  T
  11    -56.9699968 -0.633945E-07  0.341E-04    0.30      39.6  T
     SCC iter.                  ...        0 min,  0.060 sec
     gradient                   ...        0 min,  0.007 sec
 * total energy  :   -56.1668192 Eh     change       -0.1568759E-03 Eh
   gradient norm :     0.0066988 Eh/α   predicted    -0.1378170E-03 ( -12.15%)
   displ. norm   :     0.1969569 α      lambda       -0.2281116E-03
   maximum displ.:     0.1094438 α      in ANC's #4, #2, #3, ...

........................................................................
.............................. CYCLE  113 ..............................
........................................................................

 iter      E             dE          RMSdq      gap      omega  full diag
   1    -56.9709708 -0.569710E+02  0.141E-01    0.29       0.0  T
   2    -56.9708853  0.855659E-04  0.891E-02    0.30       1.0  T
   3    -56.9662429  0.464234E-02  0.171E-01    0.28       1.0  T
   4    -56.9704018 -0.415883E-02  0.616E-02    0.30       1.0  T
   5    -56.9709695 -0.567716E-03  0.121E-02    0.30       1.1  T
   6    -56.9709863 -0.168182E-04  0.482E-03    0.29       2.8  T
   7    -56.9709886 -0.230185E-05  0.261E-03    0.30       5.2  T
   8    -56.9709889 -0.249765E-06  0.215E-03    0.29       6.3  T
   9    -56.9709892 -0.316404E-06  0.121E-03    0.29      11.2  T
  10    -56.9709892 -0.665227E-07  0.851E-04    0.29      15.8  T
  11    -56.9709893 -0.733455E-07  0.226E-04    0.29      59.5  T
     SCC iter.                  ...        0 min,  0.055 sec
     gradient                   ...        0 min,  0.008 sec
 * total energy  :   -56.1669739 Eh     change       -0.1547429E-03 Eh
   gradient norm :     0.0052977 Eh/α   predicted    -0.1184815E-03 ( -23.43%)
   displ. norm   :     0.2593534 α      lambda       -0.1693403E-03
   maximum displ.:     0.1613702 α      in ANC's #4, #3, #2, ...

........................................................................
.............................. CYCLE  114 ..............................
........................................................................

 iter      E             dE          RMSdq      gap      omega  full diag
   1    -56.9700727 -0.569701E+02  0.165E-01    0.29       0.0  T
   2    -56.9699982  0.744327E-04  0.106E-01    0.29       1.0  T
   3    -56.9668651  0.313313E-02  0.161E-01    0.28       1.0  T
   4    -56.9698977 -0.303259E-02  0.364E-02    0.30       1.0  T
   5    -56.9700803 -0.182581E-03  0.952E-03    0.29       1.4  T
   6    -56.9700919 -0.115881E-04  0.334E-03    0.29       4.0  T
   7    -56.9700921 -0.222707E-06  0.286E-03    0.29       4.7  T
   8    -56.9700927 -0.602884E-06  0.132E-03    0.29      10.2  T
   9    -56.9700927 -0.432162E-07  0.105E-03    0.29      12.9  T
  10    -56.9700928 -0.326762E-07  0.930E-04    0.29      14.5  T
  11    -56.9700929 -0.116304E-06  0.289E-04    0.29      46.6  T
     SCC iter.                  ...        0 min,  0.056 sec
     gradient                   ...        0 min,  0.007 sec
 * total energy  :   -56.1670910 Eh     change       -0.1170800E-03 Eh
   gradient norm :     0.0047704 Eh/α   predicted    -0.9036761E-04 ( -22.82%)
   displ. norm   :     0.1989412 α      lambda       -0.1360512E-03
   maximum displ.:     0.1311700 α      in ANC's #4, #2, #3, ...

........................................................................
.............................. CYCLE  115 ..............................
........................................................................

 iter      E             dE          RMSdq      gap      omega  full diag
   1    -56.9707919 -0.569708E+02  0.129E-01    0.29       0.0  T
   2    -56.9707544  0.375083E-04  0.821E-02    0.29       1.0  T
   3    -56.9689397  0.181463E-02  0.127E-01    0.29       1.0  T
   4    -56.9706332 -0.169352E-02  0.350E-02    0.29       1.0  T
   5    -56.9707822 -0.148971E-03  0.112E-02    0.29       1.2  T
   6    -56.9708020 -0.197536E-04  0.295E-03    0.29       4.6  T
   7    -56.9708025 -0.499359E-06  0.207E-03    0.29       6.5  T
   8    -56.9708027 -0.249763E-06  0.110E-03    0.29      12.2  T
   9    -56.9708028 -0.696806E-07  0.657E-04    0.29      20.5  T
  10    -56.9708028  0.245103E-08  0.614E-04    0.29      22.0  T
     SCC iter.                  ...        0 min,  0.054 sec
     gradient                   ...        0 min,  0.007 sec
 * total energy  :   -56.1671842 Eh     change       -0.9322536E-04 Eh
   gradient norm :     0.0042068 Eh/α   predicted    -0.7072265E-04 ( -24.14%)
   displ. norm   :     0.2889155 α      lambda       -0.1223929E-03
   maximum displ.:     0.1913676 α      in ANC's #4, #2, #3, ...

........................................................................
.............................. CYCLE  116 ..............................
........................................................................

 iter      E             dE          RMSdq      gap      omega  full diag
   1    -56.9697851 -0.569698E+02  0.180E-01    0.29       0.0  T
   2    -56.9696610  0.124088E-03  0.117E-01    0.29       1.0  T
   3    -56.9646894  0.497159E-02  0.208E-01    0.30       1.0  T
   4    -56.9693275 -0.463804E-02  0.576E-02    0.28       1.0  T
   5    -56.9697679 -0.440401E-03  0.168E-02    0.29       1.0  T
   6    -56.9698109 -0.430413E-04  0.453E-03    0.29       3.0  T
   7    -56.9698121 -0.112778E-05  0.333E-03    0.29       4.1  T
   8    -56.9698126 -0.505479E-06  0.183E-03    0.29       7.4  T
   9    -56.9698127 -0.101689E-06  0.147E-03    0.29       9.2  T
  10    -56.9698129 -0.193411E-06  0.912E-04    0.29      14.8  T
  11    -56.9698130 -0.102186E-06  0.293E-04    0.29      45.9  T
     SCC iter.                  ...        0 min,  0.059 sec
     gradient                   ...        0 min,  0.009 sec
 * total energy  :   -56.1672664 Eh     change       -0.8219156E-04 Eh
   gradient norm :     0.0043341 Eh/α   predicted    -0.6630788E-04 ( -19.33%)
   displ. norm   :     0.2308442 α      lambda       -0.1470333E-03
   maximum displ.:     0.1486199 α      in ANC's #4, #2, #14, ...

........................................................................
.............................. CYCLE  117 ..............................
........................................................................

 iter      E             dE          RMSdq      gap      omega  full diag
   1    -56.9717141 -0.569717E+02  0.153E-01    0.29       0.0  T
   2    -56.9716577  0.564180E-04  0.982E-02    0.29       1.0  T
   3    -56.9685615  0.309619E-02  0.156E-01    0.30       1.0  T
   4    -56.9713822 -0.282068E-02  0.505E-02    0.28       1.0  T
   5    -56.9717097 -0.327505E-03  0.122E-02    0.29       1.1  T
   6    -56.9717294 -0.197375E-04  0.402E-03    0.29       3.4  T
   7    -56.9717302 -0.806756E-06  0.307E-03    0.29       4.4  T
   8    -56.9717307 -0.510652E-06  0.193E-03    0.29       7.0  T
   9    -56.9717311 -0.396454E-06  0.106E-03    0.29      12.7  T
  10    -56.9717312 -0.838446E-07  0.735E-04    0.29      18.3  T
  11    -56.9717313 -0.591927E-07  0.222E-04    0.29      60.8  T
     SCC iter.                  ...        0 min,  0.059 sec
     gradient                   ...        0 min,  0.007 sec
 * total energy  :   -56.1673462 Eh     change       -0.7979588E-04 Eh
   gradient norm :     0.0051758 Eh/α   predicted    -0.7743734E-04 (  -2.96%)
   displ. norm   :     0.2145215 α      lambda       -0.9455300E-04
   maximum displ.:     0.1433552 α      in ANC's #4, #2, #3, ...

........................................................................
.............................. CYCLE  118 ..............................
........................................................................

 iter      E             dE          RMSdq      gap      omega  full diag
   1    -56.9708845 -0.569709E+02  0.132E-01    0.29       0.0  T
   2    -56.9708024  0.820724E-04  0.864E-02    0.29       1.0  T
   3    -56.9675018  0.330064E-02  0.163E-01    0.30       1.0  T
   4    -56.9706672 -0.316543E-02  0.449E-02    0.29       1.0  T
   5    -56.9708929 -0.225665E-03  0.871E-03    0.29       1.5  T
   6    -56.9708999 -0.706360E-05  0.397E-03    0.29       3.4  T
   7    -56.9709009 -0.940325E-06  0.281E-03    0.29       4.8  T
   8    -56.9709014 -0.506564E-06  0.211E-03    0.29       6.4  T
   9    -56.9709019 -0.534425E-06  0.795E-04    0.29      17.0  T
  10    -56.9709019 -0.190766E-07  0.657E-04    0.29      20.5  T
     SCC iter.                  ...        0 min,  0.047 sec
     gradient                   ...        0 min,  0.007 sec
 * total energy  :   -56.1674105 Eh     change       -0.6432884E-04 Eh
   gradient norm :     0.0040434 Eh/α   predicted    -0.4945474E-04 ( -23.12%)
   displ. norm   :     0.1929301 α      lambda       -0.9341753E-04
   maximum displ.:     0.1225142 α      in ANC's #4, #2, #16, ...

........................................................................
.............................. CYCLE  119 ..............................
........................................................................

 iter      E             dE          RMSdq      gap      omega  full diag
   1    -56.9711504 -0.569712E+02  0.114E-01    0.29       0.0  T
   2    -56.9710122  0.138190E-03  0.774E-02    0.29       1.0  T
   3    -56.9660740  0.493820E-02  0.181E-01    0.29       1.0  T
   4    -56.9709407 -0.486664E-02  0.405E-02    0.29       1.0  T
   5    -56.9711416 -0.200939E-03  0.129E-02    0.29       1.0  T
   6    -56.9711659 -0.243119E-04  0.400E-03    0.29       3.4  T
   7    -56.9711680 -0.208663E-05  0.203E-03    0.29       6.6  T
   8    -56.9711682 -0.209020E-06  0.104E-03    0.29      12.9  T
   9    -56.9711682 -0.547144E-08  0.932E-04    0.29      14.5  T
  10    -56.9711683 -0.332392E-07  0.646E-04    0.29      20.9  T
     SCC iter.                  ...        0 min,  0.051 sec
     gradient                   ...        0 min,  0.008 sec
 * total energy  :   -56.1674738 Eh     change       -0.6322156E-04 Eh
   gradient norm :     0.0033931 Eh/α   predicted    -0.4845082E-04 ( -23.36%)
   displ. norm   :     0.2121606 α      lambda       -0.7929160E-04
   maximum displ.:     0.1347838 α      in ANC's #4, #2, #8, ...

........................................................................
.............................. CYCLE  120 ..............................
........................................................................

 iter      E             dE          RMSdq      gap      omega  full diag
   1    -56.9709033 -0.569709E+02  0.128E-01    0.29       0.0  T
   2    -56.9707108  0.192558E-03  0.855E-02    0.29       1.0  T
   3    -56.9641363  0.657447E-02  0.210E-01    0.30       1.0  T
   4    -56.9706740 -0.653769E-02  0.413E-02    0.30       1.0  T
   5    -56.9708998 -0.225786E-03  0.126E-02    0.29       1.1  T
   6    -56.9709211 -0.212817E-04  0.440E-03    0.29       3.1  T
   7    -56.9709235 -0.240092E-05  0.254E-03    0.29       5.3  T
   8    -56.9709239 -0.460437E-06  0.120E-03    0.29      11.2  T
   9    -56.9709238  0.150193E-06  0.152E-03    0.29       8.8  T
  10    -56.9709239 -0.145400E-06  0.839E-04    0.29      16.1  T
  11    -56.9709240 -0.766247E-07  0.167E-04    0.29      80.6  T
     SCC iter.                  ...        0 min,  0.062 sec
     gradient                   ...        0 min,  0.009 sec
 * total energy  :   -56.1675266 Eh     change       -0.5282347E-04 Eh
   gradient norm :     0.0035458 Eh/α   predicted    -0.4143326E-04 ( -21.56%)
   displ. norm   :     0.2362385 α      lambda       -0.7690970E-04
   maximum displ.:     0.1464912 α      in ANC's #4, #2, #8, ...
 * RMSD in coord.:     0.7666474 α      energy gain  -0.1175376E-01 Eh

generating ANC from exact Hessian ...
Using Lindh-Hessian (1995)
 Shifting diagonal of input Hessian by   1.036813921580737E-002
 Lowest  eigenvalues of input Hessian
    0.010000    0.000000    0.010173    0.000000    0.010194    0.000000
    0.000000    0.000000    0.000000    0.010445    0.010700    0.010874
    0.011088    0.011771    0.012136    0.012335    0.012605    0.012957
 Highest eigenvalues
    1.298328    1.321696    1.350371    1.366447    1.394705    1.428240
 

........................................................................
.............................. CYCLE  121 ..............................
........................................................................

 iter      E             dE          RMSdq      gap      omega  full diag
   1    -56.9711219 -0.569711E+02  0.133E-01    0.30       0.0  T
   2    -56.9709212  0.200699E-03  0.883E-02    0.30       1.0  T
   3    -56.9639073  0.701392E-02  0.216E-01    0.30       1.0  T
   4    -56.9708227 -0.691545E-02  0.475E-02    0.30       1.0  T
   5    -56.9711262 -0.303464E-03  0.115E-02    0.29       1.2  T
   6    -56.9711413 -0.150694E-04  0.450E-03    0.30       3.0  T
   7    -56.9711434 -0.216292E-05  0.282E-03    0.30       4.8  T
   8    -56.9711442 -0.718846E-06  0.137E-03    0.30       9.8  T
   9    -56.9711440  0.136737E-06  0.162E-03    0.30       8.3  T
  10    -56.9711442 -0.165823E-06  0.903E-04    0.30      14.9  T
  11    -56.9711443 -0.851613E-07  0.210E-04    0.30      64.2  T
     SCC iter.                  ...        0 min,  0.068 sec
     gradient                   ...        0 min,  0.008 sec
 * total energy  :   -56.1675831 Eh     change       -0.5654000E-04 Eh
   gradient norm :     0.0038487 Eh/α   predicted     0.0000000E+00 (-100.00%)
   displ. norm   :     0.1136936 α      lambda       -0.1735539E-03
   maximum displ.:     0.1027714 α      in ANC's #4, #1, #10, ...

........................................................................
.............................. CYCLE  122 ..............................
........................................................................

 iter      E             dE          RMSdq      gap      omega  full diag
   1    -56.9715276 -0.569715E+02  0.650E-02    0.30       0.0  T
   2    -56.9714889  0.387587E-04  0.429E-02    0.30       1.0  T
   3    -56.9700095  0.147937E-02  0.101E-01    0.29       1.0  T
   4    -56.9714897 -0.148019E-02  0.187E-02    0.30       1.0  T
   5    -56.9715261 -0.363923E-04  0.614E-03    0.30       2.2  T
   6    -56.9715318 -0.570205E-05  0.213E-03    0.30       6.3  T
   7    -56.9715323 -0.510520E-06  0.106E-03    0.30      12.7  T
   8    -56.9715324 -0.567904E-07  0.617E-04    0.30      21.8  T
   9    -56.9715324 -0.213488E-07  0.349E-04    0.30      38.7  T
     SCC iter.                  ...        0 min,  0.047 sec
     gradient                   ...        0 min,  0.006 sec
 * total energy  :   -56.1677398 Eh     change       -0.1566388E-03 Eh
   gradient norm :     0.0025387 Eh/α   predicted    -0.8819087E-04 ( -43.70%)
   displ. norm   :     0.2051662 α      lambda       -0.2703468E-03
   maximum displ.:     0.1658065 α      in ANC's #4, #1, #10, ...

........................................................................
.............................. CYCLE  123 ..............................
........................................................................

 iter      E             dE          RMSdq      gap      omega  full diag
   1    -56.9719120 -0.569719E+02  0.125E-01    0.30       0.0  T
   2    -56.9718031  0.108896E-03  0.809E-02    0.30       1.0  T
   3    -56.9669970  0.480612E-02  0.179E-01    0.29       1.0  T
   4    -56.9717343 -0.473738E-02  0.402E-02    0.30       1.0  T
   5    -56.9719115 -0.177184E-03  0.101E-02    0.30       1.3  T
   6    -56.9719244 -0.129014E-04  0.493E-03    0.30       2.7  T
   7    -56.9719277 -0.326574E-05  0.226E-03    0.30       6.0  T
   8    -56.9719279 -0.252658E-06  0.138E-03    0.30       9.8  T
   9    -56.9719280 -0.971487E-07  0.856E-04    0.30      15.8  T
  10    -56.9719281 -0.247931E-07  0.657E-04    0.30      20.5  T
     SCC iter.                  ...        0 min,  0.059 sec
     gradient                   ...        0 min,  0.006 sec
 * total energy  :   -56.1679570 Eh     change       -0.2172722E-03 Eh
   gradient norm :     0.0027375 Eh/α   predicted    -0.1408635E-03 ( -35.17%)
   displ. norm   :     0.2885333 α      lambda       -0.3605509E-03
   maximum displ.:     0.2372584 α      in ANC's #4, #1, #17, ...

........................................................................
.............................. CYCLE  124 ..............................
........................................................................

 iter      E             dE          RMSdq      gap      omega  full diag
   1    -56.9719847 -0.569720E+02  0.168E-01    0.30       0.0  T
   2    -56.9717779  0.206784E-03  0.111E-01    0.30       1.0  T
   3    -56.9643915  0.738645E-02  0.239E-01    0.29       1.0  T
   4    -56.9716368 -0.724534E-02  0.541E-02    0.30       1.0  T
   5    -56.9719968 -0.359926E-03  0.123E-02    0.30       1.1  T
   6    -56.9720107 -0.139033E-04  0.674E-03    0.30       2.0  T
   7    -56.9720161 -0.542822E-05  0.346E-03    0.30       3.9  T
   8    -56.9720169 -0.814197E-06  0.197E-03    0.30       6.8  T
   9    -56.9720170 -0.126469E-06  0.166E-03    0.30       8.1  T
  10    -56.9720172 -0.224442E-06  0.870E-04    0.30      15.5  T
  11    -56.9720173 -0.696878E-07  0.308E-04    0.30      43.8  T
     SCC iter.                  ...        0 min,  0.057 sec
     gradient                   ...        0 min,  0.008 sec
 * total energy  :   -56.1682006 Eh     change       -0.2435510E-03 Eh
   gradient norm :     0.0049757 Eh/α   predicted    -0.1952840E-03 ( -19.82%)
   displ. norm   :     0.2414294 α      lambda       -0.2635969E-03
   maximum displ.:     0.1929118 α      in ANC's #4, #1, #10, ...

........................................................................
.............................. CYCLE  125 ..............................
........................................................................

 iter      E             dE          RMSdq      gap      omega  full diag
   1    -56.9721633 -0.569722E+02  0.146E-01    0.30       0.0  T
   2    -56.9721069  0.563934E-04  0.895E-02    0.30       1.0  T
   3    -56.9693096  0.279733E-02  0.144E-01    0.29       1.0  T
   4    -56.9718391 -0.252956E-02  0.486E-02    0.31       1.0  T
   5    -56.9721739 -0.334798E-03  0.675E-03    0.30       2.0  T
   6    -56.9721776 -0.368979E-05  0.329E-03    0.30       4.1  T
   7    -56.9721771  0.537619E-06  0.339E-03    0.30       4.0  T
   8    -56.9721784 -0.128763E-05  0.166E-03    0.30       8.1  T
   9    -56.9721787 -0.316117E-06  0.786E-04    0.30      17.2  T
  10    -56.9721787 -0.352324E-07  0.621E-04    0.30      21.7  T
     SCC iter.                  ...        0 min,  0.054 sec
     gradient                   ...        0 min,  0.008 sec
 * total energy  :   -56.1684070 Eh     change       -0.2064665E-03 Eh
   gradient norm :     0.0048448 Eh/α   predicted    -0.1394823E-03 ( -32.44%)
   displ. norm   :     0.3052660 α      lambda       -0.3108269E-03
   maximum displ.:     0.2442087 α      in ANC's #4, #1, #3, ...

........................................................................
.............................. CYCLE  126 ..............................
........................................................................

 iter      E             dE          RMSdq      gap      omega  full diag
   1    -56.9724470 -0.569724E+02  0.180E-01    0.30       0.0  T
   2    -56.9723856  0.613873E-04  0.111E-01    0.30       1.0  T
   3    -56.9689889  0.339664E-02  0.159E-01    0.29       1.0  T
   4    -56.9719929 -0.300397E-02  0.565E-02    0.31       1.0  T
   5    -56.9724566 -0.463674E-03  0.958E-03    0.30       1.4  T
   6    -56.9724649 -0.833553E-05  0.397E-03    0.30       3.4  T
   7    -56.9724639  0.100428E-05  0.435E-03    0.30       3.1  T
   8    -56.9724664 -0.252638E-05  0.157E-03    0.30       8.6  T
   9    -56.9724666 -0.186893E-06  0.948E-04    0.30      14.2  T
  10    -56.9724667 -0.647552E-07  0.662E-04    0.30      20.4  T
     SCC iter.                  ...        0 min,  0.134 sec
     gradient                   ...        0 min,  0.006 sec
 * total energy  :   -56.1686472 Eh     change       -0.2401133E-03 Eh
   gradient norm :     0.0040039 Eh/α   predicted    -0.1698992E-03 ( -29.24%)
   displ. norm   :     0.2848239 α      lambda       -0.2536109E-03
   maximum displ.:     0.2384226 α      in ANC's #4, #1, #5, ...

........................................................................
.............................. CYCLE  127 ..............................
........................................................................

 iter      E             dE          RMSdq      gap      omega  full diag
   1    -56.9727802 -0.569728E+02  0.156E-01    0.30       0.0  T
   2    -56.9727428  0.374649E-04  0.965E-02    0.31       1.0  T
   3    -56.9713232  0.141959E-02  0.116E-01    0.30       1.0  T
   4    -56.9726998 -0.137662E-02  0.269E-02    0.31       1.0  T
   5    -56.9727823 -0.825379E-04  0.927E-03    0.30       1.5  T
   6    -56.9727945 -0.121908E-04  0.395E-03    0.31       3.4  T
   7    -56.9727957 -0.118670E-05  0.294E-03    0.30       4.6  T
   8    -56.9727964 -0.669202E-06  0.147E-03    0.30       9.2  T
   9    -56.9727966 -0.194676E-06  0.737E-04    0.30      18.3  T
  10    -56.9727966 -0.164534E-07  0.652E-04    0.30      20.7  T
     SCC iter.                  ...        0 min,  0.054 sec
     gradient                   ...        0 min,  0.007 sec
 * total energy  :   -56.1688633 Eh     change       -0.2161732E-03 Eh
   gradient norm :     0.0031477 Eh/α   predicted    -0.1370935E-03 ( -36.58%)
   displ. norm   :     0.2359622 α      lambda       -0.2000104E-03
   maximum displ.:     0.2005620 α      in ANC's #4, #1, #5, ...

........................................................................
.............................. CYCLE  128 ..............................
........................................................................

 iter      E             dE          RMSdq      gap      omega  full diag
   1    -56.9731838 -0.569732E+02  0.131E-01    0.31       0.0  T
   2    -56.9731368  0.470492E-04  0.821E-02    0.31       1.0  T
   3    -56.9713349  0.180187E-02  0.127E-01    0.31       1.0  T
   4    -56.9728835 -0.154861E-02  0.453E-02    0.31       1.0  T
   5    -56.9731855 -0.302022E-03  0.903E-03    0.31       1.5  T
   6    -56.9731974 -0.118938E-04  0.280E-03    0.31       4.8  T
   7    -56.9731974  0.535097E-07  0.286E-03    0.31       4.7  T
   8    -56.9731980 -0.693247E-06  0.135E-03    0.31      10.0  T
   9    -56.9731982 -0.166114E-06  0.697E-04    0.31      19.4  T
  10    -56.9731982 -0.230783E-07  0.550E-04    0.31      24.5  T
     SCC iter.                  ...        0 min,  0.058 sec
     gradient                   ...        0 min,  0.008 sec
 * total energy  :   -56.1690326 Eh     change       -0.1692272E-03 Eh
   gradient norm :     0.0026668 Eh/α   predicted    -0.1055738E-03 ( -37.61%)
   displ. norm   :     0.2154056 α      lambda       -0.1591634E-03
   maximum displ.:     0.1800585 α      in ANC's #4, #1, #5, ...

........................................................................
.............................. CYCLE  129 ..............................
........................................................................

 iter      E             dE          RMSdq      gap      omega  full diag
   1    -56.9734399 -0.569734E+02  0.120E-01    0.31       0.0  T
   2    -56.9734136  0.263524E-04  0.749E-02    0.31       1.0  T
   3    -56.9723994  0.101414E-02  0.981E-02    0.31       1.0  T
   4    -56.9733613 -0.961843E-03  0.255E-02    0.31       1.0  T
   5    -56.9734385 -0.771782E-04  0.820E-03    0.31       1.6  T
   6    -56.9734492 -0.107386E-04  0.232E-03    0.31       5.8  T
   7    -56.9734493 -0.130493E-06  0.216E-03    0.31       6.3  T
   8    -56.9734496 -0.283458E-06  0.115E-03    0.31      11.7  T
   9    -56.9734497 -0.115304E-06  0.572E-04    0.31      23.6  T
  10    -56.9734497 -0.150201E-07  0.435E-04    0.31      31.0  T
     SCC iter.                  ...        0 min,  0.055 sec
     gradient                   ...        0 min,  0.007 sec
 * total energy  :   -56.1691714 Eh     change       -0.1388411E-03 Eh
   gradient norm :     0.0028705 Eh/α   predicted    -0.8327715E-04 ( -40.02%)
   displ. norm   :     0.2306804 α      lambda       -0.1598575E-03
   maximum displ.:     0.1895600 α      in ANC's #4, #5, #1, ...

........................................................................
.............................. CYCLE  130 ..............................
........................................................................

 iter      E             dE          RMSdq      gap      omega  full diag
   1    -56.9736755 -0.569737E+02  0.131E-01    0.31       0.0  T
   2    -56.9736333  0.422004E-04  0.821E-02    0.31       1.0  T
   3    -56.9714043  0.222905E-02  0.131E-01    0.31       1.0  T
   4    -56.9733625 -0.195821E-02  0.443E-02    0.31       1.0  T
   5    -56.9736762 -0.313745E-03  0.849E-03    0.31       1.6  T
   6    -56.9736860 -0.974633E-05  0.269E-03    0.31       5.0  T
   7    -56.9736862 -0.213787E-06  0.207E-03    0.31       6.5  T
   8    -56.9736864 -0.232583E-06  0.120E-03    0.31      11.2  T
   9    -56.9736865 -0.721341E-07  0.954E-04    0.31      14.1  T
  10    -56.9736866 -0.840684E-07  0.612E-04    0.31      22.0  T
     SCC iter.                  ...        0 min,  0.051 sec
     gradient                   ...        0 min,  0.037 sec
 * total energy  :   -56.1693110 Eh     change       -0.1395652E-03 Eh
   gradient norm :     0.0028976 Eh/α   predicted    -0.8418525E-04 ( -39.68%)
   displ. norm   :     0.2662401 α      lambda       -0.1711715E-03
   maximum displ.:     0.2148386 α      in ANC's #4, #5, #1, ...

........................................................................
.............................. CYCLE  131 ..............................
........................................................................

 iter      E             dE          RMSdq      gap      omega  full diag
   1    -56.9737717 -0.569738E+02  0.157E-01    0.31       0.0  T
   2    -56.9737224  0.492926E-04  0.972E-02    0.31       1.0  T
   3    -56.9707525  0.296995E-02  0.151E-01    0.31       1.0  T
   4    -56.9734052 -0.265270E-02  0.469E-02    0.32       1.0  T
   5    -56.9737729 -0.367737E-03  0.891E-03    0.31       1.5  T
   6    -56.9737834 -0.105082E-04  0.331E-03    0.31       4.1  T
   7    -56.9737837 -0.304300E-06  0.283E-03    0.31       4.8  T
   8    -56.9737844 -0.654686E-06  0.127E-03    0.31      10.6  T
   9    -56.9737844 -0.892040E-07  0.874E-04    0.31      15.4  T
  10    -56.9737845 -0.363076E-07  0.639E-04    0.31      21.1  T
     SCC iter.                  ...        0 min,  0.087 sec
     gradient                   ...        0 min,  0.007 sec
 * total energy  :   -56.1694609 Eh     change       -0.1499755E-03 Eh
   gradient norm :     0.0026871 Eh/α   predicted    -0.9165509E-04 ( -38.89%)
   displ. norm   :     0.3056083 α      lambda       -0.1728711E-03
   maximum displ.:     0.2436881 α      in ANC's #4, #5, #1, ...

........................................................................
.............................. CYCLE  132 ..............................
........................................................................

 iter      E             dE          RMSdq      gap      omega  full diag
   1    -56.9738440 -0.569738E+02  0.176E-01    0.31       0.0  T
   2    -56.9737881  0.558892E-04  0.109E-01    0.32       1.0  T
   3    -56.9699770  0.381112E-02  0.166E-01    0.32       1.0  T
   4    -56.9734172 -0.344024E-02  0.509E-02    0.32       1.0  T
   5    -56.9738456 -0.428379E-03  0.952E-03    0.31       1.4  T
   6    -56.9738573 -0.116760E-04  0.344E-03    0.31       3.9  T
   7    -56.9738573 -0.214076E-07  0.337E-03    0.31       4.0  T
   8    -56.9738584 -0.113850E-05  0.134E-03    0.31      10.0  T
   9    -56.9738585 -0.101173E-06  0.868E-04    0.31      15.5  T
  10    -56.9738586 -0.162337E-07  0.680E-04    0.31      19.8  T
     SCC iter.                  ...        0 min,  0.070 sec
     gradient                   ...        0 min,  0.008 sec
 * total energy  :   -56.1696116 Eh     change       -0.1506613E-03 Eh
   gradient norm :     0.0024279 Eh/α   predicted    -0.9450906E-04 ( -37.27%)
   displ. norm   :     0.3463271 α      lambda       -0.1694818E-03
   maximum displ.:     0.2712722 α      in ANC's #4, #5, #1, ...

........................................................................
.............................. CYCLE  133 ..............................
........................................................................

 iter      E             dE          RMSdq      gap      omega  full diag
   1    -56.9737651 -0.569738E+02  0.220E-01    0.32       0.0  T
   2    -56.9736811  0.840013E-04  0.136E-01    0.32       1.0  T
   3    -56.9670369  0.664418E-02  0.211E-01    0.32       1.0  T
   4    -56.9732935 -0.625660E-02  0.549E-02    0.32       1.0  T
   5    -56.9737714 -0.477946E-03  0.953E-03    0.32       1.4  T
   6    -56.9737821 -0.106389E-04  0.364E-03    0.32       3.7  T
   7    -56.9737817  0.328372E-06  0.378E-03    0.32       3.6  T
   8    -56.9737834 -0.168963E-05  0.154E-03    0.32       8.8  T
   9    -56.9737836 -0.126320E-06  0.102E-03    0.32      13.2  T
  10    -56.9737836 -0.777701E-07  0.406E-04    0.32      33.2  T
  11    -56.9737836 -0.114602E-07  0.205E-04    0.32      65.8  T
     SCC iter.                  ...        0 min,  0.075 sec
     gradient                   ...        0 min,  0.008 sec
 * total energy  :   -56.1697539 Eh     change       -0.1423321E-03 Eh
   gradient norm :     0.0027741 Eh/α   predicted    -0.9490962E-04 ( -33.32%)
   displ. norm   :     0.3927465 α      lambda       -0.1656946E-03
   maximum displ.:     0.3052949 α      in ANC's #4, #5, #6, ...

........................................................................
.............................. CYCLE  134 ..............................
........................................................................

 iter      E             dE          RMSdq      gap      omega  full diag
   1    -56.9737153 -0.569737E+02  0.237E-01    0.31       0.0  T
   2    -56.9735982  0.117118E-03  0.147E-01    0.32       1.0  T
   3    -56.9652521  0.834606E-02  0.238E-01    0.32       1.0  T
   4    -56.9730082 -0.775610E-02  0.670E-02    0.32       1.0  T
   5    -56.9737231 -0.714919E-03  0.124E-02    0.32       1.1  T
   6    -56.9737405 -0.173440E-04  0.420E-03    0.32       3.2  T
   7    -56.9737398  0.659195E-06  0.439E-03    0.32       3.1  T
   8    -56.9737421 -0.229364E-05  0.202E-03    0.32       6.7  T
   9    -56.9737422 -0.127643E-06  0.161E-03    0.32       8.4  T
  10    -56.9737423 -0.123416E-06  0.109E-03    0.32      12.4  T
  11    -56.9737425 -0.123562E-06  0.297E-04    0.32      45.4  T
  12    -56.9737425  0.101697E-08  0.239E-04    0.32      56.4  T
     SCC iter.                  ...        0 min,  0.087 sec
     gradient                   ...        0 min,  0.009 sec
 * total energy  :   -56.1698847 Eh     change       -0.1308081E-03 Eh
   gradient norm :     0.0029280 Eh/α   predicted    -0.9562696E-04 ( -26.90%)
   displ. norm   :     0.4429563 α      lambda       -0.1490019E-03
   maximum displ.:     0.3393226 α      in ANC's #4, #5, #6, ...

........................................................................
.............................. CYCLE  135 ..............................
........................................................................

 iter      E             dE          RMSdq      gap      omega  full diag
   1    -56.9731205 -0.569731E+02  0.296E-01    0.31       0.0  T
   2    -56.9729538  0.166792E-03  0.184E-01    0.32       1.0  T
   3    -56.9605725  0.123813E-01  0.292E-01    0.32       1.0  T
   4    -56.9721938 -0.116213E-01  0.774E-02    0.32       1.0  T
   5    -56.9731323 -0.938576E-03  0.146E-02    0.31       1.0  T
   6    -56.9731548 -0.224751E-04  0.501E-03    0.31       2.7  T
   7    -56.9731550 -0.141121E-06  0.440E-03    0.32       3.1  T
   8    -56.9731567 -0.174360E-05  0.245E-03    0.31       5.5  T
   9    -56.9731566  0.107875E-06  0.245E-03    0.31       5.5  T
  10    -56.9731571 -0.521735E-06  0.130E-03    0.31      10.4  T
  11    -56.9731573 -0.196879E-06  0.333E-04    0.31      40.5  T
  12    -56.9731573 -0.142430E-08  0.246E-04    0.31      54.7  T
     SCC iter.                  ...        0 min,  0.108 sec
     gradient                   ...        0 min,  0.008 sec
 * total energy  :   -56.1699953 Eh     change       -0.1105430E-03 Eh
   gradient norm :     0.0038599 Eh/α   predicted    -0.8912233E-04 ( -19.38%)
   displ. norm   :     0.4291160 α      lambda       -0.1240697E-03
   maximum displ.:     0.3279701 α      in ANC's #4, #5, #6, ...

........................................................................
.............................. CYCLE  136 ..............................
........................................................................

 iter      E             dE          RMSdq      gap      omega  full diag
   1    -56.9733333 -0.569733E+02  0.272E-01    0.31       0.0  T
   2    -56.9731417  0.191635E-03  0.170E-01    0.31       1.0  T
   3    -56.9606783  0.124634E-01  0.293E-01    0.32       1.0  T
   4    -56.9723523 -0.116741E-01  0.801E-02    0.32       1.0  T
   5    -56.9733480 -0.995677E-03  0.150E-02    0.31       1.0  T
   6    -56.9733717 -0.237197E-04  0.482E-03    0.31       2.8  T
   7    -56.9733721 -0.405800E-06  0.400E-03    0.31       3.4  T
   8    -56.9733732 -0.110150E-05  0.220E-03    0.31       6.1  T
   9    -56.9733727  0.501642E-06  0.263E-03    0.31       5.1  T
  10    -56.9733734 -0.675679E-06  0.145E-03    0.31       9.3  T
  11    -56.9733737 -0.267568E-06  0.395E-04    0.31      34.2  T
  12    -56.9733737 -0.442567E-08  0.276E-04    0.31      48.9  T
     SCC iter.                  ...        0 min,  0.146 sec
     gradient                   ...        0 min,  0.007 sec
 * total energy  :   -56.1700807 Eh     change       -0.8541334E-04 Eh
   gradient norm :     0.0034608 Eh/α   predicted    -0.7346038E-04 ( -13.99%)
   displ. norm   :     0.3432789 α      lambda       -0.1017841E-03
   maximum displ.:     0.2527077 α      in ANC's #4, #6, #5, ...

........................................................................
.............................. CYCLE  137 ..............................
........................................................................

 iter      E             dE          RMSdq      gap      omega  full diag
   1    -56.9741139 -0.569741E+02  0.240E-01    0.31       0.0  T
   2    -56.9739608  0.153170E-03  0.150E-01    0.31       1.0  T
   3    -56.9648551  0.910568E-02  0.258E-01    0.31       1.0  T
   4    -56.9732640 -0.840894E-02  0.735E-02    0.31       1.0  T
   5    -56.9741227 -0.858722E-03  0.148E-02    0.31       1.0  T
   6    -56.9741452 -0.224187E-04  0.525E-03    0.31       2.6  T
   7    -56.9741465 -0.132472E-05  0.379E-03    0.31       3.6  T
   8    -56.9741474 -0.908303E-06  0.221E-03    0.31       6.1  T
   9    -56.9741472  0.234707E-06  0.231E-03    0.31       5.8  T
  10    -56.9741477 -0.558274E-06  0.127E-03    0.31      10.6  T
  11    -56.9741479 -0.200701E-06  0.310E-04    0.31      43.6  T
  12    -56.9741479 -0.404778E-08  0.204E-04    0.31      66.2  T
     SCC iter.                  ...        0 min,  0.073 sec
     gradient                   ...        0 min,  0.008 sec
 * total energy  :   -56.1701474 Eh     change       -0.6665405E-04 Eh
   gradient norm :     0.0033558 Eh/α   predicted    -0.5689137E-04 ( -14.65%)
   displ. norm   :     0.2384447 α      lambda       -0.8356285E-04
   maximum displ.:     0.1612575 α      in ANC's #4, #6, #5, ...

........................................................................
.............................. CYCLE  138 ..............................
........................................................................

 iter      E             dE          RMSdq      gap      omega  full diag
   1    -56.9759884 -0.569760E+02  0.174E-01    0.31       0.0  T
   2    -56.9758831  0.105345E-03  0.109E-01    0.31       1.0  T
   3    -56.9705881  0.529498E-02  0.196E-01    0.32       1.0  T
   4    -56.9753837 -0.479563E-02  0.617E-02    0.31       1.0  T
   5    -56.9759983 -0.614576E-03  0.109E-02    0.31       1.2  T
   6    -56.9760109 -0.126186E-04  0.361E-03    0.31       3.7  T
   7    -56.9760113 -0.346980E-06  0.302E-03    0.31       4.5  T
   8    -56.9760119 -0.653354E-06  0.131E-03    0.31      10.3  T
   9    -56.9760119  0.315875E-08  0.113E-03    0.31      11.9  T
  10    -56.9760120 -0.990943E-07  0.647E-04    0.31      20.9  T
  11    -56.9760121 -0.450101E-07  0.348E-04    0.31      38.7  T
     SCC iter.                  ...        0 min,  0.068 sec
     gradient                   ...        0 min,  0.010 sec
 * total energy  :   -56.1702017 Eh     change       -0.5433942E-04 Eh
   gradient norm :     0.0022763 Eh/α   predicted    -0.4415829E-04 ( -18.74%)
   displ. norm   :     0.2731835 α      lambda       -0.5047928E-04
   maximum displ.:     0.1823906 α      in ANC's #4, #6, #5, ...

........................................................................
.............................. CYCLE  139 ..............................
........................................................................

 iter      E             dE          RMSdq      gap      omega  full diag
   1    -56.9753174 -0.569753E+02  0.209E-01    0.31       0.0  T
   2    -56.9752032  0.114197E-03  0.131E-01    0.31       1.0  T
   3    -56.9684106  0.679259E-02  0.219E-01    0.32       1.0  T
   4    -56.9746081 -0.619744E-02  0.671E-02    0.31       1.0  T
   5    -56.9753284 -0.720359E-03  0.116E-02    0.31       1.2  T
   6    -56.9753433 -0.148787E-04  0.384E-03    0.31       3.5  T
   7    -56.9753438 -0.514053E-06  0.296E-03    0.31       4.6  T
   8    -56.9753443 -0.456527E-06  0.157E-03    0.31       8.6  T
   9    -56.9753442  0.994230E-07  0.159E-03    0.31       8.5  T
  10    -56.9753444 -0.270155E-06  0.708E-04    0.31      19.0  T
  11    -56.9753445 -0.556758E-07  0.360E-04    0.31      37.5  T
     SCC iter.                  ...        0 min,  0.055 sec
     gradient                   ...        0 min,  0.007 sec
 * total energy  :   -56.1702329 Eh     change       -0.3120122E-04 Eh
   gradient norm :     0.0024984 Eh/α   predicted    -0.2712777E-04 ( -13.06%)
   displ. norm   :     0.0987878 α      lambda       -0.4709214E-04
   maximum displ.:     0.0530610 α      in ANC's #6, #3, #11, ...

........................................................................
.............................. CYCLE  140 ..............................
........................................................................

 iter      E             dE          RMSdq      gap      omega  full diag
   1    -56.9766922 -0.569767E+02  0.881E-02    0.31       0.0  T
   2    -56.9766688  0.234078E-04  0.561E-02    0.31       1.0  T
   3    -56.9758146  0.854133E-03  0.844E-02    0.31       1.0  T
   4    -56.9765000 -0.685392E-03  0.355E-02    0.31       1.0  T
   5    -56.9766934 -0.193332E-03  0.737E-03    0.31       1.8  T
   6    -56.9767005 -0.712537E-05  0.237E-03    0.31       5.7  T
   7    -56.9767006 -0.891152E-07  0.189E-03    0.31       7.1  T
   8    -56.9767008 -0.218800E-06  0.115E-03    0.31      11.7  T
   9    -56.9767009 -0.149188E-06  0.512E-04    0.31      26.3  T
  10    -56.9767010 -0.184879E-07  0.358E-04    0.31      37.7  T
     SCC iter.                  ...        0 min,  0.049 sec
     gradient                   ...        0 min,  0.007 sec
 * total energy  :   -56.1702591 Eh     change       -0.2620421E-04 Eh
   gradient norm :     0.0020990 Eh/α   predicted    -0.2377658E-04 (  -9.26%)
   displ. norm   :     0.0732459 α      lambda       -0.2529349E-04
   maximum displ.:     0.0430610 α      in ANC's #6, #5, #1, ...

........................................................................
.............................. CYCLE  141 ..............................
........................................................................

 iter      E             dE          RMSdq      gap      omega  full diag
   1    -56.9759068 -0.569759E+02  0.702E-02    0.31       0.0  T
   2    -56.9758993  0.751669E-05  0.439E-02    0.31       1.0  T
   3    -56.9754474  0.451901E-03  0.598E-02    0.31       1.0  T
   4    -56.9758345 -0.387155E-03  0.218E-02    0.31       1.0  T
   5    -56.9759077 -0.731591E-04  0.370E-03    0.31       3.6  T
   6    -56.9759094 -0.168485E-05  0.142E-03    0.31       9.5  T
   7    -56.9759094 -0.459002E-07  0.113E-03    0.31      11.9  T
   8    -56.9759095 -0.828165E-07  0.618E-04    0.31      21.8  T
   9    -56.9759096 -0.340488E-07  0.347E-04    0.31      38.8  T
     SCC iter.                  ...        0 min,  0.043 sec
     gradient                   ...        0 min,  0.007 sec
 * total energy  :   -56.1702780 Eh     change       -0.1892689E-04 Eh
   gradient norm :     0.0019196 Eh/α   predicted    -0.1271630E-04 ( -32.81%)
   displ. norm   :     0.1625912 α      lambda       -0.4127713E-04
   maximum displ.:     0.0986681 α      in ANC's #6, #5, #3, ...

........................................................................
.............................. CYCLE  142 ..............................
........................................................................

 iter      E             dE          RMSdq      gap      omega  full diag
   1    -56.9748377 -0.569748E+02  0.148E-01    0.31       0.0  T
   2    -56.9747974  0.402891E-04  0.929E-02    0.31       1.0  T
   3    -56.9721998  0.259766E-02  0.133E-01    0.32       1.0  T
   4    -56.9745079 -0.230811E-02  0.465E-02    0.31       1.0  T
   5    -56.9748412 -0.333261E-03  0.964E-03    0.31       1.4  T
   6    -56.9748498 -0.859668E-05  0.309E-03    0.31       4.4  T
   7    -56.9748498 -0.526997E-07  0.245E-03    0.31       5.5  T
   8    -56.9748502 -0.440371E-06  0.127E-03    0.31      10.6  T
   9    -56.9748504 -0.119205E-06  0.686E-04    0.31      19.6  T
  10    -56.9748504 -0.120308E-07  0.539E-04    0.31      25.0  T
     SCC iter.                  ...        0 min,  0.055 sec
     gradient                   ...        0 min,  0.008 sec
 * total energy  :   -56.1702981 Eh     change       -0.2005444E-04 Eh
   gradient norm :     0.0033515 Eh/α   predicted    -0.2088385E-04 (   4.14%)
   displ. norm   :     0.0449765 α      lambda       -0.3240807E-04
   maximum displ.:     0.0260071 α      in ANC's #6, #1, #4, ...

........................................................................
.............................. CYCLE  143 ..............................
........................................................................

 iter      E             dE          RMSdq      gap      omega  full diag
   1    -56.9742391 -0.569742E+02  0.431E-02    0.31       0.0  T
   2    -56.9742343  0.481805E-05  0.273E-02    0.31       1.0  T
   3    -56.9739444  0.289884E-03  0.482E-02    0.31       1.0  T
   4    -56.9742187 -0.274234E-03  0.122E-02    0.31       1.1  T
   5    -56.9742392 -0.205688E-04  0.285E-03    0.31       4.7  T
   6    -56.9742402 -0.990585E-06  0.108E-03    0.31      12.4  T
   7    -56.9742403 -0.463728E-07  0.890E-04    0.31      15.2  T
   8    -56.9742403 -0.610419E-07  0.382E-04    0.31      35.3  T
     SCC iter.                  ...        0 min,  0.040 sec
     gradient                   ...        0 min,  0.007 sec
 * total energy  :   -56.1703174 Eh     change       -0.1933957E-04 Eh
   gradient norm :     0.0026466 Eh/α   predicted    -0.1624069E-04 ( -16.02%)
   displ. norm   :     0.0509250 α      lambda       -0.3297618E-04
   maximum displ.:     0.0332409 α      in ANC's #6, #5, #3, ...

........................................................................
.............................. CYCLE  144 ..............................
........................................................................

 iter      E             dE          RMSdq      gap      omega  full diag
   1    -56.9747140 -0.569747E+02  0.456E-02    0.31       0.0  T
   2    -56.9747071  0.689969E-05  0.289E-02    0.31       1.0  T
   3    -56.9743574  0.349708E-03  0.489E-02    0.31       1.0  T
   4    -56.9746640 -0.306574E-03  0.179E-02    0.31       1.0  T
   5    -56.9747150 -0.510384E-04  0.288E-03    0.31       4.7  T
   6    -56.9747158 -0.762404E-06  0.106E-03    0.31      12.7  T
   7    -56.9747157  0.240636E-07  0.103E-03    0.31      13.1  T
   8    -56.9747158 -0.792817E-07  0.470E-04    0.31      28.7  T
   9    -56.9747158 -0.150007E-07  0.290E-04    0.31      46.5  T
     SCC iter.                  ...        0 min,  0.046 sec
     gradient                   ...        0 min,  0.007 sec
 * total energy  :   -56.1703429 Eh     change       -0.2545217E-04 Eh
   gradient norm :     0.0019648 Eh/α   predicted    -0.1653401E-04 ( -35.04%)
   displ. norm   :     0.2936304 α      lambda       -0.6253866E-04
   maximum displ.:     0.2000340 α      in ANC's #6, #5, #3, ...

........................................................................
.............................. CYCLE  145 ..............................
........................................................................

 iter      E             dE          RMSdq      gap      omega  full diag
   1    -56.9754870 -0.569755E+02  0.257E-01    0.31       0.0  T
   2    -56.9752386  0.248431E-03  0.163E-01    0.31       1.0  T
   3    -56.9600760  0.151626E-01  0.308E-01    0.33       1.0  T
   4    -56.9747829 -0.147070E-01  0.739E-02    0.31       1.0  T
   5    -56.9755094 -0.726429E-03  0.140E-02    0.31       1.0  T
   6    -56.9755248 -0.154539E-04  0.722E-03    0.31       1.9  T
   7    -56.9755292 -0.434277E-05  0.445E-03    0.31       3.0  T
   8    -56.9755308 -0.157775E-05  0.251E-03    0.31       5.4  T
   9    -56.9755305  0.213466E-06  0.249E-03    0.31       5.4  T
  10    -56.9755312 -0.630934E-06  0.774E-04    0.31      17.4  T
  11    -56.9755312 -0.474728E-07  0.382E-04    0.31      35.3  T
     SCC iter.                  ...        0 min,  0.058 sec
     gradient                   ...        0 min,  0.007 sec
 * total energy  :   -56.1703886 Eh     change       -0.4574394E-04 Eh
   gradient norm :     0.0035152 Eh/α   predicted    -0.3246975E-04 ( -29.02%)
   displ. norm   :     0.1765411 α      lambda       -0.4450200E-04
   maximum displ.:     0.1173666 α      in ANC's #6, #5, #3, ...

........................................................................
.............................. CYCLE  146 ..............................
........................................................................

 iter      E             dE          RMSdq      gap      omega  full diag
   1    -56.9749781 -0.569750E+02  0.151E-01    0.31       0.0  T
   2    -56.9749318  0.463058E-04  0.950E-02    0.31       1.0  T
   3    -56.9717215  0.321032E-02  0.143E-01    0.32       1.0  T
   4    -56.9747153 -0.299381E-02  0.424E-02    0.31       1.0  T
   5    -56.9749838 -0.268495E-03  0.712E-03    0.31       1.9  T
   6    -56.9749890 -0.525073E-05  0.330E-03    0.31       4.1  T
   7    -56.9749892 -0.181143E-06  0.266E-03    0.31       5.1  T
   8    -56.9749898 -0.583678E-06  0.155E-03    0.31       8.7  T
   9    -56.9749900 -0.175617E-06  0.118E-03    0.31      11.5  T
  10    -56.9749901 -0.123046E-06  0.660E-04    0.31      20.4  T
  11    -56.9749901 -0.411739E-07  0.216E-04    0.31      62.4  T
     SCC iter.                  ...        0 min,  0.052 sec
     gradient                   ...        0 min,  0.006 sec
 * total energy  :   -56.1704228 Eh     change       -0.3418904E-04 Eh
   gradient norm :     0.0031388 Eh/α   predicted    -0.2294781E-04 ( -32.88%)
   displ. norm   :     0.3095843 α      lambda       -0.7493911E-04
   maximum displ.:     0.2008660 α      in ANC's #6, #5, #3, ...

........................................................................
.............................. CYCLE  147 ..............................
........................................................................

 iter      E             dE          RMSdq      gap      omega  full diag
   1    -56.9741525 -0.569742E+02  0.254E-01    0.31       0.0  T
   2    -56.9739930  0.159496E-03  0.160E-01    0.31       1.0  T
   3    -56.9639693  0.100237E-01  0.254E-01    0.33       1.0  T
   4    -56.9734420 -0.947278E-02  0.721E-02    0.31       1.0  T
   5    -56.9741711 -0.729072E-03  0.125E-02    0.31       1.1  T
   6    -56.9741870 -0.158522E-04  0.585E-03    0.31       2.3  T
   7    -56.9741877 -0.741867E-06  0.471E-03    0.31       2.9  T
   8    -56.9741898 -0.203540E-05  0.280E-03    0.31       4.8  T
   9    -56.9741900 -0.223305E-06  0.262E-03    0.31       5.1  T
  10    -56.9741906 -0.588613E-06  0.125E-03    0.31      10.8  T
  11    -56.9741907 -0.139208E-06  0.377E-04    0.31      35.8  T
  12    -56.9741907 -0.608387E-08  0.272E-04    0.31      49.6  T
     SCC iter.                  ...        0 min,  0.062 sec
     gradient                   ...        0 min,  0.007 sec
 * total energy  :   -56.1704763 Eh     change       -0.5350151E-04 Eh
   gradient norm :     0.0025747 Eh/α   predicted    -0.4106474E-04 ( -23.25%)
   displ. norm   :     0.2712568 α      lambda       -0.5160835E-04
   maximum displ.:     0.1709121 α      in ANC's #6, #5, #3, ...

........................................................................
.............................. CYCLE  148 ..............................
........................................................................

 iter      E             dE          RMSdq      gap      omega  full diag
   1    -56.9738925 -0.569739E+02  0.218E-01    0.31       0.0  T
   2    -56.9737552  0.137230E-03  0.138E-01    0.31       1.0  T
   3    -56.9656735  0.808170E-02  0.230E-01    0.33       1.0  T
   4    -56.9733761 -0.770257E-02  0.622E-02    0.31       1.0  T
   5    -56.9739057 -0.529568E-03  0.116E-02    0.31       1.2  T
   6    -56.9739194 -0.137609E-04  0.542E-03    0.31       2.5  T
   7    -56.9739201 -0.663372E-06  0.455E-03    0.31       3.0  T
   8    -56.9739225 -0.237033E-05  0.220E-03    0.31       6.1  T
   9    -56.9739225 -0.872686E-07  0.202E-03    0.31       6.7  T
  10    -56.9739228 -0.305804E-06  0.107E-03    0.31      12.6  T
  11    -56.9739229 -0.102810E-06  0.323E-04    0.31      41.7  T
  12    -56.9739230 -0.431585E-08  0.237E-04    0.31      56.9  T
     SCC iter.                  ...        0 min,  0.060 sec
     gradient                   ...        0 min,  0.009 sec
 * total energy  :   -56.1705151 Eh     change       -0.3883315E-04 Eh
   gradient norm :     0.0027059 Eh/α   predicted    -0.2770522E-04 ( -28.66%)
   displ. norm   :     0.2677297 α      lambda       -0.6687925E-04
   maximum displ.:     0.1496778 α      in ANC's #6, #5, #4, ...

........................................................................
.............................. CYCLE  149 ..............................
........................................................................

 iter      E             dE          RMSdq      gap      omega  full diag
   1    -56.9751106 -0.569751E+02  0.194E-01    0.31       0.0  T
   2    -56.9749461  0.164458E-03  0.124E-01    0.31       1.0  T
   3    -56.9672706  0.767549E-02  0.224E-01    0.33       1.0  T
   4    -56.9746233 -0.735271E-02  0.614E-02    0.31       1.0  T
   5    -56.9751166 -0.493249E-03  0.142E-02    0.31       1.0  T
   6    -56.9751391 -0.225821E-04  0.576E-03    0.31       2.3  T
   7    -56.9751405 -0.135524E-05  0.468E-03    0.31       2.9  T
   8    -56.9751430 -0.249415E-05  0.210E-03    0.31       6.4  T
   9    -56.9751430  0.274113E-07  0.203E-03    0.31       6.7  T
  10    -56.9751432 -0.276643E-06  0.115E-03    0.31      11.7  T
  11    -56.9751434 -0.120647E-06  0.314E-04    0.31      43.0  T
  12    -56.9751434 -0.377965E-08  0.235E-04    0.31      57.4  T
     SCC iter.                  ...        0 min,  0.062 sec
     gradient                   ...        0 min,  0.007 sec
 * total energy  :   -56.1705522 Eh     change       -0.3707291E-04 Eh
   gradient norm :     0.0034617 Eh/α   predicted    -0.3584063E-04 (  -3.32%)
   displ. norm   :     0.5345053 α      lambda       -0.9605815E-04
   maximum displ.:     0.3323650 α      in ANC's #6, #5, #3, ...

........................................................................
.............................. CYCLE  150 ..............................
........................................................................

 iter      E             dE          RMSdq      gap      omega  full diag
   1    -56.9726669 -0.569727E+02  0.421E-01    0.32       0.0  T
   2    -56.9721687  0.498170E-03  0.266E-01    0.31       1.0  T
   3    -56.9434426  0.287261E-01  0.454E-01    0.36       1.0  T
   4    -56.9704591 -0.270165E-01  0.130E-01    0.31       1.0  T
   5    -56.9726549 -0.219588E-02  0.313E-02    0.31       1.0  T
   6    -56.9727569 -0.101916E-03  0.142E-02    0.31       1.0  T
   7    -56.9727776 -0.207219E-04  0.895E-03    0.32       1.5  T
   8    -56.9727825 -0.493636E-05  0.547E-03    0.31       2.5  T
   9    -56.9727811  0.144691E-05  0.526E-03    0.31       2.6  T
  10    -56.9727839 -0.281756E-05  0.134E-03    0.32      10.1  T
  11    -56.9727840 -0.148812E-06  0.634E-04    0.31      21.3  T
  12    -56.9727840  0.100796E-07  0.513E-04    0.32      26.3  T
     SCC iter.                  ...        0 min,  0.060 sec
     gradient                   ...        0 min,  0.010 sec
 * total energy  :   -56.1705531 Eh     change       -0.8755914E-06 Eh
   gradient norm :     0.0059044 Eh/α   predicted    -0.6175456E-04 (6952.90%)
   displ. norm   :     0.2099573 α      lambda       -0.1269309E-03
   maximum displ.:     0.1381569 α      in ANC's #6, #5, #3, ...
 * RMSD in coord.:     0.7611268 α      energy gain  -0.3026510E-02 Eh

generating ANC from exact Hessian ...
Using Lindh-Hessian (1995)
 Shifting diagonal of input Hessian by   1.027638565877023E-002
 Lowest  eigenvalues of input Hessian
    0.010000    0.010051    0.000000    0.000000    0.000000    0.000000
    0.000000    0.000000    0.010352    0.010593    0.010754    0.010953
    0.011454    0.012047    0.012365    0.012458    0.012841    0.013148
 Highest eigenvalues
    1.312536    1.336449    1.354051    1.377534    1.394840    1.423633
 

........................................................................
.............................. CYCLE  151 ..............................
........................................................................

 iter      E             dE          RMSdq      gap      omega  full diag
   1    -56.9762774 -0.569763E+02  0.164E-01    0.32       0.0  T
   2    -56.9762366  0.408769E-04  0.103E-01    0.32       1.0  T
   3    -56.9736193  0.261724E-02  0.135E-01    0.31       1.0  T
   4    -56.9759093 -0.229001E-02  0.486E-02    0.32       1.0  T
   5    -56.9762838 -0.374452E-03  0.800E-03    0.32       1.7  T
   6    -56.9762894 -0.561498E-05  0.468E-03    0.32       2.9  T
   7    -56.9762901 -0.683659E-06  0.386E-03    0.32       3.5  T
   8    -56.9762920 -0.191490E-05  0.157E-03    0.32       8.6  T
   9    -56.9762922 -0.251123E-06  0.779E-04    0.32      17.3  T
  10    -56.9762923 -0.260978E-07  0.563E-04    0.32      23.9  T
     SCC iter.                  ...        0 min,  0.068 sec
     gradient                   ...        0 min,  0.008 sec
 * total energy  :   -56.1706104 Eh     change       -0.5726227E-04 Eh
   gradient norm :     0.0025896 Eh/α   predicted     0.0000000E+00 (-100.00%)
   displ. norm   :     0.0298977 α      lambda       -0.2687110E-04
   maximum displ.:     0.0106706 α      in ANC's #4, #9, #11, ...

........................................................................
.............................. CYCLE  152 ..............................
........................................................................

 iter      E             dE          RMSdq      gap      omega  full diag
   1    -56.9762267 -0.569762E+02  0.350E-02    0.32       0.0  T
   2    -56.9762207  0.595222E-05  0.228E-02    0.32       1.0  T
   3    -56.9758810  0.339684E-03  0.475E-02    0.32       1.0  T
   4    -56.9762108 -0.329809E-03  0.112E-02    0.32       1.2  T
   5    -56.9762272 -0.164060E-04  0.203E-03    0.32       6.7  T
   6    -56.9762276 -0.413209E-06  0.805E-04    0.32      16.8  T
   7    -56.9762276  0.599461E-08  0.754E-04    0.32      17.9  T
     SCC iter.                  ...        0 min,  0.042 sec
     gradient                   ...        0 min,  0.009 sec
 * total energy  :   -56.1706263 Eh     change       -0.1592064E-04 Eh
   gradient norm :     0.0015692 Eh/α   predicted    -0.1355342E-04 ( -14.87%)
   displ. norm   :     0.0832582 α      lambda       -0.3284924E-04
   maximum displ.:     0.0462423 α      in ANC's #11, #8, #4, ...

........................................................................
.............................. CYCLE  153 ..............................
........................................................................

 iter      E             dE          RMSdq      gap      omega  full diag
   1    -56.9759913 -0.569760E+02  0.802E-02    0.32       0.0  T
   2    -56.9759361  0.551505E-04  0.537E-02    0.32       1.0  T
   3    -56.9741475  0.178861E-02  0.110E-01    0.32       1.0  T
   4    -56.9758382 -0.169071E-02  0.341E-02    0.31       1.0  T
   5    -56.9759919 -0.153603E-03  0.878E-03    0.32       1.5  T
   6    -56.9760004 -0.856640E-05  0.212E-03    0.32       6.3  T
   7    -56.9760002  0.210816E-06  0.238E-03    0.32       5.7  T
   8    -56.9760008 -0.555238E-06  0.979E-04    0.32      13.8  T
   9    -56.9760008 -0.494467E-07  0.718E-04    0.32      18.8  T
     SCC iter.                  ...        0 min,  0.047 sec
     gradient                   ...        0 min,  0.007 sec
 * total energy  :   -56.1706244 Eh     change        0.1882848E-05 Eh
   gradient norm :     0.0029732 Eh/α   predicted    -0.1647780E-04 (-975.15%)
   displ. norm   :     0.0397821 α      lambda       -0.4496502E-04
   maximum displ.:     0.0181664 α      in ANC's #4, #11, #24, ...

........................................................................
.............................. CYCLE  154 ..............................
........................................................................

 iter      E             dE          RMSdq      gap      omega  full diag
   1    -56.9760201 -0.569760E+02  0.438E-02    0.32       0.0  T
   2    -56.9760116  0.845755E-05  0.284E-02    0.32       1.0  T
   3    -56.9755929  0.418718E-03  0.539E-02    0.32       1.0  T
   4    -56.9759882 -0.395248E-03  0.149E-02    0.31       1.0  T
   5    -56.9760207 -0.325304E-04  0.282E-03    0.32       4.8  T
   6    -56.9760216 -0.916119E-06  0.117E-03    0.32      11.5  T
   7    -56.9760215  0.141975E-06  0.141E-03    0.32       9.6  T
   8    -56.9760217 -0.261757E-06  0.522E-04    0.32      25.8  T
   9    -56.9760218 -0.214592E-07  0.312E-04    0.32      43.2  T
     SCC iter.                  ...        0 min,  0.043 sec
     gradient                   ...        0 min,  0.007 sec
 * total energy  :   -56.1706494 Eh     change       -0.2503085E-04 Eh
   gradient norm :     0.0026629 Eh/α   predicted    -0.2252317E-04 ( -10.02%)
   displ. norm   :     0.0245617 α      lambda       -0.2632068E-04
   maximum displ.:     0.0095754 α      in ANC's #4, #6, #11, ...

........................................................................
.............................. CYCLE  155 ..............................
........................................................................

 iter      E             dE          RMSdq      gap      omega  full diag
   1    -56.9761940 -0.569762E+02  0.239E-02    0.32       0.0  T
   2    -56.9761913  0.270880E-05  0.158E-02    0.32       1.0  T
   3    -56.9761288  0.624494E-04  0.228E-02    0.32       1.0  T
   4    -56.9761838 -0.549531E-04  0.827E-03    0.32       1.6  T
   5    -56.9761941 -0.102825E-04  0.249E-03    0.32       5.4  T
   6    -56.9761949 -0.802112E-06  0.832E-04    0.32      16.2  T
   7    -56.9761948  0.243856E-07  0.827E-04    0.32      16.3  T
     SCC iter.                  ...        0 min,  0.036 sec
     gradient                   ...        0 min,  0.008 sec
 * total energy  :   -56.1706638 Eh     change       -0.1440584E-04 Eh
   gradient norm :     0.0010745 Eh/α   predicted    -0.1316848E-04 (  -8.59%)
   displ. norm   :     0.0623698 α      lambda       -0.1292838E-04
   maximum displ.:     0.0305527 α      in ANC's #4, #11, #6, ...

........................................................................
.............................. CYCLE  156 ..............................
........................................................................

 iter      E             dE          RMSdq      gap      omega  full diag
   1    -56.9762766 -0.569763E+02  0.535E-02    0.32       0.0  T
   2    -56.9762552  0.214307E-04  0.351E-02    0.32       1.0  T
   3    -56.9755934  0.661786E-03  0.697E-02    0.32       1.0  T
   4    -56.9761893 -0.595834E-03  0.243E-02    0.32       1.0  T
   5    -56.9762785 -0.892844E-04  0.411E-03    0.32       3.3  T
   6    -56.9762805 -0.197176E-05  0.122E-03    0.32      11.1  T
   7    -56.9762805  0.103929E-07  0.111E-03    0.32      12.2  T
   8    -56.9762806 -0.108437E-06  0.638E-04    0.32      21.1  T
   9    -56.9762807 -0.467096E-07  0.337E-04    0.32      40.0  T
     SCC iter.                  ...        0 min,  0.046 sec
     gradient                   ...        0 min,  0.007 sec
 * total energy  :   -56.1706769 Eh     change       -0.1302667E-04 Eh
   gradient norm :     0.0012484 Eh/α   predicted    -0.6476089E-05 ( -50.29%)
   displ. norm   :     0.0623698 α      lambda        0.0000000E+00
   maximum displ.:     0.0305527 α      in ANC's #4, #11, #6, ...

........................................................................
.............................. CYCLE  157 ..............................
........................................................................

 iter      E             dE          RMSdq      gap      omega  full diag
   1    -56.9763067 -0.569763E+02  0.533E-02    0.32       0.0  T
   2    -56.9762868  0.199409E-04  0.349E-02    0.32       1.0  T
   3    -56.9756699  0.616885E-03  0.676E-02    0.32       1.0  T
   4    -56.9762224 -0.552505E-03  0.237E-02    0.32       1.0  T
   5    -56.9763084 -0.859341E-04  0.426E-03    0.32       3.2  T
   6    -56.9763105 -0.213966E-05  0.133E-03    0.32      10.1  T
   7    -56.9763105  0.177731E-07  0.127E-03    0.32      10.6  T
   8    -56.9763107 -0.176966E-06  0.603E-04    0.32      22.4  T
   9    -56.9763107 -0.364569E-07  0.295E-04    0.32      45.7  T
     SCC iter.                  ...        0 min,  0.049 sec
     gradient                   ...        0 min,  0.007 sec
 * total energy  :   -56.1706768 Eh     change        0.7383791E-07 Eh
   gradient norm :     0.0025465 Eh/α   predicted    -0.4748881E-08 (-106.43%)
   displ. norm   :     0.0668269 α      lambda       -0.2233338E-04
   maximum displ.:     0.0334371 α      in ANC's #11, #4, #6, ...

........................................................................
.............................. CYCLE  158 ..............................
........................................................................

 iter      E             dE          RMSdq      gap      omega  full diag
   1    -56.9763097 -0.569763E+02  0.507E-02    0.32       0.0  T
   2    -56.9762745  0.352142E-04  0.348E-02    0.32       1.0  T
   3    -56.9755452  0.729324E-03  0.715E-02    0.32       1.0  T
   4    -56.9762238 -0.678603E-03  0.253E-02    0.32       1.0  T
   5    -56.9763119 -0.881342E-04  0.535E-03    0.32       2.5  T
   6    -56.9763150 -0.309776E-05  0.141E-03    0.32       9.6  T
   7    -56.9763150  0.546786E-07  0.145E-03    0.32       9.3  T
   8    -56.9763152 -0.184597E-06  0.645E-04    0.32      20.9  T
   9    -56.9763152 -0.268103E-07  0.441E-04    0.32      30.6  T
     SCC iter.                  ...        0 min,  0.057 sec
     gradient                   ...        0 min,  0.012 sec
 * total energy  :   -56.1706938 Eh     change       -0.1703818E-04 Eh
   gradient norm :     0.0017966 Eh/α   predicted    -0.1121711E-04 ( -34.16%)
   displ. norm   :     0.1619572 α      lambda       -0.2220774E-04
   maximum displ.:     0.0847561 α      in ANC's #4, #11, #6, ...

........................................................................
.............................. CYCLE  159 ..............................
........................................................................

 iter      E             dE          RMSdq      gap      omega  full diag
   1    -56.9764132 -0.569764E+02  0.121E-01    0.33       0.0  T
   2    -56.9762287  0.184455E-03  0.823E-02    0.32       1.0  T
   3    -56.9723470  0.388173E-02  0.167E-01    0.33       1.0  T
   4    -56.9759156 -0.356858E-02  0.604E-02    0.32       1.0  T
   5    -56.9764259 -0.510362E-03  0.120E-02    0.33       1.1  T
   6    -56.9764419 -0.159527E-04  0.332E-03    0.33       4.1  T
   7    -56.9764418  0.629965E-07  0.317E-03    0.33       4.3  T
   8    -56.9764428 -0.915100E-06  0.128E-03    0.33      10.5  T
   9    -56.9764426  0.134933E-06  0.151E-03    0.33       8.9  T
  10    -56.9764428 -0.196085E-06  0.762E-04    0.33      17.7  T
  11    -56.9764429 -0.722274E-07  0.236E-04    0.33      57.3  T
     SCC iter.                  ...        0 min,  0.070 sec
     gradient                   ...        0 min,  0.009 sec
 * total energy  :   -56.1707071 Eh     change       -0.1329966E-04 Eh
   gradient norm :     0.0013495 Eh/α   predicted    -0.1123636E-04 ( -15.51%)
   displ. norm   :     0.0292453 α      lambda       -0.6896258E-05
   maximum displ.:     0.0151280 α      in ANC's #4, #6, #9, ...

........................................................................
.............................. CYCLE  160 ..............................
........................................................................

 iter      E             dE          RMSdq      gap      omega  full diag
   1    -56.9767434 -0.569767E+02  0.297E-02    0.33       0.0  T
   2    -56.9767379  0.548665E-05  0.194E-02    0.33       1.0  T
   3    -56.9765347  0.203223E-03  0.378E-02    0.33       1.0  T
   4    -56.9767245 -0.189874E-03  0.114E-02    0.33       1.2  T
   5    -56.9767435 -0.189837E-04  0.250E-03    0.33       5.4  T
   6    -56.9767443 -0.786558E-06  0.757E-04    0.33      17.8  T
   7    -56.9767443  0.145618E-07  0.759E-04    0.33      17.8  T
     SCC iter.                  ...        0 min,  0.045 sec
     gradient                   ...        0 min,  0.008 sec
 * total energy  :   -56.1707141 Eh     change       -0.6971975E-05 Eh
   gradient norm :     0.0009100 Eh/α   predicted    -0.3449586E-05 ( -50.52%)
   displ. norm   :     0.0685761 α      lambda       -0.1273422E-04
   maximum displ.:     0.0348485 α      in ANC's #4, #6, #9, ...

........................................................................
.............................. CYCLE  161 ..............................
........................................................................

 iter      E             dE          RMSdq      gap      omega  full diag
   1    -56.9773119 -0.569773E+02  0.635E-02    0.33       0.0  T
   2    -56.9772883  0.236037E-04  0.414E-02    0.33       1.0  T
   3    -56.9765776  0.710698E-03  0.737E-02    0.33       1.0  T
   4    -56.9771652 -0.587549E-03  0.309E-02    0.33       1.0  T
   5    -56.9773135 -0.148277E-03  0.562E-03    0.33       2.4  T
   6    -56.9773176 -0.411421E-05  0.166E-03    0.33       8.1  T
   7    -56.9773176 -0.120472E-07  0.148E-03    0.33       9.1  T
   8    -56.9773178 -0.194772E-06  0.799E-04    0.33      16.9  T
   9    -56.9773178 -0.480309E-07  0.517E-04    0.33      26.1  T
     SCC iter.                  ...        0 min,  0.051 sec
     gradient                   ...        0 min,  0.008 sec
 * total energy  :   -56.1707221 Eh     change       -0.7999503E-05 Eh
   gradient norm :     0.0012126 Eh/α   predicted    -0.6382074E-05 ( -20.22%)
   displ. norm   :     0.0703480 α      lambda       -0.7303518E-05
   maximum displ.:     0.0403522 α      in ANC's #4, #6, #9, ...

........................................................................
.............................. CYCLE  162 ..............................
........................................................................

 iter      E             dE          RMSdq      gap      omega  full diag
   1    -56.9771412 -0.569771E+02  0.589E-02    0.33       0.0  T
   2    -56.9771067  0.345207E-04  0.392E-02    0.33       1.0  T
   3    -56.9761618  0.944883E-03  0.811E-02    0.33       1.0  T
   4    -56.9770420 -0.880175E-03  0.271E-02    0.33       1.0  T
   5    -56.9771432 -0.101201E-03  0.534E-03    0.33       2.5  T
   6    -56.9771466 -0.334673E-05  0.153E-03    0.33       8.8  T
   7    -56.9771466  0.438665E-08  0.150E-03    0.33       9.0  T
   8    -56.9771468 -0.253593E-06  0.599E-04    0.33      22.5  T
   9    -56.9771468 -0.176407E-07  0.395E-04    0.33      34.1  T
     SCC iter.                  ...        0 min,  0.052 sec
     gradient                   ...        0 min,  0.009 sec
 * total energy  :   -56.1707292 Eh     change       -0.7075540E-05 Eh
   gradient norm :     0.0009634 Eh/α   predicted    -0.3660527E-05 ( -48.27%)
   displ. norm   :     0.1146981 α      lambda       -0.8711790E-05
   maximum displ.:     0.0695627 α      in ANC's #4, #6, #9, ...

........................................................................
.............................. CYCLE  163 ..............................
........................................................................

 iter      E             dE          RMSdq      gap      omega  full diag
   1    -56.9768530 -0.569769E+02  0.898E-02    0.33       0.0  T
   2    -56.9767773  0.756644E-04  0.596E-02    0.33       1.0  T
   3    -56.9746261  0.215123E-02  0.122E-01    0.34       1.0  T
   4    -56.9766192 -0.199311E-02  0.417E-02    0.33       1.0  T
   5    -56.9768576 -0.238447E-03  0.820E-03    0.33       1.6  T
   6    -56.9768654 -0.782983E-05  0.251E-03    0.33       5.4  T
   7    -56.9768654  0.104345E-07  0.247E-03    0.33       5.5  T
   8    -56.9768661 -0.638737E-06  0.987E-04    0.33      13.7  T
   9    -56.9768661 -0.606105E-08  0.823E-04    0.33      16.4  T
     SCC iter.                  ...        0 min,  0.049 sec
     gradient                   ...        0 min,  0.008 sec
 * total energy  :   -56.1707366 Eh     change       -0.7444193E-05 Eh
   gradient norm :     0.0009471 Eh/α   predicted    -0.4382895E-05 ( -41.12%)
   displ. norm   :     0.0836409 α      lambda       -0.5940745E-05
   maximum displ.:     0.0528781 α      in ANC's #4, #6, #9, ...

........................................................................
.............................. CYCLE  164 ..............................
........................................................................

 iter      E             dE          RMSdq      gap      omega  full diag
   1    -56.9769702 -0.569770E+02  0.681E-02    0.33       0.0  T
   2    -56.9769381  0.321692E-04  0.444E-02    0.33       1.0  T
   3    -56.9758599  0.107818E-02  0.874E-02    0.34       1.0  T
   4    -56.9768348 -0.974899E-03  0.310E-02    0.33       1.0  T
   5    -56.9769726 -0.137793E-03  0.560E-03    0.33       2.4  T
   6    -56.9769762 -0.359763E-05  0.189E-03    0.33       7.1  T
   7    -56.9769763 -0.119651E-06  0.162E-03    0.33       8.3  T
   8    -56.9769766 -0.263192E-06  0.705E-04    0.33      19.1  T
   9    -56.9769766 -0.237407E-07  0.457E-04    0.33      29.5  T
     SCC iter.                  ...        0 min,  0.046 sec
     gradient                   ...        0 min,  0.007 sec
 * total energy  :   -56.1707435 Eh     change       -0.6858195E-05 Eh
   gradient norm :     0.0009517 Eh/α   predicted    -0.2983966E-05 ( -56.49%)
   displ. norm   :     0.1057443 α      lambda       -0.8924314E-05
   maximum displ.:     0.0654139 α      in ANC's #4, #5, #9, ...

........................................................................
.............................. CYCLE  165 ..............................
........................................................................

 iter      E             dE          RMSdq      gap      omega  full diag
   1    -56.9772887 -0.569773E+02  0.852E-02    0.33       0.0  T
   2    -56.9772539  0.347579E-04  0.546E-02    0.33       1.0  T
   3    -56.9758880  0.136596E-02  0.992E-02    0.34       1.0  T
   4    -56.9770832 -0.119528E-02  0.377E-02    0.33       1.0  T
   5    -56.9772918 -0.208524E-03  0.612E-03    0.33       2.2  T
   6    -56.9772963 -0.456676E-05  0.258E-03    0.33       5.2  T
   7    -56.9772968 -0.514569E-06  0.187E-03    0.33       7.2  T
   8    -56.9772972 -0.312537E-06  0.904E-04    0.33      14.9  T
   9    -56.9772972 -0.388302E-07  0.595E-04    0.33      22.7  T
     SCC iter.                  ...        0 min,  0.045 sec
     gradient                   ...        0 min,  0.008 sec
 * total energy  :   -56.1707529 Eh     change       -0.9399054E-05 Eh
   gradient norm :     0.0009674 Eh/α   predicted    -0.4485816E-05 ( -52.27%)
   displ. norm   :     0.1189600 α      lambda       -0.8240991E-05
   maximum displ.:     0.0754090 α      in ANC's #4, #5, #1, ...

........................................................................
.............................. CYCLE  166 ..............................
........................................................................

 iter      E             dE          RMSdq      gap      omega  full diag
   1    -56.9773478 -0.569773E+02  0.965E-02    0.33       0.0  T
   2    -56.9773096  0.381985E-04  0.614E-02    0.33       1.0  T
   3    -56.9757578  0.155177E-02  0.108E-01    0.34       1.0  T
   4    -56.9771036 -0.134575E-02  0.409E-02    0.33       1.0  T
   5    -56.9773507 -0.247137E-03  0.743E-03    0.33       1.8  T
   6    -56.9773567 -0.605597E-05  0.282E-03    0.33       4.8  T
   7    -56.9773572 -0.484883E-06  0.210E-03    0.33       6.4  T
   8    -56.9773576 -0.398236E-06  0.100E-03    0.33      13.4  T
   9    -56.9773577 -0.394219E-07  0.651E-04    0.33      20.7  T
  10    -56.9773577 -0.314471E-07  0.388E-04    0.33      34.7  T
     SCC iter.                  ...        0 min,  0.049 sec
     gradient                   ...        0 min,  0.008 sec
 * total energy  :   -56.1707610 Eh     change       -0.8089088E-05 Eh
   gradient norm :     0.0010170 Eh/α   predicted    -0.4150230E-05 ( -48.69%)
   displ. norm   :     0.1248328 α      lambda       -0.7932788E-05
   maximum displ.:     0.0807728 α      in ANC's #4, #5, #8, ...

........................................................................
.............................. CYCLE  167 ..............................
........................................................................

 iter      E             dE          RMSdq      gap      omega  full diag
   1    -56.9774145 -0.569774E+02  0.950E-02    0.34       0.0  T
   2    -56.9773749  0.395493E-04  0.606E-02    0.34       1.0  T
   3    -56.9759502  0.142475E-02  0.107E-01    0.34       1.0  T
   4    -56.9771653 -0.121507E-02  0.412E-02    0.33       1.0  T
   5    -56.9774166 -0.251315E-03  0.808E-03    0.34       1.7  T
   6    -56.9774240 -0.746837E-05  0.291E-03    0.34       4.6  T
   7    -56.9774245 -0.469516E-06  0.223E-03    0.34       6.1  T
   8    -56.9774249 -0.430694E-06  0.111E-03    0.34      12.1  T
   9    -56.9774250 -0.636308E-07  0.664E-04    0.34      20.3  T
  10    -56.9774250 -0.327886E-07  0.415E-04    0.34      32.5  T
     SCC iter.                  ...        0 min,  0.055 sec
     gradient                   ...        0 min,  0.008 sec
 * total energy  :   -56.1707696 Eh     change       -0.8637283E-05 Eh
   gradient norm :     0.0009861 Eh/α   predicted    -0.3998744E-05 ( -53.70%)
   displ. norm   :     0.1682209 α      lambda       -0.1013038E-04
   maximum displ.:     0.1102301 α      in ANC's #4, #5, #8, ...

........................................................................
.............................. CYCLE  168 ..............................
........................................................................

 iter      E             dE          RMSdq      gap      omega  full diag
   1    -56.9774570 -0.569775E+02  0.122E-01    0.34       0.0  T
   2    -56.9773771  0.799243E-04  0.787E-02    0.34       1.0  T
   3    -56.9749629  0.241422E-02  0.142E-01    0.34       1.0  T
   4    -56.9770312 -0.206836E-02  0.544E-02    0.33       1.0  T
   5    -56.9774572 -0.425965E-03  0.124E-02    0.34       1.1  T
   6    -56.9774756 -0.183755E-04  0.403E-03    0.34       3.3  T
   7    -56.9774766 -0.107074E-05  0.292E-03    0.34       4.6  T
   8    -56.9774773 -0.653515E-06  0.149E-03    0.34       9.1  T
   9    -56.9774773 -0.353135E-07  0.111E-03    0.34      12.2  T
  10    -56.9774774 -0.942258E-07  0.707E-04    0.34      19.1  T
  11    -56.9774775 -0.554043E-07  0.253E-04    0.34      53.3  T
     SCC iter.                  ...        0 min,  0.056 sec
     gradient                   ...        0 min,  0.010 sec
 * total energy  :   -56.1707800 Eh     change       -0.1040906E-04 Eh
   gradient norm :     0.0010613 Eh/α   predicted    -0.5130817E-05 ( -50.71%)
   displ. norm   :     0.2073919 α      lambda       -0.1177359E-04
   maximum displ.:     0.1355121 α      in ANC's #4, #5, #8, ...

........................................................................
.............................. CYCLE  169 ..............................
........................................................................

 iter      E             dE          RMSdq      gap      omega  full diag
   1    -56.9772969 -0.569773E+02  0.151E-01    0.34       0.0  T
   2    -56.9771345  0.162360E-03  0.977E-02    0.34       1.0  T
   3    -56.9732849  0.384967E-02  0.184E-01    0.35       1.0  T
   4    -56.9765832 -0.329835E-02  0.700E-02    0.34       1.0  T
   5    -56.9772939 -0.710689E-03  0.177E-02    0.34       1.0  T
   6    -56.9773315 -0.375648E-04  0.508E-03    0.34       2.7  T
   7    -56.9773331 -0.163037E-05  0.369E-03    0.34       3.7  T
   8    -56.9773340 -0.880521E-06  0.194E-03    0.34       6.9  T
   9    -56.9773338  0.135690E-06  0.182E-03    0.34       7.4  T
  10    -56.9773341 -0.279618E-06  0.109E-03    0.34      12.4  T
  11    -56.9773343 -0.143438E-06  0.324E-04    0.34      41.6  T
  12    -56.9773343 -0.714329E-08  0.179E-04    0.34      75.5  T
     SCC iter.                  ...        0 min,  0.114 sec
     gradient                   ...        0 min,  0.008 sec
 * total energy  :   -56.1707914 Eh     change       -0.1142035E-04 Eh
   gradient norm :     0.0014796 Eh/α   predicted    -0.6003891E-05 ( -47.43%)
   displ. norm   :     0.2391705 α      lambda       -0.1400337E-04
   maximum displ.:     0.1529309 α      in ANC's #4, #8, #5, ...

........................................................................
.............................. CYCLE  170 ..............................
........................................................................

 iter      E             dE          RMSdq      gap      omega  full diag
   1    -56.9770827 -0.569771E+02  0.173E-01    0.34       0.0  T
   2    -56.9768554  0.227228E-03  0.112E-01    0.34       1.0  T
   3    -56.9718163  0.503916E-02  0.212E-01    0.35       1.0  T
   4    -56.9761130 -0.429675E-02  0.817E-02    0.34       1.0  T
   5    -56.9770735 -0.960495E-03  0.216E-02    0.34       1.0  T
   6    -56.9771313 -0.577889E-04  0.602E-03    0.34       2.2  T
   7    -56.9771339 -0.257838E-05  0.410E-03    0.34       3.3  T
   8    -56.9771348 -0.924050E-06  0.224E-03    0.34       6.0  T
   9    -56.9771344  0.398814E-06  0.238E-03    0.34       5.7  T
  10    -56.9771350 -0.532327E-06  0.126E-03    0.34      10.7  T
  11    -56.9771351 -0.187463E-06  0.400E-04    0.34      33.7  T
  12    -56.9771352 -0.114329E-07  0.212E-04    0.34      63.5  T
     SCC iter.                  ...        0 min,  0.067 sec
     gradient                   ...        0 min,  0.007 sec
 * total energy  :   -56.1708080 Eh     change       -0.1660692E-04 Eh
   gradient norm :     0.0018752 Eh/α   predicted    -0.7181610E-05 ( -56.76%)
   displ. norm   :     0.5571088 α      lambda       -0.3872771E-04
   maximum displ.:     0.3431477 α      in ANC's #4, #5, #8, ...

........................................................................
.............................. CYCLE  171 ..............................
........................................................................

 iter      E             dE          RMSdq      gap      omega  full diag
   1    -56.9758274 -0.569758E+02  0.406E-01    0.35       0.0  T
   2    -56.9743889  0.143852E-02  0.262E-01    0.34       1.0  T
   3    -56.9464981  0.278908E-01  0.505E-01    0.39       1.0  T
   4    -56.9707656 -0.242675E-01  0.191E-01    0.34       1.0  T
   5    -56.9757041 -0.493848E-02  0.580E-02    0.35       1.0  T
   6    -56.9761226 -0.418591E-03  0.179E-02    0.34       1.0  T
   7    -56.9761505 -0.278880E-04  0.115E-02    0.34       1.2  T
   8    -56.9761532 -0.271474E-05  0.869E-03    0.34       1.6  T
   9    -56.9761421  0.111729E-04  0.107E-02    0.34       1.3  T
  10    -56.9761536 -0.115539E-04  0.304E-03    0.34       4.4  T
  11    -56.9761547 -0.105068E-05  0.127E-03    0.34      10.6  T
  12    -56.9761548 -0.894801E-07  0.707E-04    0.34      19.1  T
  13    -56.9761548 -0.252605E-07  0.337E-04    0.34      40.0  T
     SCC iter.                  ...        0 min,  0.062 sec
     gradient                   ...        0 min,  0.006 sec
 * total energy  :   -56.1708632 Eh     change       -0.5520773E-04 Eh
   gradient norm :     0.0032482 Eh/α   predicted    -0.2204049E-04 ( -60.08%)
   displ. norm   :     0.8339765 α      lambda       -0.1226899E-03
   maximum displ.:     0.4878127 α      in ANC's #4, #5, #8, ...

........................................................................
.............................. CYCLE  172 ..............................
........................................................................

 iter      E             dE          RMSdq      gap      omega  full diag
   1    -56.9710304 -0.569710E+02  0.623E-01    0.35       0.0  T
   2    -56.9669833  0.404710E-02  0.401E-01    0.34       1.0  T
   3    -56.9019858  0.649974E-01  0.783E-01    0.41       1.0  T
   4    -56.9614294 -0.594436E-01  0.270E-01    0.35       1.0  T
   5    -56.9704422 -0.901274E-02  0.103E-01    0.36       1.0  T
   6    -56.9717902 -0.134805E-02  0.344E-02    0.35       1.0  T
   7    -56.9719099 -0.119702E-03  0.217E-02    0.35       1.0  T
   8    -56.9719135 -0.362565E-05  0.184E-02    0.35       1.0  T
   9    -56.9719067  0.680176E-05  0.120E-02    0.35       1.1  T
  10    -56.9719202 -0.134357E-04  0.464E-03    0.35       2.9  T
  11    -56.9719217 -0.147215E-05  0.192E-03    0.35       7.0  T
  12    -56.9719216  0.293083E-07  0.161E-03    0.35       8.4  T
  13    -56.9719219 -0.226621E-06  0.721E-04    0.35      18.7  T
  14    -56.9719219 -0.526591E-07  0.337E-04    0.35      40.1  T
     SCC iter.                  ...        0 min,  0.065 sec
     gradient                   ...        0 min,  0.008 sec
 * total energy  :   -56.1709509 Eh     change       -0.8762049E-04 Eh
   gradient norm :     0.0082494 Eh/α   predicted    -0.1040232E-03 (  18.72%)
   displ. norm   :     0.7384189 α      lambda       -0.2228844E-03
   maximum displ.:     0.3850161 α      in ANC's #4, #9, #10, ...

........................................................................
.............................. CYCLE  173 ..............................
........................................................................

 iter      E             dE          RMSdq      gap      omega  full diag
   1    -56.9873391 -0.569873E+02  0.634E-01    0.35       0.0  T
   2    -56.9865440  0.795119E-03  0.388E-01    0.36       1.0  T
   3    -56.9523633  0.341807E-01  0.540E-01    0.30       1.0  T
   4    -56.9810311 -0.286678E-01  0.205E-01    0.37       1.0  T
   5    -56.9873483 -0.631722E-02  0.497E-02    0.35       1.0  T
   6    -56.9876037 -0.255356E-03  0.211E-02    0.35       1.0  T
   7    -56.9876333 -0.296528E-04  0.145E-02    0.35       1.0  T
   8    -56.9876465 -0.132164E-04  0.971E-03    0.35       1.4  T
   9    -56.9876504 -0.388056E-05  0.724E-03    0.35       1.9  T
  10    -56.9876544 -0.403412E-05  0.407E-03    0.35       3.3  T
  11    -56.9876560 -0.158974E-05  0.131E-03    0.35      10.3  T
  12    -56.9876561 -0.434827E-07  0.958E-04    0.35      14.1  T
  13    -56.9876561 -0.598079E-07  0.435E-04    0.35      31.0  T
     SCC iter.                  ...        0 min,  0.058 sec
     gradient                   ...        0 min,  0.007 sec
 * total energy  :   -56.1691067 Eh     change        0.1844130E-02 Eh
   gradient norm :     0.0278745 Eh/α   predicted    -0.1722095E-03 (-109.34%)
   displ. norm   :     0.3810234 α      lambda       -0.2805589E-02
   maximum displ.:     0.1725691 α      in ANC's #9, #10, #6, ...

........................................................................
.............................. CYCLE  174 ..............................
........................................................................

 iter      E             dE          RMSdq      gap      omega  full diag
   1    -56.9789110 -0.569789E+02  0.369E-01    0.35       0.0  T
   2    -56.9782807  0.630365E-03  0.225E-01    0.35       1.0  T
   3    -56.9650737  0.132069E-01  0.372E-01    0.35       1.0  T
   4    -56.9777207 -0.126469E-01  0.110E-01    0.35       1.0  T
   5    -56.9790134 -0.129274E-02  0.288E-02    0.35       1.0  T
   6    -56.9790967 -0.832516E-04  0.162E-02    0.35       1.0  T
   7    -56.9791155 -0.188476E-04  0.113E-02    0.35       1.2  T
   8    -56.9791254 -0.993777E-05  0.647E-03    0.35       2.1  T
   9    -56.9791285 -0.302258E-05  0.402E-03    0.35       3.4  T
  10    -56.9791287 -0.279375E-06  0.331E-03    0.35       4.1  T
  11    -56.9791301 -0.132979E-05  0.112E-03    0.35      12.1  T
  12    -56.9791301 -0.775346E-07  0.689E-04    0.35      19.6  T
  13    -56.9791302 -0.299142E-07  0.281E-04    0.35      48.0  T
     SCC iter.                  ...        0 min,  0.056 sec
     gradient                   ...        0 min,  0.007 sec
 * total energy  :   -56.1708348 Eh     change       -0.1728028E-02 Eh
   gradient norm :     0.0080082 Eh/α   predicted    -0.1606470E-02 (  -7.03%)
   displ. norm   :     0.5941767 α      lambda       -0.4281233E-03
   maximum displ.:     0.3860631 α      in ANC's #4, #5, #8, ...

........................................................................
.............................. CYCLE  175 ..............................
........................................................................

 iter      E             dE          RMSdq      gap      omega  full diag
   1    -56.9696008 -0.569696E+02  0.450E-01    0.36       0.0  T
   2    -56.9686192  0.981539E-03  0.287E-01    0.35       1.0  T
   3    -56.9337757  0.348436E-01  0.522E-01    0.42       1.0  T
   4    -56.9659612 -0.321855E-01  0.164E-01    0.35       1.0  T
   5    -56.9695366 -0.357544E-02  0.459E-02    0.36       1.0  T
   6    -56.9698009 -0.264328E-03  0.161E-02    0.35       1.0  T
   7    -56.9698264 -0.254926E-04  0.970E-03    0.35       1.4  T
   8    -56.9698280 -0.154495E-05  0.787E-03    0.35       1.7  T
   9    -56.9698199  0.805758E-05  0.887E-03    0.35       1.5  T
  10    -56.9698293 -0.941714E-05  0.302E-03    0.35       4.5  T
  11    -56.9698302 -0.866758E-06  0.106E-03    0.35      12.7  T
  12    -56.9698302 -0.422289E-07  0.729E-04    0.35      18.5  T
  13    -56.9698303 -0.293950E-07  0.363E-04    0.35      37.1  T
     SCC iter.                  ...        0 min,  0.065 sec
     gradient                   ...        0 min,  0.006 sec
 * total energy  :   -56.1709631 Eh     change       -0.1283033E-03 Eh
   gradient norm :     0.0096043 Eh/α   predicted    -0.2896334E-03 ( 125.74%)
   displ. norm   :     0.2291967 α      lambda       -0.1496500E-03
   maximum displ.:     0.1452294 α      in ANC's #4, #5, #8, ...

........................................................................
.............................. CYCLE  176 ..............................
........................................................................

 iter      E             dE          RMSdq      gap      omega  full diag
   1    -56.9739873 -0.569740E+02  0.177E-01    0.35       0.0  T
   2    -56.9737989  0.188355E-03  0.112E-01    0.36       1.0  T
   3    -56.9683415  0.545743E-02  0.214E-01    0.34       1.0  T
   4    -56.9732239 -0.488236E-02  0.725E-02    0.36       1.0  T
   5    -56.9739601 -0.736204E-03  0.217E-02    0.35       1.0  T
   6    -56.9740271 -0.670496E-04  0.576E-03    0.35       2.3  T
   7    -56.9740293 -0.220370E-05  0.383E-03    0.35       3.5  T
   8    -56.9740303 -0.996421E-06  0.196E-03    0.35       6.9  T
   9    -56.9740301  0.184629E-06  0.218E-03    0.35       6.2  T
  10    -56.9740305 -0.370471E-06  0.112E-03    0.35      12.0  T
  11    -56.9740306 -0.133747E-06  0.427E-04    0.35      31.6  T
  12    -56.9740306 -0.131644E-07  0.235E-04    0.35      57.4  T
     SCC iter.                  ...        0 min,  0.053 sec
     gradient                   ...        0 min,  0.008 sec
 * total energy  :   -56.1710351 Eh     change       -0.7200401E-04 Eh
   gradient norm :     0.0064616 Eh/α   predicted    -0.7875736E-04 (   9.38%)
   displ. norm   :     0.2524496 α      lambda       -0.6248106E-04
   maximum displ.:     0.1498910 α      in ANC's #4, #8, #1, ...

........................................................................
.............................. CYCLE  177 ..............................
........................................................................

 iter      E             dE          RMSdq      gap      omega  full diag
   1    -56.9737911 -0.569738E+02  0.193E-01    0.36       0.0  T
   2    -56.9732739  0.517219E-03  0.128E-01    0.35       1.0  T
   3    -56.9667604  0.651350E-02  0.247E-01    0.38       1.0  T
   4    -56.9727415 -0.598114E-02  0.863E-02    0.35       1.0  T
   5    -56.9737463 -0.100479E-02  0.308E-02    0.36       1.0  T
   6    -56.9738869 -0.140573E-03  0.693E-03    0.36       1.9  T
   7    -56.9738897 -0.283072E-05  0.506E-03    0.36       2.7  T
   8    -56.9738911 -0.144837E-05  0.332E-03    0.36       4.1  T
   9    -56.9738914 -0.216947E-06  0.254E-03    0.36       5.3  T
  10    -56.9738918 -0.399123E-06  0.169E-03    0.36       8.0  T
  11    -56.9738920 -0.277804E-06  0.541E-04    0.36      24.9  T
  12    -56.9738920 -0.170478E-07  0.299E-04    0.36      45.1  T
     SCC iter.                  ...        0 min,  0.054 sec
     gradient                   ...        0 min,  0.008 sec
 * total energy  :   -56.1710891 Eh     change       -0.5408355E-04 Eh
   gradient norm :     0.0077796 Eh/α   predicted    -0.3323073E-04 ( -38.56%)
   displ. norm   :     0.6412909 α      lambda       -0.2388093E-03
   maximum displ.:     0.3913238 α      in ANC's #4, #8, #1, ...

........................................................................
.............................. CYCLE  178 ..............................
........................................................................

 iter      E             dE          RMSdq      gap      omega  full diag
   1    -56.9719042 -0.569719E+02  0.489E-01    0.38       0.0  T
   2    -56.9686802  0.322404E-02  0.328E-01    0.36       1.0  T
   3    -56.9275558  0.411244E-01  0.614E-01    0.43       1.0  T
   4    -56.9674355 -0.398797E-01  0.188E-01    0.37       1.0  T
   5    -56.9719545 -0.451897E-02  0.653E-02    0.38       1.0  T
   6    -56.9724921 -0.537631E-03  0.207E-02    0.37       1.0  T
   7    -56.9725250 -0.328868E-04  0.149E-02    0.37       1.0  T
   8    -56.9725324 -0.735845E-05  0.114E-02    0.37       1.2  T
   9    -56.9725240  0.833808E-05  0.118E-02    0.37       1.1  T
  10    -56.9725358 -0.117328E-04  0.489E-03    0.37       2.8  T
  11    -56.9725382 -0.237379E-05  0.161E-03    0.37       8.4  T
  12    -56.9725382 -0.926050E-07  0.102E-03    0.37      13.2  T
  13    -56.9725383 -0.521615E-07  0.452E-04    0.37      29.8  T
  14    -56.9725383 -0.213041E-07  0.134E-04    0.37     100.9  T
     SCC iter.                  ...        0 min,  0.070 sec
     gradient                   ...        0 min,  0.008 sec
 * total energy  :   -56.1713315 Eh     change       -0.2423619E-03 Eh
   gradient norm :     0.0109166 Eh/α   predicted    -0.1684923E-03 ( -30.48%)
   displ. norm   :     0.7423769 α      lambda       -0.5223905E-03
   maximum displ.:     0.4218799 α      in ANC's #4, #1, #8, ...

........................................................................
.............................. CYCLE  179 ..............................
........................................................................

 iter      E             dE          RMSdq      gap      omega  full diag
   1    -56.9711113 -0.569711E+02  0.592E-01    0.40       0.0  T
   2    -56.9655727  0.553857E-02  0.410E-01    0.38       1.0  T
   3    -56.9064779  0.590948E-01  0.729E-01    0.45       1.0  T
   4    -56.9618917 -0.554138E-01  0.265E-01    0.38       1.0  T
   5    -56.9712794 -0.938770E-02  0.859E-02    0.40       1.0  T
   6    -56.9721047 -0.825263E-03  0.265E-02    0.39       1.0  T
   7    -56.9721380 -0.333357E-04  0.170E-02    0.39       1.0  T
   8    -56.9721364  0.159419E-05  0.165E-02    0.39       1.0  T
   9    -56.9721297  0.669314E-05  0.144E-02    0.39       1.0  T
  10    -56.9721466 -0.168797E-04  0.707E-03    0.39       1.9  T
  11    -56.9721508 -0.422895E-05  0.216E-03    0.39       6.2  T
  12    -56.9721511 -0.238574E-06  0.137E-03    0.39       9.8  T
  13    -56.9721512 -0.865229E-07  0.572E-04    0.39      23.6  T
  14    -56.9721512 -0.299766E-07  0.247E-04    0.39      54.6  T
     SCC iter.                  ...        0 min,  0.065 sec
     gradient                   ...        0 min,  0.007 sec
 * total energy  :   -56.1716628 Eh     change       -0.3312580E-03 Eh
   gradient norm :     0.0171951 Eh/α   predicted    -0.4050823E-03 (  22.29%)
   displ. norm   :     0.7017714 α      lambda       -0.2853963E-03
   maximum displ.:     0.4281687 α      in ANC's #4, #8, #5, ...

........................................................................
.............................. CYCLE  180 ..............................
........................................................................

 iter      E             dE          RMSdq      gap      omega  full diag
   1    -56.9613930 -0.569614E+02  0.545E-01    0.42       0.0  T
   2    -56.9567341  0.465888E-02  0.364E-01    0.40       1.0  T
   3    -56.8942435  0.624906E-01  0.713E-01    0.47       1.0  T
   4    -56.9511371 -0.568936E-01  0.271E-01    0.40       1.0  T
   5    -56.9613045 -0.101673E-01  0.836E-02    0.42       1.0  T
   6    -56.9620929 -0.788486E-03  0.292E-02    0.42       1.0  T
   7    -56.9621539 -0.609232E-04  0.171E-02    0.42       1.0  T
   8    -56.9621584 -0.455288E-05  0.148E-02    0.42       1.0  T
   9    -56.9621389  0.195059E-04  0.154E-02    0.42       1.0  T
  10    -56.9621584 -0.195120E-04  0.641E-03    0.42       2.1  T
  11    -56.9621619 -0.347495E-05  0.214E-03    0.42       6.3  T
  12    -56.9621622 -0.315329E-06  0.125E-03    0.42      10.8  T
  13    -56.9621623 -0.557106E-07  0.621E-04    0.42      21.7  T
  14    -56.9621623 -0.221431E-07  0.365E-04    0.42      37.0  T
     SCC iter.                  ...        0 min,  0.070 sec
     gradient                   ...        0 min,  0.008 sec
 * total energy  :   -56.1715691 Eh     change        0.9371262E-04 Eh
   gradient norm :     0.0237658 Eh/α   predicted    -0.2129526E-03 (-327.24%)
   displ. norm   :     0.7762759 α      lambda       -0.2622867E-02
   maximum displ.:     0.3784319 α      in ANC's #7, #11, #16, ...

........................................................................
.............................. CYCLE  181 ..............................
........................................................................

 iter      E             dE          RMSdq      gap      omega  full diag
   1    -56.9759592 -0.569760E+02  0.845E-01    0.44       0.0  T
   2    -56.9697108  0.624847E-02  0.550E-01    0.42       1.0  T
   3    -56.8702146  0.994962E-01  0.954E-01    0.45       1.0  T
   4    -56.9534915 -0.832769E-01  0.379E-01    0.41       1.0  T
   5    -56.9759922 -0.225008E-01  0.117E-01    0.44       1.0  T
   6    -56.9772787 -0.128646E-02  0.430E-02    0.43       1.0  T
   7    -56.9773990 -0.120360E-03  0.261E-02    0.43       1.0  T
   8    -56.9774056 -0.657975E-05  0.225E-02    0.43       1.0  T
   9    -56.9774003  0.526462E-05  0.200E-02    0.43       1.0  T
  10    -56.9774323 -0.319333E-04  0.775E-03    0.43       1.7  T
  11    -56.9774368 -0.453527E-05  0.307E-03    0.43       4.4  T
  12    -56.9774373 -0.483360E-06  0.202E-03    0.43       6.7  T
  13    -56.9774375 -0.232688E-06  0.919E-04    0.43      14.7  T
  14    -56.9774376 -0.414795E-07  0.583E-04    0.43      23.1  T
     SCC iter.                  ...        0 min,  0.081 sec
     gradient                   ...        0 min,  0.008 sec
 * total energy  :   -56.1652470 Eh     change        0.6322011E-02 Eh
   gradient norm :     0.0802506 Eh/α   predicted    -0.2101582E-02 (-133.24%)
   displ. norm   :     0.3499134 α      lambda       -0.1211841E-01
   maximum displ.:     0.1420342 α      in ANC's #10, #7, #11, ...

........................................................................
.............................. CYCLE  182 ..............................
........................................................................

 iter      E             dE          RMSdq      gap      omega  full diag
   1    -56.9751374 -0.569751E+02  0.522E-01    0.41       0.0  T
   2    -56.9720965  0.304098E-02  0.327E-01    0.42       1.0  T
   3    -56.9186500  0.534465E-01  0.692E-01    0.37       1.0  T
   4    -56.9633798 -0.447299E-01  0.288E-01    0.42       1.0  T
   5    -56.9751771 -0.117972E-01  0.703E-02    0.41       1.0  T
   6    -56.9756360 -0.458967E-03  0.349E-02    0.41       1.0  T
   7    -56.9757311 -0.950508E-04  0.208E-02    0.41       1.0  T
   8    -56.9757376 -0.652017E-05  0.168E-02    0.41       1.0  T
   9    -56.9757434 -0.577161E-05  0.142E-02    0.41       1.0  T
  10    -56.9757635 -0.201364E-04  0.440E-03    0.41       3.1  T
  11    -56.9757652 -0.164917E-05  0.193E-03    0.41       7.0  T
  12    -56.9757651  0.514748E-07  0.162E-03    0.41       8.3  T
  13    -56.9757653 -0.228476E-06  0.466E-04    0.41      28.9  T
  14    -56.9757654 -0.165146E-07  0.246E-04    0.41      54.9  T
     SCC iter.                  ...        0 min,  0.099 sec
     gradient                   ...        0 min,  0.011 sec
 * total energy  :   -56.1721645 Eh     change       -0.6917491E-02 Eh
   gradient norm :     0.0257856 Eh/α   predicted    -0.6801527E-02 (  -1.68%)
   displ. norm   :     0.2929988 α      lambda       -0.1520294E-02
   maximum displ.:     0.1339007 α      in ANC's #4, #5, #8, ...

........................................................................
.............................. CYCLE  183 ..............................
........................................................................

 iter      E             dE          RMSdq      gap      omega  full diag
   1    -56.9738997 -0.569739E+02  0.260E-01    0.43       0.0  T
   2    -56.9736012  0.298440E-03  0.163E-01    0.42       1.0  T
   3    -56.9654901  0.811110E-02  0.269E-01    0.44       1.0  T
   4    -56.9725267 -0.703661E-02  0.101E-01    0.42       1.0  T
   5    -56.9738954 -0.136862E-02  0.286E-02    0.43       1.0  T
   6    -56.9739874 -0.920481E-04  0.850E-03    0.42       1.6  T
   7    -56.9739862  0.125228E-05  0.831E-03    0.42       1.6  T
   8    -56.9739924 -0.622664E-05  0.410E-03    0.42       3.3  T
   9    -56.9739927 -0.308968E-06  0.332E-03    0.42       4.1  T
  10    -56.9739938 -0.107356E-05  0.203E-03    0.42       6.6  T
  11    -56.9739942 -0.475011E-06  0.693E-04    0.42      19.5  T
  12    -56.9739943 -0.345426E-07  0.403E-04    0.42      33.5  T
     SCC iter.                  ...        0 min,  0.084 sec
     gradient                   ...        0 min,  0.008 sec
 * total energy  :   -56.1728347 Eh     change       -0.6701911E-03 Eh
   gradient norm :     0.0207017 Eh/α   predicted    -0.8253223E-03 (  23.15%)
   displ. norm   :     0.2210232 α      lambda       -0.9015974E-03
   maximum displ.:     0.1004393 α      in ANC's #11, #6, #4, ...
 * RMSD in coord.:     0.6590315 α      energy gain  -0.2281635E-02 Eh

generating ANC from exact Hessian ...
Using Lindh-Hessian (1995)
 Shifting diagonal of input Hessian by   1.028683485388401E-002
 Lowest  eigenvalues of input Hessian
    0.010000    0.010044    0.000000    0.000000    0.000000    0.000000
    0.000000    0.000000    0.010367    0.010570    0.010748    0.011023
    0.011526    0.011829    0.012626    0.012845    0.013062    0.013628
 Highest eigenvalues
    1.296495    1.320864    1.341505    1.384904    1.406640    1.409726
 

........................................................................
.............................. CYCLE  184 ..............................
........................................................................

 iter      E             dE          RMSdq      gap      omega  full diag
   1    -56.9730888 -0.569731E+02  0.185E-01    0.42       0.0  T
   2    -56.9728953  0.193491E-03  0.121E-01    0.42       1.0  T
   3    -56.9674802  0.541505E-02  0.205E-01    0.42       1.0  T
   4    -56.9722145 -0.473432E-02  0.801E-02    0.41       1.0  T
   5    -56.9731161 -0.901619E-03  0.160E-02    0.42       1.0  T
   6    -56.9731386 -0.224221E-04  0.620E-03    0.42       2.2  T
   7    -56.9731357  0.284478E-05  0.714E-03    0.42       1.9  T
   8    -56.9731426 -0.685265E-05  0.220E-03    0.42       6.1  T
   9    -56.9731429 -0.291835E-06  0.149E-03    0.42       9.1  T
  10    -56.9731430 -0.134316E-06  0.996E-04    0.42      13.5  T
  11    -56.9731431 -0.107001E-06  0.412E-04    0.42      32.7  T
     SCC iter.                  ...        0 min,  0.063 sec
     gradient                   ...        0 min,  0.008 sec
 * total energy  :   -56.1733305 Eh     change       -0.4957727E-03 Eh
   gradient norm :     0.0171614 Eh/α   predicted     0.0000000E+00 (-100.00%)
   displ. norm   :     0.1535411 α      lambda       -0.1190538E-02
   maximum displ.:     0.0528481 α      in ANC's #22, #15, #8, ...

........................................................................
.............................. CYCLE  185 ..............................
........................................................................

 iter      E             dE          RMSdq      gap      omega  full diag
   1    -56.9761042 -0.569761E+02  0.142E-01    0.42       0.0  T
   2    -56.9758956  0.208532E-03  0.942E-02    0.42       1.0  T
   3    -56.9718620  0.403361E-02  0.180E-01    0.43       1.0  T
   4    -56.9752783 -0.341624E-02  0.788E-02    0.42       1.0  T
   5    -56.9761229 -0.844654E-03  0.162E-02    0.42       1.0  T
   6    -56.9761483 -0.253911E-04  0.473E-03    0.42       2.9  T
   7    -56.9761474  0.881343E-06  0.464E-03    0.42       2.9  T
   8    -56.9761492 -0.179302E-05  0.281E-03    0.42       4.8  T
   9    -56.9761497 -0.510960E-06  0.189E-03    0.42       7.1  T
  10    -56.9761500 -0.277072E-06  0.113E-03    0.42      11.9  T
  11    -56.9761501 -0.151496E-06  0.385E-04    0.42      35.0  T
  12    -56.9761502 -0.783212E-08  0.257E-04    0.42      52.4  T
     SCC iter.                  ...        0 min,  0.064 sec
     gradient                   ...        0 min,  0.008 sec
 * total energy  :   -56.1742514 Eh     change       -0.9209121E-03 Eh
   gradient norm :     0.0107265 Eh/α   predicted    -0.6093045E-03 ( -33.84%)
   displ. norm   :     0.3727655 α      lambda       -0.1815823E-02
   maximum displ.:     0.1201886 α      in ANC's #13, #22, #9, ...

........................................................................
.............................. CYCLE  186 ..............................
........................................................................

 iter      E             dE          RMSdq      gap      omega  full diag
   1    -56.9808883 -0.569809E+02  0.348E-01    0.42       0.0  T
   2    -56.9793869  0.150134E-02  0.233E-01    0.42       1.0  T
   3    -56.9538494  0.255375E-01  0.439E-01    0.44       1.0  T
   4    -56.9758593 -0.220099E-01  0.194E-01    0.41       1.0  T
   5    -56.9810500 -0.519070E-02  0.364E-02    0.43       1.0  T
   6    -56.9811811 -0.131069E-03  0.139E-02    0.42       1.0  T
   7    -56.9811907 -0.960330E-05  0.988E-03    0.42       1.4  T
   8    -56.9811926 -0.191950E-05  0.871E-03    0.42       1.5  T
   9    -56.9811910  0.164459E-05  0.747E-03    0.42       1.8  T
  10    -56.9811956 -0.463192E-05  0.273E-03    0.42       4.9  T
  11    -56.9811964 -0.789806E-06  0.103E-03    0.42      13.1  T
  12    -56.9811965 -0.835263E-07  0.564E-04    0.42      23.9  T
  13    -56.9811965 -0.639631E-09  0.404E-04    0.42      33.4  T
     SCC iter.                  ...        0 min,  0.071 sec
     gradient                   ...        0 min,  0.008 sec
 * total energy  :   -56.1753402 Eh     change       -0.1088797E-02 Eh
   gradient norm :     0.0153457 Eh/α   predicted    -0.1034366E-02 (  -5.00%)
   displ. norm   :     0.4678013 α      lambda       -0.1829058E-02
   maximum displ.:     0.1610865 α      in ANC's #8, #22, #9, ...

........................................................................
.............................. CYCLE  187 ..............................
........................................................................

 iter      E             dE          RMSdq      gap      omega  full diag
   1    -56.9827761 -0.569828E+02  0.458E-01    0.43       0.0  T
   2    -56.9811033  0.167277E-02  0.309E-01    0.43       1.0  T
   3    -56.9562138  0.248895E-01  0.488E-01    0.42       1.0  T
   4    -56.9762360 -0.200222E-01  0.215E-01    0.42       1.0  T
   5    -56.9829351 -0.669908E-02  0.561E-02    0.43       1.0  T
   6    -56.9832395 -0.304430E-03  0.126E-02    0.43       1.1  T
   7    -56.9832371  0.238910E-05  0.121E-02    0.43       1.1  T
   8    -56.9832446 -0.747455E-05  0.805E-03    0.43       1.7  T
   9    -56.9832381  0.651333E-05  0.895E-03    0.43       1.5  T
  10    -56.9832470 -0.893037E-05  0.424E-03    0.43       3.2  T
  11    -56.9832495 -0.242239E-05  0.137E-03    0.43       9.9  T
  12    -56.9832496 -0.150886E-06  0.729E-04    0.43      18.5  T
  13    -56.9832496 -0.190506E-08  0.519E-04    0.43      26.0  T
     SCC iter.                  ...        0 min,  0.073 sec
     gradient                   ...        0 min,  0.010 sec
 * total energy  :   -56.1762379 Eh     change       -0.8977091E-03 Eh
   gradient norm :     0.0239863 Eh/α   predicted    -0.1114664E-02 (  24.17%)
   displ. norm   :     0.3838725 α      lambda       -0.1796487E-02
   maximum displ.:     0.1322059 α      in ANC's #9, #8, #17, ...

........................................................................
.............................. CYCLE  188 ..............................
........................................................................

 iter      E             dE          RMSdq      gap      omega  full diag
   1    -56.9828823 -0.569829E+02  0.364E-01    0.43       0.0  T
   2    -56.9823166  0.565711E-03  0.238E-01    0.43       1.0  T
   3    -56.9719404  0.103762E-01  0.315E-01    0.42       1.0  T
   4    -56.9803093 -0.836889E-02  0.128E-01    0.43       1.0  T
   5    -56.9830249 -0.271557E-02  0.326E-02    0.43       1.0  T
   6    -56.9831337 -0.108844E-03  0.903E-03    0.43       1.5  T
   7    -56.9831330  0.744499E-06  0.774E-03    0.43       1.7  T
   8    -56.9831347 -0.171664E-05  0.551E-03    0.43       2.4  T
   9    -56.9831350 -0.364492E-06  0.479E-03    0.43       2.8  T
  10    -56.9831375 -0.245356E-05  0.219E-03    0.43       6.1  T
  11    -56.9831381 -0.590530E-06  0.108E-03    0.43      12.5  T
  12    -56.9831382 -0.121172E-06  0.564E-04    0.43      23.9  T
  13    -56.9831382 -0.982107E-08  0.339E-04    0.43      39.8  T
     SCC iter.                  ...        0 min,  0.076 sec
     gradient                   ...        0 min,  0.008 sec
 * total energy  :   -56.1778053 Eh     change       -0.1567365E-02 Eh
   gradient norm :     0.0226182 Eh/α   predicted    -0.1030619E-02 ( -34.25%)
   displ. norm   :     0.6197402 α      lambda       -0.4110345E-02
   maximum displ.:     0.2171985 α      in ANC's #17, #9, #8, ...

........................................................................
.............................. CYCLE  189 ..............................
........................................................................

 iter      E             dE          RMSdq      gap      omega  full diag
   1    -56.9809034 -0.569809E+02  0.629E-01    0.42       0.0  T
   2    -56.9795241  0.137929E-02  0.417E-01    0.43       1.0  T
   3    -56.9492697  0.302544E-01  0.527E-01    0.38       1.0  T
   4    -56.9762443 -0.269745E-01  0.198E-01    0.44       1.0  T
   5    -56.9813215 -0.507723E-02  0.405E-02    0.42       1.0  T
   6    -56.9815267 -0.205182E-03  0.179E-02    0.43       1.0  T
   7    -56.9815426 -0.159596E-04  0.141E-02    0.43       1.0  T
   8    -56.9815553 -0.126940E-04  0.986E-03    0.43       1.4  T
   9    -56.9815594 -0.410541E-05  0.782E-03    0.43       1.7  T
  10    -56.9815671 -0.764195E-05  0.246E-03    0.43       5.5  T
  11    -56.9815674 -0.331812E-06  0.155E-03    0.43       8.7  T
  12    -56.9815675 -0.135900E-06  0.116E-03    0.43      11.6  T
  13    -56.9815677 -0.115789E-06  0.457E-04    0.43      29.5  T
  14    -56.9815677 -0.126928E-07  0.251E-04    0.43      53.7  T
     SCC iter.                  ...        0 min,  0.072 sec
     gradient                   ...        0 min,  0.007 sec
 * total energy  :   -56.1806807 Eh     change       -0.2875413E-02 Eh
   gradient norm :     0.0164494 Eh/α   predicted    -0.2844525E-02 (  -1.07%)
   displ. norm   :     0.5457543 α      lambda       -0.1987209E-02
   maximum displ.:     0.2020983 α      in ANC's #21, #8, #17, ...

........................................................................
.............................. CYCLE  190 ..............................
........................................................................

 iter      E             dE          RMSdq      gap      omega  full diag
   1    -56.9795956 -0.569796E+02  0.485E-01    0.41       0.0  T
   2    -56.9784704  0.112520E-02  0.325E-01    0.42       1.0  T
   3    -56.9568733  0.215971E-01  0.445E-01    0.38       1.0  T
   4    -56.9763452 -0.194719E-01  0.170E-01    0.42       1.0  T
   5    -56.9799034 -0.355817E-02  0.336E-02    0.41       1.0  T
   6    -56.9800525 -0.149118E-03  0.137E-02    0.41       1.0  T
   7    -56.9800607 -0.824240E-05  0.107E-02    0.41       1.3  T
   8    -56.9800677 -0.699286E-05  0.709E-03    0.41       1.9  T
   9    -56.9800698 -0.206256E-05  0.566E-03    0.41       2.4  T
  10    -56.9800735 -0.375551E-05  0.235E-03    0.41       5.7  T
  11    -56.9800740 -0.480773E-06  0.119E-03    0.41      11.4  T
  12    -56.9800741 -0.115408E-06  0.570E-04    0.41      23.7  T
  13    -56.9800741 -0.163546E-07  0.335E-04    0.41      40.2  T
     SCC iter.                  ...        0 min,  0.073 sec
     gradient                   ...        0 min,  0.008 sec
 * total energy  :   -56.1820866 Eh     change       -0.1405941E-02 Eh
   gradient norm :     0.0204770 Eh/α   predicted    -0.1289550E-02 (  -8.28%)
   displ. norm   :     0.4175831 α      lambda       -0.2566075E-02
   maximum displ.:     0.1931377 α      in ANC's #21, #24, #26, ...

........................................................................
.............................. CYCLE  191 ..............................
........................................................................

 iter      E             dE          RMSdq      gap      omega  full diag
   1    -56.9851631 -0.569852E+02  0.388E-01    0.40       0.0  T
   2    -56.9844250  0.738100E-03  0.256E-01    0.41       1.0  T
   3    -56.9610572  0.233678E-01  0.392E-01    0.38       1.0  T
   4    -56.9819899 -0.209326E-01  0.153E-01    0.42       1.0  T
   5    -56.9853000 -0.331013E-02  0.305E-02    0.40       1.0  T
   6    -56.9853862 -0.862162E-04  0.162E-02    0.41       1.0  T
   7    -56.9853967 -0.104556E-04  0.129E-02    0.40       1.0  T
   8    -56.9854126 -0.159641E-04  0.590E-03    0.41       2.3  T
   9    -56.9854144 -0.178813E-05  0.443E-03    0.41       3.0  T
  10    -56.9854160 -0.162707E-05  0.227E-03    0.41       5.9  T
  11    -56.9854165 -0.439690E-06  0.881E-04    0.41      15.3  T
  12    -56.9854165  0.406611E-08  0.705E-04    0.41      19.1  T
     SCC iter.                  ...        0 min,  0.066 sec
     gradient                   ...        0 min,  0.007 sec
 * total energy  :   -56.1834656 Eh     change       -0.1378918E-02 Eh
   gradient norm :     0.0197450 Eh/α   predicted    -0.1506770E-02 (   9.27%)
   displ. norm   :     0.4631160 α      lambda       -0.1983753E-02
   maximum displ.:     0.1661268 α      in ANC's #21, #9, #8, ...

........................................................................
.............................. CYCLE  192 ..............................
........................................................................

 iter      E             dE          RMSdq      gap      omega  full diag
   1    -56.9825025 -0.569825E+02  0.374E-01    0.39       0.0  T
   2    -56.9816266  0.875897E-03  0.254E-01    0.40       1.0  T
   3    -56.9691972  0.124294E-01  0.346E-01    0.37       1.0  T
   4    -56.9801727 -0.109755E-01  0.140E-01    0.41       1.0  T
   5    -56.9826341 -0.246138E-02  0.391E-02    0.39       1.0  T
   6    -56.9828435 -0.209346E-03  0.136E-02    0.40       1.0  T
   7    -56.9828566 -0.131377E-04  0.905E-03    0.40       1.5  T
   8    -56.9828599 -0.335437E-05  0.557E-03    0.40       2.4  T
   9    -56.9828630 -0.304279E-05  0.256E-03    0.40       5.3  T
  10    -56.9828635 -0.488811E-06  0.178E-03    0.40       7.6  T
  11    -56.9828639 -0.374684E-06  0.602E-04    0.40      22.4  T
  12    -56.9828639 -0.588901E-08  0.485E-04    0.40      27.8  T
     SCC iter.                  ...        0 min,  0.060 sec
     gradient                   ...        0 min,  0.009 sec
 * total energy  :   -56.1847515 Eh     change       -0.1285949E-02 Eh
   gradient norm :     0.0137130 Eh/α   predicted    -0.1204611E-02 (  -6.33%)
   displ. norm   :     0.3249519 α      lambda       -0.1355329E-02
   maximum displ.:     0.1137980 α      in ANC's #9, #7, #21, ...

........................................................................
.............................. CYCLE  193 ..............................
........................................................................

 iter      E             dE          RMSdq      gap      omega  full diag
   1    -56.9858029 -0.569858E+02  0.261E-01    0.40       0.0  T
   2    -56.9852973  0.505643E-03  0.178E-01    0.40       1.0  T
   3    -56.9781377  0.715962E-02  0.251E-01    0.38       1.0  T
   4    -56.9845233 -0.638566E-02  0.961E-02    0.41       1.0  T
   5    -56.9858843 -0.136095E-02  0.253E-02    0.39       1.0  T
   6    -56.9859672 -0.829137E-04  0.961E-03    0.40       1.4  T
   7    -56.9859724 -0.527172E-05  0.680E-03    0.40       2.0  T
   8    -56.9859747 -0.221606E-05  0.427E-03    0.40       3.2  T
   9    -56.9859767 -0.201086E-05  0.170E-03    0.40       7.9  T
  10    -56.9859769 -0.219642E-06  0.108E-03    0.40      12.5  T
  11    -56.9859770 -0.119572E-06  0.374E-04    0.40      36.0  T
  12    -56.9859770 -0.231716E-08  0.285E-04    0.40      47.3  T
     SCC iter.                  ...        0 min,  0.058 sec
     gradient                   ...        0 min,  0.008 sec
 * total energy  :   -56.1857770 Eh     change       -0.1025481E-02 Eh
   gradient norm :     0.0137140 Eh/α   predicted    -0.7492217E-03 ( -26.94%)
   displ. norm   :     0.5333283 α      lambda       -0.1740967E-02
   maximum displ.:     0.1890968 α      in ANC's #7, #9, #21, ...

........................................................................
.............................. CYCLE  194 ..............................
........................................................................

 iter      E             dE          RMSdq      gap      omega  full diag
   1    -56.9878474 -0.569878E+02  0.420E-01    0.39       0.0  T
   2    -56.9863039  0.154356E-02  0.284E-01    0.41       1.0  T
   3    -56.9684807  0.178232E-01  0.402E-01    0.36       1.0  T
   4    -56.9848307 -0.163500E-01  0.156E-01    0.41       1.0  T
   5    -56.9882052 -0.337451E-02  0.381E-02    0.39       1.0  T
   6    -56.9883741 -0.168911E-03  0.152E-02    0.40       1.0  T
   7    -56.9883873 -0.131866E-04  0.110E-02    0.39       1.2  T
   8    -56.9883937 -0.639236E-05  0.682E-03    0.40       2.0  T
   9    -56.9883935  0.222617E-06  0.631E-03    0.39       2.1  T
  10    -56.9883980 -0.455230E-05  0.221E-03    0.40       6.1  T
  11    -56.9883985 -0.459834E-06  0.764E-04    0.40      17.7  T
  12    -56.9883985 -0.398187E-08  0.589E-04    0.40      22.9  T
     SCC iter.                  ...        0 min,  0.056 sec
     gradient                   ...        0 min,  0.007 sec
 * total energy  :   -56.1872030 Eh     change       -0.1426006E-02 Eh
   gradient norm :     0.0168704 Eh/α   predicted    -0.1118086E-02 ( -21.59%)
   displ. norm   :     0.6007725 α      lambda       -0.2182514E-02
   maximum displ.:     0.2308026 α      in ANC's #7, #9, #4, ...

........................................................................
.............................. CYCLE  195 ..............................
........................................................................

 iter      E             dE          RMSdq      gap      omega  full diag
   1    -56.9889058 -0.569889E+02  0.507E-01    0.38       0.0  T
   2    -56.9866155  0.229032E-02  0.341E-01    0.40       1.0  T
   3    -56.9588951  0.277204E-01  0.508E-01    0.35       1.0  T
   4    -56.9842405 -0.253454E-01  0.202E-01    0.39       1.0  T
   5    -56.9894395 -0.519893E-02  0.462E-02    0.39       1.0  T
   6    -56.9896590 -0.219578E-03  0.205E-02    0.39       1.0  T
   7    -56.9896809 -0.218388E-04  0.134E-02    0.39       1.0  T
   8    -56.9896873 -0.644581E-05  0.103E-02    0.39       1.3  T
   9    -56.9896854  0.193610E-05  0.886E-03    0.39       1.5  T
  10    -56.9896953 -0.993694E-05  0.241E-03    0.39       5.6  T
  11    -56.9896958 -0.462893E-06  0.114E-03    0.39      11.9  T
  12    -56.9896958 -0.702011E-08  0.892E-04    0.39      15.1  T
  13    -56.9896959 -0.667407E-07  0.360E-04    0.39      37.5  T
     SCC iter.                  ...        0 min,  0.062 sec
     gradient                   ...        0 min,  0.008 sec
 * total energy  :   -56.1886666 Eh     change       -0.1463610E-02 Eh
   gradient norm :     0.0178078 Eh/α   predicted    -0.1485125E-02 (   1.47%)
   displ. norm   :     0.2587858 α      lambda       -0.1251714E-02
   maximum displ.:     0.1089084 α      in ANC's #4, #7, #5, ...

........................................................................
.............................. CYCLE  196 ..............................
........................................................................

 iter      E             dE          RMSdq      gap      omega  full diag
   1    -56.9920919 -0.569921E+02  0.250E-01    0.39       0.0  T
   2    -56.9914637  0.628234E-03  0.171E-01    0.40       1.0  T
   3    -56.9815142  0.994954E-02  0.292E-01    0.38       1.0  T
   4    -56.9913962 -0.988202E-02  0.754E-02    0.39       1.0  T
   5    -56.9921789 -0.782675E-03  0.191E-02    0.40       1.0  T
   6    -56.9922221 -0.432685E-04  0.763E-03    0.39       1.8  T
   7    -56.9922227 -0.605644E-06  0.642E-03    0.39       2.1  T
   8    -56.9922268 -0.404355E-05  0.303E-03    0.39       4.4  T
   9    -56.9922266  0.129676E-06  0.273E-03    0.39       4.9  T
  10    -56.9922275 -0.874822E-06  0.778E-04    0.39      17.3  T
  11    -56.9922276 -0.382192E-07  0.488E-04    0.39      27.6  T
     SCC iter.                  ...        0 min,  0.051 sec
     gradient                   ...        0 min,  0.007 sec
 * total energy  :   -56.1894428 Eh     change       -0.7762272E-03 Eh
   gradient norm :     0.0143567 Eh/α   predicted    -0.6677784E-03 ( -13.97%)
   displ. norm   :     0.2645249 α      lambda       -0.1242329E-02
   maximum displ.:     0.1092560 α      in ANC's #15, #5, #7, ...

........................................................................
.............................. CYCLE  197 ..............................
........................................................................

 iter      E             dE          RMSdq      gap      omega  full diag
   1    -56.9890374 -0.569890E+02  0.237E-01    0.39       0.0  T
   2    -56.9887016  0.335807E-03  0.156E-01    0.40       1.0  T
   3    -56.9812408  0.746079E-02  0.251E-01    0.38       1.0  T
   4    -56.9884507 -0.720984E-02  0.673E-02    0.39       1.0  T
   5    -56.9891005 -0.649860E-03  0.152E-02    0.40       1.0  T
   6    -56.9891278 -0.272316E-04  0.679E-03    0.39       2.0  T
   7    -56.9891279 -0.182581E-06  0.581E-03    0.40       2.3  T
   8    -56.9891313 -0.335338E-05  0.281E-03    0.39       4.8  T
   9    -56.9891320 -0.674266E-06  0.162E-03    0.39       8.3  T
  10    -56.9891322 -0.217822E-06  0.746E-04    0.39      18.1  T
  11    -56.9891322 -0.373695E-07  0.344E-04    0.39      39.2  T
     SCC iter.                  ...        0 min,  0.073 sec
     gradient                   ...        0 min,  0.039 sec
 * total energy  :   -56.1902286 Eh     change       -0.7857796E-03 Eh
   gradient norm :     0.0103752 Eh/α   predicted    -0.6646308E-03 ( -15.42%)
   displ. norm   :     0.2584681 α      lambda       -0.7258845E-03
   maximum displ.:     0.1201871 α      in ANC's #5, #17, #20, ...

........................................................................
.............................. CYCLE  198 ..............................
........................................................................

 iter      E             dE          RMSdq      gap      omega  full diag
   1    -56.9876506 -0.569877E+02  0.218E-01    0.40       0.0  T
   2    -56.9873991  0.251415E-03  0.143E-01    0.40       1.0  T
   3    -56.9838679  0.353120E-02  0.200E-01    0.40       1.0  T
   4    -56.9869777 -0.310973E-02  0.738E-02    0.40       1.0  T
   5    -56.9877231 -0.745430E-03  0.162E-02    0.40       1.0  T
   6    -56.9877516 -0.285451E-04  0.671E-03    0.40       2.0  T
   7    -56.9877516  0.249378E-07  0.550E-03    0.40       2.5  T
   8    -56.9877545 -0.288705E-05  0.265E-03    0.40       5.1  T
   9    -56.9877553 -0.751467E-06  0.122E-03    0.40      11.0  T
  10    -56.9877553 -0.770344E-07  0.787E-04    0.40      17.1  T
  11    -56.9877554 -0.530366E-07  0.304E-04    0.40      44.3  T
     SCC iter.                  ...        0 min,  0.070 sec
     gradient                   ...        0 min,  0.009 sec
 * total energy  :   -56.1907250 Eh     change       -0.4963658E-03 Eh
   gradient norm :     0.0087807 Eh/α   predicted    -0.3871899E-03 ( -22.00%)
   displ. norm   :     0.4085673 α      lambda       -0.6830206E-03
   maximum displ.:     0.2037091 α      in ANC's #5, #7, #9, ...

........................................................................
.............................. CYCLE  199 ..............................
........................................................................

 iter      E             dE          RMSdq      gap      omega  full diag
   1    -56.9845698 -0.569846E+02  0.296E-01    0.39       0.0  T
   2    -56.9837697  0.800144E-03  0.205E-01    0.40       1.0  T
   3    -56.9744338  0.933586E-02  0.306E-01    0.38       1.0  T
   4    -56.9831795 -0.874561E-02  0.106E-01    0.40       1.0  T
   5    -56.9847561 -0.157668E-02  0.219E-02    0.40       1.0  T
   6    -56.9848117 -0.555776E-04  0.923E-03    0.39       1.5  T
   7    -56.9848175 -0.579803E-05  0.541E-03    0.39       2.5  T
   8    -56.9848180 -0.531492E-06  0.404E-03    0.39       3.3  T
   9    -56.9848178  0.283308E-06  0.373E-03    0.39       3.6  T
  10    -56.9848196 -0.182610E-05  0.107E-03    0.39      12.7  T
  11    -56.9848197 -0.940925E-07  0.542E-04    0.39      24.9  T
  12    -56.9848197  0.533523E-08  0.486E-04    0.39      27.7  T
     SCC iter.                  ...        0 min,  0.064 sec
     gradient                   ...        0 min,  0.008 sec
 * total energy  :   -56.1908839 Eh     change       -0.1589049E-03 Eh
   gradient norm :     0.0112167 Eh/α   predicted    -0.3985211E-03 ( 150.79%)
   displ. norm   :     0.2923059 α      lambda       -0.9916871E-03
   maximum displ.:     0.1572505 α      in ANC's #17, #5, #21, ...

........................................................................
.............................. CYCLE  200 ..............................
........................................................................

 iter      E             dE          RMSdq      gap      omega  full diag
   1    -56.9869734 -0.569870E+02  0.251E-01    0.41       0.0  T
   2    -56.9865945  0.378850E-03  0.160E-01    0.39       1.0  T
   3    -56.9830349  0.355961E-02  0.212E-01    0.43       1.0  T
   4    -56.9860382 -0.300335E-02  0.911E-02    0.39       1.0  T
   5    -56.9870940 -0.105574E-02  0.252E-02    0.40       1.0  T
   6    -56.9871663 -0.723021E-04  0.107E-02    0.40       1.3  T
   7    -56.9871683 -0.200507E-05  0.866E-03    0.40       1.6  T
   8    -56.9871763 -0.802613E-05  0.330E-03    0.40       4.1  T
   9    -56.9871772 -0.836103E-06  0.178E-03    0.40       7.6  T
  10    -56.9871773 -0.154907E-06  0.106E-03    0.40      12.7  T
  11    -56.9871774 -0.906503E-07  0.422E-04    0.40      31.9  T
  12    -56.9871774  0.806483E-08  0.416E-04    0.40      32.4  T
     SCC iter.                  ...        0 min,  0.063 sec
     gradient                   ...        0 min,  0.008 sec
 * total energy  :   -56.1911935 Eh     change       -0.3096366E-03 Eh
   gradient norm :     0.0102124 Eh/α   predicted    -0.5382136E-03 (  73.82%)
   displ. norm   :     0.1093958 α      lambda       -0.3623385E-03
   maximum displ.:     0.0470922 α      in ANC's #21, #15, #17, ...

........................................................................
.............................. CYCLE  201 ..............................
........................................................................

 iter      E             dE          RMSdq      gap      omega  full diag
   1    -56.9889473 -0.569889E+02  0.106E-01    0.40       0.0  T
   2    -56.9888697  0.775505E-04  0.716E-02    0.40       1.0  T
   3    -56.9880079  0.861878E-03  0.976E-02    0.39       1.0  T
   4    -56.9887918 -0.783890E-03  0.356E-02    0.40       1.0  T
   5    -56.9889634 -0.171610E-03  0.102E-02    0.40       1.3  T
   6    -56.9889762 -0.128171E-04  0.353E-03    0.40       3.8  T
   7    -56.9889761  0.133921E-06  0.296E-03    0.40       4.6  T
   8    -56.9889771 -0.997308E-06  0.134E-03    0.40      10.1  T
   9    -56.9889772 -0.193725E-06  0.662E-04    0.40      20.4  T
  10    -56.9889773 -0.971533E-08  0.471E-04    0.40      28.6  T
     SCC iter.                  ...        0 min,  0.051 sec
     gradient                   ...        0 min,  0.006 sec
 * total energy  :   -56.1914207 Eh     change       -0.2272225E-03 Eh
   gradient norm :     0.0054246 Eh/α   predicted    -0.1833407E-03 ( -19.31%)
   displ. norm   :     0.1868513 α      lambda       -0.2464362E-03
   maximum displ.:     0.0938855 α      in ANC's #5, #7, #9, ...

........................................................................
.............................. CYCLE  202 ..............................
........................................................................

 iter      E             dE          RMSdq      gap      omega  full diag
   1    -56.9895133 -0.569895E+02  0.143E-01    0.40       0.0  T
   2    -56.9894455  0.678339E-04  0.928E-02    0.40       1.0  T
   3    -56.9876555  0.178995E-02  0.136E-01    0.40       1.0  T
   4    -56.9894045 -0.174897E-02  0.344E-02    0.40       1.0  T
   5    -56.9895331 -0.128585E-03  0.736E-03    0.40       1.8  T
   6    -56.9895385 -0.537294E-05  0.374E-03    0.40       3.6  T
   7    -56.9895389 -0.449888E-06  0.274E-03    0.40       4.9  T
   8    -56.9895397 -0.776298E-06  0.126E-03    0.40      10.7  T
   9    -56.9895398 -0.935320E-07  0.917E-04    0.40      14.7  T
  10    -56.9895398 -0.731610E-07  0.535E-04    0.40      25.2  T
     SCC iter.                  ...        0 min,  0.051 sec
     gradient                   ...        0 min,  0.009 sec
 * total energy  :   -56.1915873 Eh     change       -0.1665872E-03 Eh
   gradient norm :     0.0046646 Eh/α   predicted    -0.1275244E-03 ( -23.45%)
   displ. norm   :     0.2726064 α      lambda       -0.2327207E-03
   maximum displ.:     0.1577915 α      in ANC's #5, #7, #9, ...

........................................................................
.............................. CYCLE  203 ..............................
........................................................................

 iter      E             dE          RMSdq      gap      omega  full diag
   1    -56.9898320 -0.569898E+02  0.185E-01    0.40       0.0  T
   2    -56.9896510  0.180958E-03  0.122E-01    0.39       1.0  T
   3    -56.9860565  0.359457E-02  0.194E-01    0.41       1.0  T
   4    -56.9895910 -0.353453E-02  0.520E-02    0.40       1.0  T
   5    -56.9898696 -0.278645E-03  0.119E-02    0.40       1.1  T
   6    -56.9898841 -0.144855E-04  0.575E-03    0.40       2.3  T
   7    -56.9898859 -0.175250E-05  0.405E-03    0.40       3.3  T
   8    -56.9898877 -0.183402E-05  0.151E-03    0.40       8.9  T
   9    -56.9898878 -0.957374E-07  0.117E-03    0.40      11.6  T
  10    -56.9898879 -0.113613E-06  0.681E-04    0.40      19.8  T
  11    -56.9898880 -0.463594E-07  0.279E-04    0.40      48.3  T
     SCC iter.                  ...        0 min,  0.068 sec
     gradient                   ...        0 min,  0.008 sec
 * total energy  :   -56.1917343 Eh     change       -0.1469327E-03 Eh
   gradient norm :     0.0048494 Eh/α   predicted    -0.1250081E-03 ( -14.92%)
   displ. norm   :     0.2357540 α      lambda       -0.1592718E-03
   maximum displ.:     0.1452413 α      in ANC's #5, #7, #17, ...

........................................................................
.............................. CYCLE  204 ..............................
........................................................................

 iter      E             dE          RMSdq      gap      omega  full diag
   1    -56.9901684 -0.569902E+02  0.162E-01    0.40       0.0  T
   2    -56.9900641  0.104349E-03  0.105E-01    0.39       1.0  T
   3    -56.9878020  0.226207E-02  0.151E-01    0.42       1.0  T
   4    -56.9899188 -0.211682E-02  0.512E-02    0.40       1.0  T
   5    -56.9902019 -0.283040E-03  0.892E-03    0.40       1.5  T
   6    -56.9902068 -0.497984E-05  0.561E-03    0.40       2.4  T
   7    -56.9902088 -0.197372E-05  0.329E-03    0.40       4.1  T
   8    -56.9902101 -0.131154E-05  0.132E-03    0.40      10.2  T
   9    -56.9902103 -0.121920E-06  0.850E-04    0.40      15.9  T
  10    -56.9902103 -0.455795E-07  0.447E-04    0.40      30.1  T
     SCC iter.                  ...        0 min,  0.055 sec
     gradient                   ...        0 min,  0.008 sec
 * total energy  :   -56.1918425 Eh     change       -0.1082796E-03 Eh
   gradient norm :     0.0047435 Eh/α   predicted    -0.8406659E-04 ( -22.36%)
   displ. norm   :     0.1897194 α      lambda       -0.1237101E-03
   maximum displ.:     0.1240099 α      in ANC's #5, #7, #1, ...

........................................................................
.............................. CYCLE  205 ..............................
........................................................................

 iter      E             dE          RMSdq      gap      omega  full diag
   1    -56.9908018 -0.569908E+02  0.115E-01    0.40       0.0  T
   2    -56.9907186  0.832077E-04  0.761E-02    0.40       1.0  T
   3    -56.9893713  0.134729E-02  0.114E-01    0.41       1.0  T
   4    -56.9906592 -0.128785E-02  0.381E-02    0.40       1.0  T
   5    -56.9908218 -0.162656E-03  0.785E-03    0.40       1.7  T
   6    -56.9908286 -0.672892E-05  0.303E-03    0.40       4.5  T
   7    -56.9908285  0.544010E-07  0.258E-03    0.40       5.2  T
   8    -56.9908293 -0.786680E-06  0.947E-04    0.40      14.2  T
   9    -56.9908294 -0.675791E-07  0.571E-04    0.40      23.6  T
     SCC iter.                  ...        0 min,  0.047 sec
     gradient                   ...        0 min,  0.008 sec
 * total energy  :   -56.1919289 Eh     change       -0.8638830E-04 Eh
   gradient norm :     0.0034836 Eh/α   predicted    -0.6408348E-04 ( -25.82%)
   displ. norm   :     0.2111522 α      lambda       -0.1009931E-03
   maximum displ.:     0.1403442 α      in ANC's #5, #9, #7, ...

........................................................................
.............................. CYCLE  206 ..............................
........................................................................

 iter      E             dE          RMSdq      gap      omega  full diag
   1    -56.9900200 -0.569900E+02  0.138E-01    0.41       0.0  T
   2    -56.9899313  0.887074E-04  0.910E-02    0.40       1.0  T
   3    -56.9881698  0.176154E-02  0.129E-01    0.42       1.0  T
   4    -56.9898225 -0.165274E-02  0.429E-02    0.40       1.0  T
   5    -56.9900430 -0.220489E-03  0.921E-03    0.40       1.5  T
   6    -56.9900520 -0.902639E-05  0.358E-03    0.40       3.8  T
   7    -56.9900519  0.845318E-07  0.294E-03    0.40       4.6  T
   8    -56.9900530 -0.108081E-05  0.102E-03    0.40      13.2  T
   9    -56.9900531 -0.626773E-07  0.730E-04    0.40      18.5  T
  10    -56.9900531 -0.301123E-07  0.455E-04    0.40      29.7  T
     SCC iter.                  ...        0 min,  0.050 sec
     gradient                   ...        0 min,  0.008 sec
 * total energy  :   -56.1919846 Eh     change       -0.5565762E-04 Eh
   gradient norm :     0.0030592 Eh/α   predicted    -0.5275005E-04 (  -5.22%)
   displ. norm   :     0.1205527 α      lambda       -0.6379596E-04
   maximum displ.:     0.0811403 α      in ANC's #5, #9, #1, ...

........................................................................
.............................. CYCLE  207 ..............................
........................................................................

 iter      E             dE          RMSdq      gap      omega  full diag
   1    -56.9909517 -0.569910E+02  0.733E-02    0.40       0.0  T
   2    -56.9909204  0.312772E-04  0.483E-02    0.40       1.0  T
   3    -56.9904095  0.510901E-03  0.747E-02    0.41       1.0  T
   4    -56.9909269 -0.517399E-03  0.172E-02    0.40       1.0  T
   5    -56.9909588 -0.319112E-04  0.446E-03    0.40       3.0  T
   6    -56.9909613 -0.240570E-05  0.220E-03    0.40       6.1  T
   7    -56.9909615 -0.256482E-06  0.169E-03    0.40       8.0  T
   8    -56.9909618 -0.336523E-06  0.546E-04    0.40      24.7  T
   9    -56.9909619 -0.575264E-08  0.470E-04    0.40      28.7  T
     SCC iter.                  ...        0 min,  0.047 sec
     gradient                   ...        0 min,  0.007 sec
 * total energy  :   -56.1920188 Eh     change       -0.3419982E-04 Eh
   gradient norm :     0.0029405 Eh/α   predicted    -0.3236470E-04 (  -5.37%)
   displ. norm   :     0.0802485 α      lambda       -0.2892132E-04
   maximum displ.:     0.0554249 α      in ANC's #5, #9, #1, ...

........................................................................
.............................. CYCLE  208 ..............................
........................................................................

 iter      E             dE          RMSdq      gap      omega  full diag
   1    -56.9910486 -0.569910E+02  0.543E-02    0.40       0.0  T
   2    -56.9910315  0.170442E-04  0.356E-02    0.40       1.0  T
   3    -56.9906846  0.346922E-03  0.602E-02    0.41       1.0  T
   4    -56.9910351 -0.350512E-03  0.107E-02    0.40       1.3  T
   5    -56.9910515 -0.163993E-04  0.273E-03    0.40       4.9  T
   6    -56.9910526 -0.103633E-05  0.101E-03    0.40      13.4  T
   7    -56.9910526 -0.323242E-07  0.811E-04    0.40      16.6  T
   8    -56.9910527 -0.586336E-07  0.311E-04    0.40      43.4  T
     SCC iter.                  ...        0 min,  0.041 sec
     gradient                   ...        0 min,  0.007 sec
 * total energy  :   -56.1920422 Eh     change       -0.2336914E-04 Eh
   gradient norm :     0.0024140 Eh/α   predicted    -0.1455641E-04 ( -37.71%)
   displ. norm   :     0.1284804 α      lambda       -0.5014248E-04
   maximum displ.:     0.0872464 α      in ANC's #5, #3, #9, ...

........................................................................
.............................. CYCLE  209 ..............................
........................................................................

 iter      E             dE          RMSdq      gap      omega  full diag
   1    -56.9914268 -0.569914E+02  0.878E-02    0.40       0.0  T
   2    -56.9913799  0.469173E-04  0.578E-02    0.40       1.0  T
   3    -56.9904830  0.896835E-03  0.978E-02    0.41       1.0  T
   4    -56.9913918 -0.908751E-03  0.174E-02    0.40       1.0  T
   5    -56.9914350 -0.432152E-04  0.437E-03    0.40       3.1  T
   6    -56.9914376 -0.260352E-05  0.160E-03    0.40       8.4  T
   7    -56.9914376 -0.278924E-08  0.147E-03    0.40       9.2  T
   8    -56.9914378 -0.217373E-06  0.603E-04    0.40      22.4  T
   9    -56.9914379 -0.198975E-07  0.470E-04    0.40      28.7  T
     SCC iter.                  ...        0 min,  0.049 sec
     gradient                   ...        0 min,  0.008 sec
 * total energy  :   -56.1920752 Eh     change       -0.3301262E-04 Eh
   gradient norm :     0.0019278 Eh/α   predicted    -0.2548635E-04 ( -22.80%)
   displ. norm   :     0.1618748 α      lambda       -0.2780394E-04
   maximum displ.:     0.1117205 α      in ANC's #5, #3, #9, ...

........................................................................
.............................. CYCLE  210 ..............................
........................................................................

 iter      E             dE          RMSdq      gap      omega  full diag
   1    -56.9915408 -0.569915E+02  0.119E-01    0.41       0.0  T
   2    -56.9914893  0.514824E-04  0.763E-02    0.41       1.0  T
   3    -56.9899063  0.158295E-02  0.124E-01    0.41       1.0  T
   4    -56.9914884 -0.158203E-02  0.214E-02    0.41       1.0  T
   5    -56.9915495 -0.611472E-04  0.549E-03    0.41       2.5  T
   6    -56.9915537 -0.414625E-05  0.214E-03    0.41       6.3  T
   7    -56.9915538 -0.182784E-06  0.164E-03    0.41       8.2  T
   8    -56.9915541 -0.233857E-06  0.678E-04    0.41      19.9  T
   9    -56.9915541 -0.231267E-07  0.473E-04    0.41      28.5  T
     SCC iter.                  ...        0 min,  0.055 sec
     gradient                   ...        0 min,  0.008 sec
 * total energy  :   -56.1920961 Eh     change       -0.2095956E-04 Eh
   gradient norm :     0.0030558 Eh/α   predicted    -0.1406750E-04 ( -32.88%)
   displ. norm   :     0.0889044 α      lambda       -0.2662586E-04
   maximum displ.:     0.0605831 α      in ANC's #5, #3, #1, ...

........................................................................
.............................. CYCLE  211 ..............................
........................................................................

 iter      E             dE          RMSdq      gap      omega  full diag
   1    -56.9914405 -0.569914E+02  0.560E-02    0.41       0.0  T
   2    -56.9914310  0.953336E-05  0.360E-02    0.41       1.0  T
   3    -56.9911783  0.252716E-03  0.512E-02    0.41       1.0  T
   4    -56.9914276 -0.249337E-03  0.121E-02    0.41       1.1  T
   5    -56.9914435 -0.158182E-04  0.269E-03    0.41       5.0  T
   6    -56.9914443 -0.808819E-06  0.121E-03    0.41      11.1  T
   7    -56.9914443  0.103746E-07  0.112E-03    0.41      12.0  T
   8    -56.9914444 -0.160025E-06  0.354E-04    0.41      38.0  T
   9    -56.9914444 -0.957793E-08  0.217E-04    0.41      62.1  T
     SCC iter.                  ...        0 min,  0.053 sec
     gradient                   ...        0 min,  0.007 sec
 * total energy  :   -56.1921131 Eh     change       -0.1702291E-04 Eh
   gradient norm :     0.0022583 Eh/α   predicted    -0.1342009E-04 ( -21.16%)
   displ. norm   :     0.0901932 α      lambda       -0.2652491E-04
   maximum displ.:     0.0608414 α      in ANC's #5, #3, #1, ...

........................................................................
.............................. CYCLE  212 ..............................
........................................................................

 iter      E             dE          RMSdq      gap      omega  full diag
   1    -56.9914665 -0.569915E+02  0.602E-02    0.41       0.0  T
   2    -56.9914550  0.115603E-04  0.391E-02    0.41       1.0  T
   3    -56.9910908  0.364169E-03  0.541E-02    0.41       1.0  T
   4    -56.9914381 -0.347277E-03  0.149E-02    0.41       1.0  T
   5    -56.9914695 -0.313921E-04  0.348E-03    0.41       3.9  T
   6    -56.9914709 -0.145100E-05  0.107E-03    0.41      12.6  T
   7    -56.9914709  0.512063E-07  0.109E-03    0.41      12.4  T
   8    -56.9914710 -0.132378E-06  0.439E-04    0.41      30.7  T
   9    -56.9914710 -0.178367E-07  0.253E-04    0.41      53.3  T
     SCC iter.                  ...        0 min,  0.055 sec
     gradient                   ...        0 min,  0.008 sec
 * total energy  :   -56.1921304 Eh     change       -0.1726566E-04 Eh
   gradient norm :     0.0015626 Eh/α   predicted    -0.1337312E-04 ( -22.55%)
   displ. norm   :     0.1107929 α      lambda       -0.1617150E-04
   maximum displ.:     0.0705468 α      in ANC's #5, #9, #2, ...

........................................................................
.............................. CYCLE  213 ..............................
........................................................................

 iter      E             dE          RMSdq      gap      omega  full diag
   1    -56.9911143 -0.569911E+02  0.808E-02    0.41       0.0  T
   2    -56.9911011  0.132030E-04  0.520E-02    0.41       1.0  T
   3    -56.9905688  0.532331E-03  0.653E-02    0.41       1.0  T
   4    -56.9910730 -0.504271E-03  0.175E-02    0.41       1.0  T
   5    -56.9911175 -0.445145E-04  0.440E-03    0.41       3.1  T
   6    -56.9911201 -0.252385E-05  0.128E-03    0.41      10.5  T
   7    -56.9911199  0.130390E-06  0.133E-03    0.41      10.1  T
   8    -56.9911202 -0.221437E-06  0.560E-04    0.41      24.1  T
   9    -56.9911202 -0.322945E-07  0.294E-04    0.41      45.9  T
     SCC iter.                  ...        0 min,  0.054 sec
     gradient                   ...        0 min,  0.010 sec
 * total energy  :   -56.1921398 Eh     change       -0.9392596E-05 Eh
   gradient norm :     0.0018563 Eh/α   predicted    -0.8132681E-05 ( -13.41%)
   displ. norm   :     0.0263241 α      lambda       -0.8316377E-05
   maximum displ.:     0.0085882 α      in ANC's #5, #2, #6, ...

........................................................................
.............................. CYCLE  214 ..............................
........................................................................

 iter      E             dE          RMSdq      gap      omega  full diag
   1    -56.9914566 -0.569915E+02  0.193E-02    0.41       0.0  T
   2    -56.9914553  0.129506E-05  0.126E-02    0.41       1.1  T
   3    -56.9914137  0.416516E-04  0.186E-02    0.41       1.0  T
   4    -56.9914519 -0.381648E-04  0.574E-03    0.41       2.4  T
   5    -56.9914570 -0.511066E-05  0.116E-03    0.41      11.6  T
   6    -56.9914571 -0.116319E-06  0.633E-04    0.41      21.3  T
   7    -56.9914571 -0.539405E-08  0.479E-04    0.41      28.1  T
     SCC iter.                  ...        0 min,  0.055 sec
     gradient                   ...        0 min,  0.008 sec
 * total energy  :   -56.1921455 Eh     change       -0.5723827E-05 Eh
   gradient norm :     0.0013647 Eh/α   predicted    -0.4163702E-05 ( -27.26%)
   displ. norm   :     0.0341833 α      lambda       -0.8042058E-05
   maximum displ.:     0.0135464 α      in ANC's #9, #6, #11, ...

........................................................................
.............................. CYCLE  215 ..............................
........................................................................

 iter      E             dE          RMSdq      gap      omega  full diag
   1    -56.9916274 -0.569916E+02  0.300E-02    0.41       0.0  T
   2    -56.9916246  0.283869E-05  0.195E-02    0.41       1.0  T
   3    -56.9915098  0.114758E-03  0.305E-02    0.41       1.0  T
   4    -56.9916207 -0.110859E-03  0.690E-03    0.41       2.0  T
   5    -56.9916279 -0.719937E-05  0.160E-03    0.41       8.4  T
   6    -56.9916282 -0.298165E-06  0.573E-04    0.41      23.5  T
   7    -56.9916282 -0.972825E-09  0.438E-04    0.41      30.8  T
     SCC iter.                  ...        0 min,  0.057 sec
     gradient                   ...        0 min,  0.010 sec
 * total energy  :   -56.1921512 Eh     change       -0.5644466E-05 Eh
   gradient norm :     0.0013554 Eh/α   predicted    -0.4027120E-05 ( -28.65%)
   displ. norm   :     0.0300916 α      lambda       -0.4694587E-05
   maximum displ.:     0.0145679 α      in ANC's #9, #6, #2, ...

........................................................................
.............................. CYCLE  216 ..............................
........................................................................

 iter      E             dE          RMSdq      gap      omega  full diag
   1    -56.9916728 -0.569917E+02  0.236E-02    0.41       0.0  T
   2    -56.9916708  0.199763E-05  0.153E-02    0.41       1.0  T
   3    -56.9915982  0.726199E-04  0.240E-02    0.41       1.0  T
   4    -56.9916671 -0.688960E-04  0.630E-03    0.41       2.1  T
   5    -56.9916732 -0.615508E-05  0.126E-03    0.41      10.7  T
   6    -56.9916734 -0.180660E-06  0.435E-04    0.41      31.0  T
   7    -56.9916734  0.235395E-07  0.528E-04    0.41      25.5  T
     SCC iter.                  ...        0 min,  0.106 sec
     gradient                   ...        0 min,  0.008 sec
 * total energy  :   -56.1921555 Eh     change       -0.4366917E-05 Eh
   gradient norm :     0.0009048 Eh/α   predicted    -0.2351443E-05 ( -46.15%)
   displ. norm   :     0.0640419 α      lambda       -0.4365488E-05
   maximum displ.:     0.0275999 α      in ANC's #9, #5, #6, ...

   *** GEOMETRY OPTIMIZATION CONVERGED AFTER 216 ITERATIONS ***

------------------------------------------------------------------------
 total energy gain   :        -0.5591392 Eh     -350.8652 kcal/mol
 total RMSD          :         2.9706540 a0        1.5720 Å
 total power (kW/mol):        -6.7963882 (step)  -84.7831 (real)
------------------------------------------------------------------------

 ANCopt (total)                0 d,  0 h,  0 min, 17.315 sec
 optimizer setup                ...        0 min,  0.001 sec (  0.006%)
 model hessian                  ...        0 min,  0.113 sec (  0.653%)
 ANC generation                 ...        0 min,  0.028 sec (  0.162%)
 coordinate transformation      ...        0 min,  0.009 sec (  0.052%)
 single point calculation       ...        0 min, 16.873 sec ( 97.447%)
 optimization log               ...        0 min,  0.191 sec (  1.103%)
 hessian update                 ...        0 min,  0.023 sec (  0.133%)
 rational function              ...        0 min,  0.050 sec (  0.289%)

================
 final structure:
================
55
 xtb: 6.7.1pre (5071a88)
B           -4.78060212810516       -2.60451272195463        0.31726640248521
B           -4.56946542092356       -1.35668310629316       -0.64800408778613
B           -4.46386071152997       -0.24738064342288       -1.88294476080549
B           -3.39653114248309       -2.66197939132667       -0.50282669022160
B           -3.03800920083139        0.17760662861752       -1.40477344873187
B           -4.39087183354180        0.34264421095904       -0.19239656817369
B           -5.03101221778247        1.40307827763977        0.81922154762237
B           -4.62009379700083        2.98638801988285        0.99756218559343
B           -2.80885069062964        0.51280288442160        0.19951255105648
B           -3.21855148714788        3.22753972795357        1.79323591828874
B           -2.16113324658195       -3.77582077655871       -0.58434349954053
B           -1.87692794552205       -2.24808369264506       -0.93341418929023
B           -1.69716384472834       -0.61333441376661       -0.83575132982930
B           -0.58444330516177       -3.21898361694770       -0.83504891282733
B           -0.21975092725657       -0.14844847925055       -0.31180258094942
B           -1.39498476128340        0.03581797169566        0.85208716556541
B           -1.77568622987171        1.66210958889842        0.75922379686051
B           -1.89750204291225        3.23698929716018        0.88258394155037
B           -0.21529165187858        1.03720020997037        1.06969465184616
B           -0.75211800983287        4.34800190182793        0.55841652979380
B            0.82650101803648       -4.11286966761294       -0.74004862749685
B            0.92514420166808       -2.50540356116467       -0.74972269459984
B            1.21436371257911       -0.94897940926379       -0.58697226135702
B            2.20066499946930       -3.40258613372449       -0.16816732856770
B            2.62204627016677       -0.19565142754108       -0.29297700878279
B            1.23408058935036        0.55156215911385        0.14260040767122
B            1.12484403237610        2.00092310887610        1.04298608876754
B            0.53659962080180        3.43722902666625        0.61800662574485
B            2.45801542319631        1.67264560951496        0.08749490363520
B            1.21364618475935        3.01707291317090       -0.85296287728410
B            3.22024415102024       -3.85082033065175        1.10442777006576
B            3.62404573810086       -2.65348636785488        0.06373706531976
B            4.02502698037712       -1.12193031110703       -0.23655244980638
B            4.41737557651182       -2.83547431437302        1.42032928397897
B            5.36364045778391       -0.24189778967238       -0.68977775138453
B            4.10411869328249        0.53100897266082       -0.01347678266902
B            4.01809304252315        2.32177466124435       -0.03381032896725
B            2.82183825740384        3.09683305905196       -0.91293012984188
B            5.42200667767386        1.45825389621061       -0.18528822632111
B            4.29611779141166        3.55008998152080       -1.01397913324797
H           -5.16873366508543       -3.09485622778306        1.31067667783779
H           -5.71606329046330       -2.07639163894128       -0.39350853388090
H           -5.26403353577053       -0.12071679270246       -2.74169031368908
H           -5.77109694150905        1.00744334297935        1.66460415930107
H           -5.36451415141942        3.84312534383261        0.67204394189903
H           -3.23429953466606        3.22497389599614        2.97567413799208
H           -2.35929683556703       -4.92623667158374       -0.47322520319924
H           -0.89648183974698        5.47548043557243        0.24425271060269
H            0.82234616480696       -5.24979409681697       -1.02332921113679
H            0.55369522925264        2.69429372385459       -1.78368562955645
H            2.97032308813556       -4.81755633185315        1.71725026552226
H            5.26307405215498       -2.51245427310269        2.15654244454774
H            6.38477771008240       -0.64668560311096       -1.09559042958942
H            6.50319703006137        1.83816888324287        0.06501209723081
H            5.13888969624262        4.25241405851201       -1.41544228122805
 
 Bond Distances (Angstroems)
 ---------------------------
B1-B2=1.5917         B1-B4=1.6098         B1-H41=1.1739        B1-H42=1.2881        B2-B1=1.5917         B2-B3=1.6634         
B2-B4=1.7609         B2-B6=1.7684         B2-H42=1.3775        B3-B2=1.6634         B3-B5=1.5628         B3-B6=1.7920         
B3-H43=1.1806        B4-B1=1.6098         B4-B2=1.7609         B4-B11=1.6654        B4-B12=1.6328        B5-B3=1.5628         
B5-B6=1.8241         B5-B9=1.6549         B5-B13=1.6575        B6-B2=1.7684         B6-B3=1.7920         B6-B5=1.8241         
B6-B7=1.5993         B6-B9=1.6387         B7-B6=1.5993         B7-B8=1.6455         B7-H44=1.1912        B8-B7=1.6455         
B8-B10=1.6296        B8-H45=1.1807        B9-B5=1.6549         B9-B6=1.6387         B9-B13=1.8910        B9-B16=1.6286        
B9-B17=1.6437        B10-B8=1.6296        B10-B18=1.6045       B10-H46=1.1825       B11-B4=1.6654        B11-B12=1.5927       
B11-B14=1.6908       B11-H47=1.1726       B12-B4=1.6328        B12-B11=1.5927       B12-B13=1.6475       B12-B14=1.6195       
B13-B5=1.6575        B13-B9=1.8910        B13-B12=1.6475       B13-B15=1.6351       B13-B16=1.8334       B14-B11=1.6908       
B14-B12=1.6195       B14-B21=1.6730       B14-B22=1.6719       B15-B13=1.6351       B15-B16=1.6643       B15-B19=1.8205       
B15-B23=1.6653       B15-B26=1.6763       B16-B9=1.6286        B16-B13=1.8334       B16-B15=1.6643       B16-B17=1.6728       
B16-B19=1.5626       B17-B9=1.6437        B17-B16=1.6728       B17-B18=1.5844       B17-B19=1.7093       B18-B10=1.6045       
B18-B17=1.5844       B18-B20=1.6283       B19-B15=1.8205       B19-B16=1.5626       B19-B17=1.7093       B19-B26=1.7877       
B19-B27=1.6509       B20-B18=1.6283       B20-B28=1.5792       B20-H48=1.1793       B21-B14=1.6730       B21-B22=1.6105       
B21-B24=1.6492       B21-H49=1.1717       B22-B14=1.6719       B22-B21=1.6105       B22-B23=1.5914       B22-B24=1.6644       
B23-B15=1.6653       B23-B22=1.5914       B23-B25=1.6234       B23-B26=1.6686       B24-B21=1.6492       B24-B22=1.6644       
B24-B31=1.6911       B24-B32=1.6251       B25-B23=1.6234       B25-B26=1.6354       B25-B29=1.9137       B25-B33=1.6821       
B25-B36=1.6741       B26-B15=1.6763       B26-B19=1.7877       B26-B23=1.6686       B26-B25=1.6354       B26-B27=1.7098       
B26-B29=1.6607       B27-B19=1.6509       B27-B26=1.7098       B27-B28=1.6092       B27-B29=1.6727       B27-B30=2.1529       
B28-B20=1.5792       B28-B27=1.6092       B28-B30=1.6729       B29-B25=1.9137       B29-B26=1.6607       B29-B27=1.6727       
B29-B30=2.0592       B29-B36=2.0058       B29-B37=1.6941       B29-B38=1.7781       B30-B27=2.1529       B30-B28=1.6729       
B30-B29=2.0592       B30-B38=1.6113       B30-H50=1.1857       B31-B24=1.6911       B31-B32=1.6370       B31-B34=1.6012       
B31-H51=1.1716       B32-B24=1.6251       B32-B31=1.6370       B32-B33=1.6114       B32-B34=1.5820       B33-B25=1.6821       
B33-B32=1.6114       B33-B35=1.6649       B33-B36=1.6698       B34-B31=1.6012       B34-B32=1.5820       B34-H52=1.1669       
B35-B33=1.6649       B35-B36=1.6252       B35-B39=1.7744       B35-H53=1.1710       B36-B25=1.6741       B36-B29=2.0058       
B36-B33=1.6698       B36-B35=1.6252       B36-B37=1.7929       B36-B39=1.6205       B37-B29=1.6941       B37-B36=1.7929       
B37-B38=1.6747       B37-B39=1.6552       B37-B40=1.5959       B38-B29=1.7781       B38-B30=1.6113       B38-B37=1.6747       
B38-B40=1.5457       B39-B35=1.7744       B39-B36=1.6205       B39-B37=1.6552       B39-H54=1.1730       B40-B37=1.5959       
B40-B38=1.5457       B40-H55=1.1682       H41-B1=1.1739        H42-B1=1.2881        H42-B2=1.3775        H43-B3=1.1806        
H44-B7=1.1912        H45-B8=1.1807        H46-B10=1.1825       H47-B11=1.1726       H48-B20=1.1793       H49-B21=1.1717       
H50-B30=1.1857       H51-B31=1.1716       H52-B34=1.1669       H53-B35=1.1710       H54-B39=1.1730       H55-B40=1.1682       
 B  H  Rav=1.1959 sigma=0.0545  Rmin=1.1669  Rmax=1.3775    16
 B  B  Rav=1.6823 sigma=0.1081  Rmin=1.5457  Rmax=2.1529    77
 
 selected bond angles (degree)
 --------------------
B4-B1-B2= 66.73                H41-B1-B2=152.20               H41-B1-B4=134.47               H42-B1-B2= 55.96               
H42-B1-B4=110.97               H42-B1-H41=113.46              B3-B2-B1=168.96                B4-B2-B1= 57.13                
B4-B2-B3=120.88                B6-B2-B1=127.63                B6-B2-B3= 62.87                B6-B2-B4=128.60                
H42-B2-B1= 50.80               H42-B2-B3=122.58               H42-B2-B4= 98.74               H42-B2-B6=122.58               
B5-B3-B2= 90.69                B6-B3-B2= 61.43                B6-B3-B5= 65.46                H43-B3-B2=124.65               
H43-B3-B5=144.27               H43-B3-B6=132.72               B2-B4-B1= 56.14                B11-B4-B1=133.36               
B11-B4-B2=170.36               B12-B4-B1=157.74               B12-B4-B2=114.22               B12-B4-B11= 57.74              
B6-B5-B3= 63.34                B9-B5-B3=118.56                B9-B5-B6= 55.95                B13-B5-B3=135.51               
B13-B5-B6=114.52               B13-B5-B9= 69.62               B3-B6-B2= 55.70                B5-B6-B2= 79.44                
B5-B6-B3= 51.20                B7-B6-B2=139.44                B7-B6-B3=143.01                B7-B6-B5=141.01                
B9-B6-B2=105.00                B9-B6-B3=107.40                B9-B6-B5= 56.79                B9-B6-B7= 99.57                
B8-B7-B6=127.35                H44-B7-B6=118.51               H44-B7-B8=113.44               B10-B8-B7=114.21               
H45-B8-B7=120.72               H45-B8-B10=124.71              B6-B9-B5= 67.26                B13-B9-B5= 55.25               
B13-B9-B6=112.01               B16-B9-B5=116.70               B16-B9-B6=154.63               B16-B9-B13= 62.26              
B17-B9-B5=123.97               B17-B9-B6=139.54               B17-B9-B13=103.49              B17-B9-B16= 61.49              
B18-B10-B8=115.59              H46-B10-B8=118.45              H46-B10-B18=125.34             
 
 selected dihedral angles (degree)
 ---------------------------------
B3-B2-B1-B4= 83.04            B3-B2-B1-H41=228.06           B3-B2-B1-H42=303.53           B4-B2-B1-H41=145.02           
B4-B2-B1-H42=220.48           B6-B2-B1-B4=243.92            B6-B2-B1-H41= 28.94           B6-B2-B1-H42=104.40           
H42-B2-B1-B4=139.52           H42-B2-B1-H41=284.54          B5-B3-B2-B1=224.39            B5-B3-B2-B4=300.66            
B5-B3-B2-B6= 61.34            B5-B3-B2-H42=174.34           B6-B3-B2-B1=163.05            B6-B3-B2-B4=239.32            
B6-B3-B2-H42=113.00           H43-B3-B2-B1= 38.80           H43-B3-B2-B4=115.07           H43-B3-B2-B6=235.75           
H43-B3-B2-H42=348.75          B2-B4-B1-H41=202.00           B2-B4-B1-H42= 35.18           B11-B4-B1-B2=182.10           
B11-B4-B1-H41= 24.10          B11-B4-B1-H42=217.28          B12-B4-B1-B2= 70.43           B12-B4-B1-H41=272.44          
B12-B4-B1-H42=105.61          B1-B4-B2-B3=192.79            B1-B4-B2-B6=114.47            B1-B4-B2-H42=329.40           
B11-B4-B2-B1=170.86           B11-B4-B2-B3=  3.65           B11-B4-B2-B6=285.33           B11-B4-B2-H42=140.27          
B12-B4-B2-B1=203.04           B12-B4-B2-B3= 35.83           B12-B4-B2-B6=317.51           B12-B4-B2-H42=172.44          
B6-B5-B3-B2=302.09            B6-B5-B3-H43=129.98           B9-B5-B3-B2=311.47            B9-B5-B3-B6=  9.38            
B9-B5-B3-H43=139.36           B13-B5-B3-B2= 40.81           B13-B5-B3-B6= 98.71           B13-B5-B3-H43=228.69          
B3-B6-B2-B1=184.04            B3-B6-B2-B4=109.21            B3-B6-B2-H42=247.01           B5-B6-B2-B1=134.16            
B5-B6-B2-B3=310.12            B5-B6-B2-B4= 59.33            B5-B6-B2-H42=197.13           B7-B6-B2-B1=317.66            
B7-B6-B2-B3=133.62            B7-B6-B2-B4=242.83            B7-B6-B2-H42= 20.63           B9-B6-B2-B1= 82.97            
B9-B6-B2-B3=258.93            B9-B6-B2-B4=  8.14            B9-B6-B2-H42=145.94           B2-B6-B3-B5=254.70            
B2-B6-B3-H43=112.23           B5-B6-B3-B2=105.30            B5-B6-B3-H43=217.53           B7-B6-B3-B2=231.47            
B7-B6-B3-B5=126.18            B7-B6-B3-H43=343.70           B9-B6-B3-B2= 96.58            B9-B6-B3-B5=351.28            
B9-B6-B3-H43=208.81           B2-B6-B5-B3= 54.15            B2-B6-B5-B9=244.10            B2-B6-B5-B13=283.73           
B3-B6-B5-B9=189.95            B3-B6-B5-B13=229.58           B7-B6-B5-B3=230.53            B7-B6-B5-B9= 60.48            
B7-B6-B5-B13=100.11           B9-B6-B5-B3=170.05            B9-B6-B5-B13= 39.63           B8-B7-B6-B2=180.29            
B8-B7-B6-B3=276.64            B8-B7-B6-B5=  5.77            B8-B7-B6-B9= 53.36            H44-B7-B6-B2= 10.53           
H44-B7-B6-B3=106.88           H44-B7-B6-B5=196.01           H44-B7-B6-B9=243.61           B10-B8-B7-B6=284.87           
B10-B8-B7-H44= 95.06          H45-B8-B7-B6=111.38           H45-B8-B7-H44=281.58          B6-B9-B5-B3=349.87            
B6-B9-B5-B13=218.25           B13-B9-B5-B3=131.62           B13-B9-B5-B6=141.75           B16-B9-B5-B3=142.23           
B16-B9-B5-B6=152.35           B16-B9-B5-B13= 10.60          B17-B9-B5-B3=214.44           B17-B9-B5-B6=224.57           
B17-B9-B5-B13= 82.82          B5-B9-B6-B2= 66.28            B5-B9-B6-B3=  8.11            B5-B9-B6-B7=213.73            
B13-B9-B6-B2= 33.01           B13-B9-B6-B3=334.84           B13-B9-B6-B5=326.72           B13-B9-B6-B7=180.45           
B16-B9-B6-B2=321.62           B16-B9-B6-B3=263.45           B16-B9-B6-B5=255.33           B16-B9-B6-B7=109.06           
B17-B9-B6-B2=182.53           B17-B9-B6-B3=124.36           B17-B9-B6-B5=116.25           B17-B9-B6-B7=329.97           
B18-B10-B8-B7= 88.10          B18-B10-B8-H45=261.28         H46-B10-B8-B7=276.62          H46-B10-B8-H45= 89.80         
 
 CMA Distance (Angstroems)
 ---------------------------
R(CMA):  5.7797
           -------------------------------------------------
          |                Final Singlepoint                |
           -------------------------------------------------

          ...................................................
          :                      SETUP                      :
          :.................................................:
          :  # basis functions                 175          :
          :  # atomic orbitals                 175          :
          :  # shells                           95          :
          :  # electrons                       135          :
          :  max. iterations                   500          :
          :  Hamiltonian                  GFN2-xTB          :
          :  restarted?                      false          :
          :  GBSA solvation                  false          :
          :  PC potential                    false          :
          :  electronic temp.          300.0000000     K    :
          :  accuracy                    1.0000000          :
          :  -> integral cutoff          0.2500000E+02      :
          :  -> integral neglect         0.1000000E-07      :
          :  -> SCF convergence          0.1000000E-05 Eh   :
          :  -> wf. convergence          0.1000000E-03 e    :
          :  Broyden damping             0.4000000          :
          :  net charge                          0          :
          :  unpaired electrons                  0          :
          ...................................................

 iter      E             dE          RMSdq      gap      omega  full diag
   1    -56.9916734 -0.569917E+02  0.155E-04    0.41       0.0  T
   2    -56.9916734  0.153412E-07  0.349E-04    0.41      38.7  T
   3    -56.9916734 -0.175917E-07  0.645E-05    0.41     209.1  T

   *** convergence criteria satisfied after 3 iterations ***

         #    Occupation            Energy/Eh            Energy/eV
      -------------------------------------------------------------
         1        2.0000           -0.4784695             -13.0198
       ...           ...                  ...                  ...
        62        2.0000           -0.2857887              -7.7767
        63        2.0000           -0.2801051              -7.6220
        64        2.0000           -0.2774391              -7.5495
        65        2.0000           -0.2740632              -7.4576
        66        2.0000           -0.2689893              -7.3196
        67        1.9994           -0.2660316              -7.2391
        68        1.0002           -0.2519413              -6.8557 (HOMO)
        69        0.0004           -0.2369024              -6.4464 (LUMO)
        70                         -0.2192058              -5.9649
        71                         -0.2124537              -5.7812
        72                         -0.2058690              -5.6020
        73                         -0.1941322              -5.2826
       ...                                ...                  ...
       175                          1.0757921              29.2738
      -------------------------------------------------------------
                  HL-Gap            0.0150389 Eh            0.4092 eV
             Fermi-level           -0.2516937 Eh           -6.8489 eV

 SCC (total)                   0 d,  0 h,  0 min,  0.029 sec
 SCC setup                      ...        0 min,  0.000 sec (  0.000%)
 Dispersion                     ...        0 min,  0.000 sec (  0.000%)
 classical contributions        ...        0 min,  0.000 sec (  0.000%)
 integral evaluation            ...        0 min,  0.003 sec ( 10.345%)
 iterations                     ...        0 min,  0.018 sec ( 62.068%)
 molecular gradient             ...        0 min,  0.007 sec ( 24.138%)
 printout                       ...        0 min,  0.001 sec (  3.449%)

         :::::::::::::::::::::::::::::::::::::::::::::::::::::
         ::                     SUMMARY                     ::
         :::::::::::::::::::::::::::::::::::::::::::::::::::::
         :: total energy             -56.192155575565 Eh    ::
         :: gradient norm              0.000976219986 Eh/a0 ::
         :: HOMO-LUMO gap              0.409229474850 eV    ::
         ::.................................................::
         :: SCC energy               -56.991025199457 Eh    ::
         :: -> isotropic ES            0.213859765896 Eh    ::
         :: -> anisotropic ES          0.006212110059 Eh    ::
         :: -> anisotropic XC         -0.015931186728 Eh    ::
         :: -> dispersion             -0.072207451511 Eh    ::
         :: repulsion energy           0.798869623893 Eh    ::
         :: add. restraining           0.000000000000 Eh    ::
         :: total charge               0.000000000135 e     ::
         :::::::::::::::::::::::::::::::::::::::::::::::::::::

           -------------------------------------------------
          |                Property Printout                |
           -------------------------------------------------

    * Orbital Energies and Occupations

         #    Occupation            Energy/Eh            Energy/eV
      -------------------------------------------------------------
         1        2.0000           -0.4784695             -13.0198
       ...           ...                  ...                  ...
        56        2.0000           -0.3031573              -8.2493
        57        2.0000           -0.2996802              -8.1547
        58        2.0000           -0.2975262              -8.0961
        59        2.0000           -0.2967167              -8.0741
        60        2.0000           -0.2912500              -7.9253
        61        2.0000           -0.2894396              -7.8761
        62        2.0000           -0.2857887              -7.7767
        63        2.0000           -0.2801051              -7.6220
        64        2.0000           -0.2774391              -7.5495
        65        2.0000           -0.2740632              -7.4576
        66        2.0000           -0.2689893              -7.3196
        67        1.9994           -0.2660316              -7.2391
        68        1.0002           -0.2519413              -6.8557 (HOMO)
        69        0.0004           -0.2369024              -6.4464 (LUMO)
        70                         -0.2192058              -5.9649
        71                         -0.2124537              -5.7812
        72                         -0.2058690              -5.6020
        73                         -0.1941322              -5.2826
        74                         -0.1890455              -5.1442
        75                         -0.1844122              -5.0181
        76                         -0.1756144              -4.7787
        77                         -0.1718060              -4.6751
        78                         -0.1676703              -4.5625
        79                         -0.1640659              -4.4645
       ...                                ...                  ...
       175                          1.0757921              29.2738
      -------------------------------------------------------------
                  HL-Gap            0.0150389 Eh            0.4092 eV
             Fermi-level           -0.2516937 Eh           -6.8489 eV

     #   Z          covCN         q      C6AA      α(0)
     1   5 B        3.729     0.063    21.497     7.491
     2   5 B        4.543     0.067    21.532     7.477
     3   5 B        3.764     0.029    22.150     7.594
     4   5 B        3.812     0.037    22.040     7.569
     5   5 B        3.866     0.058    21.692     7.506
     6   5 B        4.607     0.023    22.313     7.611
     7   5 B        2.881     0.051    20.545     7.566
     8   5 B        2.866     0.086    19.968     7.460
     9   5 B        4.657     0.031    22.165     7.586
    10   5 B        2.924     0.069    20.227     7.504
    11   5 B        3.820     0.054    21.743     7.517
    12   5 B        3.871     0.021    22.350     7.619
    13   5 B        4.530    -0.005    22.846     7.701
    14   5 B        3.833     0.043    21.936     7.549
    15   5 B        4.711     0.059    21.669     7.500
    16   5 B        4.714     0.046    21.909     7.542
    17   5 B        3.891     0.046    21.892     7.540
    18   5 B        2.930     0.021    21.034     7.653
    19   5 B        4.652     0.015    22.458     7.636
    20   5 B        2.877     0.054    20.485     7.555
    21   5 B        3.828     0.062    21.600     7.492
    22   5 B        3.859     0.020    22.363     7.621
    23   5 B        3.858    -0.009    22.900     7.712
    24   5 B        3.841     0.048    21.864     7.537
    25   5 B        4.594     0.025    22.290     7.607
    26   5 B        5.681     0.105    20.886     7.364
    27   5 B        4.131     0.010    22.567     7.654
    28   5 B        2.924     0.028    20.908     7.630
    29   5 B        5.586     0.060    21.650     7.497
    30   5 B        3.637     0.065    21.115     7.491
    31   5 B        3.826     0.042    21.951     7.552
    32   5 B        3.877     0.029    22.202     7.593
    33   5 B        3.870     0.017    22.427     7.632
    34   5 B        2.915     0.083    19.999     7.462
    35   5 B        3.773     0.074    21.373     7.458
    36   5 B        5.329     0.097    21.020     7.387
    37   5 B        4.732     0.042    21.969     7.552
    38   5 B        3.808     0.012    22.503     7.648
    39   5 B        3.784     0.075    21.364     7.455
    40   5 B        2.896     0.049    20.569     7.569
    41   1 H        0.938    -0.128     6.656     4.034
    42   1 H        1.528     0.025     2.636     2.535
    43   1 H        0.935    -0.153     7.814     4.371
    44   1 H        0.931    -0.143     7.341     4.237
    45   1 H        0.935    -0.129     6.670     4.038
    46   1 H        0.934    -0.128     6.634     4.027
    47   1 H        0.938    -0.114     6.078     3.855
    48   1 H        0.936    -0.143     7.311     4.228
    49   1 H        0.938    -0.098     5.503     3.668
    50   1 H        0.933    -0.156     8.022     4.429
    51   1 H        0.938    -0.107     5.819     3.772
    52   1 H        0.940    -0.144     7.370     4.244
    53   1 H        0.939    -0.118     6.237     3.905
    54   1 H        0.938    -0.121     6.335     3.935
    55   1 H        0.940    -0.148     7.586     4.306

 Mol. C6AA /au·bohr⁶  :      50250.044444
 Mol. C8AA /au·bohr⁸  :    1708229.463721
 Mol. α(0) /au        :        361.668206


Wiberg/Mayer (AO) data.
largest (>0.10) Wiberg bond orders for each atom

 ---------------------------------------------------------------------------
     #   Z sym  total        # sym  WBO       # sym  WBO       # sym  WBO
 ---------------------------------------------------------------------------
     1   5 B    3.579 --    41 H    0.950     4 B    0.929     2 B    0.872
                            42 H    0.538
     2   5 B    3.542 --     1 B    0.872     3 B    0.756     4 B    0.611
                             6 B    0.546    42 H    0.426     5 B    0.132
     3   5 B    3.582 --     5 B    1.120    43 H    0.947     2 B    0.756
                             6 B    0.456
     4   5 B    3.571 --     1 B    0.929    11 B    0.843    12 B    0.809
                             2 B    0.611    14 B    0.106
     5   5 B    3.392 --     3 B    1.120    13 B    0.802     9 B    0.635
                             6 B    0.432     2 B    0.132
     6   5 B    3.603 --     7 B    1.085     9 B    0.761     2 B    0.546
                             3 B    0.456     5 B    0.432
     7   5 B    3.435 --     6 B    1.085     8 B    0.996    44 H    0.911
                             9 B    0.157
     8   5 B    3.251 --    10 B    1.019     7 B    0.996    45 H    0.939
                            18 B    0.107
     9   5 B    3.682 --    17 B    0.779     6 B    0.761    16 B    0.701
                             5 B    0.635    13 B    0.374     7 B    0.157
    10   5 B    3.412 --     8 B    1.019    18 B    0.988    46 H    0.924
                            17 B    0.192
    11   5 B    3.630 --    47 H    0.928    12 B    0.845     4 B    0.843
                            14 B    0.792
    12   5 B    3.619 --    14 B    0.854    11 B    0.845    13 B    0.820
                             4 B    0.809
    13   5 B    3.652 --    15 B    0.833    12 B    0.820     5 B    0.802
                            16 B    0.435     9 B    0.374
    14   5 B    3.598 --    12 B    0.854    11 B    0.792    21 B    0.785
                            22 B    0.724     4 B    0.106
    15   5 B    3.593 --    13 B    0.833    23 B    0.683    16 B    0.634
                            26 B    0.570    19 B    0.459
    16   5 B    3.602 --    19 B    0.950     9 B    0.701    15 B    0.634
                            17 B    0.595    13 B    0.435
    17   5 B    3.552 --    18 B    0.969     9 B    0.779    19 B    0.665
                            16 B    0.595    10 B    0.192
    18   5 B    3.450 --    10 B    0.988    17 B    0.969    20 B    0.963
                            28 B    0.180     8 B    0.107
    19   5 B    3.645 --    16 B    0.950    27 B    0.776    17 B    0.665
                            15 B    0.459    26 B    0.437
    20   5 B    3.419 --    28 B    1.141    18 B    0.963    48 H    0.951
                            30 B    0.113
    21   5 B    3.577 --    49 H    0.921    24 B    0.848    22 B    0.790
                            14 B    0.785
    22   5 B    3.605 --    23 B    1.013    21 B    0.790    14 B    0.724
                            24 B    0.705
    23   5 B    3.638 --    22 B    1.013    25 B    0.891    15 B    0.683
                            26 B    0.606
    24   5 B    3.595 --    21 B    0.848    32 B    0.839    31 B    0.752
                            22 B    0.705    34 B    0.140
    25   5 B    3.669 --    23 B    0.891    33 B    0.701    26 B    0.683
                            36 B    0.617    29 B    0.391
    26   5 B    3.670 --    25 B    0.683    23 B    0.606    29 B    0.586
                            15 B    0.570    27 B    0.522    19 B    0.437
    27   5 B    3.528 --    28 B    0.968    19 B    0.776    29 B    0.776
                            26 B    0.522    30 B    0.197
    28   5 B    3.407 --    20 B    1.141    27 B    0.968    30 B    0.781
                            18 B    0.180
    29   5 B    3.635 --    27 B    0.776    37 B    0.617    26 B    0.586
                            38 B    0.486    25 B    0.391    36 B    0.291
                            30 B    0.267
    30   5 B    3.507 --    38 B    0.972    50 H    0.938    28 B    0.781
                            29 B    0.267    27 B    0.197    20 B    0.113
    31   5 B    3.612 --    34 B    1.033    51 H    0.920    32 B    0.753
                            24 B    0.752
    32   5 B    3.605 --    34 B    0.930    33 B    0.896    24 B    0.839
                            31 B    0.753
    33   5 B    3.625 --    32 B    0.896    35 B    0.862    25 B    0.701
                            36 B    0.630    34 B    0.233
    34   5 B    3.474 --    31 B    1.033    52 H    0.970    32 B    0.930
                            33 B    0.233    24 B    0.140
    35   5 B    3.515 --    53 H    0.952    33 B    0.862    36 B    0.767
                            39 B    0.688
    36   5 B    3.655 --    35 B    0.767    39 B    0.766    33 B    0.630
                            25 B    0.617    37 B    0.440    29 B    0.291
    37   5 B    3.636 --    40 B    0.954    39 B    0.765    38 B    0.705
                            29 B    0.617    36 B    0.440
    38   5 B    3.573 --    40 B    1.170    30 B    0.972    37 B    0.705
                            29 B    0.486
    39   5 B    3.564 --    54 H    0.952    36 B    0.766    37 B    0.765
                            35 B    0.688    40 B    0.189
    40   5 B    3.517 --    38 B    1.170    55 H    0.967    37 B    0.954
                            39 B    0.189
    41   1 H    0.979 --     1 B    0.950
    42   1 H    0.995 --     1 B    0.538     2 B    0.426
    43   1 H    0.975 --     3 B    0.947
    44   1 H    0.976 --     7 B    0.911
    45   1 H    0.981 --     8 B    0.939
    46   1 H    0.980 --    10 B    0.924
    47   1 H    0.977 --    11 B    0.928
    48   1 H    0.976 --    20 B    0.951
    49   1 H    0.979 --    21 B    0.921
    50   1 H    0.974 --    30 B    0.938
    51   1 H    0.979 --    31 B    0.920
    52   1 H    0.979 --    34 B    0.970
    53   1 H    0.983 --    35 B    0.952
    54   1 H    0.981 --    39 B    0.952
    55   1 H    0.977 --    40 B    0.967
 ---------------------------------------------------------------------------

Topologies differ in total number of bonds
Writing topology from bond orders to xtbtopo.mol

molecular dipole:
                 x           y           z       tot (Debye)
 q only:        0.911      -0.979      -0.301
   full:        0.440      -1.615       0.534       4.466
molecular quadrupole (traceless):
                xx          xy          yy          xz          yz          zz
 q only:      -27.566       6.293      -6.130       6.264       9.024      33.696
  q+dip:       -4.038      12.777     -14.262       5.905       6.077      18.299
   full:      -13.098       8.743     -17.412       4.835       7.124      30.511

           -------------------------------------------------
          |                Geometry Summary                 |
           -------------------------------------------------

      molecular mass/u    :      447.5602332
   center of mass at/Å    :        0.0532213       0.0425105      -0.0411693
  moments of inertia/u·Å² :        0.2948296E+04   0.4855526E+04   0.7188361E+04
rotational constants/cm⁻¹ :        0.5717755E-02   0.3471845E-02   0.2345129E-02

 * 81 selected distances

     #   Z          #   Z                                           value/Å
     1   5 B        2   5 B                                       1.5916674
     2   5 B        3   5 B                                       1.6633650
     1   5 B        4   5 B                                       1.6098162
     3   5 B        5   5 B                                       1.5627908
     2   5 B        6   5 B                                       1.7683856
     6   5 B        7   5 B                                       1.5992723
     7   5 B        8   5 B                                       1.6454573
     5   5 B        9   5 B                                       1.6548729
     6   5 B        9   5 B                                       1.6387001
     8   5 B       10   5 B                                       1.6295926
     4   5 B       11   5 B                                       1.6653817
     4   5 B       12   5 B                                       1.6327613
    11   5 B       12   5 B                                       1.5926720
     5   5 B       13   5 B                                       1.6574802
    12   5 B       13   5 B                                       1.6475008
    11   5 B       14   5 B                                       1.6908201
    12   5 B       14   5 B                                       1.6195183
    13   5 B       15   5 B                                       1.6350507
     9   5 B       16   5 B                                       1.6286146
    15   5 B       16   5 B                                       1.6642622
     9   5 B       17   5 B                                       1.6436581
    16   5 B       17   5 B                                       1.6728366
    10   5 B       18   5 B                                       1.6045399
    17   5 B       18   5 B                                       1.5843937
    16   5 B       19   5 B                                       1.5626246
    17   5 B       19   5 B                                       1.7093085
    18   5 B       20   5 B                                       1.6282932
    14   5 B       21   5 B                                       1.6729679
    14   5 B       22   5 B                                       1.6719246
    21   5 B       22   5 B                                       1.6105191
    15   5 B       23   5 B                                       1.6653088
    22   5 B       23   5 B                                       1.5914120
    21   5 B       24   5 B                                       1.6492053
    22   5 B       24   5 B                                       1.6643608
    23   5 B       25   5 B                                       1.6234244
    15   5 B       26   5 B                                       1.6763423
    19   5 B       26   5 B                                       1.7877440
    23   5 B       26   5 B                                       1.6686194
    25   5 B       26   5 B                                       1.6353914
    19   5 B       27   5 B                                       1.6508905
    26   5 B       27   5 B                                       1.7097587
    20   5 B       28   5 B                                       1.5791934
    27   5 B       28   5 B                                       1.6092278
    26   5 B       29   5 B                                       1.6606871
    27   5 B       29   5 B                                       1.6727450
    28   5 B       30   5 B                                       1.6729241
    24   5 B       31   5 B                                       1.6911400
    24   5 B       32   5 B                                       1.6250979
    31   5 B       32   5 B                                       1.6369795
    25   5 B       33   5 B                                       1.6821212
    32   5 B       33   5 B                                       1.6114044
    31   5 B       34   5 B                                       1.6012012
    32   5 B       34   5 B                                       1.5820350
    33   5 B       35   5 B                                       1.6648594
    25   5 B       36   5 B                                       1.6741251
    33   5 B       36   5 B                                       1.6697985
    35   5 B       36   5 B                                       1.6251657
    29   5 B       37   5 B                                       1.6940857
    36   5 B       37   5 B                                       1.7929462 (max)
    29   5 B       38   5 B                                       1.7780686
    30   5 B       38   5 B                                       1.6112852
    37   5 B       38   5 B                                       1.6746920
    36   5 B       39   5 B                                       1.6205343
    37   5 B       39   5 B                                       1.6551700
    37   5 B       40   5 B                                       1.5958658
    38   5 B       40   5 B                                       1.5456886
     1   5 B       41   1 H                                       1.1738599
     1   5 B       42   1 H                                       1.2880997
     3   5 B       43   1 H                                       1.1805780
     7   5 B       44   1 H                                       1.1911861
     8   5 B       45   1 H                                       1.1807298
    10   5 B       46   1 H                                       1.1825460
    11   5 B       47   1 H                                       1.1726351
    20   5 B       48   1 H                                       1.1792998
    21   5 B       49   1 H                                       1.1716922
    30   5 B       50   1 H                                       1.1857347
    31   5 B       51   1 H                                       1.1715762
    34   5 B       52   1 H                                       1.1668581 (min)
    35   5 B       53   1 H                                       1.1710075
    39   5 B       54   1 H                                       1.1730126
    40   5 B       55   1 H                                       1.1682023

 * 2 distinct bonds (by element types)

   Z      Z             #   av. dist./Å        max./Å        min./Å
   1 H    5 B          15     1.1838012     1.2880997     1.1668581
   5 B    5 B          66     1.6470992     1.7929462     1.5456886


optimized geometry written to: xtbopt.xyz


           -------------------------------------------------
          | TOTAL ENERGY              -56.192155575565 Eh   |
          | GRADIENT NORM               0.000976219986 Eh/α |
          | HOMO-LUMO GAP               0.409229474850 eV   |
           -------------------------------------------------

------------------------------------------------------------------------
 * finished run on 2026/09/01 at 20:28:06.846     
------------------------------------------------------------------------
 total:
 * wall-time:     0 d,  0 h,  0 min, 17.643 sec
 *  cpu-time:     0 d,  0 h,  3 min, 14.984 sec
 * ratio c/w:    11.052 speedup
 SCF:
 * wall-time:     0 d,  0 h,  0 min,  0.252 sec
 *  cpu-time:     0 d,  0 h,  0 min,  3.109 sec
 * ratio c/w:    12.339 speedup
 ANC optimizer:
 * wall-time:     0 d,  0 h,  0 min, 17.354 sec
 *  cpu-time:     0 d,  0 h,  3 min, 11.484 sec
 * ratio c/w:    11.034 speedup

