60
carrier @complex
B      -5.79678149      3.61343273      0.23355242
B      -5.82647436      1.92433182     -0.03744906
B      -4.31989262      4.42028727     -0.10195100
B      -4.35466390      2.73880167      0.06989797
B      -4.38491684      1.04518455      0.15948706
B      -5.89004329     -1.46570046      0.04758666
B      -5.92331063     -3.13850669      0.40843148
B      -4.41637036     -0.63230249      0.20386430
B      -4.44930426     -2.32854959      0.18703504
B      -4.47808912     -4.01624088      0.10796050
B      -2.86776615      3.56329695      0.06347829
B      -2.90145845      1.86270493      0.13838972
B      -1.39229841      4.37371300      0.23743496
B      -1.42348949      2.68582414      0.12903937
B      -1.45397778      0.98990098      0.05001551
B      -2.96485248     -1.50374397      0.25157156
B      -2.99404706     -3.20782974      0.20686477
B      -1.48572619     -0.69258501      0.10315667
B      -1.51858347     -2.38052709      0.29392133
B      -1.55141386     -4.06188617      0.45480951
B       0.05891272      3.50900050      0.11757941
B       0.02699368      1.80789797      0.13630618
B       1.53928696      4.31212187     -0.06106418
B       1.50720981      2.63102393      0.12946161
B       1.47491555      0.93830874      0.19377967
B      -0.03568503     -1.56203286      0.15352092
B      -0.06869712     -3.25538443      0.38045432
B       1.44355295     -0.74451459      0.20272769
B       1.41189948     -2.43636984      0.28298619
B       1.37959154     -4.12148376      0.38846822
B       2.98567958      3.45588904      0.15676949
B       2.95616758      1.75320100      0.13945396
B       4.46580922      4.26411425      0.30919454
B       4.43775703      2.57713947      0.22136392
B       4.40497461      0.88078549      0.17274468
B       2.89279817     -1.61313161      0.27376626
B       2.85933638     -3.31637344      0.24794732
B       4.37329684     -0.79775276      0.15381318
B       4.34362820     -2.49262300      0.19979612
B       4.31093437     -4.17956385      0.18904452
B       5.91490521      3.38993173      0.01597405
B       5.88093826      1.71251765      0.34506173
B       5.81967550     -1.68307697      0.10504353
B       5.78513624     -3.35505235      0.50015129
H      -6.73277343      4.21460330      0.59517333
H      -6.78910884      1.43017580     -0.47703667
H      -4.34790347      5.51597125     -0.51797014
H      -6.84490067     -0.96266500     -0.40149365
H      -6.87901552     -3.68251205      0.81492890
H      -4.54999685     -5.13234004     -0.24548307
H      -1.38097655      5.53353378      0.40036972
H      -1.58867861     -5.20334128      0.72389079
H       1.56501387      5.45974612     -0.30344969
H       1.36329565     -5.29330450      0.45937191
H       4.53183098      5.38326177      0.65178924
H       4.34611793     -5.30712575     -0.13807493
H       6.86410646      3.94153052     -0.39182625
H       6.82772473      1.18532221      0.78511325
H       6.81365809     -1.21912223     -0.30498480
H       6.71757243     -3.92114952      0.93517350
