60
 energy: -61.505947995369 gnorm: 0.000818516891 xtb: 6.7.1 (edcfbbe)
B           -5.79474299538994        3.61257535218662        0.24462564124051
B           -5.82430456550414        1.92641781016059       -0.05330281838387
B           -4.31981772681733        4.41575643924932       -0.13899325269844
B           -4.35489070245758        2.73761191165524        0.05394277273669
B           -4.38490265931191        1.04227142761401        0.16368327265345
B           -5.88729643430551       -1.47079514715642        0.01732994823717
B           -5.92128581423225       -3.13817865807092        0.42065642277670
B           -4.41628671760303       -0.63087623835103        0.20175441521041
B           -4.44921101602350       -2.32955554418466        0.17332530019404
B           -4.47761117121425       -4.01498985193918        0.07123656516604
B           -2.86573918970871        3.56535997598880        0.03415734296290
B           -2.90094418071546        1.85971485566914        0.15183093200165
B           -1.39218033974694        4.37183059908435        0.25780827135608
B           -1.42325884390849        2.68535252220464        0.13643913125087
B           -1.45395769137979        0.98819678059731        0.06364364911058
B           -2.96421756411658       -1.50140848740470        0.26399285273755
B           -2.99206296550002       -3.21242083958467        0.19299086396270
B           -1.48546338140109       -0.69210721279035        0.10871409953992
B           -1.51811221386259       -2.38056660796072        0.30744215167560
B           -1.55171777290976       -4.05876340002908        0.49466309007192
B            0.05949167753111        3.51142101203060        0.10633478744629
B            0.02743339160851        1.80427572600450        0.11895087332653
B            1.54016517034523        4.30793821991555       -0.10475754200428
B            1.50822638030590        2.62922954765690        0.08840045296508
B            1.47539418418323        0.93647260218366        0.19852262919218
B           -0.03511450588094       -1.56086890725894        0.13621068729970
B           -0.06849137474442       -3.25770680537360        0.40367099961931
B            1.44410734270529       -0.74338381769014        0.22004376140296
B            1.41240623106498       -2.43659264510338        0.29859047217330
B            1.38040971887440       -4.11925434093490        0.43082238576457
B            2.98504607700247        3.45884297736467        0.15429455081605
B            2.95631602594186        1.74995731678519        0.14348705430329
B            4.46613034843654        4.26171132755833        0.33253812602031
B            4.43843334240369        2.57698547680699        0.24765062505162
B            4.40544643586651        0.87852421546796        0.21093002926147
B            2.89296955293558       -1.61060936417381        0.29456029317704
B            2.85870459272495       -3.32078576589425        0.21884760722820
B            4.37433737896717       -0.79556480808628        0.17496736579527
B            4.34445066049431       -2.49341272411072        0.16887486921864
B            4.31202205001519       -4.17813113371406        0.12585064711484
B            5.91389822763779        3.38789399623521        0.00045013114503
B            5.87865667417071        1.71583467470762        0.38645285375226
B            5.81766694842234       -1.68716484195352        0.05426202257556
B            5.78434658034736       -3.35548836238466        0.49191685789409
H           -6.71734854079780        4.22252246092449        0.63646421297078
H           -6.78839407922302        1.43307614403866       -0.49485997903771
H           -4.35520940883773        5.52592321169374       -0.52262930045937
H           -6.83518148957450       -0.97748351152288       -0.45976700878219
H           -6.87019965675471       -3.68063203947100        0.84756437305535
H           -4.55696224859056       -5.13019380484611       -0.29118286381860
H           -1.38271964621003        5.52545772531332        0.48547548890992
H           -1.59523340578346       -5.18982897540694        0.81488798452073
H            1.56802023323703        5.45027816713833       -0.38319449943114
H            1.36843201428788       -5.28583709069035        0.58293287932323
H            4.53933202660508        5.37617367334896        0.69878147090681
H            4.35783102490411       -5.29555833831219       -0.23843994997201
H            6.86290859781399        3.94360579484326       -0.40724129042649
H            6.80826355352325        1.21199252565355        0.89109932511143
H            6.78741133995192       -1.23704434465972       -0.42722252268570
H            6.70612424019747       -3.92123835102227        0.94645160747354
