      -----------------------------------------------------------      
     |                   =====================                   |     
     |                           x T B                           |     
     |                   =====================                   |     
     |                         S. Grimme                         |     
     |          Mulliken Center for Theoretical Chemistry        |     
     |                    University of Bonn                     |     
      -----------------------------------------------------------      

   * xtb version 6.7.1pre (5071a88) compiled by 'Marcel@Raven' on 2024-07-23

   xtb is free software: you can redistribute it and/or modify it under
   the terms of the GNU Lesser General Public License as published by
   the Free Software Foundation, either version 3 of the License, or
   (at your option) any later version.
   
   xtb is distributed in the hope that it will be useful,
   but WITHOUT ANY WARRANTY; without even the implied warranty of
   MERCHANTABILITY or FITNESS FOR A PARTICULAR PURPOSE.  See the
   GNU Lesser General Public License for more details.
   
   Cite this work as:
   * C. Bannwarth, E. Caldeweyher, S. Ehlert, A. Hansen, P. Pracht,
     J. Seibert, S. Spicher, S. Grimme, WIREs Comput. Mol. Sci., 2020, 11,
     e01493. DOI: 10.1002/wcms.1493
   
   for GFN2-xTB:
   * C. Bannwarth, S. Ehlert and S. Grimme., J. Chem. Theory Comput., 2019,
     15, 1652-1671. DOI: 10.1021/acs.jctc.8b01176
   for GFN1-xTB:
   * S. Grimme, C. Bannwarth, P. Shushkov, J. Chem. Theory Comput., 2017,
     13, 1989-2009. DOI: 10.1021/acs.jctc.7b00118
   for GFN0-xTB:
   * P. Pracht, E. Caldeweyher, S. Ehlert, S. Grimme, ChemRxiv, 2019, preprint.
     DOI: 10.26434/chemrxiv.8326202.v1
   for GFN-FF:
   * S. Spicher and S. Grimme, Angew. Chem. Int. Ed., 2020, 59, 15665-15673.
     DOI: 10.1002/anie.202004239
   
   for ALPB and GBSA implicit solvation:
   * S. Ehlert, M. Stahn, S. Spicher, S. Grimme, J. Chem. Theory Comput.,
     2021, 17, 4250-4261. DOI: 10.1021/acs.jctc.1c00471
   
   for ddCOSMO and CPCM-X implicit solvation:
   * M. Stahn, S. Ehlert, S. Grimme, J. Phys. Chem. A,
     2023, XX, XXXX-XXXX. DOI: 10.1021/acs.jpca.3c04382
   
   for DFT-D4:
   * E. Caldeweyher, C. Bannwarth and S. Grimme, J. Chem. Phys., 2017,
     147, 034112. DOI: 10.1063/1.4993215
   * E. Caldeweyher, S. Ehlert, A. Hansen, H. Neugebauer, S. Spicher,
     C. Bannwarth and S. Grimme, J. Chem. Phys., 2019, 150, 154122.
     DOI: 10.1063/1.5090222
   * E. Caldeweyher, J.-M. Mewes, S. Ehlert and S. Grimme, Phys. Chem. Chem. Phys.
     2020, 22, 8499-8512. DOI: 10.1039/D0CP00502A
   
   for sTDA-xTB:
   * S. Grimme and C. Bannwarth, J. Chem. Phys., 2016, 145, 054103.
     DOI: 10.1063/1.4959605
   
   in the mass-spec context:
   * V. Asgeirsson, C. Bauer and S. Grimme, Chem. Sci., 2017, 8, 4879.
     DOI: 10.1039/c7sc00601b
   * J. Koopman and S. Grimme, ACS Omega 2019, 4, 12, 15120-15133.
     DOI: 10.1021/acsomega.9b02011
   
   for metadynamics refer to:
   * S. Grimme, J. Chem. Theory Comput., 2019, 155, 2847-2862
     DOI: 10.1021/acs.jctc.9b00143
   
   for SPH calculations refer to:
   * S. Spicher and S. Grimme, J. Chem. Theory Comput., 2021, 17, 1701-1714
     DOI: 10.1021/acs.jctc.0c01306
   
   for ONIOM refer to:
   * C. Plett, A. Katbashev, S. Ehlert, S. Grimme, M. Bursch,
     Phys. Chem. Chem. Phys., 2023, 25, 17860-17868. DOI: 10.1039/D3CP02178E
   
   for DIPRO refer to:
   * J. Kohn, N. Gildemeister, S. Grimme, D. Fazzi, A. Hansen,
     J. Chem. Phys., 2023, just accepted.
   
   for PTB refer to:
   * S. Grimme, M. Mueller, A. Hansen, J. Chem. Phys., 2023, 158, 124111.
     DOI: 10.1063/5.0137838
   
   with help from (in alphabetical order)
   P. Atkinson, C. Bannwarth, F. Bohle, G. Brandenburg, E. Caldeweyher
   M. Checinski, S. Dohm, S. Ehlert, S. Ehrlich, I. Gerasimov, C. Hölzer
   A. Katbashev, J. Kohn, J. Koopman, C. Lavigne, S. Lehtola, F. März, M. Müller,
   F. Musil, H. Neugebauer, J. Pisarek, C. Plett, P. Pracht, F. Pultar,
   J. Seibert, P. Shushkov, S. Spicher, M. Stahn, M. Steiner, T. Strunk,
   J. Stückrath, T. Rose, and J. Unsleber
   
 * started run on 2026/08/31 at 20:19:35.389     
   ID    Z sym.   atoms
    1    6 C      1-5, 7-11, 13, 14, 16, 17
    2    7 N      6, 12
    3   16 S      15
    4    1 H      18-29, 83-89
    5    5 B      30-82

           -------------------------------------------------
          |                Calculation Setup                |
           -------------------------------------------------

          program call               : "c:\Users\Andre\Proyectos doctorado\kras-pancreatic-gC3N4-ai\tools\xtb\xtb-6.7.1\bin\xtb.exe" "c:\Users\Andre\Proyectos doctorado\borophene-alzheimer-tau-ai\calculations\tau\Thioflavin_S\Thioflavin_S_B48H12_complex.xyz" --gfn 2 --sp --chrg 0 --uhf 0 --iterations 500 --norestart
          coordinate file            : c:\Users\Andre\Proyectos doctorado\borophene-alzheimer-tau-ai\calculations\tau\Thioflavin_S\Thioflavin_S_B48H12_complex.xyz
          omp threads                :                    16


molecular fragmentation (1/2 indicates fragments):
111111111111111111111111111111111111111111111111111111111111111111111111
11111111111221111
# atoms in fragment 1/2:    87     2
 fragment masses (1/2) :      818.35        2.02
CMA distance (Bohr)    :  16.169
constraining FC (au)   :  0.0500

           -------------------------------------------------
          |                 G F N 2 - x T B                 |
           -------------------------------------------------

        Reference                      10.1021/acs.jctc.8b01176
      * Hamiltonian:
        H0-scaling (s, p, d)           1.850000    2.230000    2.230000
        zeta-weighting                 0.500000
      * Dispersion:
        s8                             2.700000
        a1                             0.520000
        a2                             5.000000
        s9                             5.000000
      * Repulsion:
        kExp                           1.500000    1.000000
        rExp                           1.000000
      * Coulomb:
        alpha                          2.000000
        third order                    shell-resolved
        anisotropic                    true
        a3                             3.000000
        a5                             4.000000
        cn-shift                       1.200000
        cn-exp                         4.000000
        max-rad                        5.000000


          ...................................................
          :                      SETUP                      :
          :.................................................:
          :  # basis functions                 305          :
          :  # atomic orbitals                 304          :
          :  # shells                          160          :
          :  # electrons                       250          :
          :  max. iterations                   500          :
          :  Hamiltonian                  GFN2-xTB          :
          :  restarted?                      false          :
          :  GBSA solvation                  false          :
          :  PC potential                    false          :
          :  electronic temp.          300.0000000     K    :
          :  accuracy                    1.0000000          :
          :  -> integral cutoff          0.2500000E+02      :
          :  -> integral neglect         0.1000000E-07      :
          :  -> SCF convergence          0.1000000E-05 Eh   :
          :  -> wf. convergence          0.1000000E-03 e    :
          :  Broyden damping             0.4000000          :
          :  net charge                          0          :
          :  unpaired electrons                  0          :
          ...................................................

 iter      E             dE          RMSdq      gap      omega  full diag
   1   -111.3851948 -0.111385E+03  0.181E+01    0.25       0.0  T
   2     10.1266985  0.121512E+03  0.173E+01    0.17       1.0  T
   3    468.9828103  0.458856E+03  0.296E+01    0.09       1.0  T
   4      2.9122374 -0.466071E+03  0.160E+01    0.07       1.0  T
   5    156.6602091  0.153748E+03  0.198E+01    0.13       1.0  T
   6    -93.1075332 -0.249768E+03  0.111E+01    0.10       1.0  T
   7    -26.9215939  0.661859E+02  0.141E+01    0.08       1.0  T
   8    -64.4721508 -0.375506E+02  0.991E+00    0.14       1.0  T
   9    -96.4000421 -0.319279E+02  0.815E+00    0.03       1.0  T
  10    -96.1132819  0.286760E+00  0.832E+00    0.07       1.0  T
  11   -112.3492623 -0.162360E+02  0.671E+00    0.24       1.0  T
  12   -110.8556510  0.149361E+01  0.678E+00    0.02       1.0  T
  13   -112.4602790 -0.160463E+01  0.618E+00    0.12       1.0  T
  14   -111.2092213  0.125106E+01  0.642E+00    0.04       1.0  T
  15   -111.4382609 -0.229040E+00  0.618E+00    0.27       1.0  T
  16   -110.9962117  0.442049E+00  0.613E+00    0.07       1.0  T
  17   -110.9650090  0.312027E-01  0.608E+00    0.04       1.0  T
  18   -110.8541387  0.110870E+00  0.594E+00    0.08       1.0  T
  19   -110.8260919  0.280468E-01  0.587E+00    0.07       1.0  T
  20   -110.0987456  0.727346E+00  0.538E+00    0.13       1.0  T
  21   -110.6740539 -0.575308E+00  0.499E+00    0.03       1.0  T
  22   -111.2276245 -0.553571E+00  0.434E+00    0.08       1.0  T
  23   -111.3132817 -0.856571E-01  0.342E+00    0.12       1.0  T
  24   -112.4533720 -0.114009E+01  0.287E+00    0.02       1.0  T
  25   -112.0893463  0.364026E+00  0.294E+00    0.03       1.0  T
  26   -112.3353940 -0.246048E+00  0.289E+00    0.01       1.0  T
  27   -112.4140026 -0.786086E-01  0.285E+00    0.00       1.0  T
  28   -112.8500381 -0.436036E+00  0.276E+00    0.07       1.0  T
  29   -112.8763196 -0.262815E-01  0.275E+00    0.08       1.0  T
  30   -112.8385223  0.377973E-01  0.274E+00    0.08       1.0  T
  31   -113.1258578 -0.287336E+00  0.250E+00    0.11       1.0  T
  32   -113.3965308 -0.270673E+00  0.205E+00    0.13       1.0  T
  33   -113.5136860 -0.117155E+00  0.189E+00    0.13       1.0  T
  34   -113.4990269  0.146591E-01  0.188E+00    0.14       1.0  T
  35   -113.5727012 -0.736742E-01  0.175E+00    0.16       1.0  T
  36   -113.6563436 -0.836424E-01  0.157E+00    0.20       1.0  T
  37   -113.6520881  0.425550E-02  0.155E+00    0.18       1.0  T
  38   -113.6542271 -0.213898E-02  0.141E+00    0.16       1.0  T
  39   -113.6860805 -0.318535E-01  0.115E+00    0.16       1.0  T
  40   -113.7439615 -0.578810E-01  0.101E+00    0.17       1.0  T
  41   -113.7674150 -0.234535E-01  0.942E-01    0.18       1.0  T
  42   -113.7720113 -0.459625E-02  0.894E-01    0.16       1.0  T
  43   -113.8096407 -0.376295E-01  0.757E-01    0.14       1.0  T
  44   -113.8694184 -0.597777E-01  0.705E-01    0.11       1.0  T
  45   -113.8627628  0.665563E-02  0.775E-01    0.09       1.0  T
  46   -113.8678348 -0.507194E-02  0.744E-01    0.09       1.0  T
  47   -113.8748597 -0.702493E-02  0.679E-01    0.08       1.0  T
  48   -113.8893609 -0.145012E-01  0.566E-01    0.08       1.0  T
  49   -113.9045332 -0.151723E-01  0.489E-01    0.08       1.0  T
  50   -113.9071448 -0.261163E-02  0.466E-01    0.09       1.0  T
  51   -113.9096813 -0.253648E-02  0.443E-01    0.09       1.0  T
  52   -113.9117360 -0.205466E-02  0.415E-01    0.09       1.0  T
  53   -113.9201999 -0.846398E-02  0.305E-01    0.10       1.0  T
  54   -113.9196828  0.517175E-03  0.273E-01    0.10       1.0  T
  55   -113.9204257 -0.742975E-03  0.260E-01    0.09       1.0  T
  56   -113.9213962 -0.970432E-03  0.224E-01    0.10       1.0  T
  57   -113.9228965 -0.150028E-02  0.213E-01    0.10       1.0  T
  58   -113.9224285  0.467923E-03  0.232E-01    0.10       1.0  T
  59   -113.9230516 -0.623056E-03  0.212E-01    0.10       1.0  T
  60   -113.9235997 -0.548156E-03  0.179E-01    0.10       1.0  T
  61   -113.9217349  0.186488E-02  0.194E-01    0.11       1.0  T
  62   -113.9213681  0.366748E-03  0.191E-01    0.11       1.0  T
  63   -113.9215350 -0.166897E-03  0.183E-01    0.11       1.0  T
  64   -113.9225110 -0.975950E-03  0.150E-01    0.11       1.0  T
  65   -113.9226667 -0.155739E-03  0.136E-01    0.11       1.0  T
  66   -113.9227181 -0.513605E-04  0.135E-01    0.11       1.0  T
  67   -113.9236771 -0.959056E-03  0.105E-01    0.11       1.0  T
  68   -113.9239592 -0.282117E-03  0.869E-02    0.11       1.0  T
  69   -113.9243632 -0.403921E-03  0.644E-02    0.11       1.0  T
  70   -113.9243942 -0.310298E-04  0.583E-02    0.11       1.0  T
  71   -113.9246487 -0.254540E-03  0.385E-02    0.11       1.0  T
  72   -113.9247488 -0.100035E-03  0.301E-02    0.10       1.0  T
  73   -113.9247696 -0.208036E-04  0.257E-02    0.10       1.0  T
  74   -113.9247924 -0.228319E-04  0.166E-02    0.10       1.0  T
  75   -113.9248048 -0.124020E-04  0.114E-02    0.10       1.0  T
  76   -113.9248109 -0.611230E-05  0.796E-03    0.10       1.3  T
  77   -113.9248126 -0.163515E-05  0.673E-03    0.10       1.6  T
  78   -113.9248137 -0.113131E-05  0.636E-03    0.10       1.7  T
  79   -113.9248154 -0.174439E-05  0.557E-03    0.10       1.9  T
  80   -113.9248136  0.187262E-05  0.580E-03    0.10       1.8  T
  81   -113.9248152 -0.163716E-05  0.491E-03    0.10       2.2  T
  82   -113.9248159 -0.683166E-06  0.439E-03    0.10       2.4  T
  83   -113.9248165 -0.659841E-06  0.387E-03    0.10       2.7  T
  84   -113.9248168 -0.284984E-06  0.347E-03    0.10       3.1  T
  85   -113.9248171 -0.310799E-06  0.309E-03    0.10       3.4  T
  86   -113.9248176 -0.441056E-06  0.225E-03    0.10       4.7  T
  87   -113.9248179 -0.360195E-06  0.169E-03    0.10       6.3  T
  88   -113.9248181 -0.166474E-06  0.122E-03    0.10       8.7  T
  89   -113.9248182 -0.922030E-07  0.897E-04    0.10      11.8  T
  90   -113.9248182 -0.360938E-07  0.720E-04    0.10      14.7  T

   *** convergence criteria satisfied after 90 iterations ***

         #    Occupation            Energy/Eh            Energy/eV
      -------------------------------------------------------------
         1        2.0000           -0.6495349             -17.6747
       ...           ...                  ...                  ...
       119        2.0000           -0.2268007              -6.1716
       120        2.0000           -0.2258512              -6.1457
       121        2.0000           -0.2249411              -6.1210
       122        1.9998           -0.2190791              -5.9614
       123        1.9996           -0.2182534              -5.9390
       124        1.9892           -0.2150157              -5.8509
       125        1.6989           -0.2117077              -5.7609 (HOMO)
       126        0.1971           -0.2079612              -5.6589 (LUMO)
       127        0.1147           -0.2074046              -5.6438
       128        0.0004           -0.2019255              -5.4947
       129        0.0002           -0.2011715              -5.4742
       130        0.0000           -0.1993138              -5.4236
       ...           ...                  ...                  ...
       304                          1.6405729              44.6423
      -------------------------------------------------------------
                  HL-Gap            0.0037465 Eh            0.1019 eV
             Fermi-level           -0.2100638 Eh           -5.7161 eV

 SCC (total)                   0 d,  0 h,  0 min,  1.342 sec
 SCC setup                      ...        0 min,  0.002 sec (  0.149%)
 Dispersion                     ...        0 min,  0.003 sec (  0.224%)
 classical contributions        ...        0 min,  0.000 sec (  0.000%)
 integral evaluation            ...        0 min,  0.008 sec (  0.596%)
 iterations                     ...        0 min,  1.309 sec ( 97.541%)
 molecular gradient             ...        0 min,  0.018 sec (  1.341%)
 printout                       ...        0 min,  0.002 sec (  0.149%)

         :::::::::::::::::::::::::::::::::::::::::::::::::::::
         ::                     SUMMARY                     ::
         :::::::::::::::::::::::::::::::::::::::::::::::::::::
         :: total energy            -111.798418999697 Eh    ::
         :: gradient norm              0.440203379937 Eh/a0 ::
         :: HOMO-LUMO gap              0.101947772345 eV    ::
         ::.................................................::
         :: SCC energy              -113.920633071281 Eh    ::
         :: -> isotropic ES            0.383142680152 Eh    ::
         :: -> anisotropic ES         -0.000781208495 Eh    ::
         :: -> anisotropic XC         -0.053091164112 Eh    ::
         :: -> dispersion             -0.144507967354 Eh    ::
         :: repulsion energy           2.122214071584 Eh    ::
         :: add. restraining           0.000000000000 Eh    ::
         :: total charge               0.000000000000 e     ::
         :::::::::::::::::::::::::::::::::::::::::::::::::::::

           -------------------------------------------------
          |                Property Printout                |
           -------------------------------------------------

    * Orbital Energies and Occupations

         #    Occupation            Energy/Eh            Energy/eV
      -------------------------------------------------------------
         1        2.0000           -0.6495349             -17.6747
       ...           ...                  ...                  ...
       113        2.0000           -0.2489776              -6.7750
       114        2.0000           -0.2483748              -6.7586
       115        2.0000           -0.2468437              -6.7170
       116        2.0000           -0.2455145              -6.6808
       117        2.0000           -0.2386186              -6.4931
       118        2.0000           -0.2334233              -6.3518
       119        2.0000           -0.2268007              -6.1716
       120        2.0000           -0.2258512              -6.1457
       121        2.0000           -0.2249411              -6.1210
       122        1.9998           -0.2190791              -5.9614
       123        1.9996           -0.2182534              -5.9390
       124        1.9892           -0.2150157              -5.8509
       125        1.6989           -0.2117077              -5.7609 (HOMO)
       126        0.1971           -0.2079612              -5.6589 (LUMO)
       127        0.1147           -0.2074046              -5.6438
       128        0.0004           -0.2019255              -5.4947
       129        0.0002           -0.2011715              -5.4742
       130        0.0000           -0.1993138              -5.4236
       131        0.0000           -0.1970838              -5.3629
       132                         -0.1934223              -5.2633
       133                         -0.1904708              -5.1830
       134                         -0.1897288              -5.1628
       135                         -0.1850201              -5.0347
       136                         -0.1812567              -4.9322
       ...                                ...                  ...
       304                          1.6405729              44.6423
      -------------------------------------------------------------
                  HL-Gap            0.0037465 Eh            0.1019 eV
             Fermi-level           -0.2100638 Eh           -5.7161 eV

     #   Z          covCN         q      C6AA      α(0)
     1   6 C        3.755    -0.168    23.832     6.961
     2   6 C        2.961    -0.005    28.156     8.704
     3   6 C        2.911    -0.064    29.580     8.918
     4   6 C        2.912    -0.068    29.688     8.935
     5   6 C        3.211     0.054    26.172     8.327
     6   7 N        1.943    -0.325    29.250     8.020
     7   6 C        2.992     0.033    27.258     8.564
     8   6 C        2.980    -0.022    28.560     8.766
     9   6 C        2.915    -0.110    30.787     9.099
    10   6 C        2.919    -0.123    31.120     9.148
    11   6 C        2.892     0.057    26.728     8.476
    12   7 N        2.638    -0.321    28.272     7.897
    13   6 C        2.916    -0.077    29.926     8.971
    14   6 C        2.918    -0.049    29.212     8.863
    15  16 S        3.078     0.080   137.840    19.760
    16   6 C        2.985    -0.045    29.104     8.849
    17   6 C        2.927    -0.125    31.195     9.160
    18   1 H        0.924     0.021     2.722     2.580
    19   1 H        0.924     0.109     1.703     2.041
    20   1 H        0.924     0.031     2.576     2.510
    21   1 H        0.925     0.005     2.978     2.699
    22   1 H        0.925     0.012     2.852     2.641
    23   1 H        0.971     0.129     1.539     1.939
    24   1 H        0.968     0.115     1.651     2.008
    25   1 H        0.860     0.140     1.475     1.902
    26   1 H        0.860     0.161     1.328     1.805
    27   1 H        0.925     0.003     3.009     2.713
    28   1 H        0.925     0.032     2.562     2.503
    29   1 H        0.926     0.126     1.564     1.956
    30   5 B        2.887    -0.006    21.524     7.744
    31   5 B        2.890     0.021    21.052     7.658
    32   5 B        2.890     0.028    20.932     7.636
    33   5 B        2.890     0.025    20.970     7.643
    34   5 B        2.890     0.030    20.883     7.627
    35   5 B        2.887     0.010    21.238     7.692
    36   5 B        2.916     0.005    21.308     7.703
    37   5 B        3.868    -0.010    22.928     7.717
    38   5 B        3.868     0.007    22.602     7.662
    39   5 B        3.868     0.006    22.630     7.666
    40   5 B        3.868     0.005    22.638     7.668
    41   5 B        2.916     0.053    20.488     7.553
    42   5 B        3.266    -0.013    21.607     7.752
    43   5 B        2.314     0.058    31.064    10.859
    44   5 B        1.958     0.012    43.673    13.898
    45   5 B        1.959     0.027    43.144    13.813
    46   5 B        1.958     0.027    43.160    13.816
    47   5 B        2.911    -0.064    22.580     7.930
    48   5 B        2.939    -0.006    21.500     7.736
    49   5 B        2.937    -0.091    23.098     8.019
    50   5 B        1.962    -0.061    46.401    14.324
    51   5 B        2.391    -0.036    28.785     9.956
    52   5 B        1.958    -0.045    45.810    14.233
    53   5 B        1.960     0.017    43.495    13.868
    54   5 B        3.266    -0.021    21.750     7.778
    55   5 B        2.359     0.077    27.922    10.011
    56   5 B        2.007     0.016    43.209    13.802
    57   5 B        2.293     0.042    32.791    11.288
    58   5 B        1.958     0.028    43.119    13.809
    59   5 B        2.911    -0.045    22.219     7.866
    60   5 B        2.916     0.006    21.302     7.702
    61   5 B        3.868    -0.016    23.034     7.735
    62   5 B        3.868     0.002    22.707     7.679
    63   5 B        3.868    -0.002    22.774     7.691
    64   5 B        3.868    -0.001    22.752     7.687
    65   5 B        2.914    -0.010    21.586     7.753
    66   5 B        2.887    -0.006    21.526     7.744
    67   5 B        2.890     0.023    21.018     7.652
    68   5 B        2.890     0.027    20.934     7.636
    69   5 B        2.890     0.023    21.015     7.651
    70   5 B        2.890     0.020    21.071     7.661
    71   5 B        1.934    -0.007    44.500    14.036
    72   5 B        3.822     0.042    21.962     7.554
    73   5 B        3.822     0.037    22.045     7.569
    74   5 B        3.822     0.041    21.984     7.558
    75   5 B        3.822     0.040    21.992     7.560
    76   5 B        3.822     0.048    21.852     7.535
    77   5 B        3.822     0.039    22.006     7.562
    78   5 B        3.822     0.035    22.076     7.574
    79   5 B        3.822     0.039    22.019     7.564
    80   5 B        3.822     0.035    22.081     7.575
    81   5 B        3.822     0.034    22.102     7.578
    82   5 B        3.381     0.107    19.607     7.381
    83   1 H        0.954    -0.084     5.028     3.505
    84   1 H        0.956     0.007     2.930     2.676
    85   1 H        0.956     0.006     2.943     2.681
    86   1 H        0.954    -0.084     5.015     3.500
    87   1 H        0.954    -0.079     4.880     3.453
    88   1 H        0.956    -0.005     3.140     2.770
    89   1 H        0.956    -0.017     3.358     2.864

 Mol. C6AA /au·bohr⁶  :     156622.193761
 Mol. C8AA /au·bohr⁸  :    5433755.646015
 Mol. α(0) /au        :        680.526988


Wiberg/Mayer (AO) data.
largest (>0.10) Wiberg bond orders for each atom

 ---------------------------------------------------------------------------
     #   Z sym  total        # sym  WBO       # sym  WBO       # sym  WBO
 ---------------------------------------------------------------------------
     1   6 C    3.972 --     2 C    1.024    18 H    0.983    20 H    0.970
                            19 H    0.919
     2   6 C    3.970 --    17 C    1.426     3 C    1.368     1 C    1.024
     3   6 C    3.981 --     4 C    1.485     2 C    1.368    21 H    0.970
     4   6 C    3.963 --     3 C    1.485     5 C    1.308    22 H    0.971
                            17 C    0.114
     5   6 C    3.970 --     4 C    1.308    16 C    1.277     6 N    1.212
     6   7 N    3.016 --     7 C    1.489     5 C    1.212    15 S    0.127
     7   6 C    3.907 --     6 N    1.489     8 C    1.094    15 S    1.088
     8   6 C    3.976 --    14 C    1.351     9 C    1.351     7 C    1.094
     9   6 C    3.918 --    10 C    1.433     8 C    1.351    23 H    0.832
    10   6 C    3.954 --     9 C    1.433    11 C    1.350    24 H    0.844
    11   6 C    3.935 --    13 C    1.351    10 C    1.350    12 N    1.105
    12   7 N    3.165 --    11 C    1.105    25 H    0.961    26 H    0.947
    13   6 C    3.968 --    14 C    1.460    11 C    1.351    27 H    0.968
    14   6 C    3.960 --    13 C    1.460     8 C    1.351    28 H    0.969
    15  16 S    2.866 --    16 C    1.094     7 C    1.088    51 B    0.155
                             6 N    0.127    57 B    0.106
    16   6 C    3.952 --    17 C    1.361     5 C    1.277    15 S    1.094
    17   6 C    3.938 --     2 C    1.426    16 C    1.361    29 H    0.856
                             4 C    0.114
    18   1 H    0.998 --     1 C    0.983
    19   1 H    0.987 --     1 C    0.919
    20   1 H    0.996 --     1 C    0.970
    21   1 H    0.999 --     3 C    0.970
    22   1 H    0.999 --     4 C    0.971
    23   1 H    0.983 --     9 C    0.832
    24   1 H    0.986 --    10 C    0.844
    25   1 H    0.980 --    12 N    0.961
    26   1 H    0.973 --    12 N    0.947
    27   1 H    0.998 --    13 C    0.968
    28   1 H    0.997 --    14 C    0.969
    29   1 H    0.984 --    17 C    0.856
    30   5 B    3.274 --    36 B    1.086    72 B    0.948    83 H    0.867
                            31 B    0.111    42 B    0.110
    31   5 B    3.420 --    73 B    1.003    72 B    0.973    37 B    0.929
                            32 B    0.148    30 B    0.111
    32   5 B    3.492 --    74 B    1.034    73 B    0.984    38 B    0.916
                            33 B    0.150    31 B    0.148
    33   5 B    3.432 --    75 B    0.995    74 B    0.979    39 B    0.912
                            32 B    0.150    34 B    0.131
    34   5 B    3.431 --    75 B    1.003    76 B    0.947    40 B    0.911
                            35 B    0.175    33 B    0.131
    35   5 B    3.401 --    76 B    1.092    41 B    1.003    87 H    0.861
                            34 B    0.175    47 B    0.103
    36   5 B    3.415 --    42 B    1.186    30 B    1.086    72 B    0.727
                            84 H    0.108
    37   5 B    3.659 --    43 B    1.161    31 B    0.929    73 B    0.681
                            72 B    0.679
    38   5 B    3.622 --    44 B    1.157    32 B    0.916    74 B    0.663
                            73 B    0.653
    39   5 B    3.641 --    45 B    1.171    33 B    0.912    75 B    0.660
                            74 B    0.658
    40   5 B    3.635 --    46 B    1.163    34 B    0.911    75 B    0.669
                            76 B    0.648
    41   5 B    3.472 --    47 B    1.241    35 B    1.003    76 B    0.698
                            88 H    0.157    53 B    0.106
    42   5 B    3.585 --    36 B    1.186    48 B    0.962    84 H    0.695
                            82 B    0.377    30 B    0.110
    43   5 B    3.389 --    49 B    1.289    37 B    1.161    82 B    0.375
                            55 B    0.154
    44   5 B    3.287 --    50 B    1.466    38 B    1.157    56 B    0.226
    45   5 B    3.327 --    51 B    1.401    39 B    1.171    57 B    0.172
    46   5 B    3.287 --    52 B    1.411    40 B    1.163    58 B    0.201
    47   5 B    3.549 --    53 B    1.266    41 B    1.241    88 H    0.660
                            59 B    0.114    35 B    0.103
    48   5 B    3.595 --    82 B    1.007    54 B    0.975    42 B    0.962
                            85 H    0.145    84 H    0.143
    49   5 B    3.662 --    43 B    1.289    55 B    1.221    82 B    0.907
    50   5 B    3.334 --    44 B    1.466    56 B    1.409
    51   5 B    3.417 --    45 B    1.401    57 B    1.346    15 S    0.155
                            52 B    0.100
    52   5 B    3.301 --    46 B    1.411    58 B    1.389    51 B    0.100
    53   5 B    3.303 --    59 B    1.332    47 B    1.266    89 H    0.161
                            88 H    0.136    41 B    0.106
    54   5 B    3.585 --    60 B    1.184    48 B    0.975    85 H    0.692
                            82 B    0.368    66 B    0.102
    55   5 B    3.350 --    49 B    1.221    61 B    1.131    82 B    0.351
                            43 B    0.154
    56   5 B    3.266 --    50 B    1.409    62 B    1.129    44 B    0.226
    57   5 B    3.299 --    51 B    1.346    63 B    1.155    45 B    0.172
                            15 S    0.106
    58   5 B    3.301 --    52 B    1.389    64 B    1.176    46 B    0.201
    59   5 B    3.458 --    53 B    1.332    65 B    1.043    89 H    0.688
                            47 B    0.114
    60   5 B    3.422 --    54 B    1.184    66 B    1.085    77 B    0.731
                            85 H    0.108
    61   5 B    3.674 --    55 B    1.131    67 B    0.956    78 B    0.691
                            77 B    0.679
    62   5 B    3.640 --    56 B    1.129    68 B    0.943    79 B    0.671
                            78 B    0.661
    63   5 B    3.657 --    57 B    1.155    69 B    0.938    79 B    0.674
                            80 B    0.664
    64   5 B    3.652 --    58 B    1.176    70 B    0.923    80 B    0.685
                            81 B    0.631
    65   5 B    3.628 --    71 B    1.591    59 B    1.043    81 B    0.692
    66   5 B    3.260 --    60 B    1.085    77 B    0.949    86 H    0.866
                            67 B    0.106    54 B    0.102
    67   5 B    3.433 --    78 B    0.986    77 B    0.978    61 B    0.956
                            68 B    0.140    66 B    0.106
    68   5 B    3.502 --    79 B    1.032    78 B    0.979    62 B    0.943
                            69 B    0.148    67 B    0.140
    69   5 B    3.453 --    80 B    1.019    79 B    0.955    63 B    0.938
                            68 B    0.148    70 B    0.123
    70   5 B    3.477 --    81 B    0.994    80 B    0.952    64 B    0.923
                            71 B    0.198    69 B    0.123
    71   5 B    3.166 --    65 B    1.591    81 B    1.127    70 B    0.198
    72   5 B    3.592 --    31 B    0.973    30 B    0.948    36 B    0.727
                            37 B    0.679
    73   5 B    3.603 --    31 B    1.003    32 B    0.984    37 B    0.681
                            38 B    0.653
    74   5 B    3.601 --    32 B    1.034    33 B    0.979    38 B    0.663
                            39 B    0.658
    75   5 B    3.603 --    34 B    1.003    33 B    0.995    40 B    0.669
                            39 B    0.660
    76   5 B    3.602 --    35 B    1.092    34 B    0.947    41 B    0.698
                            40 B    0.648
    77   5 B    3.598 --    67 B    0.978    66 B    0.949    60 B    0.731
                            61 B    0.679
    78   5 B    3.604 --    67 B    0.986    68 B    0.979    61 B    0.691
                            62 B    0.661
    79   5 B    3.604 --    68 B    1.032    69 B    0.955    63 B    0.674
                            62 B    0.671
    80   5 B    3.607 --    69 B    1.019    70 B    0.952    64 B    0.685
                            63 B    0.664
    81   5 B    3.622 --    71 B    1.127    70 B    0.994    65 B    0.692
                            64 B    0.631
    82   5 B    3.608 --    48 B    1.007    49 B    0.907    42 B    0.377
                            43 B    0.375    54 B    0.368    55 B    0.351
    83   1 H    0.979 --    30 B    0.867
    84   1 H    0.992 --    42 B    0.695    48 B    0.143    36 B    0.108
    85   1 H    0.992 --    54 B    0.692    48 B    0.145    60 B    0.108
    86   1 H    0.979 --    66 B    0.866
    87   1 H    0.987 --    35 B    0.861
    88   1 H    0.987 --    47 B    0.660    41 B    0.157    53 B    0.136
    89   1 H    0.971 --    59 B    0.688    53 B    0.161
 ---------------------------------------------------------------------------

Topologies differ in total number of bonds
Writing topology from bond orders to xtbtopo.mol

molecular dipole:
                 x           y           z       tot (Debye)
 q only:       -0.868       0.588      -4.562
   full:       -1.589       0.049      -3.088       8.829
molecular quadrupole (traceless):
                xx          xy          yy          xz          yz          zz
 q only:      -24.992       5.861      55.474      -6.672       4.489     -30.483
  q+dip:       34.313       3.574      69.806      -3.534      -2.326    -104.119
   full:       26.870       4.077      37.169      -4.209       0.724     -64.039


           -------------------------------------------------
          | TOTAL ENERGY             -111.798418999697 Eh   |
          | GRADIENT NORM               0.440203379937 Eh/α |
          | HOMO-LUMO GAP               0.101947772345 eV   |
           -------------------------------------------------

------------------------------------------------------------------------
 * finished run on 2026/08/31 at 20:19:36.784     
------------------------------------------------------------------------
 total:
 * wall-time:     0 d,  0 h,  0 min,  1.393 sec
 *  cpu-time:     0 d,  0 h,  0 min, 16.406 sec
 * ratio c/w:    11.778 speedup
 SCF:
 * wall-time:     0 d,  0 h,  0 min,  1.343 sec
 *  cpu-time:     0 d,  0 h,  0 min, 15.953 sec
 * ratio c/w:    11.879 speedup

normal termination of xtb
