      -----------------------------------------------------------      
     |                   =====================                   |     
     |                           x T B                           |     
     |                   =====================                   |     
     |                         S. Grimme                         |     
     |          Mulliken Center for Theoretical Chemistry        |     
     |                    University of Bonn                     |     
      -----------------------------------------------------------      

   * xtb version 6.7.1pre (5071a88) compiled by 'Marcel@Raven' on 2024-07-23

   xtb is free software: you can redistribute it and/or modify it under
   the terms of the GNU Lesser General Public License as published by
   the Free Software Foundation, either version 3 of the License, or
   (at your option) any later version.
   
   xtb is distributed in the hope that it will be useful,
   but WITHOUT ANY WARRANTY; without even the implied warranty of
   MERCHANTABILITY or FITNESS FOR A PARTICULAR PURPOSE.  See the
   GNU Lesser General Public License for more details.
   
   Cite this work as:
   * C. Bannwarth, E. Caldeweyher, S. Ehlert, A. Hansen, P. Pracht,
     J. Seibert, S. Spicher, S. Grimme, WIREs Comput. Mol. Sci., 2020, 11,
     e01493. DOI: 10.1002/wcms.1493
   
   for GFN2-xTB:
   * C. Bannwarth, S. Ehlert and S. Grimme., J. Chem. Theory Comput., 2019,
     15, 1652-1671. DOI: 10.1021/acs.jctc.8b01176
   for GFN1-xTB:
   * S. Grimme, C. Bannwarth, P. Shushkov, J. Chem. Theory Comput., 2017,
     13, 1989-2009. DOI: 10.1021/acs.jctc.7b00118
   for GFN0-xTB:
   * P. Pracht, E. Caldeweyher, S. Ehlert, S. Grimme, ChemRxiv, 2019, preprint.
     DOI: 10.26434/chemrxiv.8326202.v1
   for GFN-FF:
   * S. Spicher and S. Grimme, Angew. Chem. Int. Ed., 2020, 59, 15665-15673.
     DOI: 10.1002/anie.202004239
   
   for ALPB and GBSA implicit solvation:
   * S. Ehlert, M. Stahn, S. Spicher, S. Grimme, J. Chem. Theory Comput.,
     2021, 17, 4250-4261. DOI: 10.1021/acs.jctc.1c00471
   
   for ddCOSMO and CPCM-X implicit solvation:
   * M. Stahn, S. Ehlert, S. Grimme, J. Phys. Chem. A,
     2023, XX, XXXX-XXXX. DOI: 10.1021/acs.jpca.3c04382
   
   for DFT-D4:
   * E. Caldeweyher, C. Bannwarth and S. Grimme, J. Chem. Phys., 2017,
     147, 034112. DOI: 10.1063/1.4993215
   * E. Caldeweyher, S. Ehlert, A. Hansen, H. Neugebauer, S. Spicher,
     C. Bannwarth and S. Grimme, J. Chem. Phys., 2019, 150, 154122.
     DOI: 10.1063/1.5090222
   * E. Caldeweyher, J.-M. Mewes, S. Ehlert and S. Grimme, Phys. Chem. Chem. Phys.
     2020, 22, 8499-8512. DOI: 10.1039/D0CP00502A
   
   for sTDA-xTB:
   * S. Grimme and C. Bannwarth, J. Chem. Phys., 2016, 145, 054103.
     DOI: 10.1063/1.4959605
   
   in the mass-spec context:
   * V. Asgeirsson, C. Bauer and S. Grimme, Chem. Sci., 2017, 8, 4879.
     DOI: 10.1039/c7sc00601b
   * J. Koopman and S. Grimme, ACS Omega 2019, 4, 12, 15120-15133.
     DOI: 10.1021/acsomega.9b02011
   
   for metadynamics refer to:
   * S. Grimme, J. Chem. Theory Comput., 2019, 155, 2847-2862
     DOI: 10.1021/acs.jctc.9b00143
   
   for SPH calculations refer to:
   * S. Spicher and S. Grimme, J. Chem. Theory Comput., 2021, 17, 1701-1714
     DOI: 10.1021/acs.jctc.0c01306
   
   for ONIOM refer to:
   * C. Plett, A. Katbashev, S. Ehlert, S. Grimme, M. Bursch,
     Phys. Chem. Chem. Phys., 2023, 25, 17860-17868. DOI: 10.1039/D3CP02178E
   
   for DIPRO refer to:
   * J. Kohn, N. Gildemeister, S. Grimme, D. Fazzi, A. Hansen,
     J. Chem. Phys., 2023, just accepted.
   
   for PTB refer to:
   * S. Grimme, M. Mueller, A. Hansen, J. Chem. Phys., 2023, 158, 124111.
     DOI: 10.1063/5.0137838
   
   with help from (in alphabetical order)
   P. Atkinson, C. Bannwarth, F. Bohle, G. Brandenburg, E. Caldeweyher
   M. Checinski, S. Dohm, S. Ehlert, S. Ehrlich, I. Gerasimov, C. Hölzer
   A. Katbashev, J. Kohn, J. Koopman, C. Lavigne, S. Lehtola, F. März, M. Müller,
   F. Musil, H. Neugebauer, J. Pisarek, C. Plett, P. Pracht, F. Pultar,
   J. Seibert, P. Shushkov, S. Spicher, M. Stahn, M. Steiner, T. Strunk,
   J. Stückrath, T. Rose, and J. Unsleber
   
 * started run on 2026/09/01 at 20:28:35.702     
   ID    Z sym.   atoms
    1    6 C      1-5, 7-11, 13, 14, 16, 17
    2    7 N      6, 12
    3   16 S      15
    4    1 H      18-29, 70-84
    5    5 B      30-69

           -------------------------------------------------
          |                Calculation Setup                |
           -------------------------------------------------

          program call               : "c:\Users\Andre\Proyectos doctorado\nano-qsar-ai-papers\kras-pancreatic-gC3N4-ai\tools\xtb\xtb-6.7.1\bin\xtb.exe" "c:\Users\Andre\Proyectos doctorado\borophene-alzheimer-tau-ai\calculations\tau\Thioflavin_S\Thioflavin_S_B40H15_clean_complex.xyz" --gfn 2 --sp --chrg 0 --uhf 0 --iterations 500 --norestart
          coordinate file            : c:\Users\Andre\Proyectos doctorado\borophene-alzheimer-tau-ai\calculations\tau\Thioflavin_S\Thioflavin_S_B40H15_clean_complex.xyz
          omp threads                :                    16


molecular fragmentation (1/2 indicates fragments):
111111111111111111111111111112222222222222222222222222222222222222222222
222222222222
# atoms in fragment 1/2:    29    55
 fragment masses (1/2) :      240.32      447.56
CMA distance (Bohr)    :  15.379
constraining FC (au)   :  0.0500

           -------------------------------------------------
          |                 G F N 2 - x T B                 |
           -------------------------------------------------

        Reference                      10.1021/acs.jctc.8b01176
      * Hamiltonian:
        H0-scaling (s, p, d)           1.850000    2.230000    2.230000
        zeta-weighting                 0.500000
      * Dispersion:
        s8                             2.700000
        a1                             0.520000
        a2                             5.000000
        s9                             5.000000
      * Repulsion:
        kExp                           1.500000    1.000000
        rExp                           1.000000
      * Coulomb:
        alpha                          2.000000
        third order                    shell-resolved
        anisotropic                    true
        a3                             3.000000
        a5                             4.000000
        cn-shift                       1.200000
        cn-exp                         4.000000
        max-rad                        5.000000


          ...................................................
          :                      SETUP                      :
          :.................................................:
          :  # basis functions                 261          :
          :  # atomic orbitals                 260          :
          :  # shells                          142          :
          :  # electrons                       219          :
          :  max. iterations                   500          :
          :  Hamiltonian                  GFN2-xTB          :
          :  restarted?                      false          :
          :  GBSA solvation                  false          :
          :  PC potential                    false          :
          :  electronic temp.          300.0000000     K    :
          :  accuracy                    1.0000000          :
          :  -> integral cutoff          0.2500000E+02      :
          :  -> integral neglect         0.1000000E-07      :
          :  -> SCF convergence          0.1000000E-05 Eh   :
          :  -> wf. convergence          0.1000000E-03 e    :
          :  Broyden damping             0.4000000          :
          :  net charge                          0          :
          :  unpaired electrons                  0          :
          ...................................................

 iter      E             dE          RMSdq      gap      omega  full diag
   1   -102.0411278 -0.102041E+03  0.139E+01    0.22       0.0  T
   2   -100.5660843  0.147504E+01  0.934E+00    0.32       1.0  T
   3    -41.7968412  0.587692E+02  0.145E+01    0.30       1.0  T
   4    -42.5029681 -0.706127E+00  0.123E+01    0.07       1.0  T
   5    -86.8011508 -0.442982E+02  0.703E+00    0.06       1.0  T
   6    -99.5150612 -0.127139E+02  0.406E+00    0.23       1.0  T
   7   -101.4200214 -0.190496E+01  0.301E+00    0.22       1.0  T
   8   -102.6424881 -0.122247E+01  0.201E+00    0.26       1.0  T
   9   -102.8568293 -0.214341E+00  0.166E+00    0.51       1.0  T
  10   -102.8084255  0.484038E-01  0.146E+00    0.38       1.0  T
  11   -102.7400186  0.684070E-01  0.123E+00    0.51       1.0  T
  12   -102.8270938 -0.870752E-01  0.731E-01    0.40       1.0  T
  13   -102.8658338 -0.387400E-01  0.533E-01    0.34       1.0  T
  14   -102.8784842 -0.126504E-01  0.485E-01    0.20       1.0  T
  15   -102.8865362 -0.805191E-02  0.437E-01    0.16       1.0  T
  16   -102.8901145 -0.357831E-02  0.397E-01    0.17       1.0  T
  17   -102.8977013 -0.758688E-02  0.316E-01    0.12       1.0  T
  18   -102.8995455 -0.184414E-02  0.248E-01    0.13       1.0  T
  19   -102.8989069  0.638554E-03  0.227E-01    0.05       1.0  T
  20   -102.9016667 -0.275981E-02  0.155E-01    0.11       1.0  T
  21   -102.9016875 -0.207718E-04  0.120E-01    0.08       1.0  T
  22   -102.9020811 -0.393637E-03  0.778E-02    0.09       1.0  T
  23   -102.9022242 -0.143018E-03  0.422E-02    0.10       1.0  T
  24   -102.9022432 -0.190301E-04  0.305E-02    0.10       1.0  T
  25   -102.9022723 -0.290642E-04  0.233E-02    0.10       1.0  T
  26   -102.9022791 -0.682409E-05  0.146E-02    0.10       1.0  T
  27   -102.9022764  0.271646E-05  0.707E-03    0.10       1.5  T
  28   -102.9022808 -0.445507E-05  0.492E-03    0.10       2.2  T
  29   -102.9022817 -0.873488E-06  0.411E-03    0.10       2.7  T
  30   -102.9022830 -0.135145E-05  0.345E-03    0.10       3.2  T
  31   -102.9022842 -0.117121E-05  0.268E-03    0.10       4.1  T
  32   -102.9022846 -0.434111E-06  0.234E-03    0.10       4.7  T
  33   -102.9022854 -0.736486E-06  0.163E-03    0.10       6.7  T
  34   -102.9022859 -0.485773E-06  0.772E-04    0.10      14.1  T
  35   -102.9022860 -0.111456E-06  0.309E-04    0.10      35.3  T

   *** convergence criteria satisfied after 35 iterations ***

         #    Occupation            Energy/Eh            Energy/eV
      -------------------------------------------------------------
         1        2.0000           -0.7150073             -19.4563
       ...           ...                  ...                  ...
       104        2.0000           -0.2930429              -7.9741
       105        2.0000           -0.2869297              -7.8078
       106        2.0000           -0.2840109              -7.7283
       107        2.0000           -0.2809751              -7.6457
       108        2.0000           -0.2758995              -7.5076
       109        1.9992           -0.2727199              -7.4211
       110        0.8750           -0.2591174              -7.0509 (HOMO)
       111        0.1258           -0.2554328              -6.9507 (LUMO)
       112        0.0000           -0.2435519              -6.6274
       113                         -0.2260122              -6.1501
       114                         -0.2192545              -5.9662
       115                         -0.2181683              -5.9367
       ...                                ...                  ...
       260                          1.0695102              29.1029
      -------------------------------------------------------------
                  HL-Gap            0.0036846 Eh            0.1003 eV
             Fermi-level           -0.2615935 Eh           -7.1183 eV

 SCC (total)                   0 d,  0 h,  0 min,  0.357 sec
 SCC setup                      ...        0 min,  0.001 sec (  0.280%)
 Dispersion                     ...        0 min,  0.002 sec (  0.560%)
 classical contributions        ...        0 min,  0.000 sec (  0.000%)
 integral evaluation            ...        0 min,  0.005 sec (  1.401%)
 iterations                     ...        0 min,  0.332 sec ( 92.997%)
 molecular gradient             ...        0 min,  0.015 sec (  4.202%)
 printout                       ...        0 min,  0.002 sec (  0.560%)

         :::::::::::::::::::::::::::::::::::::::::::::::::::::
         ::                     SUMMARY                     ::
         :::::::::::::::::::::::::::::::::::::::::::::::::::::
         :: total energy            -101.391647238907 Eh    ::
         :: gradient norm              0.085680628344 Eh/a0 ::
         :: HOMO-LUMO gap              0.100263422102 eV    ::
         ::.................................................::
         :: SCC energy              -102.901093076351 Eh    ::
         :: -> isotropic ES            0.229899216010 Eh    ::
         :: -> anisotropic ES          0.013420907147 Eh    ::
         :: -> anisotropic XC          0.011582381796 Eh    ::
         :: -> dispersion             -0.104855283726 Eh    ::
         :: repulsion energy           1.509445837444 Eh    ::
         :: add. restraining           0.000000000000 Eh    ::
         :: total charge               0.000000000203 e     ::
         :::::::::::::::::::::::::::::::::::::::::::::::::::::

           -------------------------------------------------
          |                Property Printout                |
           -------------------------------------------------

    * Orbital Energies and Occupations

         #    Occupation            Energy/Eh            Energy/eV
      -------------------------------------------------------------
         1        2.0000           -0.7150073             -19.4563
       ...           ...                  ...                  ...
        98        2.0000           -0.3099352              -8.4338
        99        2.0000           -0.3063468              -8.3361
       100        2.0000           -0.3044656              -8.2849
       101        2.0000           -0.3035806              -8.2608
       102        2.0000           -0.2978827              -8.1058
       103        2.0000           -0.2962784              -8.0621
       104        2.0000           -0.2930429              -7.9741
       105        2.0000           -0.2869297              -7.8078
       106        2.0000           -0.2840109              -7.7283
       107        2.0000           -0.2809751              -7.6457
       108        2.0000           -0.2758995              -7.5076
       109        1.9992           -0.2727199              -7.4211
       110        0.8750           -0.2591174              -7.0509 (HOMO)
       111        0.1258           -0.2554328              -6.9507 (LUMO)
       112        0.0000           -0.2435519              -6.6274
       113                         -0.2260122              -6.1501
       114                         -0.2192545              -5.9662
       115                         -0.2181683              -5.9367
       116                         -0.2159979              -5.8776
       117                         -0.2125711              -5.7844
       118                         -0.2012898              -5.4774
       119                         -0.1964800              -5.3465
       120                         -0.1957036              -5.3254
       121                         -0.1908041              -5.1920
       ...                                ...                  ...
       260                          1.0695102              29.1029
      -------------------------------------------------------------
                  HL-Gap            0.0036846 Eh            0.1003 eV
             Fermi-level           -0.2615935 Eh           -7.1183 eV

     #   Z          covCN         q      C6AA      α(0)
     1   6 C        3.755    -0.110    22.657     6.787
     2   6 C        2.961     0.010    27.797     8.648
     3   6 C        2.911    -0.047    29.167     8.856
     4   6 C        2.912    -0.049    29.215     8.863
     5   6 C        3.211     0.072    25.776     8.264
     6   7 N        1.943    -0.282    28.156     7.868
     7   6 C        2.992     0.107    25.617     8.302
     8   6 C        2.980    -0.010    28.259     8.720
     9   6 C        2.915    -0.039    28.966     8.825
    10   6 C        2.917    -0.062    29.531     8.911
    11   6 C        2.892     0.079    26.240     8.399
    12   7 N        2.638    -0.285    27.346     7.766
    13   6 C        2.916    -0.059    29.461     8.901
    14   6 C        2.918    -0.031    28.778     8.797
    15  16 S        2.303    -0.085   144.577    20.237
    16   6 C        2.985     0.016    27.658     8.627
    17   6 C        2.927    -0.062    29.541     8.913
    18   1 H        0.924     0.042     2.421     2.433
    19   1 H        0.924     0.042     2.427     2.436
    20   1 H        0.924     0.047     2.354     2.399
    21   1 H        0.925     0.032     2.564     2.504
    22   1 H        0.925     0.042     2.427     2.436
    23   1 H        0.925     0.040     2.444     2.445
    24   1 H        0.925     0.034     2.531     2.488
    25   1 H        0.860     0.157     1.351     1.821
    26   1 H        0.860     0.160     1.338     1.812
    27   1 H        0.925     0.029     2.595     2.519
    28   1 H        0.925     0.052     2.297     2.370
    29   1 H        0.925     0.033     2.547     2.496
    30   5 B        3.729     0.065    21.471     7.486
    31   5 B        4.543     0.068    21.520     7.474
    32   5 B        3.764     0.030    22.134     7.591
    33   5 B        3.812     0.040    21.995     7.561
    34   5 B        3.866     0.058    21.679     7.504
    35   5 B        4.607     0.024    22.297     7.608
    36   5 B        2.881     0.052    20.524     7.562
    37   5 B        2.866     0.087    19.959     7.458
    38   5 B        4.657     0.032    22.149     7.583
    39   5 B        2.924     0.071    20.194     7.498
    40   5 B        3.820     0.055    21.729     7.515
    41   5 B        3.871     0.022    22.329     7.615
    42   5 B        4.530    -0.004    22.822     7.697
    43   5 B        3.833     0.046    21.891     7.542
    44   5 B        4.711     0.060    21.665     7.500
    45   5 B        4.714     0.049    21.851     7.532
    46   5 B        3.891     0.047    21.874     7.537
    47   5 B        2.930     0.023    20.995     7.645
    48   5 B        4.652     0.020    22.381     7.623
    49   5 B        2.877     0.056    20.453     7.549
    50   5 B        3.828     0.064    21.569     7.486
    51   5 B        3.859     0.022    22.328     7.615
    52   5 B        3.858    -0.007    22.871     7.707
    53   5 B        3.841     0.050    21.824     7.530
    54   5 B        4.594     0.025    22.274     7.604
    55   5 B        5.681     0.106    20.873     7.361
    56   5 B        4.131     0.014    22.479     7.639
    57   5 B        2.924     0.031    20.861     7.621
    58   5 B        5.586     0.061    21.631     7.494
    59   5 B        3.637     0.066    21.109     7.490
    60   5 B        3.826     0.045    21.908     7.545
    61   5 B        3.877     0.030    22.183     7.590
    62   5 B        3.870     0.019    22.385     7.625
    63   5 B        2.915     0.088    19.915     7.447
    64   5 B        3.773     0.074    21.364     7.456
    65   5 B        5.329     0.099    20.994     7.383
    66   5 B        4.732     0.044    21.935     7.546
    67   5 B        3.808     0.013    22.473     7.643
    68   5 B        3.784     0.076    21.335     7.450
    69   5 B        2.896     0.051    20.533     7.563
    70   1 H        0.938    -0.124     6.482     3.981
    71   1 H        1.528     0.028     2.591     2.513
    72   1 H        0.935    -0.149     7.643     4.322
    73   1 H        0.931    -0.141     7.255     4.212
    74   1 H        0.935    -0.125     6.527     3.995
    75   1 H        0.934    -0.122     6.406     3.957
    76   1 H        0.938    -0.110     5.923     3.805
    77   1 H        0.936    -0.138     7.114     4.170
    78   1 H        0.938    -0.095     5.379     3.626
    79   1 H        0.933    -0.154     7.891     4.392
    80   1 H        0.938    -0.101     5.604     3.701
    81   1 H        0.940    -0.139     7.130     4.175
    82   1 H        0.939    -0.115     6.108     3.864
    83   1 H        0.938    -0.117     6.179     3.886
    84   1 H        0.940    -0.144     7.400     4.253

 Mol. C6AA /au·bohr⁶  :     114020.519680
 Mol. C8AA /au·bohr⁸  :    3595895.905270
 Mol. α(0) /au        :        544.572109


Wiberg/Mayer (AO) data.
largest (>0.10) Wiberg bond orders for each atom

 ---------------------------------------------------------------------------
     #   Z sym  total        # sym  WBO       # sym  WBO       # sym  WBO
 ---------------------------------------------------------------------------
     1   6 C    3.993 --     2 C    1.024    19 H    0.983    18 H    0.982
                            20 H    0.969
     2   6 C    3.966 --    17 C    1.429     3 C    1.374     1 C    1.024
     3   6 C    3.987 --     4 C    1.485     2 C    1.374    21 H    0.969
     4   6 C    3.961 --     3 C    1.485     5 C    1.312    22 H    0.969
                            17 C    0.113
     5   6 C    3.975 --     4 C    1.312    16 C    1.285     6 N    1.205
     6   7 N    3.045 --     7 C    1.549     5 C    1.205    15 S    0.148
     7   6 C    3.900 --     6 N    1.549    15 S    1.101     8 C    1.095
     8   6 C    3.975 --     9 C    1.359    14 C    1.347     7 C    1.095
     9   6 C    3.968 --    10 C    1.470     8 C    1.359    23 H    0.967
    10   6 C    3.986 --     9 C    1.470    11 C    1.348    24 H    0.969
    11   6 C    3.942 --    10 C    1.348    13 C    1.346    12 N    1.137
    12   7 N    3.205 --    11 C    1.137    25 H    0.956    26 H    0.955
    13   6 C    3.987 --    14 C    1.477    11 C    1.346    27 H    0.968
    14   6 C    3.968 --    13 C    1.477     8 C    1.347    28 H    0.968
    15  16 S    2.551 --    16 C    1.114     7 C    1.101     6 N    0.148
    16   6 C    3.949 --    17 C    1.369     5 C    1.285    15 S    1.114
    17   6 C    3.977 --     2 C    1.429    16 C    1.369    29 H    0.969
                             4 C    0.113
    18   1 H    0.997 --     1 C    0.982
    19   1 H    0.997 --     1 C    0.983
    20   1 H    0.995 --     1 C    0.969
    21   1 H    0.998 --     3 C    0.969
    22   1 H    0.998 --     4 C    0.969
    23   1 H    0.998 --     9 C    0.967
    24   1 H    0.998 --    10 C    0.969
    25   1 H    0.974 --    12 N    0.956
    26   1 H    0.974 --    12 N    0.955
    27   1 H    0.998 --    13 C    0.968
    28   1 H    0.997 --    14 C    0.968
    29   1 H    0.999 --    17 C    0.969
    30   5 B    3.574 --    70 H    0.951    33 B    0.922    31 B    0.875
                            71 H    0.538
    31   5 B    3.539 --    30 B    0.875    32 B    0.755    33 B    0.608
                            35 B    0.546    71 H    0.426    34 B    0.133
    32   5 B    3.578 --    34 B    1.121    72 H    0.948    31 B    0.755
                            35 B    0.455
    33   5 B    3.562 --    30 B    0.922    40 B    0.843    41 B    0.812
                            31 B    0.608    43 B    0.108
    34   5 B    3.392 --    32 B    1.121    42 B    0.803    38 B    0.634
                            35 B    0.432    31 B    0.133
    35   5 B    3.599 --    36 B    1.083    38 B    0.763    31 B    0.546
                            32 B    0.455    34 B    0.432
    36   5 B    3.432 --    35 B    1.083    37 B    0.995    73 H    0.912
                            38 B    0.156
    37   5 B    3.250 --    39 B    1.018    36 B    0.995    74 H    0.939
                            47 B    0.107
    38   5 B    3.679 --    46 B    0.779    35 B    0.763    45 B    0.700
                            34 B    0.634    42 B    0.374    36 B    0.156
    39   5 B    3.409 --    37 B    1.018    47 B    0.986    75 H    0.924
                            46 B    0.191
    40   5 B    3.629 --    76 H    0.928    41 B    0.844    33 B    0.843
                            43 B    0.792
    41   5 B    3.613 --    43 B    0.857    40 B    0.844    42 B    0.813
                            33 B    0.812
    42   5 B    3.643 --    44 B    0.835    41 B    0.813    34 B    0.803
                            45 B    0.436    38 B    0.374
    43   5 B    3.586 --    41 B    0.857    40 B    0.792    50 B    0.780
                            51 B    0.720    33 B    0.108
    44   5 B    3.588 --    42 B    0.835    52 B    0.681    45 B    0.636
                            55 B    0.569    48 B    0.459
    45   5 B    3.601 --    48 B    0.950    38 B    0.700    44 B    0.636
                            46 B    0.595    42 B    0.436
    46   5 B    3.550 --    47 B    0.969    38 B    0.779    48 B    0.666
                            45 B    0.595    39 B    0.191
    47   5 B    3.448 --    39 B    0.986    46 B    0.969    49 B    0.962
                            57 B    0.181    37 B    0.107
    48   5 B    3.641 --    45 B    0.950    56 B    0.774    46 B    0.666
                            44 B    0.459    55 B    0.438
    49   5 B    3.416 --    57 B    1.140    47 B    0.962    77 H    0.952
                            59 B    0.113
    50   5 B    3.571 --    78 H    0.921    53 B    0.843    51 B    0.795
                            43 B    0.780
    51   5 B    3.595 --    52 B    1.011    50 B    0.795    43 B    0.720
                            53 B    0.703
    52   5 B    3.633 --    51 B    1.011    54 B    0.892    44 B    0.681
                            55 B    0.607
    53   5 B    3.589 --    50 B    0.843    61 B    0.841    60 B    0.755
                            51 B    0.703    63 B    0.143
    54   5 B    3.668 --    52 B    0.892    62 B    0.701    55 B    0.683
                            65 B    0.615    58 B    0.392
    55   5 B    3.669 --    54 B    0.683    52 B    0.607    58 B    0.586
                            44 B    0.569    56 B    0.523    48 B    0.438
    56   5 B    3.525 --    57 B    0.967    58 B    0.774    48 B    0.774
                            55 B    0.523    59 B    0.196
    57   5 B    3.405 --    49 B    1.140    56 B    0.967    59 B    0.780
                            47 B    0.181
    58   5 B    3.634 --    56 B    0.774    66 B    0.617    55 B    0.586
                            67 B    0.486    54 B    0.392    65 B    0.292
                            59 B    0.267
    59   5 B    3.506 --    67 B    0.972    79 H    0.939    57 B    0.780
                            58 B    0.267    56 B    0.196    49 B    0.113
    60   5 B    3.606 --    63 B    1.025    80 H    0.919    53 B    0.755
                            61 B    0.753
    61   5 B    3.601 --    63 B    0.929    62 B    0.893    53 B    0.841
                            60 B    0.753
    62   5 B    3.617 --    61 B    0.893    64 B    0.862    54 B    0.701
                            65 B    0.632    63 B    0.231
    63   5 B    3.463 --    60 B    1.025    81 H    0.971    61 B    0.929
                            62 B    0.231    53 B    0.143
    64   5 B    3.513 --    82 H    0.953    62 B    0.862    65 B    0.766
                            68 B    0.688
    65   5 B    3.653 --    64 B    0.766    68 B    0.764    62 B    0.632
                            54 B    0.615    66 B    0.440    58 B    0.292
    66   5 B    3.635 --    69 B    0.952    68 B    0.763    67 B    0.706
                            58 B    0.617    65 B    0.440
    67   5 B    3.571 --    69 B    1.168    59 B    0.972    66 B    0.706
                            58 B    0.486
    68   5 B    3.559 --    83 H    0.953    65 B    0.764    66 B    0.763
                            64 B    0.688    69 B    0.188
    69   5 B    3.513 --    67 B    1.168    84 H    0.968    66 B    0.952
                            68 B    0.188
    70   1 H    0.979 --    30 B    0.951
    71   1 H    0.995 --    30 B    0.538    31 B    0.426
    72   1 H    0.976 --    32 B    0.948
    73   1 H    0.977 --    36 B    0.912
    74   1 H    0.982 --    37 B    0.939
    75   1 H    0.981 --    39 B    0.924
    76   1 H    0.977 --    40 B    0.928
    77   1 H    0.977 --    49 B    0.952
    78   1 H    0.980 --    50 B    0.921
    79   1 H    0.975 --    59 B    0.939
    80   1 H    0.980 --    60 B    0.919
    81   1 H    0.980 --    63 B    0.971
    82   1 H    0.983 --    64 B    0.953
    83   1 H    0.982 --    68 B    0.953
    84   1 H    0.978 --    69 B    0.968
 ---------------------------------------------------------------------------

Topologies differ in total number of bonds
Writing topology from bond orders to xtbtopo.mol

molecular dipole:
                 x           y           z       tot (Debye)
 q only:        0.082      -1.035      -2.396
   full:       -0.241      -1.898      -1.588       6.320
molecular quadrupole (traceless):
                xx          xy          yy          xz          yz          zz
 q only:       12.856       6.895       2.805     -14.000       7.338     -15.661
  q+dip:       43.303      16.436      -9.261      -9.136      -3.386     -34.041
   full:       32.552      13.020      -9.296     -10.064       0.657     -23.256


           -------------------------------------------------
          | TOTAL ENERGY             -101.391647238907 Eh   |
          | GRADIENT NORM               0.085680628344 Eh/α |
          | HOMO-LUMO GAP               0.100263422102 eV   |
           -------------------------------------------------

------------------------------------------------------------------------
 * finished run on 2026/09/01 at 20:28:36.101     
------------------------------------------------------------------------
 total:
 * wall-time:     0 d,  0 h,  0 min,  0.398 sec
 *  cpu-time:     0 d,  0 h,  0 min,  5.250 sec
 * ratio c/w:    13.191 speedup
 SCF:
 * wall-time:     0 d,  0 h,  0 min,  0.358 sec
 *  cpu-time:     0 d,  0 h,  0 min,  4.828 sec
 * ratio c/w:    13.486 speedup

