      -----------------------------------------------------------      
     |                   =====================                   |     
     |                           x T B                           |     
     |                   =====================                   |     
     |                         S. Grimme                         |     
     |          Mulliken Center for Theoretical Chemistry        |     
     |                    University of Bonn                     |     
      -----------------------------------------------------------      

   * xtb version 6.7.1pre (5071a88) compiled by 'Marcel@Raven' on 2024-07-23

   xtb is free software: you can redistribute it and/or modify it under
   the terms of the GNU Lesser General Public License as published by
   the Free Software Foundation, either version 3 of the License, or
   (at your option) any later version.
   
   xtb is distributed in the hope that it will be useful,
   but WITHOUT ANY WARRANTY; without even the implied warranty of
   MERCHANTABILITY or FITNESS FOR A PARTICULAR PURPOSE.  See the
   GNU Lesser General Public License for more details.
   
   Cite this work as:
   * C. Bannwarth, E. Caldeweyher, S. Ehlert, A. Hansen, P. Pracht,
     J. Seibert, S. Spicher, S. Grimme, WIREs Comput. Mol. Sci., 2020, 11,
     e01493. DOI: 10.1002/wcms.1493
   
   for GFN2-xTB:
   * C. Bannwarth, S. Ehlert and S. Grimme., J. Chem. Theory Comput., 2019,
     15, 1652-1671. DOI: 10.1021/acs.jctc.8b01176
   for GFN1-xTB:
   * S. Grimme, C. Bannwarth, P. Shushkov, J. Chem. Theory Comput., 2017,
     13, 1989-2009. DOI: 10.1021/acs.jctc.7b00118
   for GFN0-xTB:
   * P. Pracht, E. Caldeweyher, S. Ehlert, S. Grimme, ChemRxiv, 2019, preprint.
     DOI: 10.26434/chemrxiv.8326202.v1
   for GFN-FF:
   * S. Spicher and S. Grimme, Angew. Chem. Int. Ed., 2020, 59, 15665-15673.
     DOI: 10.1002/anie.202004239
   
   for ALPB and GBSA implicit solvation:
   * S. Ehlert, M. Stahn, S. Spicher, S. Grimme, J. Chem. Theory Comput.,
     2021, 17, 4250-4261. DOI: 10.1021/acs.jctc.1c00471
   
   for ddCOSMO and CPCM-X implicit solvation:
   * M. Stahn, S. Ehlert, S. Grimme, J. Phys. Chem. A,
     2023, XX, XXXX-XXXX. DOI: 10.1021/acs.jpca.3c04382
   
   for DFT-D4:
   * E. Caldeweyher, C. Bannwarth and S. Grimme, J. Chem. Phys., 2017,
     147, 034112. DOI: 10.1063/1.4993215
   * E. Caldeweyher, S. Ehlert, A. Hansen, H. Neugebauer, S. Spicher,
     C. Bannwarth and S. Grimme, J. Chem. Phys., 2019, 150, 154122.
     DOI: 10.1063/1.5090222
   * E. Caldeweyher, J.-M. Mewes, S. Ehlert and S. Grimme, Phys. Chem. Chem. Phys.
     2020, 22, 8499-8512. DOI: 10.1039/D0CP00502A
   
   for sTDA-xTB:
   * S. Grimme and C. Bannwarth, J. Chem. Phys., 2016, 145, 054103.
     DOI: 10.1063/1.4959605
   
   in the mass-spec context:
   * V. Asgeirsson, C. Bauer and S. Grimme, Chem. Sci., 2017, 8, 4879.
     DOI: 10.1039/c7sc00601b
   * J. Koopman and S. Grimme, ACS Omega 2019, 4, 12, 15120-15133.
     DOI: 10.1021/acsomega.9b02011
   
   for metadynamics refer to:
   * S. Grimme, J. Chem. Theory Comput., 2019, 155, 2847-2862
     DOI: 10.1021/acs.jctc.9b00143
   
   for SPH calculations refer to:
   * S. Spicher and S. Grimme, J. Chem. Theory Comput., 2021, 17, 1701-1714
     DOI: 10.1021/acs.jctc.0c01306
   
   for ONIOM refer to:
   * C. Plett, A. Katbashev, S. Ehlert, S. Grimme, M. Bursch,
     Phys. Chem. Chem. Phys., 2023, 25, 17860-17868. DOI: 10.1039/D3CP02178E
   
   for DIPRO refer to:
   * J. Kohn, N. Gildemeister, S. Grimme, D. Fazzi, A. Hansen,
     J. Chem. Phys., 2023, just accepted.
   
   for PTB refer to:
   * S. Grimme, M. Mueller, A. Hansen, J. Chem. Phys., 2023, 158, 124111.
     DOI: 10.1063/5.0137838
   
   with help from (in alphabetical order)
   P. Atkinson, C. Bannwarth, F. Bohle, G. Brandenburg, E. Caldeweyher
   M. Checinski, S. Dohm, S. Ehlert, S. Ehrlich, I. Gerasimov, C. Hölzer
   A. Katbashev, J. Kohn, J. Koopman, C. Lavigne, S. Lehtola, F. März, M. Müller,
   F. Musil, H. Neugebauer, J. Pisarek, C. Plett, P. Pracht, F. Pultar,
   J. Seibert, P. Shushkov, S. Spicher, M. Stahn, M. Steiner, T. Strunk,
   J. Stückrath, T. Rose, and J. Unsleber
   
 * started run on 2026/08/31 at 21:15:19.964     
   ID    Z sym.   atoms
    1    6 C      1-5, 7-11, 13, 14, 16, 17
    2    7 N      6, 12
    3   16 S      15
    4    1 H      18-29, 83-89
    5    5 B      30-82

           -------------------------------------------------
          |                Calculation Setup                |
           -------------------------------------------------

          program call               : "c:\Users\Andre\Proyectos doctorado\kras-pancreatic-gC3N4-ai\tools\xtb\xtb-6.7.1\bin\xtb.exe" "c:\Users\Andre\Proyectos doctorado\borophene-alzheimer-tau-ai\calculations\tau\Thioflavin_S\Thioflavin_S_B48H12_phys_complex.xyz" --gfn 2 --sp --chrg 0 --uhf 0 --etemp 300 --iterations 500 --norestart
          coordinate file            : c:\Users\Andre\Proyectos doctorado\borophene-alzheimer-tau-ai\calculations\tau\Thioflavin_S\Thioflavin_S_B48H12_phys_complex.xyz
          omp threads                :                    16


           -------------------------------------------------
          |                 G F N 2 - x T B                 |
           -------------------------------------------------

        Reference                      10.1021/acs.jctc.8b01176
      * Hamiltonian:
        H0-scaling (s, p, d)           1.850000    2.230000    2.230000
        zeta-weighting                 0.500000
      * Dispersion:
        s8                             2.700000
        a1                             0.520000
        a2                             5.000000
        s9                             5.000000
      * Repulsion:
        kExp                           1.500000    1.000000
        rExp                           1.000000
      * Coulomb:
        alpha                          2.000000
        third order                    shell-resolved
        anisotropic                    true
        a3                             3.000000
        a5                             4.000000
        cn-shift                       1.200000
        cn-exp                         4.000000
        max-rad                        5.000000


          ...................................................
          :                      SETUP                      :
          :.................................................:
          :  # basis functions                 305          :
          :  # atomic orbitals                 304          :
          :  # shells                          160          :
          :  # electrons                       250          :
          :  max. iterations                   500          :
          :  Hamiltonian                  GFN2-xTB          :
          :  restarted?                      false          :
          :  GBSA solvation                  false          :
          :  PC potential                    false          :
          :  electronic temp.          300.0000000     K    :
          :  accuracy                    1.0000000          :
          :  -> integral cutoff          0.2500000E+02      :
          :  -> integral neglect         0.1000000E-07      :
          :  -> SCF convergence          0.1000000E-05 Eh   :
          :  -> wf. convergence          0.1000000E-03 e    :
          :  Broyden damping             0.4000000          :
          :  net charge                          0          :
          :  unpaired electrons                  0          :
          ...................................................

 iter      E             dE          RMSdq      gap      omega  full diag
   1   -113.5663274 -0.113566E+03  0.158E+01    0.25       0.0  T
   2   -103.7882131  0.977811E+01  0.112E+01    0.01       1.0  T
   3    107.7610890  0.211549E+03  0.201E+01    0.12       1.0  T
   4    117.9145366  0.101534E+02  0.192E+01    0.01       1.0  T
   5    -82.8407806 -0.200755E+03  0.931E+00    0.03       1.0  T
   6    -22.3774676  0.604633E+02  0.140E+01    0.14       1.0  T
   7   -107.7831556 -0.854057E+02  0.601E+00    0.10       1.0  T
   8    -95.5001937  0.122830E+02  0.700E+00    0.09       1.0  T
   9   -113.6567433 -0.181565E+02  0.351E+00    0.28       1.0  T
  10   -114.1882681 -0.531525E+00  0.300E+00    0.31       1.0  T
  11   -114.3571536 -0.168886E+00  0.261E+00    0.34       1.0  T
  12   -114.3888375 -0.316838E-01  0.251E+00    0.36       1.0  T
  13   -114.1435933  0.245244E+00  0.207E+00    0.27       1.0  T
  14   -114.3504222 -0.206829E+00  0.139E+00    0.27       1.0  T
  15   -114.4811652 -0.130743E+00  0.101E+00    0.28       1.0  T
  16   -114.4847076 -0.354241E-02  0.846E-01    0.27       1.0  T
  17   -114.5284083 -0.437007E-01  0.760E-01    0.28       1.0  T
  18   -114.5571898 -0.287815E-01  0.678E-01    0.30       1.0  T
  19   -114.5600826 -0.289287E-02  0.603E-01    0.29       1.0  T
  20   -114.5846851 -0.246025E-01  0.438E-01    0.32       1.0  T
  21   -114.5928618 -0.817667E-02  0.301E-01    0.34       1.0  T
  22   -114.5949782 -0.211635E-02  0.240E-01    0.34       1.0  T
  23   -114.5951860 -0.207800E-03  0.200E-01    0.37       1.0  T
  24   -114.5950563  0.129655E-03  0.190E-01    0.38       1.0  T
  25   -114.5949177  0.138639E-03  0.184E-01    0.38       1.0  T
  26   -114.5947079  0.209757E-03  0.165E-01    0.39       1.0  T
  27   -114.5951841 -0.476212E-03  0.112E-01    0.38       1.0  T
  28   -114.5972196 -0.203548E-02  0.710E-02    0.38       1.0  T
  29   -114.5978686 -0.649048E-03  0.625E-02    0.37       1.0  T
  30   -114.5979283 -0.596524E-04  0.614E-02    0.37       1.0  T
  31   -114.5980530 -0.124719E-03  0.597E-02    0.37       1.0  T
  32   -114.5986303 -0.577233E-03  0.458E-02    0.36       1.0  T
  33   -114.5989781 -0.347887E-03  0.268E-02    0.36       1.0  T
  34   -114.5990202 -0.420297E-04  0.209E-02    0.36       1.0  T
  35   -114.5990470 -0.268045E-04  0.133E-02    0.35       1.0  T
  36   -114.5990552 -0.818922E-05  0.910E-03    0.35       1.2  T
  37   -114.5990623 -0.715969E-05  0.638E-03    0.35       1.7  T
  38   -114.5990680 -0.568278E-05  0.246E-03    0.35       4.3  T
  39   -114.5990683 -0.330094E-06  0.132E-03    0.35       8.1  T
  40   -114.5990685 -0.121999E-06  0.977E-04    0.35      10.9  T
  41   -114.5990685 -0.460205E-07  0.726E-04    0.35      14.6  T

   *** convergence criteria satisfied after 41 iterations ***

         #    Occupation            Energy/Eh            Energy/eV
      -------------------------------------------------------------
         1        2.0000           -0.6920307             -18.8311
       ...           ...                  ...                  ...
       119        2.0000           -0.2671905              -7.2706
       120        2.0000           -0.2630563              -7.1581
       121        2.0000           -0.2619005              -7.1267
       122        2.0000           -0.2579157              -7.0182
       123        2.0000           -0.2534018              -6.8954
       124        1.9999           -0.2488809              -6.7724
       125        1.9978           -0.2455838              -6.6827 (HOMO)
       126        0.0022           -0.2326556              -6.3309 (LUMO)
       127        0.0000           -0.2275831              -6.1929
       128        0.0000           -0.2259421              -6.1482
       129                         -0.2214351              -6.0256
       130                         -0.2152068              -5.8561
       ...                                ...                  ...
       304                          1.1925969              32.4522
      -------------------------------------------------------------
                  HL-Gap            0.0129282 Eh            0.3518 eV
             Fermi-level           -0.2391077 Eh           -6.5065 eV

 SCC (total)                   0 d,  0 h,  0 min,  0.831 sec
 SCC setup                      ...        0 min,  0.001 sec (  0.120%)
 Dispersion                     ...        0 min,  0.002 sec (  0.241%)
 classical contributions        ...        0 min,  0.000 sec (  0.000%)
 integral evaluation            ...        0 min,  0.018 sec (  2.166%)
 iterations                     ...        0 min,  0.790 sec ( 95.066%)
 molecular gradient             ...        0 min,  0.019 sec (  2.286%)
 printout                       ...        0 min,  0.001 sec (  0.120%)

         :::::::::::::::::::::::::::::::::::::::::::::::::::::
         ::                     SUMMARY                     ::
         :::::::::::::::::::::::::::::::::::::::::::::::::::::
         :: total energy            -112.791225515739 Eh    ::
         :: gradient norm              0.117927461749 Eh/a0 ::
         :: HOMO-LUMO gap              0.351793339705 eV    ::
         ::.................................................::
         :: SCC energy              -114.594539877643 Eh    ::
         :: -> isotropic ES            0.266268894475 Eh    ::
         :: -> anisotropic ES          0.005845887366 Eh    ::
         :: -> anisotropic XC         -0.026509127510 Eh    ::
         :: -> dispersion             -0.129524995189 Eh    ::
         :: repulsion energy           1.803314361905 Eh    ::
         :: add. restraining           0.000000000000 Eh    ::
         :: total charge              -0.000000000002 e     ::
         :::::::::::::::::::::::::::::::::::::::::::::::::::::

           -------------------------------------------------
          |                Property Printout                |
           -------------------------------------------------

    * Orbital Energies and Occupations

         #    Occupation            Energy/Eh            Energy/eV
      -------------------------------------------------------------
         1        2.0000           -0.6920307             -18.8311
       ...           ...                  ...                  ...
       113        2.0000           -0.2827331              -7.6936
       114        2.0000           -0.2797989              -7.6137
       115        2.0000           -0.2761075              -7.5133
       116        2.0000           -0.2751540              -7.4873
       117        2.0000           -0.2732340              -7.4351
       118        2.0000           -0.2694985              -7.3334
       119        2.0000           -0.2671905              -7.2706
       120        2.0000           -0.2630563              -7.1581
       121        2.0000           -0.2619005              -7.1267
       122        2.0000           -0.2579157              -7.0182
       123        2.0000           -0.2534018              -6.8954
       124        1.9999           -0.2488809              -6.7724
       125        1.9978           -0.2455838              -6.6827 (HOMO)
       126        0.0022           -0.2326556              -6.3309 (LUMO)
       127        0.0000           -0.2275831              -6.1929
       128        0.0000           -0.2259421              -6.1482
       129                         -0.2214351              -6.0256
       130                         -0.2152068              -5.8561
       131                         -0.2107072              -5.7336
       132                         -0.2089297              -5.6853
       133                         -0.2027688              -5.5176
       134                         -0.1973857              -5.3711
       135                         -0.1965657              -5.3488
       136                         -0.1904396              -5.1821
       ...                                ...                  ...
       304                          1.1925969              32.4522
      -------------------------------------------------------------
                  HL-Gap            0.0129282 Eh            0.3518 eV
             Fermi-level           -0.2391077 Eh           -6.5065 eV

     #   Z          covCN         q      C6AA      α(0)
     1   6 C        3.755    -0.117    22.802     6.809
     2   6 C        2.961    -0.005    28.137     8.701
     3   6 C        2.911    -0.056    29.402     8.891
     4   6 C        2.912    -0.056    29.391     8.890
     5   6 C        3.211     0.060    26.034     8.305
     6   7 N        1.943    -0.315    28.986     7.983
     7   6 C        2.992     0.038    27.146     8.547
     8   6 C        2.980    -0.021    28.523     8.761
     9   6 C        2.916    -0.138    31.540     9.209
    10   6 C        2.917    -0.082    30.048     8.989
    11   6 C        2.892     0.068    26.482     8.437
    12   7 N        2.638    -0.298    27.684     7.814
    13   6 C        2.916    -0.069    29.707     8.938
    14   6 C        2.918    -0.042    29.031     8.836
    15  16 S        3.213     0.078   137.908    19.765
    16   6 C        2.985    -0.062    29.535     8.915
    17   6 C        2.927    -0.083    30.082     8.995
    18   1 H        0.924     0.037     2.484     2.465
    19   1 H        0.924     0.036     2.498     2.472
    20   1 H        0.924     0.041     2.438     2.442
    21   1 H        0.925     0.019     2.747     2.592
    22   1 H        0.925     0.031     2.579     2.511
    23   1 H        0.971     0.135     1.494     1.910
    24   1 H        0.925     0.026     2.646     2.544
    25   1 H        0.860     0.150     1.401     1.854
    26   1 H        0.860     0.154     1.374     1.836
    27   1 H        0.925     0.015     2.813     2.623
    28   1 H        0.925     0.038     2.472     2.459
    29   1 H        0.925     0.032     2.563     2.504
    30   5 B        2.872     0.038    20.756     7.605
    31   5 B        3.645     0.026    21.853     7.611
    32   5 B        3.704     0.011    22.372     7.653
    33   5 B        3.599     0.004    21.961     7.687
    34   5 B        3.804     0.014    22.453     7.640
    35   5 B        3.812     0.037    22.044     7.569
    36   5 B        4.425     0.059    21.667     7.500
    37   5 B        3.843     0.023    22.312     7.613
    38   5 B        5.059     0.047    21.883     7.537
    39   5 B        5.523     0.104    20.907     7.367
    40   5 B        3.792     0.002    22.666     7.678
    41   5 B        4.799     0.085    21.219     7.422
    42   5 B        4.746     0.061    21.632     7.494
    43   5 B        3.691     0.008    22.382     7.663
    44   5 B        3.876     0.030    22.187     7.591
    45   5 B        4.170    -0.016    23.043     7.735
    46   5 B        3.938     0.010    22.559     7.653
    47   5 B        3.779     0.073    21.382     7.459
    48   5 B        3.808     0.063    21.590     7.491
    49   5 B        3.812    -0.011    22.935     7.721
    50   5 B        4.478     0.046    21.912     7.542
    51   5 B        3.827     0.004    22.647     7.671
    52   5 B        4.691     0.054    21.768     7.517
    53   5 B        4.735     0.044    21.944     7.548
    54   5 B        3.813     0.073    21.415     7.461
    55   5 B        2.071    -0.002    43.097    13.732
    56   5 B        3.742    -0.004    22.725     7.697
    57   5 B        4.555     0.011    22.534     7.649
    58   5 B        4.200     0.033    22.131     7.580
    59   5 B        3.748     0.071    21.385     7.465
    60   5 B        3.840    -0.007    22.867     7.707
    61   5 B        3.769     0.016    22.401     7.636
    62   5 B        4.530     0.063    21.602     7.489
    63   5 B        5.624     0.098    21.002     7.384
    64   5 B        3.805     0.022    22.305     7.615
    65   5 B        3.825     0.012    22.495     7.645
    66   5 B        2.886     0.066    20.283     7.517
    67   5 B        2.918     0.039    20.724     7.597
    68   5 B        2.913     0.018    21.097     7.665
    69   5 B        3.630     0.006    22.120     7.676
    70   5 B        3.792     0.005    22.617     7.669
    71   5 B        2.860    -0.006    21.533     7.747
    72   5 B        2.920    -0.038    22.086     7.842
    73   5 B        3.825     0.015    22.452     7.638
    74   5 B        2.901    -0.028    21.919     7.813
    75   5 B        4.532     0.045    21.914     7.543
    76   5 B        3.896     0.035    22.094     7.574
    77   5 B        3.818     0.013    22.476     7.643
    78   5 B        3.778    -0.039    23.434     7.808
    79   5 B        3.628    -0.023    22.644     7.768
    80   5 B        4.556     0.022    22.342     7.616
    81   5 B        3.280     0.019    21.050     7.651
    82   5 B        4.869     0.087    21.194     7.418
    83   1 H        0.937    -0.178     9.289     4.765
    84   1 H        0.935    -0.146     7.492     4.280
    85   1 H        0.936    -0.142     7.279     4.218
    86   1 H        0.939    -0.158     8.079     4.444
    87   1 H        0.936    -0.142     7.269     4.216
    88   1 H        0.937    -0.145     7.447     4.267
    89   1 H        0.934    -0.144     7.386     4.249

 Mol. C6AA /au·bohr⁶  :     147822.102526
 Mol. C8AA /au·bohr⁸  :    5026707.714513
 Mol. α(0) /au        :        624.644517


Wiberg/Mayer (AO) data.
largest (>0.10) Wiberg bond orders for each atom

 ---------------------------------------------------------------------------
     #   Z sym  total        # sym  WBO       # sym  WBO       # sym  WBO
 ---------------------------------------------------------------------------
     1   6 C    3.993 --     2 C    1.021    19 H    0.983    18 H    0.983
                            20 H    0.971
     2   6 C    3.957 --    17 C    1.444     3 C    1.357     1 C    1.021
     3   6 C    3.977 --     4 C    1.495     2 C    1.357    21 H    0.970
     4   6 C    3.970 --     3 C    1.495     5 C    1.307    22 H    0.970
                            17 C    0.116
     5   6 C    3.963 --     4 C    1.307    16 C    1.255     6 N    1.228
     6   7 N    3.023 --     7 C    1.489     5 C    1.228    15 S    0.137
     7   6 C    3.901 --     6 N    1.489    15 S    1.103     8 C    1.103
     8   6 C    3.977 --     9 C    1.349    14 C    1.349     7 C    1.103
     9   6 C    3.905 --    10 C    1.455     8 C    1.349    23 H    0.799
    10   6 C    3.979 --     9 C    1.455    11 C    1.356    24 H    0.968
    11   6 C    3.937 --    10 C    1.356    13 C    1.347    12 N    1.121
    12   7 N    3.187 --    11 C    1.121    25 H    0.958    26 H    0.957
    13   6 C    3.981 --    14 C    1.473    11 C    1.347    27 H    0.969
    14   6 C    3.969 --    13 C    1.473     8 C    1.349    28 H    0.969
    15  16 S    2.913 --     7 C    1.103    16 C    1.063    50 B    0.227
                             6 N    0.137    44 B    0.104
    16   6 C    3.925 --    17 C    1.358     5 C    1.255    15 S    1.063
    17   6 C    3.979 --     2 C    1.444    16 C    1.358    29 H    0.966
                             4 C    0.116
    18   1 H    0.997 --     1 C    0.983
    19   1 H    0.998 --     1 C    0.983
    20   1 H    0.995 --     1 C    0.971
    21   1 H    0.999 --     3 C    0.970
    22   1 H    0.998 --     4 C    0.970
    23   1 H    0.981 --     9 C    0.799
    24   1 H    0.999 --    10 C    0.968
    25   1 H    0.977 --    12 N    0.958
    26   1 H    0.975 --    12 N    0.957
    27   1 H    0.999 --    13 C    0.969
    28   1 H    0.998 --    14 C    0.969
    29   1 H    0.999 --    17 C    0.966
    30   5 B    3.501 --    72 B    1.439    83 H    0.958    36 B    0.841
    31   5 B    3.503 --    72 B    1.121    73 B    0.991    37 B    0.558
                            36 B    0.508
    32   5 B    3.498 --    74 B    1.269    73 B    1.013    39 B    0.486
                            38 B    0.453
    33   5 B    3.474 --    74 B    1.285    34 B    1.011    39 B    0.571
                            75 B    0.363
    34   5 B    3.525 --    76 B    1.092    33 B    1.011    40 B    0.682
                            75 B    0.490
    35   5 B    3.595 --    87 H    0.941    76 B    0.856    47 B    0.811
                            41 B    0.800
    36   5 B    3.619 --    30 B    0.841    42 B    0.832    72 B    0.793
                            31 B    0.508    43 B    0.388
    37   5 B    3.575 --    43 B    1.112    73 B    0.769    38 B    0.688
                            31 B    0.558
    38   5 B    3.604 --    44 B    0.986    37 B    0.688    39 B    0.516
                            73 B    0.505    32 B    0.453    45 B    0.228
    39   5 B    3.597 --    45 B    0.613    75 B    0.612    74 B    0.600
                            33 B    0.571    38 B    0.516    32 B    0.486
    40   5 B    3.590 --    46 B    1.106    75 B    0.918    34 B    0.682
                            76 B    0.507
    41   5 B    3.595 --    47 B    0.844    35 B    0.800    53 B    0.685
                            76 B    0.594    46 B    0.516
    42   5 B    3.619 --    36 B    0.832    48 B    0.754    43 B    0.694
                            49 B    0.557    82 B    0.495
    43   5 B    3.566 --    37 B    1.112    49 B    0.934    42 B    0.694
                            36 B    0.388
    44   5 B    3.461 --    38 B    0.986    50 B    0.982    51 B    0.561
                            45 B    0.446    15 S    0.104
    45   5 B    3.609 --    51 B    1.133    75 B    0.895    39 B    0.613
                            44 B    0.446    38 B    0.228
    46   5 B    3.549 --    40 B    1.106    52 B    0.832    53 B    0.607
                            41 B    0.516    76 B    0.180
    47   5 B    3.511 --    88 H    0.953    41 B    0.844    35 B    0.811
                            53 B    0.678
    48   5 B    3.536 --    84 H    0.939    54 B    0.834    42 B    0.754
                            82 B    0.731
    49   5 B    3.628 --    55 B    1.267    43 B    0.934    42 B    0.557
                            82 B    0.543
    50   5 B    3.478 --    56 B    1.001    44 B    0.982    51 B    0.509
                            57 B    0.367    15 S    0.227
    51   5 B    3.559 --    45 B    1.133    57 B    0.969    44 B    0.561
                            50 B    0.509
    52   5 B    3.574 --    58 B    0.865    46 B    0.832    65 B    0.559
                            53 B    0.540    59 B    0.498
    53   5 B    3.603 --    59 B    0.870    41 B    0.685    47 B    0.678
                            46 B    0.607    52 B    0.540
    54   5 B    3.574 --    85 H    0.942    48 B    0.834    82 B    0.777
                            60 B    0.720
    55   5 B    3.415 --    61 B    1.330    49 B    1.267    82 B    0.204
                            77 B    0.158
    56   5 B    3.490 --    62 B    1.040    50 B    1.001    63 B    0.548
                            57 B    0.452
    57   5 B    3.602 --    51 B    0.969    80 B    0.801    63 B    0.659
                            56 B    0.452    50 B    0.367
    58   5 B    3.558 --    64 B    1.009    52 B    0.865    65 B    0.630
                            71 B    0.535    81 B    0.319
    59   5 B    3.414 --    89 H    0.924    65 B    0.891    53 B    0.870
                            52 B    0.498
    60   5 B    3.610 --    66 B    1.236    54 B    0.720    77 B    0.715
                            82 B    0.689
    61   5 B    3.579 --    55 B    1.330    67 B    0.687    77 B    0.605
                            78 B    0.579
    62   5 B    3.530 --    56 B    1.040    68 B    0.648    78 B    0.572
                            63 B    0.529    79 B    0.445
    63   5 B    3.620 --    57 B    0.659    80 B    0.620    56 B    0.548
                            62 B    0.529    69 B    0.516    79 B    0.500
    64   5 B    3.541 --    80 B    1.029    58 B    1.009    70 B    0.620
                            81 B    0.517
    65   5 B    3.501 --    71 B    1.231    59 B    0.891    58 B    0.630
                            52 B    0.559
    66   5 B    3.473 --    60 B    1.236    86 H    0.956    77 B    0.856
                            67 B    0.145
    67   5 B    3.405 --    78 B    1.166    77 B    1.105    61 B    0.687
                            66 B    0.145
    68   5 B    3.344 --    79 B    1.206    78 B    1.133    62 B    0.648
    69   5 B    3.395 --    79 B    1.141    70 B    1.087    63 B    0.516
                            80 B    0.380
    70   5 B    3.489 --    69 B    1.087    81 B    1.058    64 B    0.620
                            80 B    0.490
    71   5 B    3.338 --    81 B    1.272    65 B    1.231    58 B    0.535
    72   5 B    3.538 --    30 B    1.439    31 B    1.121    36 B    0.793
    73   5 B    3.530 --    32 B    1.013    31 B    0.991    37 B    0.769
                            38 B    0.505
    74   5 B    3.440 --    33 B    1.285    32 B    1.269    39 B    0.600
    75   5 B    3.552 --    40 B    0.918    45 B    0.895    39 B    0.612
                            34 B    0.490    33 B    0.363
    76   5 B    3.477 --    34 B    1.092    35 B    0.856    41 B    0.594
                            40 B    0.507    46 B    0.180
    77   5 B    3.640 --    67 B    1.105    66 B    0.856    60 B    0.715
                            61 B    0.605    55 B    0.158
    78   5 B    3.625 --    67 B    1.166    68 B    1.133    61 B    0.579
                            62 B    0.572
    79   5 B    3.515 --    68 B    1.206    69 B    1.141    63 B    0.500
                            62 B    0.445
    80   5 B    3.611 --    64 B    1.029    57 B    0.801    63 B    0.620
                            70 B    0.490    69 B    0.380
    81   5 B    3.381 --    71 B    1.272    70 B    1.058    64 B    0.517
                            58 B    0.319
    82   5 B    3.630 --    54 B    0.777    48 B    0.731    60 B    0.689
                            49 B    0.543    42 B    0.495    55 B    0.204
    83   1 H    0.967 --    30 B    0.958
    84   1 H    0.972 --    48 B    0.939
    85   1 H    0.974 --    54 B    0.942
    86   1 H    0.971 --    66 B    0.956
    87   1 H    0.969 --    35 B    0.941
    88   1 H    0.975 --    47 B    0.953
    89   1 H    0.972 --    59 B    0.924
 ---------------------------------------------------------------------------

Topologies differ in total number of bonds
Writing topology from bond orders to xtbtopo.mol

molecular dipole:
                 x           y           z       tot (Debye)
 q only:        1.516       1.137      -1.815
   full:        1.811       0.382      -2.056       7.032
molecular quadrupole (traceless):
                xx          xy          yy          xz          yz          zz
 q only:      -43.359      21.220      67.137     -24.297       2.691     -23.779
  q+dip:       -4.740       1.548      22.860     -18.644       5.184     -18.120
   full:      -18.773       6.983      15.963     -14.622       8.740       2.810


           -------------------------------------------------
          | TOTAL ENERGY             -112.791225515739 Eh   |
          | GRADIENT NORM               0.117927461749 Eh/α |
          | HOMO-LUMO GAP               0.351793339705 eV   |
           -------------------------------------------------

------------------------------------------------------------------------
 * finished run on 2026/08/31 at 21:15:20.846     
------------------------------------------------------------------------
 total:
 * wall-time:     0 d,  0 h,  0 min,  0.880 sec
 *  cpu-time:     0 d,  0 h,  0 min,  7.375 sec
 * ratio c/w:     8.381 speedup
 SCF:
 * wall-time:     0 d,  0 h,  0 min,  0.832 sec
 *  cpu-time:     0 d,  0 h,  0 min,  7.078 sec
 * ratio c/w:     8.507 speedup

normal termination of xtb
