84
Drug@beta12-B40H15 clean complex
C      5.727664     -0.249439      7.531468
C      4.290268     -0.342206      7.957248
C      3.959868     -0.897770      9.195691
C      2.627619     -0.963870      9.620387
C      1.603371     -0.455725      8.798120
N      0.251131     -0.455659      9.091175
C     -0.440456      0.100073      8.113892
C     -1.912528      0.245610      8.135061
C     -2.652877      0.845035      7.105086
C     -4.049026      0.950719      7.185263
C     -4.747352      0.426189      8.272366
N     -6.123042      0.641375      8.399741
C     -4.017208     -0.114940      9.328596
C     -2.623058     -0.223582      9.252188
S      0.516325      0.648219      6.789207
C      1.947008      0.108791      7.572383
C      3.280831      0.181891      7.134015
H      6.309458     -1.084424      7.935896
H      5.815386     -0.291437      6.440693
H      6.162377      0.690203      7.885901
H      4.738513     -1.288814      9.847843
H      2.374170     -1.401012     10.580973
H     -2.168282      1.256105      6.223644
H     -4.585086      1.450565      6.382442
H     -6.584112     -0.010659      9.026669
H     -6.609745      0.733240      7.513788
H     -4.522800     -0.461551     10.225914
H     -2.087676     -0.671561     10.088448
H      3.519260      0.634635      6.175674
B     -4.780602     -2.604513      0.317266
B     -4.569465     -1.356683     -0.648004
B     -4.463861     -0.247381     -1.882945
B     -3.396531     -2.661979     -0.502827
B     -3.038009      0.177607     -1.404773
B     -4.390872      0.342644     -0.192397
B     -5.031012      1.403078      0.819222
B     -4.620094      2.986388      0.997562
B     -2.808851      0.512803      0.199513
B     -3.218551      3.227540      1.793236
B     -2.161133     -3.775821     -0.584343
B     -1.876928     -2.248084     -0.933414
B     -1.697164     -0.613334     -0.835751
B     -0.584443     -3.218984     -0.835049
B     -0.219751     -0.148448     -0.311803
B     -1.394985      0.035818      0.852087
B     -1.775686      1.662110      0.759224
B     -1.897502      3.236989      0.882584
B     -0.215292      1.037200      1.069695
B     -0.752118      4.348002      0.558417
B      0.826501     -4.112870     -0.740049
B      0.925144     -2.505404     -0.749723
B      1.214364     -0.948979     -0.586972
B      2.200665     -3.402586     -0.168167
B      2.622046     -0.195651     -0.292977
B      1.234081      0.551562      0.142600
B      1.124844      2.000923      1.042986
B      0.536600      3.437229      0.618007
B      2.458015      1.672646      0.087495
B      1.213646      3.017073     -0.852963
B      3.220244     -3.850820      1.104428
B      3.624046     -2.653486      0.063737
B      4.025027     -1.121930     -0.236552
B      4.417376     -2.835474      1.420329
B      5.363640     -0.241898     -0.689778
B      4.104119      0.531009     -0.013477
B      4.018093      2.321775     -0.033810
B      2.821838      3.096833     -0.912930
B      5.422007      1.458254     -0.185288
B      4.296118      3.550090     -1.013979
H     -5.168734     -3.094856      1.310677
H     -5.716063     -2.076392     -0.393509
H     -5.264034     -0.120717     -2.741690
H     -5.771097      1.007443      1.664604
H     -5.364514      3.843125      0.672044
H     -3.234300      3.224974      2.975674
H     -2.359297     -4.926237     -0.473225
H     -0.896482      5.475480      0.244253
H      0.822346     -5.249794     -1.023329
H      0.553695      2.694294     -1.783686
H      2.970323     -4.817556      1.717250
H      5.263074     -2.512454      2.156542
H      6.384778     -0.646686     -1.095590
H      6.503197      1.838169      0.065012
H      5.138890      4.252414     -1.415442
