      -----------------------------------------------------------      
     |                   =====================                   |     
     |                           x T B                           |     
     |                   =====================                   |     
     |                         S. Grimme                         |     
     |          Mulliken Center for Theoretical Chemistry        |     
     |                    University of Bonn                     |     
      -----------------------------------------------------------      

   * xtb version 6.7.1pre (5071a88) compiled by 'Marcel@Raven' on 2024-07-23

   xtb is free software: you can redistribute it and/or modify it under
   the terms of the GNU Lesser General Public License as published by
   the Free Software Foundation, either version 3 of the License, or
   (at your option) any later version.
   
   xtb is distributed in the hope that it will be useful,
   but WITHOUT ANY WARRANTY; without even the implied warranty of
   MERCHANTABILITY or FITNESS FOR A PARTICULAR PURPOSE.  See the
   GNU Lesser General Public License for more details.
   
   Cite this work as:
   * C. Bannwarth, E. Caldeweyher, S. Ehlert, A. Hansen, P. Pracht,
     J. Seibert, S. Spicher, S. Grimme, WIREs Comput. Mol. Sci., 2020, 11,
     e01493. DOI: 10.1002/wcms.1493
   
   for GFN2-xTB:
   * C. Bannwarth, S. Ehlert and S. Grimme., J. Chem. Theory Comput., 2019,
     15, 1652-1671. DOI: 10.1021/acs.jctc.8b01176
   for GFN1-xTB:
   * S. Grimme, C. Bannwarth, P. Shushkov, J. Chem. Theory Comput., 2017,
     13, 1989-2009. DOI: 10.1021/acs.jctc.7b00118
   for GFN0-xTB:
   * P. Pracht, E. Caldeweyher, S. Ehlert, S. Grimme, ChemRxiv, 2019, preprint.
     DOI: 10.26434/chemrxiv.8326202.v1
   for GFN-FF:
   * S. Spicher and S. Grimme, Angew. Chem. Int. Ed., 2020, 59, 15665-15673.
     DOI: 10.1002/anie.202004239
   
   for ALPB and GBSA implicit solvation:
   * S. Ehlert, M. Stahn, S. Spicher, S. Grimme, J. Chem. Theory Comput.,
     2021, 17, 4250-4261. DOI: 10.1021/acs.jctc.1c00471
   
   for ddCOSMO and CPCM-X implicit solvation:
   * M. Stahn, S. Ehlert, S. Grimme, J. Phys. Chem. A,
     2023, XX, XXXX-XXXX. DOI: 10.1021/acs.jpca.3c04382
   
   for DFT-D4:
   * E. Caldeweyher, C. Bannwarth and S. Grimme, J. Chem. Phys., 2017,
     147, 034112. DOI: 10.1063/1.4993215
   * E. Caldeweyher, S. Ehlert, A. Hansen, H. Neugebauer, S. Spicher,
     C. Bannwarth and S. Grimme, J. Chem. Phys., 2019, 150, 154122.
     DOI: 10.1063/1.5090222
   * E. Caldeweyher, J.-M. Mewes, S. Ehlert and S. Grimme, Phys. Chem. Chem. Phys.
     2020, 22, 8499-8512. DOI: 10.1039/D0CP00502A
   
   for sTDA-xTB:
   * S. Grimme and C. Bannwarth, J. Chem. Phys., 2016, 145, 054103.
     DOI: 10.1063/1.4959605
   
   in the mass-spec context:
   * V. Asgeirsson, C. Bauer and S. Grimme, Chem. Sci., 2017, 8, 4879.
     DOI: 10.1039/c7sc00601b
   * J. Koopman and S. Grimme, ACS Omega 2019, 4, 12, 15120-15133.
     DOI: 10.1021/acsomega.9b02011
   
   for metadynamics refer to:
   * S. Grimme, J. Chem. Theory Comput., 2019, 155, 2847-2862
     DOI: 10.1021/acs.jctc.9b00143
   
   for SPH calculations refer to:
   * S. Spicher and S. Grimme, J. Chem. Theory Comput., 2021, 17, 1701-1714
     DOI: 10.1021/acs.jctc.0c01306
   
   for ONIOM refer to:
   * C. Plett, A. Katbashev, S. Ehlert, S. Grimme, M. Bursch,
     Phys. Chem. Chem. Phys., 2023, 25, 17860-17868. DOI: 10.1039/D3CP02178E
   
   for DIPRO refer to:
   * J. Kohn, N. Gildemeister, S. Grimme, D. Fazzi, A. Hansen,
     J. Chem. Phys., 2023, just accepted.
   
   for PTB refer to:
   * S. Grimme, M. Mueller, A. Hansen, J. Chem. Phys., 2023, 158, 124111.
     DOI: 10.1063/5.0137838
   
   with help from (in alphabetical order)
   P. Atkinson, C. Bannwarth, F. Bohle, G. Brandenburg, E. Caldeweyher
   M. Checinski, S. Dohm, S. Ehlert, S. Ehrlich, I. Gerasimov, C. Hölzer
   A. Katbashev, J. Kohn, J. Koopman, C. Lavigne, S. Lehtola, F. März, M. Müller,
   F. Musil, H. Neugebauer, J. Pisarek, C. Plett, P. Pracht, F. Pultar,
   J. Seibert, P. Shushkov, S. Spicher, M. Stahn, M. Steiner, T. Strunk,
   J. Stückrath, T. Rose, and J. Unsleber
   
 * started run on 2026/09/01 at 16:34:28.744     
   ID    Z sym.   atoms
    1    6 C      1-5, 7-11, 13, 14, 16, 17
    2    7 N      6, 12
    3   16 S      15
    4    1 H      18-29, 78-89
    5    5 B      30-77

           -------------------------------------------------
          |                Calculation Setup                |
           -------------------------------------------------

          program call               : "c:\Users\Andre\Proyectos doctorado\kras-pancreatic-gC3N4-ai\tools\xtb\xtb-6.7.1\bin\xtb.exe" "c:\Users\Andre\Proyectos doctorado\borophene-alzheimer-tau-ai\calculations\tau\Thioflavin_S\Thioflavin_S_B48H12_clean_complex.xyz" --gfn 2 --sp --chrg 0 --uhf 0 --etemp 300 --iterations 500 --norestart
          coordinate file            : c:\Users\Andre\Proyectos doctorado\borophene-alzheimer-tau-ai\calculations\tau\Thioflavin_S\Thioflavin_S_B48H12_clean_complex.xyz
          omp threads                :                    16


molecular fragmentation (1/2 indicates fragments):
111111111111111111111111111112222222222222222222222222222222222222222222
22222222222222222
# atoms in fragment 1/2:    29    60
 fragment masses (1/2) :      240.32      531.02
CMA distance (Bohr)    :  13.005
constraining FC (au)   :  0.0500

           -------------------------------------------------
          |                 G F N 2 - x T B                 |
           -------------------------------------------------

        Reference                      10.1021/acs.jctc.8b01176
      * Hamiltonian:
        H0-scaling (s, p, d)           1.850000    2.230000    2.230000
        zeta-weighting                 0.500000
      * Dispersion:
        s8                             2.700000
        a1                             0.520000
        a2                             5.000000
        s9                             5.000000
      * Repulsion:
        kExp                           1.500000    1.000000
        rExp                           1.000000
      * Coulomb:
        alpha                          2.000000
        third order                    shell-resolved
        anisotropic                    true
        a3                             3.000000
        a5                             4.000000
        cn-shift                       1.200000
        cn-exp                         4.000000
        max-rad                        5.000000


          ...................................................
          :                      SETUP                      :
          :.................................................:
          :  # basis functions                 290          :
          :  # atomic orbitals                 289          :
          :  # shells                          155          :
          :  # electrons                       240          :
          :  max. iterations                   500          :
          :  Hamiltonian                  GFN2-xTB          :
          :  restarted?                      false          :
          :  GBSA solvation                  false          :
          :  PC potential                    false          :
          :  electronic temp.          300.0000000     K    :
          :  accuracy                    1.0000000          :
          :  -> integral cutoff          0.2500000E+02      :
          :  -> integral neglect         0.1000000E-07      :
          :  -> SCF convergence          0.1000000E-05 Eh   :
          :  -> wf. convergence          0.1000000E-03 e    :
          :  Broyden damping             0.4000000          :
          :  net charge                          0          :
          :  unpaired electrons                  0          :
          ...................................................

 iter      E             dE          RMSdq      gap      omega  full diag
   1   -110.5101887 -0.110510E+03  0.155E+01    0.26       0.0  T
   2   -106.0569072  0.445328E+01  0.101E+01    0.22       1.0  T
   3    -10.5935178  0.954634E+02  0.183E+01    0.06       1.0  T
   4    -55.5597234 -0.449662E+02  0.126E+01    0.04       1.0  T
   5    -81.0261402 -0.254664E+02  0.915E+00    0.11       1.0  T
   6    -87.7937043 -0.676756E+01  0.818E+00    0.08       1.0  T
   7    -83.5704862  0.422322E+01  0.730E+00    0.05       1.0  T
   8   -101.6589829 -0.180885E+02  0.504E+00    0.12       1.0  T
   9   -110.6684084 -0.900943E+01  0.270E+00    0.25       1.0  T
  10   -110.8957625 -0.227354E+00  0.236E+00    0.15       1.0  T
  11   -111.0048851 -0.109123E+00  0.202E+00    0.37       1.0  T
  12   -111.0853861 -0.805010E-01  0.185E+00    0.39       1.0  T
  13   -111.0232792  0.621069E-01  0.146E+00    0.51       1.0  T
  14   -111.0664969 -0.432177E-01  0.983E-01    0.28       1.0  T
  15   -110.7602126  0.306284E+00  0.154E+00    0.22       1.0  T
  16   -111.1398599 -0.379647E+00  0.829E-01    0.18       1.0  T
  17   -110.8717676  0.268092E+00  0.134E+00    0.09       1.0  T
  18   -111.1236118 -0.251844E+00  0.799E-01    0.03       1.0  T
  19   -111.1726250 -0.490132E-01  0.562E-01    0.10       1.0  T
  20   -111.1818280 -0.920301E-02  0.470E-01    0.10       1.0  T
  21   -111.1869511 -0.512303E-02  0.403E-01    0.09       1.0  T
  22   -111.1922568 -0.530575E-02  0.265E-01    0.12       1.0  T
  23   -111.1949771 -0.272032E-02  0.163E-01    0.14       1.0  T
  24   -111.1942253  0.751876E-03  0.170E-01    0.17       1.0  T
  25   -111.1938019  0.423390E-03  0.169E-01    0.19       1.0  T
  26   -111.1934298  0.372122E-03  0.163E-01    0.21       1.0  T
  27   -111.1940436 -0.613881E-03  0.147E-01    0.21       1.0  T
  28   -111.1944341 -0.390457E-03  0.140E-01    0.20       1.0  T
  29   -111.1953962 -0.962105E-03  0.122E-01    0.18       1.0  T
  30   -111.1960357 -0.639460E-03  0.105E-01    0.17       1.0  T
  31   -111.1967712 -0.735546E-03  0.855E-02    0.15       1.0  T
  32   -111.1973132 -0.541959E-03  0.687E-02    0.14       1.0  T
  33   -111.1976189 -0.305750E-03  0.572E-02    0.13       1.0  T
  34   -111.1977717 -0.152750E-03  0.515E-02    0.13       1.0  T
  35   -111.1981393 -0.367664E-03  0.295E-02    0.12       1.0  T
  36   -111.1983010 -0.161672E-03  0.861E-03    0.11       1.2  T
  37   -111.1983110 -0.996432E-05  0.397E-03    0.11       2.7  T
  38   -111.1983115 -0.534638E-06  0.315E-03    0.11       3.4  T
  39   -111.1983104  0.108364E-05  0.368E-03    0.11       2.9  T
  40   -111.1983074  0.297652E-05  0.501E-03    0.11       2.1  T
  41   -111.1983098 -0.236133E-05  0.386E-03    0.11       2.7  T
  42   -111.1983112 -0.140778E-05  0.286E-03    0.11       3.7  T
  43   -111.1983125 -0.128322E-05  0.159E-03    0.11       6.7  T
  44   -111.1983130 -0.499033E-06  0.624E-04    0.11      17.0  T
  45   -111.1983130  0.144277E-07  0.680E-04    0.11      15.6  T

   *** convergence criteria satisfied after 45 iterations ***

         #    Occupation            Energy/Eh            Energy/eV
      -------------------------------------------------------------
         1        2.0000           -0.7118955             -19.3717
       ...           ...                  ...                  ...
       114        2.0000           -0.2822773              -7.6812
       115        2.0000           -0.2787617              -7.5855
       116        2.0000           -0.2782351              -7.5712
       117        2.0000           -0.2741542              -7.4601
       118        2.0000           -0.2715422              -7.3890
       119        2.0000           -0.2682949              -7.3007
       120        1.7897           -0.2568118              -6.9882 (HOMO)
       121        0.2103           -0.2527434              -6.8775 (LUMO)
       122        0.0000           -0.2445611              -6.6548
       123                         -0.2300657              -6.2604
       124                         -0.2263165              -6.1584
       125                         -0.2233577              -6.0779
       ...                                ...                  ...
       289                          1.2146247              33.0516
      -------------------------------------------------------------
                  HL-Gap            0.0040684 Eh            0.1107 eV
             Fermi-level           -0.2547777 Eh           -6.9329 eV

 SCC (total)                   0 d,  0 h,  0 min,  0.749 sec
 SCC setup                      ...        0 min,  0.001 sec (  0.134%)
 Dispersion                     ...        0 min,  0.002 sec (  0.267%)
 classical contributions        ...        0 min,  0.000 sec (  0.000%)
 integral evaluation            ...        0 min,  0.007 sec (  0.935%)
 iterations                     ...        0 min,  0.716 sec ( 95.594%)
 molecular gradient             ...        0 min,  0.022 sec (  2.937%)
 printout                       ...        0 min,  0.001 sec (  0.134%)

         :::::::::::::::::::::::::::::::::::::::::::::::::::::
         ::                     SUMMARY                     ::
         :::::::::::::::::::::::::::::::::::::::::::::::::::::
         :: total energy            -109.471227730898 Eh    ::
         :: gradient norm              0.086805338163 Eh/a0 ::
         :: HOMO-LUMO gap              0.110706850425 eV    ::
         ::.................................................::
         :: SCC energy              -111.197301097349 Eh    ::
         :: -> isotropic ES            0.305076627524 Eh    ::
         :: -> anisotropic ES          0.009579479210 Eh    ::
         :: -> anisotropic XC         -0.011442431720 Eh    ::
         :: -> dispersion             -0.103904793910 Eh    ::
         :: repulsion energy           1.726073366451 Eh    ::
         :: add. restraining           0.000000000000 Eh    ::
         :: total charge              -0.000000000003 e     ::
         :::::::::::::::::::::::::::::::::::::::::::::::::::::

           -------------------------------------------------
          |                Property Printout                |
           -------------------------------------------------

    * Orbital Energies and Occupations

         #    Occupation            Energy/Eh            Energy/eV
      -------------------------------------------------------------
         1        2.0000           -0.7118955             -19.3717
       ...           ...                  ...                  ...
       108        2.0000           -0.3005265              -8.1777
       109        2.0000           -0.2977996              -8.1035
       110        2.0000           -0.2948054              -8.0221
       111        2.0000           -0.2940240              -8.0008
       112        2.0000           -0.2901347              -7.8950
       113        2.0000           -0.2871918              -7.8149
       114        2.0000           -0.2822773              -7.6812
       115        2.0000           -0.2787617              -7.5855
       116        2.0000           -0.2782351              -7.5712
       117        2.0000           -0.2741542              -7.4601
       118        2.0000           -0.2715422              -7.3890
       119        2.0000           -0.2682949              -7.3007
       120        1.7897           -0.2568118              -6.9882 (HOMO)
       121        0.2103           -0.2527434              -6.8775 (LUMO)
       122        0.0000           -0.2445611              -6.6548
       123                         -0.2300657              -6.2604
       124                         -0.2263165              -6.1584
       125                         -0.2233577              -6.0779
       126                         -0.2172142              -5.9107
       127                         -0.2171955              -5.9102
       128                         -0.2144247              -5.8348
       129                         -0.2037762              -5.5450
       130                         -0.1997170              -5.4346
       131                         -0.1977976              -5.3823
       ...                                ...                  ...
       289                          1.2146247              33.0516
      -------------------------------------------------------------
                  HL-Gap            0.0040684 Eh            0.1107 eV
             Fermi-level           -0.2547777 Eh           -6.9329 eV

     #   Z          covCN         q      C6AA      α(0)
     1   6 C        3.755    -0.115    22.755     6.802
     2   6 C        2.961     0.007    27.861     8.658
     3   6 C        2.911    -0.049    29.210     8.862
     4   6 C        2.912    -0.052    29.289     8.874
     5   6 C        3.211     0.071    25.805     8.268
     6   7 N        1.943    -0.289    28.325     7.892
     7   6 C        2.992     0.099    25.791     8.331
     8   6 C        2.980    -0.012    28.309     8.728
     9   6 C        2.915    -0.046    29.134     8.851
    10   6 C        2.917    -0.067    29.677     8.933
    11   6 C        2.892     0.075    26.333     8.413
    12   7 N        2.638    -0.289    27.454     7.782
    13   6 C        2.916    -0.060    29.490     8.905
    14   6 C        2.918    -0.033    28.827     8.805
    15  16 S        2.303    -0.089   144.765    20.250
    16   6 C        2.985     0.012    27.746     8.640
    17   6 C        2.927    -0.068    29.687     8.935
    18   1 H        0.924     0.042     2.428     2.437
    19   1 H        0.924     0.045     2.383     2.414
    20   1 H        0.924     0.049     2.337     2.391
    21   1 H        0.925     0.030     2.589     2.516
    22   1 H        0.925     0.039     2.461     2.453
    23   1 H        0.925     0.034     2.527     2.486
    24   1 H        0.925     0.025     2.654     2.547
    25   1 H        0.860     0.158     1.350     1.820
    26   1 H        0.860     0.157     1.357     1.825
    27   1 H        0.925     0.029     2.602     2.523
    28   1 H        0.925     0.052     2.297     2.370
    29   1 H        0.925     0.037     2.495     2.470
    30   5 B        2.839     0.116    19.512     7.377
    31   5 B        3.803     0.030    22.162     7.590
    32   5 B        3.718    -0.017    22.930     7.741
    33   5 B        2.746     0.017    21.248     7.716
    34   5 B        2.911    -0.045    22.213     7.865
    35   5 B        3.855     0.015    22.458     7.638
    36   5 B        2.869     0.061    20.375     7.535
    37   5 B        2.921     0.000    21.402     7.720
    38   5 B        3.823     0.058    21.680     7.506
    39   5 B        3.767     0.023    22.258     7.612
    40   5 B        3.849     0.004    22.657     7.672
    41   5 B        4.346     0.054    21.761     7.516
    42   5 B        4.682     0.089    21.164     7.412
    43   5 B        3.801     0.067    21.505     7.477
    44   5 B        3.829     0.060    21.640     7.498
    45   5 B        3.950     0.048    21.869     7.535
    46   5 B        4.552     0.060    21.664     7.500
    47   5 B        5.635     0.110    20.807     7.350
    48   5 B        4.742     0.036    22.087     7.572
    49   5 B        3.678     0.043    21.696     7.554
    50   5 B        4.781     0.082    21.275     7.432
    51   5 B        4.465     0.028    22.233     7.597
    52   5 B        3.855     0.046    21.897     7.542
    53   5 B        3.833     0.041    21.976     7.556
    54   5 B        3.834     0.009    22.562     7.656
    55   5 B        3.803    -0.019    23.079     7.746
    56   5 B        3.806     0.009    22.550     7.656
    57   5 B        4.226    -0.011    22.947     7.718
    58   5 B        3.802     0.019    22.369     7.626
    59   5 B        3.878     0.031    22.165     7.587
    60   5 B        2.888     0.103    19.696     7.407
    61   5 B        3.778     0.078    21.297     7.444
    62   5 B        3.898     0.054    21.759     7.517
    63   5 B        3.709     0.039    21.882     7.566
    64   5 B        3.761     0.031    22.121     7.590
    65   5 B        3.854     0.043    21.946     7.550
    66   5 B        4.286     0.047    21.880     7.537
    67   5 B        2.876     0.087    19.954     7.457
    68   5 B        3.771     0.080    21.264     7.439
    69   5 B        3.795     0.008    22.562     7.659
    70   5 B        2.925     0.011    21.206     7.684
    71   5 B        3.663     0.006    22.295     7.670
    72   5 B        2.926     0.024    20.974     7.642
    73   5 B        3.840     0.000    22.725     7.684
    74   5 B        3.860     0.016    22.441     7.634
    75   5 B        2.912     0.006    21.302     7.702
    76   5 B        2.915     0.008    21.258     7.694
    77   5 B        2.842     0.139    19.149     7.307
    78   1 H        0.935    -0.138     7.074     4.159
    79   1 H        0.939    -0.105     5.726     3.741
    80   1 H        0.934    -0.134     6.892     4.105
    81   1 H        0.932    -0.152     7.773     4.359
    82   1 H        0.938    -0.131     6.793     4.075
    83   1 H        0.940    -0.143     7.332     4.233
    84   1 H        0.936    -0.119     6.278     3.918
    85   1 H        0.939    -0.151     7.750     4.352
    86   1 H        0.938    -0.131     6.796     4.076
    87   1 H        0.936    -0.141     7.231     4.204
    88   1 H        0.935    -0.138     7.110     4.169
    89   1 H        0.933    -0.153     7.819     4.372

 Mol. C6AA /au·bohr⁶  :     136659.204501
 Mol. C8AA /au·bohr⁸  :    4471118.641496
 Mol. α(0) /au        :        597.629286


Wiberg/Mayer (AO) data.
largest (>0.10) Wiberg bond orders for each atom

 ---------------------------------------------------------------------------
     #   Z sym  total        # sym  WBO       # sym  WBO       # sym  WBO
 ---------------------------------------------------------------------------
     1   6 C    3.993 --     2 C    1.024    19 H    0.982    18 H    0.982
                            20 H    0.968
     2   6 C    3.957 --    17 C    1.424     3 C    1.375     1 C    1.024
     3   6 C    3.987 --     4 C    1.484     2 C    1.375    21 H    0.970
     4   6 C    3.951 --     3 C    1.484     5 C    1.308    22 H    0.969
                            17 C    0.110
     5   6 C    3.973 --     4 C    1.308    16 C    1.284     6 N    1.209
     6   7 N    3.022 --     7 C    1.532     5 C    1.209    15 S    0.144
     7   6 C    3.869 --     6 N    1.532     8 C    1.100    15 S    1.092
     8   6 C    3.966 --     9 C    1.355    14 C    1.341     7 C    1.100
     9   6 C    3.956 --    10 C    1.468     8 C    1.355    23 H    0.967
    10   6 C    3.985 --     9 C    1.468    11 C    1.349    24 H    0.969
    11   6 C    3.929 --    10 C    1.349    13 C    1.345    12 N    1.131
    12   7 N    3.197 --    11 C    1.131    26 H    0.956    25 H    0.956
    13   6 C    3.986 --    14 C    1.479    11 C    1.345    27 H    0.968
    14   6 C    3.959 --    13 C    1.479     8 C    1.341    28 H    0.968
    15  16 S    2.530 --    16 C    1.112     7 C    1.092     6 N    0.144
    16   6 C    3.947 --    17 C    1.372     5 C    1.284    15 S    1.112
    17   6 C    3.972 --     2 C    1.424    16 C    1.372    29 H    0.969
                             4 C    0.110
    18   1 H    0.997 --     1 C    0.982
    19   1 H    0.997 --     1 C    0.982
    20   1 H    0.995 --     1 C    0.968
    21   1 H    0.998 --     3 C    0.970
    22   1 H    0.998 --     4 C    0.969
    23   1 H    0.998 --     9 C    0.967
    24   1 H    0.999 --    10 C    0.969
    25   1 H    0.974 --    12 N    0.956
    26   1 H    0.974 --    12 N    0.956
    27   1 H    0.999 --    13 C    0.968
    28   1 H    0.997 --    14 C    0.968
    29   1 H    0.999 --    17 C    0.969
    30   5 B    3.285 --    37 B    1.207    89 H    0.944    81 H    0.940
    31   5 B    3.549 --    32 B    1.200    37 B    0.855    38 B    0.532
                            46 B    0.484    45 B    0.139
    32   5 B    3.576 --    31 B    1.200    39 B    1.121    47 B    0.466
                            46 B    0.453
    33   5 B    3.380 --    34 B    1.380    40 B    1.080    49 B    0.428
                            50 B    0.105
    34   5 B    3.545 --    33 B    1.380    41 B    1.118    50 B    0.621
    35   5 B    3.567 --    36 B    1.307    41 B    0.751    42 B    0.686
                            43 B    0.680
    36   5 B    3.390 --    35 B    1.307    85 H    0.967    43 B    0.821
                            42 B    0.129
    37   5 B    3.400 --    30 B    1.207    38 B    1.072    31 B    0.855
    38   5 B    3.507 --    37 B    1.072    44 B    0.817    45 B    0.706
                            31 B    0.532
    39   5 B    3.447 --    32 B    1.121    40 B    0.998    48 B    0.549
                            47 B    0.443
    40   5 B    3.541 --    33 B    1.080    39 B    0.998    49 B    0.644
                            48 B    0.613
    41   5 B    3.529 --    34 B    1.118    35 B    0.751    50 B    0.637
                            42 B    0.459    51 B    0.319
    42   5 B    3.623 --    43 B    0.901    52 B    0.692    35 B    0.686
                            51 B    0.573    41 B    0.459    36 B    0.129
    43   5 B    3.568 --    87 H    0.937    42 B    0.901    36 B    0.821
                            35 B    0.680
    44   5 B    3.571 --    84 H    0.923    54 B    0.835    38 B    0.817
                            45 B    0.804
    45   5 B    3.647 --    54 B    0.851    46 B    0.811    44 B    0.804
                            38 B    0.706    31 B    0.139
    46   5 B    3.556 --    45 B    0.811    55 B    0.797    47 B    0.647
                            31 B    0.484    32 B    0.453
    47   5 B    3.670 --    55 B    0.726    56 B    0.704    46 B    0.647
                            48 B    0.517    32 B    0.466    39 B    0.443
    48   5 B    3.568 --    49 B    0.946    56 B    0.721    40 B    0.613
                            39 B    0.549    47 B    0.517
    49   5 B    3.495 --    57 B    1.038    48 B    0.946    40 B    0.644
                            33 B    0.428
    50   5 B    3.617 --    58 B    0.682    51 B    0.644    57 B    0.641
                            41 B    0.637    34 B    0.621    33 B    0.105
    51   5 B    3.603 --    58 B    1.027    52 B    0.772    50 B    0.644
                            42 B    0.573    41 B    0.319
    52   5 B    3.672 --    59 B    0.831    53 B    0.805    51 B    0.772
                            42 B    0.692    60 B    0.161
    53   5 B    3.629 --    60 B    1.018    79 H    0.909    52 B    0.805
                            59 B    0.737
    54   5 B    3.577 --    62 B    0.879    45 B    0.851    44 B    0.835
                            61 B    0.724
    55   5 B    3.627 --    63 B    1.107    46 B    0.797    47 B    0.726
                            56 B    0.597
    56   5 B    3.513 --    64 B    1.090    48 B    0.721    47 B    0.704
                            55 B    0.597
    57   5 B    3.595 --    49 B    1.038    65 B    0.896    50 B    0.641
                            58 B    0.463    66 B    0.266
    58   5 B    3.591 --    51 B    1.027    66 B    0.966    50 B    0.682
                            57 B    0.463
    59   5 B    3.604 --    60 B    0.962    67 B    0.899    52 B    0.831
                            53 B    0.737
    60   5 B    3.434 --    53 B    1.018    83 H    0.971    59 B    0.962
                            67 B    0.182    52 B    0.161
    61   5 B    3.549 --    86 H    0.954    68 B    0.864    62 B    0.827
                            54 B    0.724
    62   5 B    3.638 --    54 B    0.879    68 B    0.875    61 B    0.827
                            69 B    0.764
    63   5 B    3.598 --    55 B    1.107    70 B    0.827    69 B    0.689
                            71 B    0.548
    64   5 B    3.605 --    56 B    1.090    72 B    0.862    73 B    0.697
                            71 B    0.586
    65   5 B    3.557 --    57 B    0.896    73 B    0.788    74 B    0.711
                            66 B    0.662
    66   5 B    3.575 --    58 B    0.966    75 B    0.751    74 B    0.682
                            65 B    0.662    57 B    0.266
    67   5 B    3.436 --    76 B    0.989    80 H    0.933    59 B    0.899
                            60 B    0.182    77 B    0.158
    68   5 B    3.542 --    82 H    0.956    62 B    0.875    61 B    0.864
                            69 B    0.660
    69   5 B    3.580 --    70 B    1.261    62 B    0.764    63 B    0.689
                            68 B    0.660
    70   5 B    3.546 --    69 B    1.261    71 B    1.114    63 B    0.827
    71   5 B    3.551 --    72 B    1.116    70 B    1.114    64 B    0.586
                            63 B    0.548
    72   5 B    3.520 --    73 B    1.161    71 B    1.116    64 B    0.862
    73   5 B    3.593 --    72 B    1.161    65 B    0.788    74 B    0.739
                            64 B    0.697
    74   5 B    3.580 --    75 B    1.196    73 B    0.739    65 B    0.711
                            66 B    0.682
    75   5 B    3.518 --    74 B    1.196    76 B    1.062    66 B    0.751
                            77 B    0.120
    76   5 B    3.396 --    77 B    1.065    75 B    1.062    67 B    0.989
    77   5 B    3.281 --    76 B    1.065    78 H    0.953    88 H    0.952
                            67 B    0.158    75 B    0.120
    78   1 H    0.978 --    77 B    0.953
    79   1 H    0.983 --    53 B    0.909
    80   1 H    0.980 --    67 B    0.933
    81   1 H    0.968 --    30 B    0.940
    82   1 H    0.979 --    68 B    0.956
    83   1 H    0.979 --    60 B    0.971
    84   1 H    0.976 --    44 B    0.923
    85   1 H    0.975 --    36 B    0.967
    86   1 H    0.977 --    61 B    0.954
    87   1 H    0.972 --    43 B    0.937
    88   1 H    0.978 --    77 B    0.952
    89   1 H    0.969 --    30 B    0.944
 ---------------------------------------------------------------------------

Topologies differ in total number of bonds
Writing topology from bond orders to xtbtopo.mol

molecular dipole:
                 x           y           z       tot (Debye)
 q only:       -1.977       0.411      -2.765
   full:       -1.391       0.970      -2.206       7.073
molecular quadrupole (traceless):
                xx          xy          yy          xz          yz          zz
 q only:      -49.770     -29.471      21.957      -7.180     -10.879      27.813
  q+dip:        7.466     -28.539      -5.339      -6.530     -18.144      -2.127
   full:      -11.750     -28.870     -12.442      -4.295     -12.995      24.192


           -------------------------------------------------
          | TOTAL ENERGY             -109.471227730898 Eh   |
          | GRADIENT NORM               0.086805338163 Eh/α |
          | HOMO-LUMO GAP               0.110706850425 eV   |
           -------------------------------------------------

------------------------------------------------------------------------
 * finished run on 2026/09/01 at 16:34:29.539     
------------------------------------------------------------------------
 total:
 * wall-time:     0 d,  0 h,  0 min,  0.794 sec
 *  cpu-time:     0 d,  0 h,  0 min,  7.391 sec
 * ratio c/w:     9.308 speedup
 SCF:
 * wall-time:     0 d,  0 h,  0 min,  0.750 sec
 *  cpu-time:     0 d,  0 h,  0 min,  7.109 sec
 * ratio c/w:     9.479 speedup

normal termination of xtb
