89
Drug@B48H12 complex
C      5.727664     -0.249439      2.831131
C      4.290268     -0.342206      3.256911
C      3.959868     -0.897770      4.495354
C      2.627619     -0.963870      4.920050
C      1.603371     -0.455725      4.097783
N      0.251131     -0.455659      4.390838
C     -0.440456      0.100073      3.413555
C     -1.912528      0.245610      3.434724
C     -2.652877      0.845035      2.404749
C     -4.049026      0.950719      2.484926
C     -4.747352      0.426189      3.572029
N     -6.123042      0.641375      3.699404
C     -4.017208     -0.114940      4.628259
C     -2.623058     -0.223582      4.551851
S      0.516325      0.648219      2.088870
C      1.947008      0.108791      2.872046
C      3.280831      0.181891      2.433678
H      6.309458     -1.084424      3.235559
H      5.815386     -0.291437      1.740356
H      6.162377      0.690203      3.185564
H      4.738513     -1.288814      5.147506
H      2.374170     -1.401012      5.880636
H     -2.168282      1.256105      1.523307
H     -4.585086      1.450565      1.682105
H     -6.584112     -0.010659      4.326332
H     -6.609745      0.733240      2.813451
H     -4.522800     -0.461551      5.525577
H     -2.087676     -0.671561      5.388111
H      3.519260      0.634635      1.475337
B     -7.500000     -4.500000      0.000000
B     -4.500000     -4.500000      0.000000
B     -1.500000     -4.500000      0.000000
B      1.500000     -4.500000      0.000000
B      4.500000     -4.500000      0.000000
B      7.500000     -4.500000      0.000000
B     -7.500000     -3.000000      0.000000
B     -4.500000     -3.000000      0.000000
B     -1.500000     -3.000000      0.000000
B      1.500000     -3.000000      0.000000
B      4.500000     -3.000000      0.000000
B      7.500000     -3.000000      0.000000
B     -7.500000     -1.500000      0.000000
B     -4.500000     -1.500000      0.000000
B     -1.500000     -1.500000      0.000000
B      1.500000     -1.500000      0.000000
B      4.500000     -1.500000      0.000000
B      7.500000     -1.500000      0.000000
B     -7.500000      0.000000      0.000000
B     -4.500000      0.000000      0.000000
B     -1.500000      0.000000      0.000000
B      1.500000      0.000000      0.000000
B      4.500000      0.000000      0.000000
B      7.500000      0.000000      0.000000
B     -7.500000      1.500000      0.000000
B     -4.500000      1.500000      0.000000
B     -1.500000      1.500000      0.000000
B      1.500000      1.500000      0.000000
B      4.500000      1.500000      0.000000
B      7.500000      1.500000      0.000000
B     -7.500000      3.000000      0.000000
B     -4.500000      3.000000      0.000000
B     -1.500000      3.000000      0.000000
B      1.500000      3.000000      0.000000
B      4.500000      3.000000      0.000000
B      7.500000      3.000000      0.000000
B     -7.500000      4.500000      0.000000
B     -4.500000      4.500000      0.000000
B     -1.500000      4.500000      0.000000
B      1.500000      4.500000      0.000000
B      4.500000      4.500000      0.000000
B      7.500000      4.500000      0.000000
B     -6.000000     -3.750000      0.000000
B     -3.000000     -3.750000      0.000000
B      0.000000     -3.750000      0.000000
B      3.000000     -3.750000      0.000000
B      6.000000     -3.750000      0.000000
B     -6.000000      3.750000      0.000000
B     -3.000000      3.750000      0.000000
B      0.000000      3.750000      0.000000
B      3.000000      3.750000      0.000000
B      6.000000      3.750000      0.000000
B     -6.000000      0.000000      0.000000
H     -8.600000     -4.500000      0.000000
H     -8.600000     -1.500000      0.000000
H     -8.600000      1.500000      0.000000
H     -8.600000      4.500000      0.000000
H      8.600000     -4.500000      0.000000
H      8.600000     -1.500000      0.000000
H      8.600000      1.500000      0.000000
