40
Rivastigmine GFN2 opt
C       5.28746555      0.06720227     -0.01675537
C       4.39646155     -1.17162867      0.03710991
N       3.48333215     -1.14800451      1.16088507
C       3.93825825     -1.71061868      2.41026799
C       2.30204028     -0.49051988      1.13095924
O       1.53056040     -0.42510402      2.05760301
O       2.10104750      0.09261308     -0.08235342
C       0.87258754      0.67239669     -0.36266886
C       0.88494413      1.88951524     -1.02901041
C      -0.31499201      2.47963521     -1.38366994
C      -1.51443866      1.86863111     -1.06876685
C      -1.52688021      0.64607141     -0.40876973
C      -2.84075059      0.00575238     -0.02693019
C      -3.34667413      0.72613629      1.22718443
N      -3.77991420      0.10428149     -1.14332730
C      -3.29065985     -0.64185546     -2.28576321
C      -5.11985381     -0.32659537     -0.80197219
C      -0.32655494      0.04543346     -0.06085485
H       4.67525402      0.95886703     -0.12004680
H       5.88171182      0.15472652      0.88970387
H       5.95945071      0.00325026     -0.86830216
H       5.00914636     -2.07212821      0.13253925
H       3.81367569     -1.24259606     -0.88396465
H       4.85339825     -1.21871248      2.74722386
H       3.15686778     -1.56218776      3.15251021
H       4.12964730     -2.77964249      2.29337203
H       1.82959835      2.35530425     -1.26306174
H      -0.30979231      3.42682046     -1.90241628
H      -2.45396507      2.32090269     -1.34451337
H      -2.65956304     -1.05639983      0.23365226
H      -2.53302894      0.79439396      1.94572692
H      -3.67052787      1.73126642      0.97092679
H      -4.16869499      0.18962042      1.69318276
H      -3.23426320     -1.72528659     -2.08903689
H      -2.29711357     -0.28806294     -2.55478269
H      -3.95925057     -0.47700241     -3.12988936
H      -5.14922690     -1.35313913     -0.40206220
H      -5.55397271      0.35075725     -0.07092001
H      -5.73410357     -0.29197078     -1.70084568
H      -0.32122650     -0.90212260      0.45548548
