95
Drug@B48H12 complex
C      5.987945     -0.827250      4.956490
N      5.681164      0.213923      3.991643
C      4.371993      0.371248      3.533284
C      4.150249      1.150158      2.395460
C      2.853392      1.401005      1.923280
C      1.728689      0.919496      2.565496
N      0.539145      1.223268      2.011806
C     -0.636890      0.828269      2.537705
C     -1.779602      1.213061      1.867913
C     -3.067781      0.863659      2.311098
C     -3.279610      0.090777      3.460254
N     -4.560302     -0.242657      3.910095
C     -5.696973     -0.086048      3.003318
C     -4.710770     -1.271254      4.938861
C     -2.118151     -0.285988      4.150416
C     -0.827101      0.065682      3.703194
S      0.570620     -0.494303      4.677440
C      1.946443      0.168156      3.737592
C      3.245866     -0.086716      4.217697
H      5.684653     -1.813152      4.589015
H      7.069139     -0.851271      5.126524
H      5.512540     -0.629863      5.922504
H      6.360027      0.262050      3.235263
H      4.990434      1.579929      1.854786
H      2.729241      2.002665      1.025144
H     -1.682433      1.812776      0.964992
H     -3.900533      1.228187      1.717057
H     -6.634158     -0.390174      3.483003
H     -5.571119     -0.700700      2.105141
H     -5.833774      0.962116      2.716589
H     -4.304927     -2.230274      4.598421
H     -5.765074     -1.429782      5.192254
H     -4.220226     -0.973346      5.871735
H     -2.189171     -0.866684      5.065142
H      3.357053     -0.649841      5.139390
B     -7.500000     -4.500000      0.000000
B     -4.500000     -4.500000      0.000000
B     -1.500000     -4.500000      0.000000
B      1.500000     -4.500000      0.000000
B      4.500000     -4.500000      0.000000
B      7.500000     -4.500000      0.000000
B     -7.500000     -3.000000      0.000000
B     -4.500000     -3.000000      0.000000
B     -1.500000     -3.000000      0.000000
B      1.500000     -3.000000      0.000000
B      4.500000     -3.000000      0.000000
B      7.500000     -3.000000      0.000000
B     -7.500000     -1.500000      0.000000
B     -4.500000     -1.500000      0.000000
B     -1.500000     -1.500000      0.000000
B      1.500000     -1.500000      0.000000
B      4.500000     -1.500000      0.000000
B      7.500000     -1.500000      0.000000
B     -7.500000      0.000000      0.000000
B     -4.500000      0.000000      0.000000
B     -1.500000      0.000000      0.000000
B      1.500000      0.000000      0.000000
B      4.500000      0.000000      0.000000
B      7.500000      0.000000      0.000000
B     -7.500000      1.500000      0.000000
B     -4.500000      1.500000      0.000000
B     -1.500000      1.500000      0.000000
B      1.500000      1.500000      0.000000
B      4.500000      1.500000      0.000000
B      7.500000      1.500000      0.000000
B     -7.500000      3.000000      0.000000
B     -4.500000      3.000000      0.000000
B     -1.500000      3.000000      0.000000
B      1.500000      3.000000      0.000000
B      4.500000      3.000000      0.000000
B      7.500000      3.000000      0.000000
B     -7.500000      4.500000      0.000000
B     -4.500000      4.500000      0.000000
B     -1.500000      4.500000      0.000000
B      1.500000      4.500000      0.000000
B      4.500000      4.500000      0.000000
B      7.500000      4.500000      0.000000
B     -6.000000     -3.750000      0.000000
B     -3.000000     -3.750000      0.000000
B      0.000000     -3.750000      0.000000
B      3.000000     -3.750000      0.000000
B      6.000000     -3.750000      0.000000
B     -6.000000      3.750000      0.000000
B     -3.000000      3.750000      0.000000
B      0.000000      3.750000      0.000000
B      3.000000      3.750000      0.000000
B      6.000000      3.750000      0.000000
B     -6.000000      0.000000      0.000000
H     -8.600000     -4.500000      0.000000
H     -8.600000     -1.500000      0.000000
H     -8.600000      1.500000      0.000000
H     -8.600000      4.500000      0.000000
H      8.600000     -4.500000      0.000000
H      8.600000     -1.500000      0.000000
H      8.600000      1.500000      0.000000
