95
Drug@B48H12 clean complex
C      5.987945     -0.899453      9.401883
N      5.681164      0.141720      8.437036
C      4.371993      0.299045      7.978677
C      4.150249      1.077955      6.840853
C      2.853392      1.328802      6.368673
C      1.728689      0.847293      7.010889
N      0.539145      1.151065      6.457199
C     -0.636890      0.756066      6.983098
C     -1.779602      1.140858      6.313306
C     -3.067781      0.791456      6.756491
C     -3.279610      0.018574      7.905647
N     -4.560302     -0.314860      8.355488
C     -5.696973     -0.158251      7.448711
C     -4.710770     -1.343457      9.384254
C     -2.118151     -0.358191      8.595809
C     -0.827101     -0.006521      8.148587
S      0.570620     -0.566506      9.122833
C      1.946443      0.095953      8.182985
C      3.245866     -0.158919      8.663090
H      5.684653     -1.885355      9.034408
H      7.069139     -0.923474      9.571917
H      5.512540     -0.702066     10.367897
H      6.360027      0.189847      7.680656
H      4.990434      1.507726      6.300179
H      2.729241      1.930462      5.470537
H     -1.682433      1.740573      5.410385
H     -3.900533      1.155984      6.162450
H     -6.634158     -0.462377      7.928396
H     -5.571119     -0.772903      6.550534
H     -5.833774      0.889913      7.161982
H     -4.304927     -2.302477      9.043814
H     -5.765074     -1.501985      9.637647
H     -4.220226     -1.045549     10.317128
H     -2.189171     -0.938887      9.510535
H      3.357053     -0.722044      9.584783
B     -6.351142     -2.854456     -0.339557
B     -3.863246     -3.427578      0.871248
B     -1.055185     -4.165135      1.979350
B      1.685312     -4.231770      1.354949
B      2.970257     -3.692274      0.621871
B      5.907588     -3.848572     -0.380027
B     -4.761208     -2.330720     -0.407809
B     -2.619857     -2.211059      0.844160
B     -1.232659     -2.391074      1.779162
B      0.281426     -3.144602      1.258585
B      3.128005     -2.135340      0.033717
B      5.282428     -2.580677     -1.142740
B     -4.382652     -1.054498     -1.346132
B     -3.192369     -1.268483     -0.239841
B     -0.766749     -0.915069      2.147107
B      0.434070     -1.509850      0.882523
B      4.260331     -1.271884     -0.605716
B      6.845204     -2.475577     -0.806482
B     -5.007204     -0.643659     -2.849649
B     -3.195209      0.154301     -0.925672
B     -0.946947      0.623306      2.210385
B      0.001581     -0.020442      0.908402
B      4.875444      0.224219     -0.547589
B      5.878568     -1.066378     -1.130575
B     -5.767164      0.853536     -2.917565
B     -2.897102      1.628167     -0.708344
B     -1.239865      2.133184      2.088909
B      0.188320      1.549872      1.054031
B      4.258123      1.584106      0.064663
B      6.307532      0.439704     -1.625845
B     -5.734132      1.755409     -1.493813
B     -3.346886      2.973961     -0.174554
B     -1.664632      3.616005      1.797280
B     -0.058970      3.164039      1.323482
B      2.965632      2.258875      0.684366
B      5.791920      1.672515     -0.698507
B     -6.638907      2.799988     -0.842193
B     -4.474576      3.887338      0.587924
B     -1.777076      5.175247      1.215356
B      1.175393      4.406638      1.328978
B      2.593810      3.922874      0.879575
B      5.350926      2.985997     -0.054101
B     -5.318955     -3.634817      0.416463
B     -2.487709     -3.632854      1.605545
B      0.359579     -4.721327      1.906320
B      1.721498     -2.416215      0.734504
B      4.338705     -3.479950     -0.072929
B     -5.095331      2.847233     -0.373491
B     -3.034495      4.318735      0.932612
B     -0.286930      4.895064      1.442591
B      1.461620      2.548192      0.992407
B      4.078380      3.619763      0.510634
B     -4.595730      0.591276     -1.841534
H     -7.368369     -2.502749     -0.810293
H     -4.959065     -1.376034     -3.773890
H     -6.324579      1.260780     -3.871541
H     -7.613398      3.401728     -0.597572
H      6.361232     -4.935383     -0.360239
H      8.016260     -2.468237     -0.906140
H      6.939156      0.614609     -2.612760
