      -----------------------------------------------------------      
     |                   =====================                   |     
     |                           x T B                           |     
     |                   =====================                   |     
     |                         S. Grimme                         |     
     |          Mulliken Center for Theoretical Chemistry        |     
     |                    University of Bonn                     |     
      -----------------------------------------------------------      

   * xtb version 6.7.1pre (5071a88) compiled by 'Marcel@Raven' on 2024-07-23

   xtb is free software: you can redistribute it and/or modify it under
   the terms of the GNU Lesser General Public License as published by
   the Free Software Foundation, either version 3 of the License, or
   (at your option) any later version.
   
   xtb is distributed in the hope that it will be useful,
   but WITHOUT ANY WARRANTY; without even the implied warranty of
   MERCHANTABILITY or FITNESS FOR A PARTICULAR PURPOSE.  See the
   GNU Lesser General Public License for more details.
   
   Cite this work as:
   * C. Bannwarth, E. Caldeweyher, S. Ehlert, A. Hansen, P. Pracht,
     J. Seibert, S. Spicher, S. Grimme, WIREs Comput. Mol. Sci., 2020, 11,
     e01493. DOI: 10.1002/wcms.1493
   
   for GFN2-xTB:
   * C. Bannwarth, S. Ehlert and S. Grimme., J. Chem. Theory Comput., 2019,
     15, 1652-1671. DOI: 10.1021/acs.jctc.8b01176
   for GFN1-xTB:
   * S. Grimme, C. Bannwarth, P. Shushkov, J. Chem. Theory Comput., 2017,
     13, 1989-2009. DOI: 10.1021/acs.jctc.7b00118
   for GFN0-xTB:
   * P. Pracht, E. Caldeweyher, S. Ehlert, S. Grimme, ChemRxiv, 2019, preprint.
     DOI: 10.26434/chemrxiv.8326202.v1
   for GFN-FF:
   * S. Spicher and S. Grimme, Angew. Chem. Int. Ed., 2020, 59, 15665-15673.
     DOI: 10.1002/anie.202004239
   
   for ALPB and GBSA implicit solvation:
   * S. Ehlert, M. Stahn, S. Spicher, S. Grimme, J. Chem. Theory Comput.,
     2021, 17, 4250-4261. DOI: 10.1021/acs.jctc.1c00471
   
   for ddCOSMO and CPCM-X implicit solvation:
   * M. Stahn, S. Ehlert, S. Grimme, J. Phys. Chem. A,
     2023, XX, XXXX-XXXX. DOI: 10.1021/acs.jpca.3c04382
   
   for DFT-D4:
   * E. Caldeweyher, C. Bannwarth and S. Grimme, J. Chem. Phys., 2017,
     147, 034112. DOI: 10.1063/1.4993215
   * E. Caldeweyher, S. Ehlert, A. Hansen, H. Neugebauer, S. Spicher,
     C. Bannwarth and S. Grimme, J. Chem. Phys., 2019, 150, 154122.
     DOI: 10.1063/1.5090222
   * E. Caldeweyher, J.-M. Mewes, S. Ehlert and S. Grimme, Phys. Chem. Chem. Phys.
     2020, 22, 8499-8512. DOI: 10.1039/D0CP00502A
   
   for sTDA-xTB:
   * S. Grimme and C. Bannwarth, J. Chem. Phys., 2016, 145, 054103.
     DOI: 10.1063/1.4959605
   
   in the mass-spec context:
   * V. Asgeirsson, C. Bauer and S. Grimme, Chem. Sci., 2017, 8, 4879.
     DOI: 10.1039/c7sc00601b
   * J. Koopman and S. Grimme, ACS Omega 2019, 4, 12, 15120-15133.
     DOI: 10.1021/acsomega.9b02011
   
   for metadynamics refer to:
   * S. Grimme, J. Chem. Theory Comput., 2019, 155, 2847-2862
     DOI: 10.1021/acs.jctc.9b00143
   
   for SPH calculations refer to:
   * S. Spicher and S. Grimme, J. Chem. Theory Comput., 2021, 17, 1701-1714
     DOI: 10.1021/acs.jctc.0c01306
   
   for ONIOM refer to:
   * C. Plett, A. Katbashev, S. Ehlert, S. Grimme, M. Bursch,
     Phys. Chem. Chem. Phys., 2023, 25, 17860-17868. DOI: 10.1039/D3CP02178E
   
   for DIPRO refer to:
   * J. Kohn, N. Gildemeister, S. Grimme, D. Fazzi, A. Hansen,
     J. Chem. Phys., 2023, just accepted.
   
   for PTB refer to:
   * S. Grimme, M. Mueller, A. Hansen, J. Chem. Phys., 2023, 158, 124111.
     DOI: 10.1063/5.0137838
   
   with help from (in alphabetical order)
   P. Atkinson, C. Bannwarth, F. Bohle, G. Brandenburg, E. Caldeweyher
   M. Checinski, S. Dohm, S. Ehlert, S. Ehrlich, I. Gerasimov, C. Hölzer
   A. Katbashev, J. Kohn, J. Koopman, C. Lavigne, S. Lehtola, F. März, M. Müller,
   F. Musil, H. Neugebauer, J. Pisarek, C. Plett, P. Pracht, F. Pultar,
   J. Seibert, P. Shushkov, S. Spicher, M. Stahn, M. Steiner, T. Strunk,
   J. Stückrath, T. Rose, and J. Unsleber
   
 * started run on 2026/08/31 at 20:19:12.278     
   ID    Z sym.   atoms
    1    6 C      1, 3-6, 8-11, 13-16, 18, 19
    2    7 N      2, 7, 12
    3   16 S      17
    4    1 H      20-35, 89-95
    5    5 B      36-88

           -------------------------------------------------
          |                Calculation Setup                |
           -------------------------------------------------

          program call               : "c:\Users\Andre\Proyectos doctorado\kras-pancreatic-gC3N4-ai\tools\xtb\xtb-6.7.1\bin\xtb.exe" "c:\Users\Andre\Proyectos doctorado\borophene-alzheimer-tau-ai\calculations\tau\Azure_A\Azure_A_B48H12_complex.xyz" --gfn 2 --sp --chrg 0 --uhf 0 --iterations 500 --norestart
          coordinate file            : c:\Users\Andre\Proyectos doctorado\borophene-alzheimer-tau-ai\calculations\tau\Azure_A\Azure_A_B48H12_complex.xyz
          omp threads                :                    16


molecular fragmentation (1/2 indicates fragments):
111111111111111111111111111111111111111111111111111111111111111111111111
11111111111111111221111
# atoms in fragment 1/2:    93     2
 fragment masses (1/2) :      848.40        2.02
CMA distance (Bohr)    :  16.402
constraining FC (au)   :  0.0500

           -------------------------------------------------
          |                 G F N 2 - x T B                 |
           -------------------------------------------------

        Reference                      10.1021/acs.jctc.8b01176
      * Hamiltonian:
        H0-scaling (s, p, d)           1.850000    2.230000    2.230000
        zeta-weighting                 0.500000
      * Dispersion:
        s8                             2.700000
        a1                             0.520000
        a2                             5.000000
        s9                             5.000000
      * Repulsion:
        kExp                           1.500000    1.000000
        rExp                           1.000000
      * Coulomb:
        alpha                          2.000000
        third order                    shell-resolved
        anisotropic                    true
        a3                             3.000000
        a5                             4.000000
        cn-shift                       1.200000
        cn-exp                         4.000000
        max-rad                        5.000000


          ...................................................
          :                      SETUP                      :
          :.................................................:
          :  # basis functions                 317          :
          :  # atomic orbitals                 316          :
          :  # shells                          168          :
          :  # electrons                       263          :
          :  max. iterations                   500          :
          :  Hamiltonian                  GFN2-xTB          :
          :  restarted?                      false          :
          :  GBSA solvation                  false          :
          :  PC potential                    false          :
          :  electronic temp.          300.0000000     K    :
          :  accuracy                    1.0000000          :
          :  -> integral cutoff          0.2500000E+02      :
          :  -> integral neglect         0.1000000E-07      :
          :  -> SCF convergence          0.1000000E-05 Eh   :
          :  -> wf. convergence          0.1000000E-03 e    :
          :  Broyden damping             0.4000000          :
          :  net charge                          0          :
          :  unpaired electrons                  0          :
          ...................................................

 iter      E             dE          RMSdq      gap      omega  full diag
   1   -118.1190893 -0.118119E+03  0.173E+01    0.26       0.0  T
   2     -6.3728445  0.111746E+03  0.167E+01    0.08       1.0  T
   3    381.2018117  0.387575E+03  0.262E+01    0.12       1.0  T
   4     97.6472034 -0.283555E+03  0.179E+01    0.09       1.0  T
   5     56.1870421 -0.414602E+02  0.173E+01    0.01       1.0  T
   6    -46.9513677 -0.103138E+03  0.132E+01    0.12       1.0  T
   7    -36.1771143  0.107743E+02  0.128E+01    0.06       1.0  T
   8    -58.5855633 -0.224084E+02  0.110E+01    0.08       1.0  T
   9    -93.5390241 -0.349535E+02  0.924E+00    0.06       1.0  T
  10   -116.0927694 -0.225537E+02  0.753E+00    0.01       1.0  T
  11   -117.2285192 -0.113575E+01  0.722E+00    0.16       1.0  T
  12   -118.8473830 -0.161886E+01  0.637E+00    0.03       1.0  T
  13   -118.2900946  0.557288E+00  0.642E+00    0.05       1.0  T
  14   -119.1836229 -0.893528E+00  0.594E+00    0.05       1.0  T
  15   -118.6957727  0.487850E+00  0.584E+00    0.03       1.0  T
  16   -118.7928846 -0.971119E-01  0.562E+00    0.02       1.0  T
  17   -118.7191705  0.737141E-01  0.544E+00    0.08       1.0  T
  18   -118.6439296  0.752409E-01  0.549E+00    0.09       1.0  T
  19   -118.8622184 -0.218289E+00  0.495E+00    0.01       1.0  T
  20   -120.0805946 -0.121838E+01  0.354E+00    0.13       1.0  T
  21   -120.2780984 -0.197504E+00  0.325E+00    0.18       1.0  T
  22   -120.2613198  0.167786E-01  0.324E+00    0.17       1.0  T
  23   -120.2615708 -0.251085E-03  0.324E+00    0.17       1.0  T
  24   -120.4022333 -0.140662E+00  0.291E+00    0.18       1.0  T
  25   -120.5413082 -0.139075E+00  0.251E+00    0.20       1.0  T
  26   -120.5776440 -0.363358E-01  0.242E+00    0.19       1.0  T
  27   -120.5766338  0.101018E-02  0.240E+00    0.20       1.0  T
  28   -120.6183622 -0.417284E-01  0.238E+00    0.16       1.0  T
  29   -120.7543767 -0.136014E+00  0.186E+00    0.05       1.0  T
  30   -120.9098496 -0.155473E+00  0.143E+00    0.03       1.0  T
  31   -120.9090930  0.756616E-03  0.142E+00    0.06       1.0  T
  32   -120.9239133 -0.148203E-01  0.136E+00    0.06       1.0  T
  33   -120.9342988 -0.103855E-01  0.125E+00    0.07       1.0  T
  34   -120.9674372 -0.331384E-01  0.100E+00    0.04       1.0  T
  35   -120.9924975 -0.250603E-01  0.847E-01    0.04       1.0  T
  36   -120.9850715  0.742606E-02  0.799E-01    0.06       1.0  T
  37   -121.0164174 -0.313459E-01  0.742E-01    0.01       1.0  T
  38   -121.0159801  0.437301E-03  0.743E-01    0.01       1.0  T
  39   -121.0168105 -0.830488E-03  0.724E-01    0.01       1.0  T
  40   -121.0270895 -0.102789E-01  0.569E-01    0.00       1.0  T
  41   -121.0288839 -0.179443E-02  0.521E-01    0.00       1.0  T
  42   -121.0278164  0.106754E-02  0.423E-01    0.01       1.0  T
  43   -121.0315844 -0.376806E-02  0.352E-01    0.01       1.0  T
  44   -121.0357166 -0.413217E-02  0.294E-01    0.00       1.0  T
  45   -121.0345198  0.119681E-02  0.273E-01    0.00       1.0  T
  46   -121.0400572 -0.553737E-02  0.233E-01    0.01       1.0  T
  47   -121.0426993 -0.264212E-02  0.211E-01    0.01       1.0  T
  48   -121.0435397 -0.840377E-03  0.195E-01    0.01       1.0  T
  49   -121.0442902 -0.750487E-03  0.184E-01    0.02       1.0  T
  50   -121.0444924 -0.202260E-03  0.173E-01    0.02       1.0  T
  51   -121.0447021 -0.209701E-03  0.161E-01    0.02       1.0  T
  52   -121.0458363 -0.113420E-02  0.126E-01    0.02       1.0  T
  53   -121.0463616 -0.525228E-03  0.107E-01    0.02       1.0  T
  54   -121.0463640 -0.246139E-05  0.104E-01    0.02       1.0  T
  55   -121.0470836 -0.719595E-03  0.915E-02    0.02       1.0  T
  56   -121.0480143 -0.930669E-03  0.616E-02    0.02       1.0  T
  57   -121.0482861 -0.271818E-03  0.528E-02    0.03       1.0  T
  58   -121.0486748 -0.388731E-03  0.434E-02    0.03       1.0  T
  59   -121.0487979 -0.123052E-03  0.431E-02    0.03       1.0  T
  60   -121.0488720 -0.741648E-04  0.316E-02    0.03       1.0  T
  61   -121.0489235 -0.514923E-04  0.182E-02    0.03       1.0  T
  62   -121.0489478 -0.242275E-04  0.140E-02    0.03       1.0  T
  63   -121.0489504 -0.259365E-05  0.105E-02    0.03       1.0  T
  64   -121.0489533 -0.294863E-05  0.104E-02    0.03       1.0  T
  65   -121.0489558 -0.251159E-05  0.100E-02    0.03       1.0  T
  66   -121.0489610 -0.513753E-05  0.791E-03    0.03       1.3  T
  67   -121.0489599  0.104005E-05  0.788E-03    0.03       1.3  T
  68   -121.0489620 -0.204315E-05  0.602E-03    0.03       1.7  T
  69   -121.0489632 -0.125648E-05  0.537E-03    0.03       1.9  T
  70   -121.0489640 -0.766954E-06  0.420E-03    0.03       2.4  T
  71   -121.0489652 -0.118546E-05  0.272E-03    0.03       3.8  T
  72   -121.0489658 -0.657209E-06  0.164E-03    0.03       6.2  T
  73   -121.0489660 -0.205512E-06  0.109E-03    0.03       9.4  T
  74   -121.0489661 -0.109948E-06  0.550E-04    0.03      18.7  T
  75   -121.0489662 -0.217405E-07  0.244E-04    0.03      42.0  T

   *** convergence criteria satisfied after 75 iterations ***

         #    Occupation            Energy/Eh            Energy/eV
      -------------------------------------------------------------
         1        2.0000           -0.6398522             -17.4113
       ...           ...                  ...                  ...
       126        2.0000           -0.2268044              -6.1717
       127        2.0000           -0.2239471              -6.0939
       128        1.9994           -0.2190473              -5.9606
       129        1.9985           -0.2181272              -5.9355
       130        1.9957           -0.2171075              -5.9078
       131        1.9918           -0.2165051              -5.8914
       132        0.5238           -0.2074663              -5.6454 (HOMO)
       133        0.2605           -0.2064043              -5.6165 (LUMO)
       134        0.2287           -0.2062414              -5.6121
       135        0.0012           -0.2010407              -5.4706
       136        0.0002           -0.1993552              -5.4247
       137        0.0001           -0.1985631              -5.4032
       ...           ...                  ...                  ...
       316                          1.6857032              45.8703
      -------------------------------------------------------------
                  HL-Gap            0.0010620 Eh            0.0289 eV
             Fermi-level           -0.2096728 Eh           -5.7055 eV

 SCC (total)                   0 d,  0 h,  0 min,  1.458 sec
 SCC setup                      ...        0 min,  0.000 sec (  0.000%)
 Dispersion                     ...        0 min,  0.002 sec (  0.137%)
 classical contributions        ...        0 min,  0.000 sec (  0.000%)
 integral evaluation            ...        0 min,  0.009 sec (  0.617%)
 iterations                     ...        0 min,  1.422 sec ( 97.531%)
 molecular gradient             ...        0 min,  0.020 sec (  1.372%)
 printout                       ...        0 min,  0.005 sec (  0.343%)

         :::::::::::::::::::::::::::::::::::::::::::::::::::::
         ::                     SUMMARY                     ::
         :::::::::::::::::::::::::::::::::::::::::::::::::::::
         :: total energy            -118.817986668155 Eh    ::
         :: gradient norm              0.501751200100 Eh/a0 ::
         :: HOMO-LUMO gap              0.028897653338 eV    ::
         ::.................................................::
         :: SCC energy              -121.043902491846 Eh    ::
         :: -> isotropic ES            0.381794861539 Eh    ::
         :: -> anisotropic ES         -0.005711525397 Eh    ::
         :: -> anisotropic XC         -0.047972723518 Eh    ::
         :: -> dispersion             -0.154721703760 Eh    ::
         :: repulsion energy           2.225915823692 Eh    ::
         :: add. restraining           0.000000000000 Eh    ::
         :: total charge              -0.000000000397 e     ::
         :::::::::::::::::::::::::::::::::::::::::::::::::::::

           -------------------------------------------------
          |                Property Printout                |
           -------------------------------------------------

    * Orbital Energies and Occupations

         #    Occupation            Energy/Eh            Energy/eV
      -------------------------------------------------------------
         1        2.0000           -0.6398522             -17.4113
       ...           ...                  ...                  ...
       120        2.0000           -0.2476820              -6.7398
       121        2.0000           -0.2472707              -6.7286
       122        2.0000           -0.2459475              -6.6926
       123        2.0000           -0.2446257              -6.6566
       124        2.0000           -0.2366556              -6.4397
       125        2.0000           -0.2295640              -6.2468
       126        2.0000           -0.2268044              -6.1717
       127        2.0000           -0.2239471              -6.0939
       128        1.9994           -0.2190473              -5.9606
       129        1.9985           -0.2181272              -5.9355
       130        1.9957           -0.2171075              -5.9078
       131        1.9918           -0.2165051              -5.8914
       132        0.5238           -0.2074663              -5.6454 (HOMO)
       133        0.2605           -0.2064043              -5.6165 (LUMO)
       134        0.2287           -0.2062414              -5.6121
       135        0.0012           -0.2010407              -5.4706
       136        0.0002           -0.1993552              -5.4247
       137        0.0001           -0.1985631              -5.4032
       138        0.0000           -0.1950086              -5.3065
       139        0.0000           -0.1930728              -5.2538
       140                         -0.1899247              -5.1681
       141                         -0.1833492              -4.9892
       142                         -0.1802170              -4.9040
       143                         -0.1773175              -4.8251
       ...                                ...                  ...
       316                          1.6857032              45.8703
      -------------------------------------------------------------
                  HL-Gap            0.0010620 Eh            0.0289 eV
             Fermi-level           -0.2096728 Eh           -5.7055 eV

     #   Z          covCN         q      C6AA      α(0)
     1   6 C        3.686    -0.035    21.396     6.622
     2   7 N        2.685    -0.227    25.969     7.568
     3   6 C        2.895     0.037    27.179     8.548
     4   6 C        2.935    -0.112    30.840     9.108
     5   6 C        2.980    -0.144    31.700     9.236
     6   6 C        2.939     0.065    26.549     8.451
     7   7 N        1.922    -0.321    29.167     8.008
     8   6 C        2.939     0.061    26.635     8.464
     9   6 C        3.715    -0.124    23.005     6.853
    10   6 C        2.922    -0.139    31.574     9.215
    11   6 C        2.897     0.031    27.298     8.567
    12   7 N        2.728    -0.132    23.855     7.254
    13   6 C        3.691    -0.091    22.430     6.778
    14   6 C        3.690    -0.044    21.558     6.645
    15   6 C        2.960    -0.093    30.333     9.034
    16   6 C        2.966    -0.001    28.060     8.689
    17  16 S        2.074    -0.203   149.697    20.593
    18   6 C        2.966    -0.009    28.245     8.717
    19   6 C        2.957    -0.088    30.200     9.014
    20   1 H        0.924     0.026     2.649     2.545
    21   1 H        0.924     0.027     2.634     2.538
    22   1 H        0.924     0.041     2.432     2.439
    23   1 H        0.860     0.153     1.380     1.840
    24   1 H        0.925     0.079     1.993     2.208
    25   1 H        0.974     0.178     1.216     1.723
    26   1 H        2.132     0.273     0.788     1.386
    27   1 H        0.927     0.088     1.902     2.156
    28   1 H        0.924     0.026     2.645     2.543
    29   1 H        0.924     0.080     1.976     2.198
    30   1 H        0.924     0.049     2.334     2.389
    31   1 H        0.924     0.030     2.590     2.517
    32   1 H        0.924     0.030     2.582     2.513
    33   1 H        0.924     0.039     2.457     2.451
    34   1 H        0.925     0.008     2.922     2.673
    35   1 H        0.925     0.006     2.958     2.690
    36   5 B        2.887    -0.009    21.571     7.752
    37   5 B        2.890     0.020    21.066     7.660
    38   5 B        2.890     0.030    20.891     7.628
    39   5 B        2.890     0.023    21.009     7.650
    40   5 B        2.890     0.026    20.957     7.641
    41   5 B        2.887     0.007    21.297     7.703
    42   5 B        2.916     0.005    21.312     7.704
    43   5 B        3.868    -0.011    22.947     7.720
    44   5 B        3.868     0.001    22.713     7.680
    45   5 B        3.868     0.009    22.565     7.655
    46   5 B        3.868     0.005    22.641     7.668
    47   5 B        2.916     0.052    20.504     7.556
    48   5 B        3.266    -0.015    21.653     7.760
    49   5 B        2.314     0.054    31.187    10.881
    50   5 B        1.958     0.017    43.502    13.870
    51   5 B        1.958     0.011    43.717    13.905
    52   5 B        1.958     0.020    43.392    13.853
    53   5 B        2.911    -0.062    22.545     7.924
    54   5 B        2.939    -0.008    21.539     7.743
    55   5 B        2.936    -0.098    23.226     8.041
    56   5 B        2.073    -0.009    43.319    13.765
    57   5 B        1.959    -0.013    44.582    14.041
    58   5 B        1.958    -0.041    45.662    14.211
    59   5 B        1.960     0.020    43.398    13.853
    60   5 B        3.266    -0.016    21.672     7.764
    61   5 B        2.316     0.064    30.786    10.795
    62   5 B        3.576    -0.010    22.057     7.732
    63   5 B        2.107     0.089    39.393    13.082
    64   5 B        1.975     0.053    42.164    13.649
    65   5 B        2.911    -0.048    22.270     7.875
    66   5 B        2.916     0.004    21.328     7.707
    67   5 B        3.868    -0.020    23.108     7.747
    68   5 B        4.120     0.013    22.512     7.645
    69   5 B        3.869     0.009    22.578     7.657
    70   5 B        3.868    -0.005    22.839     7.702
    71   5 B        2.914    -0.012    21.624     7.760
    72   5 B        2.887    -0.009    21.576     7.753
    73   5 B        2.890     0.024    20.996     7.648
    74   5 B        2.890     0.013    21.191     7.683
    75   5 B        2.890     0.020    21.055     7.659
    76   5 B        2.890     0.020    21.064     7.660
    77   5 B        1.934    -0.005    44.428    14.024
    78   5 B        3.822     0.041    21.971     7.556
    79   5 B        3.822     0.036    22.064     7.572
    80   5 B        3.822     0.043    21.943     7.551
    81   5 B        3.822     0.044    21.924     7.548
    82   5 B        3.822     0.047    21.869     7.538
    83   5 B        3.822     0.040    21.990     7.559
    84   5 B        3.822     0.025    22.268     7.607
    85   5 B        3.822     0.039    22.010     7.563
    86   5 B        3.822     0.028    22.206     7.596
    87   5 B        3.822     0.032    22.139     7.585
    88   5 B        3.381     0.112    19.524     7.366
    89   1 H        0.954    -0.084     5.037     3.508
    90   1 H        0.956     0.009     2.900     2.662
    91   1 H        0.956     0.009     2.898     2.661
    92   1 H        0.954    -0.084     5.021     3.502
    93   1 H        0.954    -0.081     4.935     3.472
    94   1 H        0.956    -0.012     3.269     2.826
    95   1 H        0.956    -0.023     3.480     2.916

 Mol. C6AA /au·bohr⁶  :     168061.161079
 Mol. C8AA /au·bohr⁸  :    5728152.740731
 Mol. α(0) /au        :        700.164678


Wiberg/Mayer (AO) data.
largest (>0.10) Wiberg bond orders for each atom

 ---------------------------------------------------------------------------
     #   Z sym  total        # sym  WBO       # sym  WBO       # sym  WBO
 ---------------------------------------------------------------------------
     1   6 C    3.987 --     2 N    1.022    21 H    0.986    22 H    0.981
                            20 H    0.977
     2   7 N    3.213 --     3 C    1.088     1 C    1.022    23 H    0.946
     3   6 C    3.934 --    19 C    1.359     4 C    1.328     2 N    1.088
     4   6 C    3.953 --     5 C    1.404     3 C    1.328    24 H    0.907
     5   6 C    3.929 --     4 C    1.404     6 C    1.314    25 H    0.781
     6   6 C    3.979 --     5 C    1.314    18 C    1.277     7 N    1.203
     7   7 N    3.113 --     8 C    1.260     6 C    1.203    63 B    0.215
     8   6 C    3.967 --     7 N    1.260     9 C    1.258    16 C    1.247
     9   6 C    3.930 --    10 C    1.340     8 C    1.258    26 H    0.561
                            62 B    0.339    56 B    0.142
    10   6 C    3.942 --    11 C    1.372     9 C    1.340    27 H    0.875
    11   6 C    3.936 --    10 C    1.372    15 C    1.306    12 N    1.096
    12   7 N    3.298 --    11 C    1.096    14 C    1.012    13 C    1.004
    13   6 C    3.967 --    12 N    1.004    28 H    0.982    30 H    0.975
                            29 H    0.937
    14   6 C    3.986 --    12 N    1.012    32 H    0.982    33 H    0.979
                            31 H    0.977
    15   6 C    3.941 --    16 C    1.433    11 C    1.306    34 H    0.965
    16   6 C    3.928 --    15 C    1.433     8 C    1.247    17 S    1.018
    17  16 S    2.306 --    16 C    1.018    18 C    1.001
    18   6 C    3.914 --    19 C    1.397     6 C    1.277    17 S    1.001
    19   6 C    3.963 --    18 C    1.397     3 C    1.359    35 H    0.966
    20   1 H    0.998 --     1 C    0.977
    21   1 H    0.999 --     1 C    0.986
    22   1 H    0.998 --     1 C    0.981
    23   1 H    0.975 --     2 N    0.946
    24   1 H    0.992 --     4 C    0.907
    25   1 H    0.968 --     5 C    0.781
    26   1 H    0.925 --     9 C    0.561    62 B    0.245
    27   1 H    0.991 --    10 C    0.875
    28   1 H    0.999 --    13 C    0.982
    29   1 H    0.993 --    13 C    0.937
    30   1 H    0.997 --    13 C    0.975
    31   1 H    0.998 --    14 C    0.977
    32   1 H    0.999 --    14 C    0.982
    33   1 H    0.998 --    14 C    0.979
    34   1 H    0.998 --    15 C    0.965
    35   1 H    0.998 --    19 C    0.966
    36   5 B    3.277 --    42 B    1.091    78 B    0.948    89 H    0.866
                            37 B    0.111    48 B    0.104
    37   5 B    3.435 --    79 B    1.009    78 B    0.976    43 B    0.930
                            38 B    0.142    36 B    0.111
    38   5 B    3.485 --    80 B    1.026    79 B    0.980    44 B    0.909
                            39 B    0.145    37 B    0.142
    39   5 B    3.463 --    81 B    1.011    80 B    0.995    45 B    0.896
                            38 B    0.145    40 B    0.137
    40   5 B    3.412 --    81 B    0.988    82 B    0.958    46 B    0.904
                            41 B    0.154    39 B    0.137
    41   5 B    3.365 --    82 B    1.084    47 B    1.004    93 H    0.860
                            40 B    0.154    53 B    0.103
    42   5 B    3.422 --    48 B    1.178    36 B    1.091    78 B    0.735
                            90 H    0.107
    43   5 B    3.662 --    49 B    1.160    37 B    0.930    79 B    0.687
                            78 B    0.677
    44   5 B    3.641 --    50 B    1.206    38 B    0.909    80 B    0.654
                            79 B    0.641
    45   5 B    3.636 --    51 B    1.178    39 B    0.896    81 B    0.656
                            80 B    0.655
    46   5 B    3.638 --    52 B    1.162    40 B    0.904    81 B    0.671
                            82 B    0.650
    47   5 B    3.459 --    53 B    1.237    41 B    1.004    82 B    0.697
                            94 H    0.153    59 B    0.106
    48   5 B    3.588 --    42 B    1.178    54 B    0.972    90 H    0.694
                            88 B    0.376    36 B    0.104
    49   5 B    3.381 --    55 B    1.293    43 B    1.160    88 B    0.360
                            61 B    0.163
    50   5 B    3.258 --    56 B    1.392    44 B    1.206    62 B    0.118
    51   5 B    3.368 --    57 B    1.457    45 B    1.178    63 B    0.115
    52   5 B    3.330 --    58 B    1.431    46 B    1.162    64 B    0.173
    53   5 B    3.553 --    59 B    1.260    47 B    1.237    94 H    0.666
                            65 B    0.104    41 B    0.103
    54   5 B    3.603 --    88 B    1.003    48 B    0.972    60 B    0.972
                            91 H    0.145    90 H    0.144
    55   5 B    3.684 --    49 B    1.293    61 B    1.240    88 B    0.893
    56   5 B    3.275 --    50 B    1.392    62 B    1.322     9 C    0.142
                            57 B    0.109
    57   5 B    3.402 --    51 B    1.457    63 B    1.247    58 B    0.126
                            56 B    0.109
    58   5 B    3.329 --    52 B    1.431    64 B    1.356    57 B    0.126
    59   5 B    3.320 --    65 B    1.325    53 B    1.260    95 H    0.159
                            94 H    0.134    47 B    0.106
    60   5 B    3.584 --    66 B    1.178    54 B    0.972    91 H    0.693
                            88 B    0.377    72 B    0.103
    61   5 B    3.370 --    55 B    1.240    67 B    1.155    88 B    0.360
                            49 B    0.163
    62   5 B    3.305 --    56 B    1.322    68 B    0.971     9 C    0.339
                            26 H    0.245    50 B    0.118
    63   5 B    3.244 --    57 B    1.247    69 B    1.066     7 N    0.215
                            51 B    0.115
    64   5 B    3.263 --    58 B    1.356    70 B    1.127    52 B    0.173
    65   5 B    3.466 --    59 B    1.325    71 B    1.050    95 H    0.692
                            53 B    0.104
    66   5 B    3.425 --    60 B    1.178    72 B    1.097    83 B    0.732
                            91 H    0.107
    67   5 B    3.675 --    61 B    1.155    73 B    0.950    84 B    0.681
                            83 B    0.676
    68   5 B    3.662 --    74 B    0.986    62 B    0.971    85 B    0.693
                            84 B    0.691
    69   5 B    3.658 --    63 B    1.066    75 B    0.972    85 B    0.678
                            86 B    0.671
    70   5 B    3.667 --    64 B    1.127    76 B    0.949    86 B    0.688
                            87 B    0.642
    71   5 B    3.635 --    77 B    1.592    65 B    1.050    87 B    0.688
    72   5 B    3.268 --    66 B    1.097    83 B    0.942    92 H    0.866
                            73 B    0.107    60 B    0.103
    73   5 B    3.420 --    83 B    0.989    84 B    0.979    67 B    0.950
                            74 B    0.139    72 B    0.107
    74   5 B    3.559 --    85 B    1.024    68 B    0.986    84 B    0.985
                            75 B    0.149    73 B    0.139
    75   5 B    3.509 --    86 B    1.022    69 B    0.972    85 B    0.960
                            74 B    0.149    76 B    0.126
    76   5 B    3.520 --    87 B    0.996    86 B    0.949    70 B    0.949
                            77 B    0.197    75 B    0.126
    77   5 B    3.165 --    71 B    1.592    87 B    1.122    76 B    0.197
    78   5 B    3.597 --    37 B    0.976    36 B    0.948    42 B    0.735
                            43 B    0.677
    79   5 B    3.603 --    37 B    1.009    38 B    0.980    43 B    0.687
                            44 B    0.641
    80   5 B    3.600 --    38 B    1.026    39 B    0.995    45 B    0.655
                            44 B    0.654
    81   5 B    3.611 --    39 B    1.011    40 B    0.988    46 B    0.671
                            45 B    0.656
    82   5 B    3.605 --    41 B    1.084    40 B    0.958    47 B    0.697
                            46 B    0.650
    83   5 B    3.599 --    73 B    0.989    72 B    0.942    66 B    0.732
                            67 B    0.676
    84   5 B    3.613 --    74 B    0.985    73 B    0.979    68 B    0.691
                            67 B    0.681
    85   5 B    3.623 --    74 B    1.024    75 B    0.960    68 B    0.693
                            69 B    0.678
    86   5 B    3.631 --    75 B    1.022    76 B    0.949    70 B    0.688
                            69 B    0.671
    87   5 B    3.628 --    77 B    1.122    76 B    0.996    71 B    0.688
                            70 B    0.642
    88   5 B    3.607 --    54 B    1.003    55 B    0.893    60 B    0.377
                            48 B    0.376    61 B    0.360    49 B    0.360
    89   1 H    0.979 --    36 B    0.866
    90   1 H    0.992 --    48 B    0.694    54 B    0.144    42 B    0.107
    91   1 H    0.992 --    60 B    0.693    54 B    0.145    66 B    0.107
    92   1 H    0.979 --    72 B    0.866
    93   1 H    0.987 --    41 B    0.860
    94   1 H    0.985 --    53 B    0.666    47 B    0.153    59 B    0.134
    95   1 H    0.971 --    65 B    0.692    59 B    0.159
 ---------------------------------------------------------------------------

Topologies differ in total number of bonds
Writing topology from bond orders to xtbtopo.mol

molecular dipole:
                 x           y           z       tot (Debye)
 q only:       -0.860       0.284      -4.331
   full:       -1.391      -0.200      -2.172       6.576
molecular quadrupole (traceless):
                xx          xy          yy          xz          yz          zz
 q only:      -26.565       4.737      50.895      -6.140      -3.535     -24.330
  q+dip:       35.151      -0.322      60.519      -9.442      -3.060     -95.670
   full:       27.393      -0.751      27.961      -9.247      -1.632     -55.354


           -------------------------------------------------
          | TOTAL ENERGY             -118.817986668155 Eh   |
          | GRADIENT NORM               0.501751200100 Eh/α |
          | HOMO-LUMO GAP               0.028897653338 eV   |
           -------------------------------------------------

------------------------------------------------------------------------
 * finished run on 2026/08/31 at 20:19:13.791     
------------------------------------------------------------------------
 total:
 * wall-time:     0 d,  0 h,  0 min,  1.510 sec
 *  cpu-time:     0 d,  0 h,  0 min, 12.031 sec
 * ratio c/w:     7.968 speedup
 SCF:
 * wall-time:     0 d,  0 h,  0 min,  1.459 sec
 *  cpu-time:     0 d,  0 h,  0 min, 11.781 sec
 * ratio c/w:     8.075 speedup

normal termination of xtb
