      -----------------------------------------------------------      
     |                   =====================                   |     
     |                           x T B                           |     
     |                   =====================                   |     
     |                         S. Grimme                         |     
     |          Mulliken Center for Theoretical Chemistry        |     
     |                    University of Bonn                     |     
      -----------------------------------------------------------      

   * xtb version 6.7.1pre (5071a88) compiled by 'Marcel@Raven' on 2024-07-23

   xtb is free software: you can redistribute it and/or modify it under
   the terms of the GNU Lesser General Public License as published by
   the Free Software Foundation, either version 3 of the License, or
   (at your option) any later version.
   
   xtb is distributed in the hope that it will be useful,
   but WITHOUT ANY WARRANTY; without even the implied warranty of
   MERCHANTABILITY or FITNESS FOR A PARTICULAR PURPOSE.  See the
   GNU Lesser General Public License for more details.
   
   Cite this work as:
   * C. Bannwarth, E. Caldeweyher, S. Ehlert, A. Hansen, P. Pracht,
     J. Seibert, S. Spicher, S. Grimme, WIREs Comput. Mol. Sci., 2020, 11,
     e01493. DOI: 10.1002/wcms.1493
   
   for GFN2-xTB:
   * C. Bannwarth, S. Ehlert and S. Grimme., J. Chem. Theory Comput., 2019,
     15, 1652-1671. DOI: 10.1021/acs.jctc.8b01176
   for GFN1-xTB:
   * S. Grimme, C. Bannwarth, P. Shushkov, J. Chem. Theory Comput., 2017,
     13, 1989-2009. DOI: 10.1021/acs.jctc.7b00118
   for GFN0-xTB:
   * P. Pracht, E. Caldeweyher, S. Ehlert, S. Grimme, ChemRxiv, 2019, preprint.
     DOI: 10.26434/chemrxiv.8326202.v1
   for GFN-FF:
   * S. Spicher and S. Grimme, Angew. Chem. Int. Ed., 2020, 59, 15665-15673.
     DOI: 10.1002/anie.202004239
   
   for ALPB and GBSA implicit solvation:
   * S. Ehlert, M. Stahn, S. Spicher, S. Grimme, J. Chem. Theory Comput.,
     2021, 17, 4250-4261. DOI: 10.1021/acs.jctc.1c00471
   
   for ddCOSMO and CPCM-X implicit solvation:
   * M. Stahn, S. Ehlert, S. Grimme, J. Phys. Chem. A,
     2023, XX, XXXX-XXXX. DOI: 10.1021/acs.jpca.3c04382
   
   for DFT-D4:
   * E. Caldeweyher, C. Bannwarth and S. Grimme, J. Chem. Phys., 2017,
     147, 034112. DOI: 10.1063/1.4993215
   * E. Caldeweyher, S. Ehlert, A. Hansen, H. Neugebauer, S. Spicher,
     C. Bannwarth and S. Grimme, J. Chem. Phys., 2019, 150, 154122.
     DOI: 10.1063/1.5090222
   * E. Caldeweyher, J.-M. Mewes, S. Ehlert and S. Grimme, Phys. Chem. Chem. Phys.
     2020, 22, 8499-8512. DOI: 10.1039/D0CP00502A
   
   for sTDA-xTB:
   * S. Grimme and C. Bannwarth, J. Chem. Phys., 2016, 145, 054103.
     DOI: 10.1063/1.4959605
   
   in the mass-spec context:
   * V. Asgeirsson, C. Bauer and S. Grimme, Chem. Sci., 2017, 8, 4879.
     DOI: 10.1039/c7sc00601b
   * J. Koopman and S. Grimme, ACS Omega 2019, 4, 12, 15120-15133.
     DOI: 10.1021/acsomega.9b02011
   
   for metadynamics refer to:
   * S. Grimme, J. Chem. Theory Comput., 2019, 155, 2847-2862
     DOI: 10.1021/acs.jctc.9b00143
   
   for SPH calculations refer to:
   * S. Spicher and S. Grimme, J. Chem. Theory Comput., 2021, 17, 1701-1714
     DOI: 10.1021/acs.jctc.0c01306
   
   for ONIOM refer to:
   * C. Plett, A. Katbashev, S. Ehlert, S. Grimme, M. Bursch,
     Phys. Chem. Chem. Phys., 2023, 25, 17860-17868. DOI: 10.1039/D3CP02178E
   
   for DIPRO refer to:
   * J. Kohn, N. Gildemeister, S. Grimme, D. Fazzi, A. Hansen,
     J. Chem. Phys., 2023, just accepted.
   
   for PTB refer to:
   * S. Grimme, M. Mueller, A. Hansen, J. Chem. Phys., 2023, 158, 124111.
     DOI: 10.1063/5.0137838
   
   with help from (in alphabetical order)
   P. Atkinson, C. Bannwarth, F. Bohle, G. Brandenburg, E. Caldeweyher
   M. Checinski, S. Dohm, S. Ehlert, S. Ehrlich, I. Gerasimov, C. Hölzer
   A. Katbashev, J. Kohn, J. Koopman, C. Lavigne, S. Lehtola, F. März, M. Müller,
   F. Musil, H. Neugebauer, J. Pisarek, C. Plett, P. Pracht, F. Pultar,
   J. Seibert, P. Shushkov, S. Spicher, M. Stahn, M. Steiner, T. Strunk,
   J. Stückrath, T. Rose, and J. Unsleber
   
 * started run on 2026/08/31 at 21:15:17.513     
   ID    Z sym.   atoms
    1    6 C      1, 3-6, 8-11, 13-16, 18, 19
    2    7 N      2, 7, 12
    3   16 S      17
    4    1 H      20-35, 89-95
    5    5 B      36-88

           -------------------------------------------------
          |                Calculation Setup                |
           -------------------------------------------------

          program call               : "c:\Users\Andre\Proyectos doctorado\kras-pancreatic-gC3N4-ai\tools\xtb\xtb-6.7.1\bin\xtb.exe" "c:\Users\Andre\Proyectos doctorado\borophene-alzheimer-tau-ai\calculations\tau\Azure_A\Azure_A_B48H12_phys_complex.xyz" --gfn 2 --sp --chrg 1 --uhf 0 --etemp 300 --iterations 500 --norestart
          coordinate file            : c:\Users\Andre\Proyectos doctorado\borophene-alzheimer-tau-ai\calculations\tau\Azure_A\Azure_A_B48H12_phys_complex.xyz
          omp threads                :                    16


           -------------------------------------------------
          |                 G F N 2 - x T B                 |
           -------------------------------------------------

        Reference                      10.1021/acs.jctc.8b01176
      * Hamiltonian:
        H0-scaling (s, p, d)           1.850000    2.230000    2.230000
        zeta-weighting                 0.500000
      * Dispersion:
        s8                             2.700000
        a1                             0.520000
        a2                             5.000000
        s9                             5.000000
      * Repulsion:
        kExp                           1.500000    1.000000
        rExp                           1.000000
      * Coulomb:
        alpha                          2.000000
        third order                    shell-resolved
        anisotropic                    true
        a3                             3.000000
        a5                             4.000000
        cn-shift                       1.200000
        cn-exp                         4.000000
        max-rad                        5.000000


          ...................................................
          :                      SETUP                      :
          :.................................................:
          :  # basis functions                 317          :
          :  # atomic orbitals                 316          :
          :  # shells                          168          :
          :  # electrons                       262          :
          :  max. iterations                   500          :
          :  Hamiltonian                  GFN2-xTB          :
          :  restarted?                      false          :
          :  GBSA solvation                  false          :
          :  PC potential                    false          :
          :  electronic temp.          300.0000000     K    :
          :  accuracy                    1.0000000          :
          :  -> integral cutoff          0.2500000E+02      :
          :  -> integral neglect         0.1000000E-07      :
          :  -> SCF convergence          0.1000000E-05 Eh   :
          :  -> wf. convergence          0.1000000E-03 e    :
          :  Broyden damping             0.4000000          :
          :  net charge                          1          :
          :  unpaired electrons                  0          :
          ...................................................

 iter      E             dE          RMSdq      gap      omega  full diag
   1   -120.3628807 -0.120363E+03  0.153E+01    0.27       0.0  T
   2   -111.6388205  0.872406E+01  0.108E+01    0.12       1.0  T
   3     28.8087285  0.140448E+03  0.193E+01    0.08       1.0  T
   4     41.3734068  0.125647E+02  0.157E+01    0.05       1.0  T
   5    -13.7129375 -0.550863E+02  0.133E+01    0.11       1.0  T
   6    -97.6032368 -0.838903E+02  0.798E+00    0.11       1.0  T
   7    -81.4575818  0.161457E+02  0.958E+00    0.10       1.0  T
   8   -117.2976615 -0.358401E+02  0.428E+00    0.07       1.0  T
   9   -118.2639822 -0.966321E+00  0.393E+00    0.03       1.0  T
  10   -120.5478618 -0.228388E+01  0.312E+00    0.11       1.0  T
  11   -121.0318549 -0.483993E+00  0.272E+00    0.24       1.0  T
  12   -121.1086025 -0.767477E-01  0.255E+00    0.10       1.0  T
  13   -121.2951993 -0.186597E+00  0.237E+00    0.21       1.0  T
  14   -121.3232630 -0.280637E-01  0.212E+00    0.20       1.0  T
  15   -121.2167566  0.106506E+00  0.177E+00    0.21       1.0  T
  16   -121.3746835 -0.157927E+00  0.110E+00    0.27       1.0  T
  17   -121.4313192 -0.566357E-01  0.106E+00    0.17       1.0  T
  18   -121.4390553 -0.773610E-02  0.948E-01    0.21       1.0  T
  19   -121.4462916 -0.723627E-02  0.897E-01    0.20       1.0  T
  20   -121.4457524  0.539151E-03  0.788E-01    0.21       1.0  T
  21   -121.4551620 -0.940953E-02  0.512E-01    0.26       1.0  T
  22   -121.4625684 -0.740648E-02  0.468E-01    0.28       1.0  T
  23   -121.4654099 -0.284143E-02  0.433E-01    0.28       1.0  T
  24   -121.4672035 -0.179366E-02  0.401E-01    0.28       1.0  T
  25   -121.4704586 -0.325503E-02  0.300E-01    0.26       1.0  T
  26   -121.4710608 -0.602264E-03  0.239E-01    0.24       1.0  T
  27   -121.4718940 -0.833191E-03  0.199E-01    0.24       1.0  T
  28   -121.4732635 -0.136952E-02  0.148E-01    0.24       1.0  T
  29   -121.4738227 -0.559151E-03  0.121E-01    0.23       1.0  T
  30   -121.4740114 -0.188739E-03  0.102E-01    0.23       1.0  T
  31   -121.4741927 -0.181247E-03  0.676E-02    0.23       1.0  T
  32   -121.4742536 -0.608859E-04  0.473E-02    0.23       1.0  T
  33   -121.4743808 -0.127197E-03  0.338E-02    0.23       1.0  T
  34   -121.4744549 -0.741762E-04  0.245E-02    0.23       1.0  T
  35   -121.4745089 -0.539741E-04  0.179E-02    0.23       1.0  T
  36   -121.4745353 -0.263822E-04  0.122E-02    0.23       1.0  T
  37   -121.4745405 -0.525596E-05  0.920E-03    0.23       1.1  T
  38   -121.4745462 -0.562058E-05  0.548E-03    0.23       1.9  T
  39   -121.4745481 -0.192945E-05  0.412E-03    0.23       2.5  T
  40   -121.4745497 -0.156977E-05  0.272E-03    0.23       3.8  T
  41   -121.4745501 -0.409390E-06  0.226E-03    0.23       4.5  T
  42   -121.4745502 -0.127509E-06  0.177E-03    0.23       5.8  T
  43   -121.4745504 -0.157333E-06  0.901E-04    0.23      11.4  T
  44   -121.4745504 -0.432064E-07  0.557E-04    0.23      18.4  T

   *** convergence criteria satisfied after 44 iterations ***

         #    Occupation            Energy/Eh            Energy/eV
      -------------------------------------------------------------
         1        2.0000           -0.7449798             -20.2719
       ...           ...                  ...                  ...
       125        2.0000           -0.3617003              -9.8424
       126        2.0000           -0.3603189              -9.8048
       127        2.0000           -0.3571502              -9.7186
       128        2.0000           -0.3536780              -9.6241
       129        2.0000           -0.3501263              -9.5274
       130        1.9998           -0.3483507              -9.4791
       131        1.9762           -0.3439358              -9.3590 (HOMO)
       132        0.0240           -0.3355473              -9.1307 (LUMO)
       133        0.0000           -0.3277595              -8.9188
       134                         -0.3227757              -8.7832
       135                         -0.3202610              -8.7147
       136                         -0.3088331              -8.4038
       ...                                ...                  ...
       316                          1.1052283              30.0748
      -------------------------------------------------------------
                  HL-Gap            0.0083886 Eh            0.2283 eV
             Fermi-level           -0.3397363 Eh           -9.2447 eV

 SCC (total)                   0 d,  0 h,  0 min,  0.740 sec
 SCC setup                      ...        0 min,  0.001 sec (  0.135%)
 Dispersion                     ...        0 min,  0.003 sec (  0.405%)
 classical contributions        ...        0 min,  0.000 sec (  0.000%)
 integral evaluation            ...        0 min,  0.008 sec (  1.081%)
 iterations                     ...        0 min,  0.705 sec ( 95.270%)
 molecular gradient             ...        0 min,  0.021 sec (  2.838%)
 printout                       ...        0 min,  0.001 sec (  0.135%)

         :::::::::::::::::::::::::::::::::::::::::::::::::::::
         ::                     SUMMARY                     ::
         :::::::::::::::::::::::::::::::::::::::::::::::::::::
         :: total energy            -119.594807065335 Eh    ::
         :: gradient norm              0.123237899538 Eh/a0 ::
         :: HOMO-LUMO gap              0.228265142362 eV    ::
         ::.................................................::
         :: SCC energy              -121.469902745031 Eh    ::
         :: -> isotropic ES            0.254519140793 Eh    ::
         :: -> anisotropic ES         -0.011223396782 Eh    ::
         :: -> anisotropic XC         -0.023011840789 Eh    ::
         :: -> dispersion             -0.131957510822 Eh    ::
         :: repulsion energy           1.875095679696 Eh    ::
         :: add. restraining           0.000000000000 Eh    ::
         :: total charge               1.000000000024 e     ::
         :::::::::::::::::::::::::::::::::::::::::::::::::::::

           -------------------------------------------------
          |                Property Printout                |
           -------------------------------------------------

    * Orbital Energies and Occupations

         #    Occupation            Energy/Eh            Energy/eV
      -------------------------------------------------------------
         1        2.0000           -0.7449798             -20.2719
       ...           ...                  ...                  ...
       119        2.0000           -0.3791336             -10.3168
       120        2.0000           -0.3758632             -10.2278
       121        2.0000           -0.3726410             -10.1401
       122        2.0000           -0.3715939             -10.1116
       123        2.0000           -0.3675989             -10.0029
       124        2.0000           -0.3661005              -9.9621
       125        2.0000           -0.3617003              -9.8424
       126        2.0000           -0.3603189              -9.8048
       127        2.0000           -0.3571502              -9.7186
       128        2.0000           -0.3536780              -9.6241
       129        2.0000           -0.3501263              -9.5274
       130        1.9998           -0.3483507              -9.4791
       131        1.9762           -0.3439358              -9.3590 (HOMO)
       132        0.0240           -0.3355473              -9.1307 (LUMO)
       133        0.0000           -0.3277595              -8.9188
       134                         -0.3227757              -8.7832
       135                         -0.3202610              -8.7147
       136                         -0.3088331              -8.4038
       137                         -0.3062196              -8.3327
       138                         -0.3055318              -8.3139
       139                         -0.2954183              -8.0387
       140                         -0.2947895              -8.0216
       141                         -0.2890331              -7.8650
       142                         -0.2830788              -7.7030
       ...                                ...                  ...
       316                          1.1052283              30.0748
      -------------------------------------------------------------
                  HL-Gap            0.0083886 Eh            0.2283 eV
             Fermi-level           -0.3397363 Eh           -9.2447 eV

     #   Z          covCN         q      C6AA      α(0)
     1   6 C        3.686    -0.036    21.428     6.627
     2   7 N        2.685    -0.203    25.416     7.487
     3   6 C        2.895     0.052    26.832     8.493
     4   6 C        2.922    -0.085    30.136     9.002
     5   6 C        2.936    -0.095    30.387     9.041
     6   6 C        2.938     0.070    26.431     8.432
     7   7 N        1.862    -0.381    30.824     8.229
     8   6 C        2.940     0.078    26.248     8.403
     9   6 C        3.265    -0.136    30.094     8.856
    10   6 C        2.922    -0.102    30.573     9.067
    11   6 C        2.897     0.049    26.906     8.505
    12   7 N        2.728    -0.109    23.382     7.182
    13   6 C        3.691    -0.055    21.764     6.676
    14   6 C        3.690    -0.049    21.648     6.658
    15   6 C        2.960    -0.082    30.039     8.990
    16   6 C        2.966     0.003    27.958     8.673
    17  16 S        2.074    -0.132   146.586    20.377
    18   6 C        2.966     0.002    27.989     8.678
    19   6 C        2.957    -0.077    29.913     8.971
    20   1 H        0.924     0.029     2.603     2.523
    21   1 H        0.924     0.042     2.422     2.434
    22   1 H        0.924     0.054     2.265     2.353
    23   1 H        0.860     0.144     1.444     1.883
    24   1 H        0.925     0.009     2.912     2.669
    25   1 H        0.925     0.040     2.444     2.445
    26   1 H        1.867     0.208     1.050     1.600
    27   1 H        0.925     0.018     2.767     2.601
    28   1 H        0.924     0.051     2.306     2.375
    29   1 H        0.924     0.036     2.504     2.474
    30   1 H        0.924     0.050     2.318     2.381
    31   1 H        0.924     0.038     2.478     2.462
    32   1 H        0.924     0.048     2.344     2.394
    33   1 H        0.924     0.053     2.279     2.361
    34   1 H        0.925     0.032     2.564     2.504
    35   1 H        0.925     0.029     2.606     2.524
    36   5 B        2.872     0.053    20.503     7.559
    37   5 B        3.645     0.038    21.631     7.572
    38   5 B        3.704     0.027    22.079     7.603
    39   5 B        3.599     0.019    21.681     7.638
    40   5 B        3.804     0.031    22.146     7.588
    41   5 B        3.812     0.048    21.848     7.536
    42   5 B        4.425     0.065    21.574     7.484
    43   5 B        3.843     0.025    22.271     7.606
    44   5 B        5.059     0.054    21.760     7.516
    45   5 B        5.523     0.109    20.828     7.353
    46   5 B        3.792     0.011    22.503     7.650
    47   5 B        4.799     0.095    21.060     7.394
    48   5 B        4.746     0.068    21.518     7.474
    49   5 B        3.691     0.016    22.241     7.638
    50   5 B        3.741     0.039    21.952     7.566
    51   5 B        4.170    -0.006    22.864     7.704
    52   5 B        3.938     0.020    22.377     7.622
    53   5 B        3.779     0.087    21.153     7.418
    54   5 B        3.808     0.077    21.336     7.447
    55   5 B        3.812    -0.006    22.828     7.703
    56   5 B        4.028     0.084    21.245     7.427
    57   5 B        3.825     0.019    22.369     7.624
    58   5 B        4.691     0.067    21.530     7.476
    59   5 B        4.735     0.057    21.710     7.508
    60   5 B        3.813     0.086    21.191     7.421
    61   5 B        2.071     0.004    42.885    13.698
    62   5 B        4.652     0.028    22.236     7.598
    63   5 B        4.547     0.030    22.188     7.590
    64   5 B        4.200     0.043    21.964     7.551
    65   5 B        3.748     0.081    21.219     7.436
    66   5 B        3.840     0.005    22.639     7.669
    67   5 B        3.769     0.020    22.331     7.624
    68   5 B        4.530     0.072    21.454     7.463
    69   5 B        5.624     0.102    20.931     7.372
    70   5 B        3.805     0.040    21.987     7.560
    71   5 B        3.825     0.030    22.175     7.591
    72   5 B        2.886     0.088    19.928     7.451
    73   5 B        2.918     0.059    20.400     7.537
    74   5 B        2.913     0.041    20.694     7.591
    75   5 B        3.630     0.031    21.667     7.597
    76   5 B        3.792     0.021    22.324     7.619
    77   5 B        2.860     0.025    20.997     7.650
    78   5 B        2.920    -0.013    21.641     7.763
    79   5 B        3.825     0.030    22.169     7.590
    80   5 B        2.901    -0.001    21.422     7.724
    81   5 B        4.532     0.055    21.738     7.512
    82   5 B        3.896     0.051    21.818     7.527
    83   5 B        3.818     0.025    22.270     7.607
    84   5 B        3.778    -0.022    23.124     7.757
    85   5 B        3.628     0.004    22.138     7.680
    86   5 B        4.556     0.056    21.731     7.511
    87   5 B        3.280     0.053    20.463     7.544
    88   5 B        4.869     0.092    21.109     7.403
    89   1 H        0.937    -0.151     7.735     4.348
    90   1 H        0.935    -0.115     6.116     3.867
    91   1 H        0.936    -0.109     5.881     3.792
    92   1 H        0.939    -0.123     6.443     3.968
    93   1 H        0.936    -0.106     5.771     3.756
    94   1 H        0.937    -0.112     5.988     3.826
    95   1 H        0.934    -0.107     5.802     3.766

 Mol. C6AA /au·bohr⁶  :     156675.031815
 Mol. C8AA /au·bohr⁸  :    5248104.047132
 Mol. α(0) /au        :        640.394491


Wiberg/Mayer (AO) data.
largest (>0.10) Wiberg bond orders for each atom

 ---------------------------------------------------------------------------
     #   Z sym  total        # sym  WBO       # sym  WBO       # sym  WBO
 ---------------------------------------------------------------------------
     1   6 C    3.980 --     2 N    1.017    21 H    0.985    22 H    0.979
                            20 H    0.977
     2   7 N    3.241 --     3 C    1.114     1 C    1.017    23 H    0.950
     3   6 C    3.933 --    19 C    1.346     4 C    1.342     2 N    1.114
     4   6 C    3.970 --     5 C    1.455     3 C    1.342    24 H    0.970
     5   6 C    3.959 --     4 C    1.455     6 C    1.316    25 H    0.953
     6   6 C    3.980 --     5 C    1.316    18 C    1.258     7 N    1.237
     7   7 N    2.923 --     8 C    1.297     6 C    1.237
     8   6 C    3.966 --     7 N    1.297     9 C    1.252    16 C    1.224
     9   6 C    3.877 --    10 C    1.353     8 C    1.252    26 H    0.627
                            56 B    0.179    62 B    0.118
    10   6 C    3.957 --    11 C    1.362     9 C    1.353    27 H    0.965
    11   6 C    3.931 --    10 C    1.362    15 C    1.295    12 N    1.126
    12   7 N    3.320 --    11 C    1.126    13 C    1.008    14 C    1.006
    13   6 C    3.979 --    12 N    1.008    28 H    0.981    30 H    0.977
                            29 H    0.977
    14   6 C    3.977 --    12 N    1.006    32 H    0.981    33 H    0.977
                            31 H    0.977
    15   6 C    3.956 --    16 C    1.454    11 C    1.295    34 H    0.964
    16   6 C    3.924 --    15 C    1.454     8 C    1.224    17 S    1.033
    17  16 S    2.347 --    16 C    1.033    18 C    1.023
    18   6 C    3.921 --    19 C    1.423     6 C    1.258    17 S    1.023
    19   6 C    3.976 --    18 C    1.423     3 C    1.346    35 H    0.966
    20   1 H    0.998 --     1 C    0.977
    21   1 H    0.998 --     1 C    0.985
    22   1 H    0.997 --     1 C    0.979
    23   1 H    0.978 --     2 N    0.950
    24   1 H    0.999 --     4 C    0.970
    25   1 H    0.998 --     5 C    0.953
    26   1 H    0.955 --     9 C    0.627    62 B    0.221
    27   1 H    0.998 --    10 C    0.965
    28   1 H    0.997 --    13 C    0.981
    29   1 H    0.997 --    13 C    0.977
    30   1 H    0.997 --    13 C    0.977
    31   1 H    0.997 --    14 C    0.977
    32   1 H    0.997 --    14 C    0.981
    33   1 H    0.996 --    14 C    0.977
    34   1 H    0.997 --    15 C    0.964
    35   1 H    0.999 --    19 C    0.966
    36   5 B    3.468 --    78 B    1.413    89 H    0.966    42 B    0.828
    37   5 B    3.498 --    78 B    1.117    79 B    0.987    43 B    0.556
                            42 B    0.509
    38   5 B    3.487 --    80 B    1.258    79 B    1.005    45 B    0.487
                            44 B    0.457
    39   5 B    3.457 --    80 B    1.270    40 B    1.012    45 B    0.566
                            81 B    0.366
    40   5 B    3.508 --    82 B    1.077    39 B    1.012    46 B    0.682
                            81 B    0.489
    41   5 B    3.572 --    93 H    0.944    82 B    0.848    47 B    0.803
                            53 B    0.790
    42   5 B    3.611 --    48 B    0.830    36 B    0.828    78 B    0.794
                            37 B    0.509    49 B    0.392
    43   5 B    3.580 --    49 B    1.108    79 B    0.767    44 B    0.693
                            37 B    0.556
    44   5 B    3.616 --    50 B    0.986    43 B    0.693    45 B    0.510
                            79 B    0.507    38 B    0.457    51 B    0.222
    45   5 B    3.594 --    81 B    0.618    51 B    0.617    80 B    0.596
                            39 B    0.566    44 B    0.510    38 B    0.487
    46   5 B    3.588 --    52 B    1.114    81 B    0.912    40 B    0.682
                            82 B    0.505
    47   5 B    3.595 --    53 B    0.847    41 B    0.803    59 B    0.683
                            82 B    0.600    52 B    0.508
    48   5 B    3.616 --    42 B    0.830    54 B    0.753    49 B    0.697
                            55 B    0.554    88 B    0.494
    49   5 B    3.563 --    43 B    1.108    55 B    0.926    48 B    0.697
                            42 B    0.392
    50   5 B    3.448 --    56 B    1.050    44 B    0.986    57 B    0.570
                            51 B    0.445
    51   5 B    3.593 --    57 B    1.129    81 B    0.889    45 B    0.617
                            50 B    0.445    44 B    0.222
    52   5 B    3.539 --    46 B    1.114    58 B    0.824    59 B    0.605
                            47 B    0.508    82 B    0.187
    53   5 B    3.492 --    94 H    0.959    47 B    0.847    41 B    0.790
                            59 B    0.660
    54   5 B    3.504 --    90 H    0.945    60 B    0.797    48 B    0.753
                            88 B    0.722
    55   5 B    3.629 --    61 B    1.264    49 B    0.926    48 B    0.554
                            88 B    0.546
    56   5 B    3.465 --    50 B    1.050    62 B    0.882    57 B    0.504
                            63 B    0.397     9 C    0.179
    57   5 B    3.533 --    51 B    1.129    63 B    0.960    50 B    0.570
                            56 B    0.504
    58   5 B    3.580 --    64 B    0.860    52 B    0.824    71 B    0.559
                            59 B    0.556    65 B    0.498
    59   5 B    3.595 --    65 B    0.866    47 B    0.683    53 B    0.660
                            52 B    0.605    58 B    0.556
    60   5 B    3.553 --    91 H    0.947    54 B    0.797    88 B    0.763
                            66 B    0.738
    61   5 B    3.411 --    67 B    1.332    55 B    1.264    88 B    0.206
                            83 B    0.153
    62   5 B    3.448 --    68 B    0.985    56 B    0.882    69 B    0.524
                            63 B    0.433    26 H    0.221     9 C    0.118
    63   5 B    3.575 --    57 B    0.960    86 B    0.778    69 B    0.650
                            62 B    0.433    56 B    0.397
    64   5 B    3.564 --    70 B    0.995    58 B    0.860    71 B    0.630
                            77 B    0.557    87 B    0.333
    65   5 B    3.399 --    95 H    0.928    71 B    0.875    59 B    0.866
                            58 B    0.498
    66   5 B    3.603 --    72 B    1.203    60 B    0.738    83 B    0.700
                            88 B    0.698
    67   5 B    3.576 --    61 B    1.332    73 B    0.679    83 B    0.613
                            84 B    0.566
    68   5 B    3.534 --    62 B    0.985    74 B    0.670    84 B    0.584
                            69 B    0.530    85 B    0.444
    69   5 B    3.616 --    63 B    0.650    86 B    0.623    68 B    0.530
                            62 B    0.524    75 B    0.519    85 B    0.506
    70   5 B    3.548 --    86 B    1.003    64 B    0.995    76 B    0.634
                            87 B    0.552
    71   5 B    3.490 --    77 B    1.235    65 B    0.875    64 B    0.630
                            58 B    0.559
    72   5 B    3.432 --    66 B    1.203    92 H    0.964    83 B    0.824
                            73 B    0.151
    73   5 B    3.410 --    84 B    1.149    83 B    1.126    67 B    0.679
                            72 B    0.151
    74   5 B    3.337 --    85 B    1.185    84 B    1.131    68 B    0.670
    75   5 B    3.385 --    85 B    1.124    76 B    1.072    69 B    0.519
                            86 B    0.393
    76   5 B    3.495 --    75 B    1.072    87 B    1.040    70 B    0.634
                            86 B    0.517
    77   5 B    3.332 --    71 B    1.235    87 B    1.234    64 B    0.557
    78   5 B    3.512 --    36 B    1.413    37 B    1.117    42 B    0.794
    79   5 B    3.520 --    38 B    1.005    37 B    0.987    43 B    0.767
                            44 B    0.507
    80   5 B    3.411 --    39 B    1.270    38 B    1.258    45 B    0.596
    81   5 B    3.547 --    46 B    0.912    51 B    0.889    45 B    0.618
                            40 B    0.489    39 B    0.366
    82   5 B    3.472 --    40 B    1.077    41 B    0.848    47 B    0.600
                            46 B    0.505    52 B    0.187
    83   5 B    3.618 --    73 B    1.126    72 B    0.824    66 B    0.700
                            67 B    0.613    61 B    0.153
    84   5 B    3.601 --    73 B    1.149    74 B    1.131    68 B    0.584
                            67 B    0.566
    85   5 B    3.481 --    74 B    1.185    75 B    1.124    69 B    0.506
                            68 B    0.444
    86   5 B    3.595 --    70 B    1.003    63 B    0.778    69 B    0.623
                            76 B    0.517    75 B    0.393
    87   5 B    3.374 --    77 B    1.234    76 B    1.040    70 B    0.552
                            64 B    0.333
    88   5 B    3.624 --    60 B    0.763    54 B    0.722    66 B    0.698
                            55 B    0.546    48 B    0.494    61 B    0.206
    89   1 H    0.975 --    36 B    0.966
    90   1 H    0.980 --    54 B    0.945
    91   1 H    0.982 --    60 B    0.947
    92   1 H    0.981 --    72 B    0.964
    93   1 H    0.976 --    41 B    0.944
    94   1 H    0.983 --    53 B    0.959
    95   1 H    0.981 --    65 B    0.928
 ---------------------------------------------------------------------------

Topologies differ in total number of bonds
Writing topology from bond orders to xtbtopo.mol

molecular dipole:
                 x           y           z       tot (Debye)
 q only:        0.980       0.442      -1.091
   full:        1.182      -0.028      -0.530       3.292
molecular quadrupole (traceless):
                xx          xy          yy          xz          yz          zz
 q only:       18.484       2.482      40.119     -27.154     -12.868     -58.602
  q+dip:       48.764     -17.526      -1.600     -25.328      -4.613     -47.164
   full:       34.706     -13.379      -9.233     -21.513      -2.100     -25.474


           -------------------------------------------------
          | TOTAL ENERGY             -119.594807065335 Eh   |
          | GRADIENT NORM               0.123237899538 Eh/α |
          | HOMO-LUMO GAP               0.228265142362 eV   |
           -------------------------------------------------

------------------------------------------------------------------------
 * finished run on 2026/08/31 at 21:15:18.301     
------------------------------------------------------------------------
 total:
 * wall-time:     0 d,  0 h,  0 min,  0.786 sec
 *  cpu-time:     0 d,  0 h,  0 min,  8.594 sec
 * ratio c/w:    10.934 speedup
 SCF:
 * wall-time:     0 d,  0 h,  0 min,  0.740 sec
 *  cpu-time:     0 d,  0 h,  0 min,  8.297 sec
 * ratio c/w:    11.212 speedup

normal termination of xtb
