90
Drug@beta12-B40H15 clean complex
C      5.987945     -0.899453     10.167172
N      5.681164      0.141720      9.202325
C      4.371993      0.299045      8.743966
C      4.150249      1.077955      7.606142
C      2.853392      1.328802      7.133962
C      1.728689      0.847293      7.776178
N      0.539145      1.151065      7.222488
C     -0.636890      0.756066      7.748387
C     -1.779602      1.140858      7.078595
C     -3.067781      0.791456      7.521780
C     -3.279610      0.018574      8.670936
N     -4.560302     -0.314860      9.120777
C     -5.696973     -0.158251      8.214000
C     -4.710770     -1.343457     10.149543
C     -2.118151     -0.358191      9.361098
C     -0.827101     -0.006521      8.913876
S      0.570620     -0.566506      9.888122
C      1.946443      0.095953      8.948274
C      3.245866     -0.158919      9.428379
H      5.684653     -1.885355      9.799697
H      7.069139     -0.923474     10.337206
H      5.512540     -0.702066     11.133186
H      6.360027      0.189847      8.445945
H      4.990434      1.507726      7.065468
H      2.729241      1.930462      6.235826
H     -1.682433      1.740573      6.175674
H     -3.900533      1.155984      6.927739
H     -6.634158     -0.462377      8.693685
H     -5.571119     -0.772903      7.315823
H     -5.833774      0.889913      7.927271
H     -4.304927     -2.302477      9.809103
H     -5.765074     -1.501985     10.402936
H     -4.220226     -1.045549     11.082417
H     -2.189171     -0.938887     10.275824
H      3.357053     -0.722044     10.350072
B     -4.780602     -2.604513      0.317266
B     -4.569465     -1.356683     -0.648004
B     -4.463861     -0.247381     -1.882945
B     -3.396531     -2.661979     -0.502827
B     -3.038009      0.177607     -1.404773
B     -4.390872      0.342644     -0.192397
B     -5.031012      1.403078      0.819222
B     -4.620094      2.986388      0.997562
B     -2.808851      0.512803      0.199513
B     -3.218551      3.227540      1.793236
B     -2.161133     -3.775821     -0.584343
B     -1.876928     -2.248084     -0.933414
B     -1.697164     -0.613334     -0.835751
B     -0.584443     -3.218984     -0.835049
B     -0.219751     -0.148448     -0.311803
B     -1.394985      0.035818      0.852087
B     -1.775686      1.662110      0.759224
B     -1.897502      3.236989      0.882584
B     -0.215292      1.037200      1.069695
B     -0.752118      4.348002      0.558417
B      0.826501     -4.112870     -0.740049
B      0.925144     -2.505404     -0.749723
B      1.214364     -0.948979     -0.586972
B      2.200665     -3.402586     -0.168167
B      2.622046     -0.195651     -0.292977
B      1.234081      0.551562      0.142600
B      1.124844      2.000923      1.042986
B      0.536600      3.437229      0.618007
B      2.458015      1.672646      0.087495
B      1.213646      3.017073     -0.852963
B      3.220244     -3.850820      1.104428
B      3.624046     -2.653486      0.063737
B      4.025027     -1.121930     -0.236552
B      4.417376     -2.835474      1.420329
B      5.363640     -0.241898     -0.689778
B      4.104119      0.531009     -0.013477
B      4.018093      2.321775     -0.033810
B      2.821838      3.096833     -0.912930
B      5.422007      1.458254     -0.185288
B      4.296118      3.550090     -1.013979
H     -5.168734     -3.094856      1.310677
H     -5.716063     -2.076392     -0.393509
H     -5.264034     -0.120717     -2.741690
H     -5.771097      1.007443      1.664604
H     -5.364514      3.843125      0.672044
H     -3.234300      3.224974      2.975674
H     -2.359297     -4.926237     -0.473225
H     -0.896482      5.475480      0.244253
H      0.822346     -5.249794     -1.023329
H      0.553695      2.694294     -1.783686
H      2.970323     -4.817556      1.717250
H      5.263074     -2.512454      2.156542
H      6.384778     -0.646686     -1.095590
H      6.503197      1.838169      0.065012
H      5.138890      4.252414     -1.415442
