96
Drug@B48H12 complex
C     -4.019298     -0.228619      5.348189
C     -3.841983     -0.898936      3.992225
N     -2.854480     -0.194842      3.161864
C     -3.379800      0.543261      2.005089
C     -3.800736      1.952944      2.391329
C     -1.489425     -0.254478      3.424719
C     -0.934464     -1.194983      4.308063
C      0.443151     -1.261486      4.574098
C      1.332801     -0.386889      3.953133
C      2.763727     -0.467543      4.278751
C      3.747492     -0.252201      3.390346
C      5.152113     -0.349841      3.745924
C      6.204581     -0.143957      2.927838
C      6.054995      0.214974      1.558725
N      5.919405      0.510414      0.444582
C      7.523922     -0.284884      3.445831
N      8.589553     -0.404998      3.889131
C      0.808764      0.570591      3.086762
C     -0.571086      0.626297      2.829038
H     -4.793062     -0.746048      5.924272
H     -3.097884     -0.244060      5.937442
H     -4.323538      0.816637      5.236507
H     -3.580997     -1.956572      4.108800
H     -4.819375     -0.902903      3.493541
H     -2.660436      0.569913      1.178418
H     -4.250259      0.016736      1.593603
H     -4.622036      1.934180      3.114475
H     -2.975305      2.515288      2.838132
H     -4.146380      2.498576      1.507666
H     -1.561720     -1.921737      4.814480
H      0.803106     -2.018641      5.266820
H      2.989467     -0.739573      5.307754
H      3.493144     -0.008775      2.359667
H      5.349788     -0.618700      4.785694
H      1.453364      1.301630      2.605448
H     -0.907110      1.409223      2.155954
B     -7.500000     -4.500000      0.000000
B     -4.500000     -4.500000      0.000000
B     -1.500000     -4.500000      0.000000
B      1.500000     -4.500000      0.000000
B      4.500000     -4.500000      0.000000
B      7.500000     -4.500000      0.000000
B     -7.500000     -3.000000      0.000000
B     -4.500000     -3.000000      0.000000
B     -1.500000     -3.000000      0.000000
B      1.500000     -3.000000      0.000000
B      4.500000     -3.000000      0.000000
B      7.500000     -3.000000      0.000000
B     -7.500000     -1.500000      0.000000
B     -4.500000     -1.500000      0.000000
B     -1.500000     -1.500000      0.000000
B      1.500000     -1.500000      0.000000
B      4.500000     -1.500000      0.000000
B      7.500000     -1.500000      0.000000
B     -7.500000      0.000000      0.000000
B     -4.500000      0.000000      0.000000
B     -1.500000      0.000000      0.000000
B      1.500000      0.000000      0.000000
B      4.500000      0.000000      0.000000
B      7.500000      0.000000      0.000000
B     -7.500000      1.500000      0.000000
B     -4.500000      1.500000      0.000000
B     -1.500000      1.500000      0.000000
B      1.500000      1.500000      0.000000
B      4.500000      1.500000      0.000000
B      7.500000      1.500000      0.000000
B     -7.500000      3.000000      0.000000
B     -4.500000      3.000000      0.000000
B     -1.500000      3.000000      0.000000
B      1.500000      3.000000      0.000000
B      4.500000      3.000000      0.000000
B      7.500000      3.000000      0.000000
B     -7.500000      4.500000      0.000000
B     -4.500000      4.500000      0.000000
B     -1.500000      4.500000      0.000000
B      1.500000      4.500000      0.000000
B      4.500000      4.500000      0.000000
B      7.500000      4.500000      0.000000
B     -6.000000     -3.750000      0.000000
B     -3.000000     -3.750000      0.000000
B      0.000000     -3.750000      0.000000
B      3.000000     -3.750000      0.000000
B      6.000000     -3.750000      0.000000
B     -6.000000      3.750000      0.000000
B     -3.000000      3.750000      0.000000
B      0.000000      3.750000      0.000000
B      3.000000      3.750000      0.000000
B      6.000000      3.750000      0.000000
B     -6.000000      0.000000      0.000000
H     -8.600000     -4.500000      0.000000
H     -8.600000     -1.500000      0.000000
H     -8.600000      1.500000      0.000000
H     -8.600000      4.500000      0.000000
H      8.600000     -4.500000      0.000000
H      8.600000     -1.500000      0.000000
H      8.600000      1.500000      0.000000
