      -----------------------------------------------------------      
     |                   =====================                   |     
     |                           x T B                           |     
     |                   =====================                   |     
     |                         S. Grimme                         |     
     |          Mulliken Center for Theoretical Chemistry        |     
     |                    University of Bonn                     |     
      -----------------------------------------------------------      

   * xtb version 6.7.1pre (5071a88) compiled by 'Marcel@Raven' on 2024-07-23

   xtb is free software: you can redistribute it and/or modify it under
   the terms of the GNU Lesser General Public License as published by
   the Free Software Foundation, either version 3 of the License, or
   (at your option) any later version.
   
   xtb is distributed in the hope that it will be useful,
   but WITHOUT ANY WARRANTY; without even the implied warranty of
   MERCHANTABILITY or FITNESS FOR A PARTICULAR PURPOSE.  See the
   GNU Lesser General Public License for more details.
   
   Cite this work as:
   * C. Bannwarth, E. Caldeweyher, S. Ehlert, A. Hansen, P. Pracht,
     J. Seibert, S. Spicher, S. Grimme, WIREs Comput. Mol. Sci., 2020, 11,
     e01493. DOI: 10.1002/wcms.1493
   
   for GFN2-xTB:
   * C. Bannwarth, S. Ehlert and S. Grimme., J. Chem. Theory Comput., 2019,
     15, 1652-1671. DOI: 10.1021/acs.jctc.8b01176
   for GFN1-xTB:
   * S. Grimme, C. Bannwarth, P. Shushkov, J. Chem. Theory Comput., 2017,
     13, 1989-2009. DOI: 10.1021/acs.jctc.7b00118
   for GFN0-xTB:
   * P. Pracht, E. Caldeweyher, S. Ehlert, S. Grimme, ChemRxiv, 2019, preprint.
     DOI: 10.26434/chemrxiv.8326202.v1
   for GFN-FF:
   * S. Spicher and S. Grimme, Angew. Chem. Int. Ed., 2020, 59, 15665-15673.
     DOI: 10.1002/anie.202004239
   
   for ALPB and GBSA implicit solvation:
   * S. Ehlert, M. Stahn, S. Spicher, S. Grimme, J. Chem. Theory Comput.,
     2021, 17, 4250-4261. DOI: 10.1021/acs.jctc.1c00471
   
   for ddCOSMO and CPCM-X implicit solvation:
   * M. Stahn, S. Ehlert, S. Grimme, J. Phys. Chem. A,
     2023, XX, XXXX-XXXX. DOI: 10.1021/acs.jpca.3c04382
   
   for DFT-D4:
   * E. Caldeweyher, C. Bannwarth and S. Grimme, J. Chem. Phys., 2017,
     147, 034112. DOI: 10.1063/1.4993215
   * E. Caldeweyher, S. Ehlert, A. Hansen, H. Neugebauer, S. Spicher,
     C. Bannwarth and S. Grimme, J. Chem. Phys., 2019, 150, 154122.
     DOI: 10.1063/1.5090222
   * E. Caldeweyher, J.-M. Mewes, S. Ehlert and S. Grimme, Phys. Chem. Chem. Phys.
     2020, 22, 8499-8512. DOI: 10.1039/D0CP00502A
   
   for sTDA-xTB:
   * S. Grimme and C. Bannwarth, J. Chem. Phys., 2016, 145, 054103.
     DOI: 10.1063/1.4959605
   
   in the mass-spec context:
   * V. Asgeirsson, C. Bauer and S. Grimme, Chem. Sci., 2017, 8, 4879.
     DOI: 10.1039/c7sc00601b
   * J. Koopman and S. Grimme, ACS Omega 2019, 4, 12, 15120-15133.
     DOI: 10.1021/acsomega.9b02011
   
   for metadynamics refer to:
   * S. Grimme, J. Chem. Theory Comput., 2019, 155, 2847-2862
     DOI: 10.1021/acs.jctc.9b00143
   
   for SPH calculations refer to:
   * S. Spicher and S. Grimme, J. Chem. Theory Comput., 2021, 17, 1701-1714
     DOI: 10.1021/acs.jctc.0c01306
   
   for ONIOM refer to:
   * C. Plett, A. Katbashev, S. Ehlert, S. Grimme, M. Bursch,
     Phys. Chem. Chem. Phys., 2023, 25, 17860-17868. DOI: 10.1039/D3CP02178E
   
   for DIPRO refer to:
   * J. Kohn, N. Gildemeister, S. Grimme, D. Fazzi, A. Hansen,
     J. Chem. Phys., 2023, just accepted.
   
   for PTB refer to:
   * S. Grimme, M. Mueller, A. Hansen, J. Chem. Phys., 2023, 158, 124111.
     DOI: 10.1063/5.0137838
   
   with help from (in alphabetical order)
   P. Atkinson, C. Bannwarth, F. Bohle, G. Brandenburg, E. Caldeweyher
   M. Checinski, S. Dohm, S. Ehlert, S. Ehrlich, I. Gerasimov, C. Hölzer
   A. Katbashev, J. Kohn, J. Koopman, C. Lavigne, S. Lehtola, F. März, M. Müller,
   F. Musil, H. Neugebauer, J. Pisarek, C. Plett, P. Pracht, F. Pultar,
   J. Seibert, P. Shushkov, S. Spicher, M. Stahn, M. Steiner, T. Strunk,
   J. Stückrath, T. Rose, and J. Unsleber
   
 * started run on 2026/09/01 at 16:34:33.036     
   ID    Z sym.   atoms
    1    6 C      1, 2, 4-14, 16, 18, 19
    2    7 N      3, 15, 17
    3    1 H      20-36, 85-96
    4    5 B      37-84

           -------------------------------------------------
          |                Calculation Setup                |
           -------------------------------------------------

          program call               : "c:\Users\Andre\Proyectos doctorado\kras-pancreatic-gC3N4-ai\tools\xtb\xtb-6.7.1\bin\xtb.exe" "c:\Users\Andre\Proyectos doctorado\borophene-alzheimer-tau-ai\calculations\tau\FDDNP\FDDNP_B48H12_clean_complex.xyz" --gfn 2 --sp --chrg 0 --uhf 0 --etemp 300 --iterations 500 --norestart
          coordinate file            : c:\Users\Andre\Proyectos doctorado\borophene-alzheimer-tau-ai\calculations\tau\FDDNP\FDDNP_B48H12_clean_complex.xyz
          omp threads                :                    16


molecular fragmentation (1/2 indicates fragments):
111111111111111111111111111111111111222222222222222222222222222222222222
222222222222222222222222
# atoms in fragment 1/2:    36    60
 fragment masses (1/2) :      251.33      531.02
CMA distance (Bohr)    :  14.961
constraining FC (au)   :  0.0500

           -------------------------------------------------
          |                 G F N 2 - x T B                 |
           -------------------------------------------------

        Reference                      10.1021/acs.jctc.8b01176
      * Hamiltonian:
        H0-scaling (s, p, d)           1.850000    2.230000    2.230000
        zeta-weighting                 0.500000
      * Dispersion:
        s8                             2.700000
        a1                             0.520000
        a2                             5.000000
        s9                             5.000000
      * Repulsion:
        kExp                           1.500000    1.000000
        rExp                           1.000000
      * Coulomb:
        alpha                          2.000000
        third order                    shell-resolved
        anisotropic                    true
        a3                             3.000000
        a5                             4.000000
        cn-shift                       1.200000
        cn-exp                         4.000000
        max-rad                        5.000000


          ...................................................
          :                      SETUP                      :
          :.................................................:
          :  # basis functions                 297          :
          :  # atomic orbitals                 297          :
          :  # shells                          163          :
          :  # electrons                       252          :
          :  max. iterations                   500          :
          :  Hamiltonian                  GFN2-xTB          :
          :  restarted?                      false          :
          :  GBSA solvation                  false          :
          :  PC potential                    false          :
          :  electronic temp.          300.0000000     K    :
          :  accuracy                    1.0000000          :
          :  -> integral cutoff          0.2500000E+02      :
          :  -> integral neglect         0.1000000E-07      :
          :  -> SCF convergence          0.1000000E-05 Eh   :
          :  -> wf. convergence          0.1000000E-03 e    :
          :  Broyden damping             0.4000000          :
          :  net charge                          0          :
          :  unpaired electrons                  0          :
          ...................................................

 iter      E             dE          RMSdq      gap      omega  full diag
   1   -117.0161563 -0.117016E+03  0.150E+01    0.02       0.0  T
   2   -114.4890665  0.252709E+01  0.982E+00    0.13       1.0  T
   3      3.3980621  0.117887E+03  0.162E+01    0.13       1.0  T
   4     73.8427259  0.704447E+02  0.183E+01    0.05       1.0  T
   5   -106.6257253 -0.180468E+03  0.643E+00    0.19       1.0  T
   6    -55.9250373  0.507007E+02  0.106E+01    0.20       1.0  T
   7   -111.9232324 -0.559982E+02  0.408E+00    0.08       1.0  T
   8   -113.0730429 -0.114981E+01  0.404E+00    0.17       1.0  T
   9   -117.5123798 -0.443934E+01  0.230E+00    0.55       1.0  T
  10   -117.6267724 -0.114393E+00  0.182E+00    0.24       1.0  T
  11   -117.6588750 -0.321026E-01  0.168E+00    0.27       1.0  T
  12   -117.6336291  0.252459E-01  0.129E+00    0.12       1.0  T
  13   -117.6757301 -0.421010E-01  0.920E-01    0.11       1.0  T
  14   -117.2013329  0.474397E+00  0.164E+00    0.18       1.0  T
  15   -117.5253970 -0.324064E+00  0.104E+00    0.02       1.0  T
  16   -117.4914338  0.339631E-01  0.116E+00    0.06       1.0  T
  17   -117.6091174 -0.117684E+00  0.708E-01    0.04       1.0  T
  18   -117.7399807 -0.130863E+00  0.482E-01    0.06       1.0  T
  19   -117.7381619  0.181879E-02  0.525E-01    0.02       1.0  T
  20   -117.7466425 -0.848056E-02  0.476E-01    0.03       1.0  T
  21   -117.7433181  0.332435E-02  0.497E-01    0.02       1.0  T
  22   -117.7636710 -0.203529E-01  0.364E-01    0.04       1.0  T
  23   -117.7685204 -0.484939E-02  0.296E-01    0.04       1.0  T
  24   -117.7738310 -0.531059E-02  0.192E-01    0.11       1.0  T
  25   -117.7713925  0.243851E-02  0.215E-01    0.12       1.0  T
  26   -117.7724861 -0.109360E-02  0.197E-01    0.11       1.0  T
  27   -117.7784231 -0.593701E-02  0.110E-01    0.09       1.0  T
  28   -117.7800611 -0.163807E-02  0.668E-02    0.08       1.0  T
  29   -117.7802418 -0.180623E-03  0.587E-02    0.08       1.0  T
  30   -117.7802324  0.930510E-05  0.619E-02    0.06       1.0  T
  31   -117.7793350  0.897486E-03  0.871E-02    0.05       1.0  T
  32   -117.7800082 -0.673279E-03  0.645E-02    0.06       1.0  T
  33   -117.7800885 -0.802415E-04  0.608E-02    0.06       1.0  T
  34   -117.7796941  0.394421E-03  0.729E-02    0.06       1.0  T
  35   -117.7803762 -0.682185E-03  0.467E-02    0.06       1.0  T
  36   -117.7807041 -0.327816E-03  0.254E-02    0.07       1.0  T
  37   -117.7807639 -0.598464E-04  0.180E-02    0.07       1.0  T
  38   -117.7808020 -0.381035E-04  0.111E-02    0.07       1.0  T
  39   -117.7808173 -0.152615E-04  0.593E-03    0.07       1.7  T
  40   -117.7808180 -0.763632E-06  0.416E-03    0.07       2.5  T
  41   -117.7808186 -0.567532E-06  0.336E-03    0.07       3.0  T
  42   -117.7808193 -0.710771E-06  0.245E-03    0.07       4.2  T
  43   -117.7808198 -0.512836E-06  0.198E-03    0.07       5.2  T
  44   -117.7808202 -0.385448E-06  0.119E-03    0.07       8.6  T
  45   -117.7808203 -0.133858E-06  0.554E-04    0.07      18.4  T
  46   -117.7808204 -0.153164E-07  0.495E-04    0.07      20.6  T

   *** convergence criteria satisfied after 46 iterations ***

         #    Occupation            Energy/Eh            Energy/eV
      -------------------------------------------------------------
         1        2.0000           -0.6475654             -17.6212
       ...           ...                  ...                  ...
       120        2.0000           -0.2910649              -7.9203
       121        2.0000           -0.2878989              -7.8341
       122        2.0000           -0.2855549              -7.7703
       123        2.0000           -0.2824939              -7.6870
       124        2.0000           -0.2802441              -7.6258
       125        2.0000           -0.2766157              -7.5271
       126        1.5884           -0.2654270              -7.2226 (HOMO)
       127        0.4115           -0.2628607              -7.1528 (LUMO)
       128        0.0000           -0.2540154              -6.9121
       129                         -0.2386577              -6.4942
       130                         -0.2342777              -6.3750
       131                         -0.2316245              -6.3028
       ...                                ...                  ...
       297                          1.2050369              32.7907
      -------------------------------------------------------------
                  HL-Gap            0.0025663 Eh            0.0698 eV
             Fermi-level           -0.2641439 Eh           -7.1877 eV

 SCC (total)                   0 d,  0 h,  0 min,  0.831 sec
 SCC setup                      ...        0 min,  0.001 sec (  0.120%)
 Dispersion                     ...        0 min,  0.003 sec (  0.361%)
 classical contributions        ...        0 min,  0.000 sec (  0.000%)
 integral evaluation            ...        0 min,  0.007 sec (  0.842%)
 iterations                     ...        0 min,  0.797 sec ( 95.909%)
 molecular gradient             ...        0 min,  0.022 sec (  2.647%)
 printout                       ...        0 min,  0.001 sec (  0.120%)

         :::::::::::::::::::::::::::::::::::::::::::::::::::::
         ::                     SUMMARY                     ::
         :::::::::::::::::::::::::::::::::::::::::::::::::::::
         :: total energy            -115.860776448067 Eh    ::
         :: gradient norm              0.099789886685 Eh/a0 ::
         :: HOMO-LUMO gap              0.069832384659 eV    ::
         ::.................................................::
         :: SCC energy              -117.779977176000 Eh    ::
         :: -> isotropic ES            0.304301757794 Eh    ::
         :: -> anisotropic ES          0.013103065365 Eh    ::
         :: -> anisotropic XC          0.016547882875 Eh    ::
         :: -> dispersion             -0.105044951280 Eh    ::
         :: repulsion energy           1.919200727932 Eh    ::
         :: add. restraining           0.000000000000 Eh    ::
         :: total charge               0.000000000001 e     ::
         :::::::::::::::::::::::::::::::::::::::::::::::::::::

           -------------------------------------------------
          |                Property Printout                |
           -------------------------------------------------

    * Orbital Energies and Occupations

         #    Occupation            Energy/Eh            Energy/eV
      -------------------------------------------------------------
         1        2.0000           -0.6475654             -17.6212
       ...           ...                  ...                  ...
       114        2.0000           -0.3088853              -8.4052
       115        2.0000           -0.3064058              -8.3377
       116        2.0000           -0.3036844              -8.2637
       117        2.0000           -0.3011733              -8.1953
       118        2.0000           -0.2987068              -8.1282
       119        2.0000           -0.2956455              -8.0449
       120        2.0000           -0.2910649              -7.9203
       121        2.0000           -0.2878989              -7.8341
       122        2.0000           -0.2855549              -7.7703
       123        2.0000           -0.2824939              -7.6870
       124        2.0000           -0.2802441              -7.6258
       125        2.0000           -0.2766157              -7.5271
       126        1.5884           -0.2654270              -7.2226 (HOMO)
       127        0.4115           -0.2628607              -7.1528 (LUMO)
       128        0.0000           -0.2540154              -6.9121
       129                         -0.2386577              -6.4942
       130                         -0.2342777              -6.3750
       131                         -0.2316245              -6.3028
       132                         -0.2258805              -6.1465
       133                         -0.2120726              -5.7708
       134                         -0.2102797              -5.7220
       135                         -0.2085965              -5.6762
       136                         -0.2064067              -5.6166
       137                         -0.1998661              -5.4386
       ...                                ...                  ...
       297                          1.2050369              32.7907
      -------------------------------------------------------------
                  HL-Gap            0.0025663 Eh            0.0698 eV
             Fermi-level           -0.2641439 Eh           -7.1877 eV

     #   Z          covCN         q      C6AA      α(0)
     1   6 C        3.749    -0.109    22.654     6.788
     2   6 C        3.737     0.003    20.607     6.478
     3   7 N        2.731    -0.113    23.469     7.195
     4   6 C        3.737    -0.001    20.675     6.488
     5   6 C        3.749    -0.114    22.748     6.802
     6   6 C        2.891     0.060    26.647     8.463
     7   6 C        2.922    -0.065    29.614     8.924
     8   6 C        2.918    -0.042    29.038     8.837
     9   6 C        2.965    -0.001    28.051     8.687
    10   6 C        2.902    -0.049    29.217     8.863
    11   6 C        2.893    -0.049    29.212     8.861
    12   6 C        2.921    -0.027    28.677     8.782
    13   6 C        2.944    -0.011    28.296     8.724
    14   6 C        1.910     0.107    28.448     8.614
    15   7 N        0.911    -0.291    27.502     7.585
    16   6 C        1.918     0.104    28.526     8.625
    17   7 N        0.911    -0.280    27.224     7.546
    18   6 C        2.914    -0.043    29.065     8.841
    19   6 C        2.922    -0.069    29.719     8.940
    20   1 H        0.924     0.036     2.497     2.471
    21   1 H        0.924     0.046     2.371     2.408
    22   1 H        0.924     0.042     2.427     2.436
    23   1 H        0.924     0.038     2.482     2.464
    24   1 H        0.924     0.038     2.474     2.460
    25   1 H        0.924     0.042     2.423     2.434
    26   1 H        0.924     0.033     2.546     2.495
    27   1 H        0.924     0.042     2.426     2.436
    28   1 H        0.924     0.048     2.341     2.393
    29   1 H        0.924     0.035     2.519     2.482
    30   1 H        0.925     0.021     2.721     2.580
    31   1 H        0.925     0.025     2.661     2.551
    32   1 H        0.925     0.026     2.640     2.541
    33   1 H        0.925     0.031     2.579     2.511
    34   1 H        0.924     0.026     2.646     2.544
    35   1 H        0.925     0.029     2.598     2.520
    36   1 H        0.925     0.020     2.731     2.584
    37   5 B        2.839     0.116    19.505     7.375
    38   5 B        3.803     0.031    22.141     7.587
    39   5 B        3.718    -0.016    22.918     7.739
    40   5 B        2.746     0.020    21.202     7.708
    41   5 B        2.911    -0.039    22.107     7.846
    42   5 B        3.855     0.017    22.418     7.631
    43   5 B        2.869     0.065    20.309     7.523
    44   5 B        2.921     0.002    21.363     7.713
    45   5 B        3.823     0.059    21.654     7.501
    46   5 B        3.767     0.025    22.233     7.607
    47   5 B        3.849     0.006    22.630     7.667
    48   5 B        4.346     0.058    21.691     7.504
    49   5 B        4.682     0.091    21.124     7.406
    50   5 B        3.801     0.069    21.469     7.471
    51   5 B        3.829     0.061    21.617     7.495
    52   5 B        3.950     0.048    21.867     7.535
    53   5 B        4.552     0.059    21.668     7.500
    54   5 B        5.635     0.109    20.817     7.351
    55   5 B        4.742     0.034    22.116     7.577
    56   5 B        3.678     0.043    21.710     7.556
    57   5 B        4.781     0.081    21.286     7.434
    58   5 B        4.465     0.036    22.082     7.572
    59   5 B        3.855     0.052    21.786     7.522
    60   5 B        3.833     0.053    21.763     7.519
    61   5 B        3.834     0.011    22.519     7.649
    62   5 B        3.803    -0.020    23.085     7.747
    63   5 B        3.806     0.008    22.566     7.659
    64   5 B        4.226    -0.011    22.948     7.718
    65   5 B        3.802     0.030    22.166     7.591
    66   5 B        3.878     0.034    22.119     7.579
    67   5 B        2.888     0.115    19.494     7.369
    68   5 B        3.778     0.079    21.279     7.441
    69   5 B        3.898     0.054    21.756     7.516
    70   5 B        3.709     0.039    21.883     7.567
    71   5 B        3.761     0.030    22.124     7.590
    72   5 B        3.854     0.044    21.936     7.548
    73   5 B        4.286     0.052    21.800     7.523
    74   5 B        2.876     0.088    19.928     7.452
    75   5 B        3.771     0.081    21.247     7.436
    76   5 B        3.795     0.009    22.537     7.655
    77   5 B        2.925     0.013    21.176     7.678
    78   5 B        3.663     0.008    22.273     7.666
    79   5 B        2.926     0.027    20.927     7.633
    80   5 B        3.840     0.002    22.700     7.679
    81   5 B        3.860     0.018    22.409     7.629
    82   5 B        2.912     0.011    21.207     7.685
    83   5 B        2.915     0.014    21.154     7.675
    84   5 B        2.842     0.140    19.131     7.304
    85   1 H        0.935    -0.131     6.799     4.077
    86   1 H        0.939    -0.086     5.102     3.531
    87   1 H        0.934    -0.128     6.660     4.035
    88   1 H        0.932    -0.148     7.584     4.306
    89   1 H        0.938    -0.128     6.657     4.034
    90   1 H        0.940    -0.131     6.771     4.068
    91   1 H        0.936    -0.115     6.117     3.867
    92   1 H        0.939    -0.145     7.423     4.260
    93   1 H        0.938    -0.128     6.640     4.029
    94   1 H        0.936    -0.134     6.929     4.116
    95   1 H        0.935    -0.124     6.462     3.975
    96   1 H        0.933    -0.149     7.633     4.320

 Mol. C6AA /au·bohr⁶  :     143931.150233
 Mol. C8AA /au·bohr⁸  :    4528699.545847
 Mol. α(0) /au        :        608.300814


Wiberg/Mayer (AO) data.
largest (>0.10) Wiberg bond orders for each atom

 ---------------------------------------------------------------------------
     #   Z sym  total        # sym  WBO       # sym  WBO       # sym  WBO
 ---------------------------------------------------------------------------
     1   6 C    3.993 --     2 C    1.012    21 H    0.985    22 H    0.985
                            20 H    0.985
     2   6 C    3.981 --     1 C    1.012     3 N    0.994    24 H    0.972
                            23 H    0.966
     3   7 N    3.363 --     6 C    1.142     4 C    0.997     2 C    0.994
     4   6 C    3.982 --     5 C    1.011     3 N    0.997    26 H    0.970
                            25 H    0.969
     5   6 C    3.993 --     4 C    1.011    27 H    0.985    29 H    0.985
                            28 H    0.985
     6   6 C    3.947 --    19 C    1.333     7 C    1.332     3 N    1.142
     7   6 C    3.983 --     8 C    1.470     6 C    1.332    30 H    0.967
     8   6 C    3.962 --     7 C    1.470     9 C    1.358    31 H    0.971
     9   6 C    3.979 --    18 C    1.360     8 C    1.358    10 C    1.100
    10   6 C    3.833 --    11 C    1.659     9 C    1.100    32 H    0.961
    11   6 C    3.955 --    10 C    1.659    12 C    1.216    33 H    0.962
    12   6 C    3.830 --    13 C    1.478    11 C    1.216    34 H    0.964
    13   6 C    3.875 --    12 C    1.478    14 C    1.110    16 C    1.103
    14   6 C    3.921 --    15 N    2.738    13 C    1.110
    15   7 N    2.928 --    14 C    2.738
    16   6 C    3.923 --    17 N    2.747    13 C    1.103
    17   7 N    2.925 --    16 C    2.747
    18   6 C    3.962 --    19 C    1.467     9 C    1.360    35 H    0.969
    19   6 C    3.982 --    18 C    1.467     6 C    1.333    36 H    0.967
    20   1 H    0.998 --     1 C    0.985
    21   1 H    0.998 --     1 C    0.985
    22   1 H    0.998 --     1 C    0.985
    23   1 H    0.998 --     2 C    0.966
    24   1 H    0.998 --     2 C    0.972
    25   1 H    0.998 --     4 C    0.969
    26   1 H    0.998 --     4 C    0.970
    27   1 H    0.998 --     5 C    0.985
    28   1 H    0.998 --     5 C    0.985
    29   1 H    0.998 --     5 C    0.985
    30   1 H    0.999 --     7 C    0.967
    31   1 H    0.999 --     8 C    0.971
    32   1 H    0.998 --    10 C    0.961
    33   1 H    0.999 --    11 C    0.962
    34   1 H    0.999 --    12 C    0.964
    35   1 H    0.999 --    18 C    0.969
    36   1 H    0.999 --    19 C    0.967
    37   5 B    3.280 --    44 B    1.205    96 H    0.944    88 H    0.940
    38   5 B    3.546 --    39 B    1.200    44 B    0.853    45 B    0.530
                            53 B    0.485    52 B    0.140
    39   5 B    3.575 --    38 B    1.200    46 B    1.122    54 B    0.464
                            53 B    0.453
    40   5 B    3.362 --    41 B    1.373    47 B    1.082    56 B    0.427
                            57 B    0.105
    41   5 B    3.518 --    40 B    1.373    48 B    1.110    57 B    0.622
    42   5 B    3.564 --    43 B    1.305    48 B    0.752    49 B    0.685
                            50 B    0.679
    43   5 B    3.385 --    42 B    1.305    92 H    0.969    50 B    0.816
                            49 B    0.129
    44   5 B    3.395 --    37 B    1.205    45 B    1.071    38 B    0.853
    45   5 B    3.504 --    44 B    1.071    51 B    0.818    52 B    0.708
                            38 B    0.530
    46   5 B    3.440 --    39 B    1.122    47 B    0.997    55 B    0.546
                            54 B    0.443
    47   5 B    3.539 --    40 B    1.082    46 B    0.997    56 B    0.642
                            55 B    0.613
    48   5 B    3.525 --    41 B    1.110    42 B    0.752    57 B    0.636
                            49 B    0.459    58 B    0.323
    49   5 B    3.623 --    50 B    0.902    59 B    0.690    42 B    0.685
                            58 B    0.573    48 B    0.459    43 B    0.129
    50   5 B    3.564 --    94 H    0.938    49 B    0.902    43 B    0.816
                            42 B    0.679
    51   5 B    3.567 --    91 H    0.923    61 B    0.832    45 B    0.818
                            52 B    0.802
    52   5 B    3.646 --    61 B    0.850    53 B    0.811    51 B    0.802
                            45 B    0.708    38 B    0.140
    53   5 B    3.554 --    52 B    0.811    62 B    0.798    54 B    0.646
                            38 B    0.485    39 B    0.453
    54   5 B    3.670 --    62 B    0.727    63 B    0.704    53 B    0.646
                            55 B    0.518    39 B    0.464    46 B    0.443
    55   5 B    3.565 --    56 B    0.948    63 B    0.720    47 B    0.613
                            46 B    0.546    54 B    0.518
    56   5 B    3.494 --    64 B    1.039    55 B    0.948    47 B    0.642
                            40 B    0.427
    57   5 B    3.614 --    65 B    0.686    58 B    0.644    64 B    0.639
                            48 B    0.636    41 B    0.622    40 B    0.105
    58   5 B    3.595 --    65 B    1.015    59 B    0.769    57 B    0.644
                            49 B    0.573    48 B    0.323
    59   5 B    3.669 --    66 B    0.834    60 B    0.806    58 B    0.769
                            49 B    0.690    67 B    0.165
    60   5 B    3.612 --    67 B    0.996    86 H    0.908    59 B    0.806
                            66 B    0.736
    61   5 B    3.571 --    69 B    0.879    52 B    0.850    51 B    0.832
                            68 B    0.722
    62   5 B    3.625 --    70 B    1.106    53 B    0.798    54 B    0.727
                            63 B    0.597
    63   5 B    3.513 --    71 B    1.090    55 B    0.720    54 B    0.704
                            62 B    0.597
    64   5 B    3.593 --    56 B    1.039    72 B    0.897    57 B    0.639
                            65 B    0.463    73 B    0.267
    65   5 B    3.571 --    58 B    1.015    73 B    0.966    57 B    0.686
                            64 B    0.463
    66   5 B    3.598 --    67 B    0.957    74 B    0.896    59 B    0.834
                            60 B    0.736
    67   5 B    3.415 --    60 B    0.996    90 H    0.974    66 B    0.957
                            74 B    0.181    59 B    0.165
    68   5 B    3.546 --    93 H    0.955    75 B    0.863    69 B    0.827
                            61 B    0.722
    69   5 B    3.638 --    61 B    0.879    75 B    0.875    68 B    0.827
                            76 B    0.766
    70   5 B    3.595 --    62 B    1.106    77 B    0.827    76 B    0.688
                            78 B    0.549
    71   5 B    3.603 --    63 B    1.090    79 B    0.860    80 B    0.696
                            78 B    0.585
    72   5 B    3.551 --    64 B    0.897    80 B    0.789    81 B    0.709
                            73 B    0.663
    73   5 B    3.571 --    65 B    0.966    82 B    0.746    81 B    0.683
                            72 B    0.663    64 B    0.267
    74   5 B    3.435 --    83 B    0.991    87 H    0.934    66 B    0.896
                            67 B    0.181    84 B    0.158
    75   5 B    3.539 --    89 H    0.956    69 B    0.875    68 B    0.863
                            76 B    0.659
    76   5 B    3.577 --    77 B    1.259    69 B    0.766    70 B    0.688
                            75 B    0.659
    77   5 B    3.544 --    76 B    1.259    78 B    1.115    70 B    0.827
    78   5 B    3.548 --    77 B    1.115    79 B    1.113    71 B    0.585
                            70 B    0.549
    79   5 B    3.515 --    80 B    1.163    78 B    1.113    71 B    0.860
    80   5 B    3.592 --    79 B    1.163    72 B    0.789    81 B    0.738
                            71 B    0.696
    81   5 B    3.573 --    82 B    1.196    80 B    0.738    72 B    0.709
                            73 B    0.683
    82   5 B    3.508 --    81 B    1.196    83 B    1.059    73 B    0.746
                            84 B    0.121
    83   5 B    3.382 --    82 B    1.059    84 B    1.055    74 B    0.991
    84   5 B    3.271 --    83 B    1.055    95 H    0.953    85 H    0.953
                            74 B    0.158    82 B    0.121
    85   1 H    0.980 --    84 B    0.953
    86   1 H    0.987 --    60 B    0.908
    87   1 H    0.981 --    74 B    0.934
    88   1 H    0.969 --    37 B    0.940
    89   1 H    0.980 --    75 B    0.956
    90   1 H    0.982 --    67 B    0.974
    91   1 H    0.977 --    51 B    0.923
    92   1 H    0.977 --    43 B    0.969
    93   1 H    0.978 --    68 B    0.955
    94   1 H    0.974 --    50 B    0.938
    95   1 H    0.981 --    84 B    0.953
    96   1 H    0.970 --    37 B    0.944
 ---------------------------------------------------------------------------

Topologies differ in total number of bonds
Writing topology from bond orders to xtbtopo.mol

molecular dipole:
                 x           y           z       tot (Debye)
 q only:       -5.987       0.541      -4.935
   full:       -5.904       1.186      -3.974      18.339
molecular quadrupole (traceless):
                xx          xy          yy          xz          yz          zz
 q only:      -93.921     -30.183      71.156    -115.413      -5.981      22.765
  q+dip:      -53.519     -31.688      47.835    -121.709     -11.854       5.685
   full:      -73.418     -32.713      40.674    -121.102      -6.647      32.744


           -------------------------------------------------
          | TOTAL ENERGY             -115.860776448067 Eh   |
          | GRADIENT NORM               0.099789886685 Eh/α |
          | HOMO-LUMO GAP               0.069832384659 eV   |
           -------------------------------------------------

------------------------------------------------------------------------
 * finished run on 2026/09/01 at 16:34:33.938     
------------------------------------------------------------------------
 total:
 * wall-time:     0 d,  0 h,  0 min,  0.900 sec
 *  cpu-time:     0 d,  0 h,  0 min,  7.062 sec
 * ratio c/w:     7.847 speedup
 SCF:
 * wall-time:     0 d,  0 h,  0 min,  0.832 sec
 *  cpu-time:     0 d,  0 h,  0 min,  6.750 sec
 * ratio c/w:     8.113 speedup

normal termination of xtb
