      -----------------------------------------------------------      
     |                   =====================                   |     
     |                           x T B                           |     
     |                   =====================                   |     
     |                         S. Grimme                         |     
     |          Mulliken Center for Theoretical Chemistry        |     
     |                    University of Bonn                     |     
      -----------------------------------------------------------      

   * xtb version 6.7.1pre (5071a88) compiled by 'Marcel@Raven' on 2024-07-23

   xtb is free software: you can redistribute it and/or modify it under
   the terms of the GNU Lesser General Public License as published by
   the Free Software Foundation, either version 3 of the License, or
   (at your option) any later version.
   
   xtb is distributed in the hope that it will be useful,
   but WITHOUT ANY WARRANTY; without even the implied warranty of
   MERCHANTABILITY or FITNESS FOR A PARTICULAR PURPOSE.  See the
   GNU Lesser General Public License for more details.
   
   Cite this work as:
   * C. Bannwarth, E. Caldeweyher, S. Ehlert, A. Hansen, P. Pracht,
     J. Seibert, S. Spicher, S. Grimme, WIREs Comput. Mol. Sci., 2020, 11,
     e01493. DOI: 10.1002/wcms.1493
   
   for GFN2-xTB:
   * C. Bannwarth, S. Ehlert and S. Grimme., J. Chem. Theory Comput., 2019,
     15, 1652-1671. DOI: 10.1021/acs.jctc.8b01176
   for GFN1-xTB:
   * S. Grimme, C. Bannwarth, P. Shushkov, J. Chem. Theory Comput., 2017,
     13, 1989-2009. DOI: 10.1021/acs.jctc.7b00118
   for GFN0-xTB:
   * P. Pracht, E. Caldeweyher, S. Ehlert, S. Grimme, ChemRxiv, 2019, preprint.
     DOI: 10.26434/chemrxiv.8326202.v1
   for GFN-FF:
   * S. Spicher and S. Grimme, Angew. Chem. Int. Ed., 2020, 59, 15665-15673.
     DOI: 10.1002/anie.202004239
   
   for ALPB and GBSA implicit solvation:
   * S. Ehlert, M. Stahn, S. Spicher, S. Grimme, J. Chem. Theory Comput.,
     2021, 17, 4250-4261. DOI: 10.1021/acs.jctc.1c00471
   
   for ddCOSMO and CPCM-X implicit solvation:
   * M. Stahn, S. Ehlert, S. Grimme, J. Phys. Chem. A,
     2023, XX, XXXX-XXXX. DOI: 10.1021/acs.jpca.3c04382
   
   for DFT-D4:
   * E. Caldeweyher, C. Bannwarth and S. Grimme, J. Chem. Phys., 2017,
     147, 034112. DOI: 10.1063/1.4993215
   * E. Caldeweyher, S. Ehlert, A. Hansen, H. Neugebauer, S. Spicher,
     C. Bannwarth and S. Grimme, J. Chem. Phys., 2019, 150, 154122.
     DOI: 10.1063/1.5090222
   * E. Caldeweyher, J.-M. Mewes, S. Ehlert and S. Grimme, Phys. Chem. Chem. Phys.
     2020, 22, 8499-8512. DOI: 10.1039/D0CP00502A
   
   for sTDA-xTB:
   * S. Grimme and C. Bannwarth, J. Chem. Phys., 2016, 145, 054103.
     DOI: 10.1063/1.4959605
   
   in the mass-spec context:
   * V. Asgeirsson, C. Bauer and S. Grimme, Chem. Sci., 2017, 8, 4879.
     DOI: 10.1039/c7sc00601b
   * J. Koopman and S. Grimme, ACS Omega 2019, 4, 12, 15120-15133.
     DOI: 10.1021/acsomega.9b02011
   
   for metadynamics refer to:
   * S. Grimme, J. Chem. Theory Comput., 2019, 155, 2847-2862
     DOI: 10.1021/acs.jctc.9b00143
   
   for SPH calculations refer to:
   * S. Spicher and S. Grimme, J. Chem. Theory Comput., 2021, 17, 1701-1714
     DOI: 10.1021/acs.jctc.0c01306
   
   for ONIOM refer to:
   * C. Plett, A. Katbashev, S. Ehlert, S. Grimme, M. Bursch,
     Phys. Chem. Chem. Phys., 2023, 25, 17860-17868. DOI: 10.1039/D3CP02178E
   
   for DIPRO refer to:
   * J. Kohn, N. Gildemeister, S. Grimme, D. Fazzi, A. Hansen,
     J. Chem. Phys., 2023, just accepted.
   
   for PTB refer to:
   * S. Grimme, M. Mueller, A. Hansen, J. Chem. Phys., 2023, 158, 124111.
     DOI: 10.1063/5.0137838
   
   with help from (in alphabetical order)
   P. Atkinson, C. Bannwarth, F. Bohle, G. Brandenburg, E. Caldeweyher
   M. Checinski, S. Dohm, S. Ehlert, S. Ehrlich, I. Gerasimov, C. Hölzer
   A. Katbashev, J. Kohn, J. Koopman, C. Lavigne, S. Lehtola, F. März, M. Müller,
   F. Musil, H. Neugebauer, J. Pisarek, C. Plett, P. Pracht, F. Pultar,
   J. Seibert, P. Shushkov, S. Spicher, M. Stahn, M. Steiner, T. Strunk,
   J. Stückrath, T. Rose, and J. Unsleber
   
 * started run on 2026/08/31 at 21:15:24.088     
   ID    Z sym.   atoms
    1    6 C      1, 2, 4-14, 16, 18, 19
    2    7 N      3, 15, 17
    3    1 H      20-36, 90-96
    4    5 B      37-89

           -------------------------------------------------
          |                Calculation Setup                |
           -------------------------------------------------

          program call               : "c:\Users\Andre\Proyectos doctorado\kras-pancreatic-gC3N4-ai\tools\xtb\xtb-6.7.1\bin\xtb.exe" "c:\Users\Andre\Proyectos doctorado\borophene-alzheimer-tau-ai\calculations\tau\FDDNP\FDDNP_B48H12_phys_complex.xyz" --gfn 2 --sp --chrg 0 --uhf 0 --etemp 300 --iterations 500 --norestart
          coordinate file            : c:\Users\Andre\Proyectos doctorado\borophene-alzheimer-tau-ai\calculations\tau\FDDNP\FDDNP_B48H12_phys_complex.xyz
          omp threads                :                    16


molecular fragmentation (1/2 indicates fragments):
111111111111111111111111111111111111222222222222222222222222222222222222
222222222222222222222222
# atoms in fragment 1/2:    36    60
 fragment masses (1/2) :      251.33      580.04
CMA distance (Bohr)    :  11.401
constraining FC (au)   :  0.0500

           -------------------------------------------------
          |                 G F N 2 - x T B                 |
           -------------------------------------------------

        Reference                      10.1021/acs.jctc.8b01176
      * Hamiltonian:
        H0-scaling (s, p, d)           1.850000    2.230000    2.230000
        zeta-weighting                 0.500000
      * Dispersion:
        s8                             2.700000
        a1                             0.520000
        a2                             5.000000
        s9                             5.000000
      * Repulsion:
        kExp                           1.500000    1.000000
        rExp                           1.000000
      * Coulomb:
        alpha                          2.000000
        third order                    shell-resolved
        anisotropic                    true
        a3                             3.000000
        a5                             4.000000
        cn-shift                       1.200000
        cn-exp                         4.000000
        max-rad                        5.000000


          ...................................................
          :                      SETUP                      :
          :.................................................:
          :  # basis functions                 312          :
          :  # atomic orbitals                 312          :
          :  # shells                          168          :
          :  # electrons                       262          :
          :  max. iterations                   500          :
          :  Hamiltonian                  GFN2-xTB          :
          :  restarted?                      false          :
          :  GBSA solvation                  false          :
          :  PC potential                    false          :
          :  electronic temp.          300.0000000     K    :
          :  accuracy                    1.0000000          :
          :  -> integral cutoff          0.2500000E+02      :
          :  -> integral neglect         0.1000000E-07      :
          :  -> SCF convergence          0.1000000E-05 Eh   :
          :  -> wf. convergence          0.1000000E-03 e    :
          :  Broyden damping             0.4000000          :
          :  net charge                          0          :
          :  unpaired electrons                  0          :
          ...................................................

 iter      E             dE          RMSdq      gap      omega  full diag
   1   -120.1557095 -0.120156E+03  0.153E+01    0.05       0.0  T
   2   -115.5668414  0.458887E+01  0.105E+01    0.14       1.0  T
   3    -13.2550632  0.102312E+03  0.174E+01    0.02       1.0  T
   4    -32.6011698 -0.193461E+02  0.127E+01    0.12       1.0  T
   5    -62.8836448 -0.302825E+02  0.104E+01    0.00       1.0  T
   6   -105.0363461 -0.421527E+02  0.631E+00    0.04       1.0  T
   7    -83.3878335  0.216485E+02  0.851E+00    0.08       1.0  T
   8   -114.0312998 -0.306435E+02  0.434E+00    0.07       1.0  T
   9   -120.0394648 -0.600817E+01  0.294E+00    0.07       1.0  T
  10   -120.9672169 -0.927752E+00  0.221E+00    0.31       1.0  T
  11   -121.1123827 -0.145166E+00  0.200E+00    0.06       1.0  T
  12   -121.1414238 -0.290411E-01  0.176E+00    0.45       1.0  T
  13   -121.1849667 -0.435429E-01  0.150E+00    0.43       1.0  T
  14   -121.0894036  0.955631E-01  0.113E+00    0.01       1.0  T
  15   -121.2210449 -0.131641E+00  0.848E-01    0.46       1.0  T
  16   -121.2271711 -0.612619E-02  0.680E-01    0.17       1.0  T
  17   -121.0611310  0.166040E+00  0.117E+00    0.08       1.0  T
  18   -121.2057039 -0.144573E+00  0.789E-01    0.01       1.0  T
  19   -121.1097649  0.959390E-01  0.996E-01    0.05       1.0  T
  20   -121.1403152 -0.305503E-01  0.912E-01    0.04       1.0  T
  21   -121.2116158 -0.713006E-01  0.601E-01    0.01       1.0  T
  22   -121.2614782 -0.498624E-01  0.313E-01    0.03       1.0  T
  23   -121.2706518 -0.917359E-02  0.231E-01    0.05       1.0  T
  24   -121.2689309  0.172085E-02  0.249E-01    0.03       1.0  T
  25   -121.2654971  0.343382E-02  0.260E-01    0.02       1.0  T
  26   -121.2705137 -0.501657E-02  0.180E-01    0.03       1.0  T
  27   -121.2670510  0.346267E-02  0.219E-01    0.02       1.0  T
  28   -121.2698573 -0.280628E-02  0.176E-01    0.03       1.0  T
  29   -121.2716697 -0.181247E-02  0.141E-01    0.03       1.0  T
  30   -121.2732287 -0.155894E-02  0.100E-01    0.04       1.0  T
  31   -121.2737871 -0.558387E-03  0.743E-02    0.04       1.0  T
  32   -121.2734293  0.357742E-03  0.796E-02    0.04       1.0  T
  33   -121.2743773 -0.947976E-03  0.365E-02    0.05       1.0  T
  34   -121.2744026 -0.253423E-04  0.338E-02    0.05       1.0  T
  35   -121.2745109 -0.108231E-03  0.246E-02    0.05       1.0  T
  36   -121.2745372 -0.263545E-04  0.219E-02    0.05       1.0  T
  37   -121.2746043 -0.671086E-04  0.140E-02    0.05       1.0  T
  38   -121.2746389 -0.345833E-04  0.877E-03    0.05       1.2  T
  39   -121.2746480 -0.906081E-05  0.716E-03    0.05       1.4  T
  40   -121.2746559 -0.796365E-05  0.444E-03    0.05       2.3  T
  41   -121.2746592 -0.324851E-05  0.247E-03    0.05       4.1  T
  42   -121.2746594 -0.222795E-06  0.165E-03    0.05       6.2  T
  43   -121.2746597 -0.248794E-06  0.145E-03    0.05       7.1  T
  44   -121.2746598 -0.853390E-07  0.125E-03    0.05       8.1  T
  45   -121.2746599 -0.136746E-06  0.672E-04    0.05      15.2  T
  46   -121.2746599  0.433909E-08  0.554E-04    0.05      18.4  T

   *** convergence criteria satisfied after 46 iterations ***

         #    Occupation            Energy/Eh            Energy/eV
      -------------------------------------------------------------
         1        2.0000           -0.6327312             -17.2175
       ...           ...                  ...                  ...
       125        2.0000           -0.2778221              -7.5599
       126        2.0000           -0.2721037              -7.4043
       127        2.0000           -0.2711109              -7.3773
       128        2.0000           -0.2670572              -7.2670
       129        1.9999           -0.2633240              -7.1654
       130        1.9987           -0.2612568              -7.1092
       131        1.4668           -0.2552135              -6.9447 (HOMO)
       132        0.5346           -0.2532943              -6.8925 (LUMO)
       133                         -0.2382300              -6.4826
       134                         -0.2337949              -6.3619
       135                         -0.2301312              -6.2622
       136                         -0.2210270              -6.0145
       ...                                ...                  ...
       312                          1.1835280              32.2054
      -------------------------------------------------------------
                  HL-Gap            0.0019192 Eh            0.0522 eV
             Fermi-level           -0.2542522 Eh           -6.9186 eV

 SCC (total)                   0 d,  0 h,  0 min,  0.770 sec
 SCC setup                      ...        0 min,  0.001 sec (  0.130%)
 Dispersion                     ...        0 min,  0.003 sec (  0.390%)
 classical contributions        ...        0 min,  0.000 sec (  0.000%)
 integral evaluation            ...        0 min,  0.007 sec (  0.909%)
 iterations                     ...        0 min,  0.738 sec ( 95.844%)
 molecular gradient             ...        0 min,  0.020 sec (  2.597%)
 printout                       ...        0 min,  0.001 sec (  0.130%)

         :::::::::::::::::::::::::::::::::::::::::::::::::::::
         ::                     SUMMARY                     ::
         :::::::::::::::::::::::::::::::::::::::::::::::::::::
         :: total energy            -119.275107136476 Eh    ::
         :: gradient norm              0.109159208420 Eh/a0 ::
         :: HOMO-LUMO gap              0.052223629885 eV    ::
         ::.................................................::
         :: SCC energy              -121.270779710507 Eh    ::
         :: -> isotropic ES            0.263365384208 Eh    ::
         :: -> anisotropic ES          0.007619041345 Eh    ::
         :: -> anisotropic XC          0.001237043341 Eh    ::
         :: -> dispersion             -0.121709161215 Eh    ::
         :: repulsion energy           1.995672574031 Eh    ::
         :: add. restraining           0.000000000000 Eh    ::
         :: total charge              -0.000000000000 e     ::
         :::::::::::::::::::::::::::::::::::::::::::::::::::::

           -------------------------------------------------
          |                Property Printout                |
           -------------------------------------------------

    * Orbital Energies and Occupations

         #    Occupation            Energy/Eh            Energy/eV
      -------------------------------------------------------------
         1        2.0000           -0.6327312             -17.2175
       ...           ...                  ...                  ...
       119        2.0000           -0.2928565              -7.9690
       120        2.0000           -0.2913092              -7.9269
       121        2.0000           -0.2865575              -7.7976
       122        2.0000           -0.2842662              -7.7353
       123        2.0000           -0.2819969              -7.6735
       124        2.0000           -0.2791569              -7.5962
       125        2.0000           -0.2778221              -7.5599
       126        2.0000           -0.2721037              -7.4043
       127        2.0000           -0.2711109              -7.3773
       128        2.0000           -0.2670572              -7.2670
       129        1.9999           -0.2633240              -7.1654
       130        1.9987           -0.2612568              -7.1092
       131        1.4668           -0.2552135              -6.9447 (HOMO)
       132        0.5346           -0.2532943              -6.8925 (LUMO)
       133                         -0.2382300              -6.4826
       134                         -0.2337949              -6.3619
       135                         -0.2301312              -6.2622
       136                         -0.2210270              -6.0145
       137                         -0.2204680              -5.9992
       138                         -0.2167093              -5.8970
       139                         -0.2093841              -5.6976
       140                         -0.2049808              -5.5778
       141                         -0.2015480              -5.4844
       142                         -0.1997114              -5.4344
       ...                                ...                  ...
       312                          1.1835280              32.2054
      -------------------------------------------------------------
                  HL-Gap            0.0019192 Eh            0.0522 eV
             Fermi-level           -0.2542522 Eh           -6.9186 eV

     #   Z          covCN         q      C6AA      α(0)
     1   6 C        3.749    -0.113    22.718     6.798
     2   6 C        3.737    -0.004    20.737     6.498
     3   7 N        2.731    -0.106    23.318     7.172
     4   6 C        3.737    -0.039    21.348     6.593
     5   6 C        3.749    -0.130    23.064     6.849
     6   6 C        2.891     0.056    26.752     8.480
     7   6 C        2.922    -0.070    29.737     8.943
     8   6 C        2.918    -0.047    29.168     8.856
     9   6 C        2.965    -0.006    28.164     8.705
    10   6 C        2.902    -0.059    29.472     8.901
    11   6 C        2.893    -0.058    29.429     8.894
    12   6 C        2.921    -0.037    28.909     8.817
    13   6 C        2.944    -0.023    28.581     8.768
    14   6 C        1.910     0.103    28.557     8.630
    15   7 N        0.911    -0.325    28.350     7.701
    16   6 C        1.918     0.099    28.632     8.641
    17   7 N        0.911    -0.295    27.602     7.599
    18   6 C        2.914    -0.053    29.329     8.881
    19   6 C        2.922    -0.084    30.102     8.997
    20   1 H        0.924     0.034     2.531     2.488
    21   1 H        0.924     0.045     2.385     2.415
    22   1 H        0.924     0.042     2.417     2.431
    23   1 H        0.924     0.038     2.482     2.464
    24   1 H        0.924     0.041     2.434     2.440
    25   1 H        0.924     0.082     1.962     2.191
    26   1 H        0.924     0.038     2.469     2.457
    27   1 H        0.924     0.039     2.468     2.457
    28   1 H        0.924     0.047     2.353     2.399
    29   1 H        0.924     0.047     2.357     2.401
    30   1 H        0.925     0.020     2.738     2.587
    31   1 H        0.925     0.022     2.708     2.574
    32   1 H        0.925     0.021     2.715     2.577
    33   1 H        0.925     0.025     2.664     2.553
    34   1 H        0.924     0.020     2.730     2.584
    35   1 H        0.925     0.025     2.657     2.549
    36   1 H        0.925     0.040     2.443     2.444
    37   5 B        2.872     0.041    20.711     7.597
    38   5 B        3.645     0.025    21.873     7.615
    39   5 B        3.704     0.010    22.382     7.655
    40   5 B        3.599     0.008    21.890     7.674
    41   5 B        3.804     0.016    22.425     7.635
    42   5 B        3.812     0.042    21.946     7.552
    43   5 B        4.425     0.059    21.681     7.502
    44   5 B        3.843     0.023    22.314     7.614
    45   5 B        5.059     0.049    21.847     7.531
    46   5 B        5.523     0.103    20.917     7.369
    47   5 B        3.792     0.007    22.574     7.662
    48   5 B        4.799     0.084    21.237     7.425
    49   5 B        4.746     0.061    21.646     7.496
    50   5 B        3.691     0.011    22.323     7.653
    51   5 B        3.741     0.017    22.349     7.634
    52   5 B        4.170    -0.014    23.013     7.729
    53   5 B        3.938     0.017    22.434     7.632
    54   5 B        3.779     0.084    21.196     7.426
    55   5 B        3.808     0.066    21.537     7.482
    56   5 B        3.812    -0.011    22.929     7.720
    57   5 B        3.702    -0.007    22.689     7.709
    58   5 B        3.825     0.015    22.453     7.638
    59   5 B        4.691     0.068    21.514     7.474
    60   5 B        4.735     0.053    21.790     7.521
    61   5 B        3.813     0.075    21.381     7.455
    62   5 B        2.071    -0.001    43.071    13.727
    63   5 B        3.706     0.000    22.574     7.686
    64   5 B        4.547     0.024    22.306     7.610
    65   5 B        4.200     0.047    21.893     7.539
    66   5 B        3.748     0.076    21.298     7.450
    67   5 B        3.840    -0.006    22.841     7.703
    68   5 B        3.769     0.017    22.384     7.633
    69   5 B        4.530     0.063    21.606     7.489
    70   5 B        5.624     0.098    21.006     7.385
    71   5 B        3.805     0.032    22.134     7.585
    72   5 B        3.825     0.026    22.246     7.603
    73   5 B        2.886     0.069    20.231     7.507
    74   5 B        2.918     0.038    20.738     7.599
    75   5 B        2.913     0.018    21.095     7.664
    76   5 B        3.630     0.012    22.003     7.655
    77   5 B        3.792     0.007    22.587     7.664
    78   5 B        2.860     0.013    21.196     7.686
    79   5 B        2.920    -0.035    22.029     7.832
    80   5 B        3.825     0.016    22.437     7.636
    81   5 B        2.901    -0.027    21.893     7.809
    82   5 B        4.532     0.046    21.910     7.542
    83   5 B        3.896     0.042    21.975     7.554
    84   5 B        3.818     0.015    22.453     7.639
    85   5 B        3.778    -0.038    23.421     7.806
    86   5 B        3.628    -0.019    22.563     7.754
    87   5 B        4.556     0.028    22.233     7.597
    88   5 B        3.280     0.031    20.851     7.615
    89   5 B        4.869     0.087    21.194     7.418
    90   1 H        0.937    -0.176     9.154     4.730
    91   1 H        0.935    -0.144     7.376     4.246
    92   1 H        0.936    -0.139     7.158     4.183
    93   1 H        0.939    -0.154     7.885     4.390
    94   1 H        0.936    -0.133     6.868     4.097
    95   1 H        0.937    -0.134     6.912     4.110
    96   1 H        0.934    -0.134     6.907     4.109

 Mol. C6AA /au·bohr⁶  :     155396.459350
 Mol. C8AA /au·bohr⁸  :    5088214.041709
 Mol. α(0) /au        :        635.390985


Wiberg/Mayer (AO) data.
largest (>0.10) Wiberg bond orders for each atom

 ---------------------------------------------------------------------------
     #   Z sym  total        # sym  WBO       # sym  WBO       # sym  WBO
 ---------------------------------------------------------------------------
     1   6 C    3.993 --     2 C    1.011    21 H    0.985    20 H    0.985
                            22 H    0.985
     2   6 C    3.982 --     1 C    1.011     3 N    0.996    24 H    0.972
                            23 H    0.966
     3   7 N    3.370 --     6 C    1.148     2 C    0.996     4 C    0.994
     4   6 C    3.968 --     5 C    1.011     3 N    0.994    26 H    0.969
                            25 H    0.942
     5   6 C    3.992 --     4 C    1.011    27 H    0.985    28 H    0.985
                            29 H    0.983
     6   6 C    3.945 --     7 C    1.330    19 C    1.328     3 N    1.148
     7   6 C    3.982 --     8 C    1.470     6 C    1.330    30 H    0.967
     8   6 C    3.959 --     7 C    1.470     9 C    1.356    31 H    0.971
     9   6 C    3.977 --    18 C    1.356     8 C    1.356    10 C    1.104
    10   6 C    3.804 --    11 C    1.638     9 C    1.104    32 H    0.962
    11   6 C    3.951 --    10 C    1.638    12 C    1.230    33 H    0.963
    12   6 C    3.793 --    13 C    1.441    11 C    1.230    34 H    0.965
    13   6 C    3.860 --    12 C    1.441    14 C    1.122    16 C    1.109
    14   6 C    3.911 --    15 N    2.711    13 C    1.122
    15   7 N    2.901 --    14 C    2.711
    16   6 C    3.919 --    17 N    2.734    13 C    1.109
    17   7 N    2.915 --    16 C    2.734
    18   6 C    3.959 --    19 C    1.468     9 C    1.356    35 H    0.970
    19   6 C    3.980 --    18 C    1.468     6 C    1.328    36 H    0.961
    20   1 H    0.998 --     1 C    0.985
    21   1 H    0.998 --     1 C    0.985
    22   1 H    0.998 --     1 C    0.985
    23   1 H    0.998 --     2 C    0.966
    24   1 H    0.998 --     2 C    0.972
    25   1 H    0.993 --     4 C    0.942
    26   1 H    0.997 --     4 C    0.969
    27   1 H    0.998 --     5 C    0.985
    28   1 H    0.998 --     5 C    0.985
    29   1 H    0.997 --     5 C    0.983
    30   1 H    0.999 --     7 C    0.967
    31   1 H    0.999 --     8 C    0.971
    32   1 H    0.998 --    10 C    0.962
    33   1 H    0.999 --    11 C    0.963
    34   1 H    1.000 --    12 C    0.965
    35   1 H    0.999 --    18 C    0.970
    36   1 H    0.998 --    19 C    0.961
    37   5 B    3.481 --    79 B    1.429    90 H    0.958    43 B    0.838
    38   5 B    3.504 --    79 B    1.123    80 B    0.991    44 B    0.558
                            43 B    0.506
    39   5 B    3.504 --    81 B    1.277    80 B    1.013    46 B    0.488
                            45 B    0.446
    40   5 B    3.467 --    81 B    1.284    41 B    1.017    46 B    0.559
                            82 B    0.360
    41   5 B    3.527 --    83 B    1.089    40 B    1.017    47 B    0.685
                            82 B    0.485
    42   5 B    3.589 --    94 H    0.942    83 B    0.853    48 B    0.803
                            54 B    0.802
    43   5 B    3.613 --    37 B    0.838    49 B    0.835    79 B    0.787
                            38 B    0.506    50 B    0.390
    44   5 B    3.570 --    50 B    1.107    80 B    0.771    45 B    0.693
                            38 B    0.558
    45   5 B    3.588 --    51 B    0.964    44 B    0.693    46 B    0.520
                            80 B    0.504    39 B    0.446    52 B    0.234
    46   5 B    3.595 --    52 B    0.625    82 B    0.617    81 B    0.592
                            40 B    0.559    45 B    0.520    39 B    0.488
    47   5 B    3.590 --    53 B    1.103    82 B    0.922    41 B    0.685
                            83 B    0.502
    48   5 B    3.597 --    54 B    0.843    42 B    0.803    60 B    0.686
                            83 B    0.595    53 B    0.515
    49   5 B    3.621 --    43 B    0.835    55 B    0.754    50 B    0.692
                            56 B    0.557    89 B    0.495
    50   5 B    3.545 --    44 B    1.107    56 B    0.929    49 B    0.692
                            43 B    0.390
    51   5 B    3.435 --    57 B    1.098    45 B    0.964    58 B    0.591
                            52 B    0.418
    52   5 B    3.597 --    58 B    1.118    82 B    0.901    46 B    0.625
                            51 B    0.418    45 B    0.234
    53   5 B    3.543 --    47 B    1.103    59 B    0.828    60 B    0.609
                            48 B    0.515    83 B    0.182
    54   5 B    3.497 --    95 H    0.955    48 B    0.843    42 B    0.802
                            60 B    0.669
    55   5 B    3.520 --    91 H    0.940    61 B    0.828    49 B    0.754
                            89 B    0.726
    56   5 B    3.624 --    62 B    1.268    50 B    0.929    49 B    0.557
                            89 B    0.545
    57   5 B    3.484 --    63 B    1.152    51 B    1.098    58 B    0.549
                            64 B    0.395
    58   5 B    3.566 --    52 B    1.118    64 B    0.970    51 B    0.591
                            57 B    0.549
    59   5 B    3.570 --    65 B    0.854    53 B    0.828    72 B    0.563
                            60 B    0.544    66 B    0.502
    60   5 B    3.599 --    66 B    0.869    48 B    0.686    54 B    0.669
                            53 B    0.609    59 B    0.544
    61   5 B    3.569 --    92 H    0.942    55 B    0.828    89 B    0.771
                            67 B    0.726
    62   5 B    3.413 --    68 B    1.330    56 B    1.268    89 B    0.205
                            84 B    0.157
    63   5 B    3.433 --    57 B    1.152    69 B    1.015    70 B    0.511
                            64 B    0.459
    64   5 B    3.565 --    58 B    0.970    87 B    0.778    70 B    0.656
                            63 B    0.459    57 B    0.395
    65   5 B    3.550 --    71 B    1.004    59 B    0.854    72 B    0.630
                            78 B    0.543    88 B    0.329
    66   5 B    3.412 --    96 H    0.927    72 B    0.884    60 B    0.869
                            59 B    0.502
    67   5 B    3.606 --    73 B    1.230    61 B    0.726    84 B    0.710
                            89 B    0.693
    68   5 B    3.570 --    62 B    1.330    74 B    0.687    84 B    0.607
                            85 B    0.575
    69   5 B    3.511 --    63 B    1.015    75 B    0.646    85 B    0.576
                            70 B    0.540    86 B    0.451
    70   5 B    3.611 --    64 B    0.656    87 B    0.630    69 B    0.540
                            76 B    0.521    63 B    0.511    86 B    0.506
    71   5 B    3.534 --    87 B    1.014    65 B    1.004    77 B    0.633
                            88 B    0.533
    72   5 B    3.491 --    78 B    1.226    66 B    0.884    65 B    0.630
                            59 B    0.563
    73   5 B    3.459 --    67 B    1.230    93 H    0.957    84 B    0.849
                            74 B    0.143
    74   5 B    3.403 --    85 B    1.164    84 B    1.107    68 B    0.687
                            73 B    0.143
    75   5 B    3.348 --    86 B    1.212    85 B    1.133    69 B    0.646
    76   5 B    3.379 --    86 B    1.122    77 B    1.082    70 B    0.521
                            87 B    0.399
    77   5 B    3.483 --    76 B    1.082    88 B    1.050    71 B    0.633
                            87 B    0.501
    78   5 B    3.326 --    88 B    1.256    72 B    1.226    65 B    0.543
    79   5 B    3.520 --    37 B    1.429    38 B    1.123    43 B    0.787
    80   5 B    3.526 --    39 B    1.013    38 B    0.991    44 B    0.771
                            45 B    0.504
    81   5 B    3.439 --    40 B    1.284    39 B    1.277    46 B    0.592
    82   5 B    3.556 --    47 B    0.922    52 B    0.901    46 B    0.617
                            41 B    0.485    40 B    0.360
    83   5 B    3.476 --    41 B    1.089    42 B    0.853    48 B    0.595
                            47 B    0.502    53 B    0.182
    84   5 B    3.626 --    74 B    1.107    73 B    0.849    67 B    0.710
                            68 B    0.607    62 B    0.157
    85   5 B    3.618 --    74 B    1.164    75 B    1.133    69 B    0.576
                            68 B    0.575
    86   5 B    3.489 --    75 B    1.212    76 B    1.122    70 B    0.506
                            69 B    0.451
    87   5 B    3.579 --    71 B    1.014    64 B    0.778    70 B    0.630
                            77 B    0.501    76 B    0.399
    88   5 B    3.373 --    78 B    1.256    77 B    1.050    71 B    0.533
                            65 B    0.329
    89   5 B    3.624 --    61 B    0.771    55 B    0.726    67 B    0.693
                            56 B    0.545    49 B    0.495    62 B    0.205
    90   1 H    0.967 --    37 B    0.958
    91   1 H    0.973 --    55 B    0.940
    92   1 H    0.975 --    61 B    0.942
    93   1 H    0.972 --    73 B    0.957
    94   1 H    0.971 --    42 B    0.942
    95   1 H    0.978 --    54 B    0.955
    96   1 H    0.975 --    66 B    0.927
 ---------------------------------------------------------------------------

Topologies differ in total number of bonds
Writing topology from bond orders to xtbtopo.mol

molecular dipole:
                 x           y           z       tot (Debye)
 q only:       -3.705       1.061      -3.149
   full:       -3.609       0.687      -3.707      13.266
molecular quadrupole (traceless):
                xx          xy          yy          xz          yz          zz
 q only:     -108.824      17.249     111.232    -125.960       4.042      -2.408
  q+dip:      -81.965      -3.054      77.267    -119.427       8.798       4.698
   full:      -96.302       1.649      70.591    -116.884      12.374      25.710


           -------------------------------------------------
          | TOTAL ENERGY             -119.275107136476 Eh   |
          | GRADIENT NORM               0.109159208420 Eh/α |
          | HOMO-LUMO GAP               0.052223629885 eV   |
           -------------------------------------------------

------------------------------------------------------------------------
 * finished run on 2026/08/31 at 21:15:24.905     
------------------------------------------------------------------------
 total:
 * wall-time:     0 d,  0 h,  0 min,  0.816 sec
 *  cpu-time:     0 d,  0 h,  0 min,  8.328 sec
 * ratio c/w:    10.206 speedup
 SCF:
 * wall-time:     0 d,  0 h,  0 min,  0.771 sec
 *  cpu-time:     0 d,  0 h,  0 min,  7.984 sec
 * ratio c/w:    10.356 speedup

normal termination of xtb
