36
FDDNP - ETKDG+MMFF conformer
C     -4.019298     -0.228619      1.848189
C     -3.841983     -0.898936      0.492225
N     -2.854480     -0.194842     -0.338136
C     -3.379800      0.543261     -1.494911
C     -3.800736      1.952944     -1.108671
C     -1.489425     -0.254478     -0.075281
C     -0.934464     -1.194983      0.808063
C      0.443151     -1.261486      1.074098
C      1.332801     -0.386889      0.453133
C      2.763727     -0.467543      0.778751
C      3.747492     -0.252201     -0.109654
C      5.152113     -0.349841      0.245924
C      6.204581     -0.143957     -0.572162
C      6.054995      0.214974     -1.941275
N      5.919405      0.510414     -3.055418
C      7.523922     -0.284884     -0.054169
N      8.589553     -0.404998      0.389131
C      0.808764      0.570591     -0.413238
C     -0.571086      0.626297     -0.670962
H     -4.793062     -0.746048      2.424272
H     -3.097884     -0.244060      2.437442
H     -4.323538      0.816637      1.736507
H     -3.580997     -1.956572      0.608800
H     -4.819375     -0.902903     -0.006459
H     -2.660436      0.569913     -2.321582
H     -4.250259      0.016736     -1.906397
H     -4.622036      1.934180     -0.385525
H     -2.975305      2.515288     -0.661868
H     -4.146380      2.498576     -1.992334
H     -1.561720     -1.921737      1.314480
H      0.803106     -2.018641      1.766820
H      2.989467     -0.739573      1.807754
H      3.493144     -0.008775     -1.140333
H      5.349788     -0.618700      1.285694
H      1.453364      1.301630     -0.894552
H     -0.907110      1.409223     -1.344046
