91
Drug@beta12-B40H15 clean complex
C     -4.019298     -0.228619     11.079281
C     -3.841983     -0.898936      9.723317
N     -2.854480     -0.194842      8.892956
C     -3.379800      0.543261      7.736181
C     -3.800736      1.952944      8.122421
C     -1.489425     -0.254478      9.155811
C     -0.934464     -1.194983     10.039155
C      0.443151     -1.261486     10.305190
C      1.332801     -0.386889      9.684225
C      2.763727     -0.467543     10.009843
C      3.747492     -0.252201      9.121438
C      5.152113     -0.349841      9.477016
C      6.204581     -0.143957      8.658930
C      6.054995      0.214974      7.289817
N      5.919405      0.510414      6.175674
C      7.523922     -0.284884      9.176923
N      8.589553     -0.404998      9.620223
C      0.808764      0.570591      8.817854
C     -0.571086      0.626297      8.560130
H     -4.793062     -0.746048     11.655364
H     -3.097884     -0.244060     11.668534
H     -4.323538      0.816637     10.967599
H     -3.580997     -1.956572      9.839892
H     -4.819375     -0.902903      9.224633
H     -2.660436      0.569913      6.909510
H     -4.250259      0.016736      7.324695
H     -4.622036      1.934180      8.845567
H     -2.975305      2.515288      8.569224
H     -4.146380      2.498576      7.238758
H     -1.561720     -1.921737     10.545572
H      0.803106     -2.018641     10.997912
H      2.989467     -0.739573     11.038846
H      3.493144     -0.008775      8.090759
H      5.349788     -0.618700     10.516786
H      1.453364      1.301630      8.336540
H     -0.907110      1.409223      7.887046
B     -4.780602     -2.604513      0.317266
B     -4.569465     -1.356683     -0.648004
B     -4.463861     -0.247381     -1.882945
B     -3.396531     -2.661979     -0.502827
B     -3.038009      0.177607     -1.404773
B     -4.390872      0.342644     -0.192397
B     -5.031012      1.403078      0.819222
B     -4.620094      2.986388      0.997562
B     -2.808851      0.512803      0.199513
B     -3.218551      3.227540      1.793236
B     -2.161133     -3.775821     -0.584343
B     -1.876928     -2.248084     -0.933414
B     -1.697164     -0.613334     -0.835751
B     -0.584443     -3.218984     -0.835049
B     -0.219751     -0.148448     -0.311803
B     -1.394985      0.035818      0.852087
B     -1.775686      1.662110      0.759224
B     -1.897502      3.236989      0.882584
B     -0.215292      1.037200      1.069695
B     -0.752118      4.348002      0.558417
B      0.826501     -4.112870     -0.740049
B      0.925144     -2.505404     -0.749723
B      1.214364     -0.948979     -0.586972
B      2.200665     -3.402586     -0.168167
B      2.622046     -0.195651     -0.292977
B      1.234081      0.551562      0.142600
B      1.124844      2.000923      1.042986
B      0.536600      3.437229      0.618007
B      2.458015      1.672646      0.087495
B      1.213646      3.017073     -0.852963
B      3.220244     -3.850820      1.104428
B      3.624046     -2.653486      0.063737
B      4.025027     -1.121930     -0.236552
B      4.417376     -2.835474      1.420329
B      5.363640     -0.241898     -0.689778
B      4.104119      0.531009     -0.013477
B      4.018093      2.321775     -0.033810
B      2.821838      3.096833     -0.912930
B      5.422007      1.458254     -0.185288
B      4.296118      3.550090     -1.013979
H     -5.168734     -3.094856      1.310677
H     -5.716063     -2.076392     -0.393509
H     -5.264034     -0.120717     -2.741690
H     -5.771097      1.007443      1.664604
H     -5.364514      3.843125      0.672044
H     -3.234300      3.224974      2.975674
H     -2.359297     -4.926237     -0.473225
H     -0.896482      5.475480      0.244253
H      0.822346     -5.249794     -1.023329
H      0.553695      2.694294     -1.783686
H      2.970323     -4.817556      1.717250
H      5.263074     -2.512454      2.156542
H      6.384778     -0.646686     -1.095590
H      6.503197      1.838169      0.065012
H      5.138890      4.252414     -1.415442
