96
Drug@B48H12 canonical clean complex
C     -4.019298     -0.228619      9.852065
C     -3.841983     -0.898936      8.496101
N     -2.854480     -0.194842      7.665740
C     -3.379800      0.543261      6.508965
C     -3.800736      1.952944      6.895205
C     -1.489425     -0.254478      7.928595
C     -0.934464     -1.194983      8.811939
C      0.443151     -1.261486      9.077974
C      1.332801     -0.386889      8.457009
C      2.763727     -0.467543      8.782627
C      3.747492     -0.252201      7.894222
C      5.152113     -0.349841      8.249800
C      6.204581     -0.143957      7.431714
C      6.054995      0.214974      6.062601
N      5.919405      0.510414      4.948458
C      7.523922     -0.284884      7.949707
N      8.589553     -0.404998      8.393007
C      0.808764      0.570591      7.590638
C     -0.571086      0.626297      7.332914
H     -4.793062     -0.746048     10.428148
H     -3.097884     -0.244060     10.441318
H     -4.323538      0.816637      9.740383
H     -3.580997     -1.956572      8.612676
H     -4.819375     -0.902903      7.997417
H     -2.660436      0.569913      5.682294
H     -4.250259      0.016736      6.097479
H     -4.622036      1.934180      7.618351
H     -2.975305      2.515288      7.342008
H     -4.146380      2.498576      6.011542
H     -1.561720     -1.921737      9.318356
H      0.803106     -2.018641      9.770696
H      2.989467     -0.739573      9.811630
H      3.493144     -0.008775      6.863543
H      5.349788     -0.618700      9.289570
H      1.453364      1.301630      7.109324
H     -0.907110      1.409223      6.659830
B     -6.925574     -4.651113      0.258651
B     -5.109772     -2.249293      0.322202
B     -3.591500     -2.181365      0.212799
B      0.999259     -2.875448      0.063787
B      2.475853     -3.012223     -0.270859
B      5.299353     -3.831373     -0.667177
B      6.318286     -4.835948     -1.155795
B     -6.434811     -3.158276      0.286374
B     -6.751986     -1.633834      0.316446
B     -2.052572     -2.317325      0.334938
B     -0.484105     -2.461901      0.257444
B      4.018432     -2.901059     -0.287234
B      5.753195     -2.281523     -0.302825
B      6.830072     -3.228788     -1.092903
B     -7.656446     -0.254969      0.343088
B     -6.037404     -0.139472      0.191282
B     -4.431555     -0.535693      0.223935
B     -2.737864     -0.660395      0.328987
B     -1.051797     -0.915695      0.641867
B      0.517067     -1.172154      0.725732
B      3.123140     -1.483076     -0.063477
B      4.700072     -1.133969      0.340157
B      6.266701     -0.787165      0.251702
B      7.671979     -0.351666      1.032714
B     -6.918082      1.212094      0.191543
B     -3.418449      0.780084      0.080928
B     -1.654248      0.532626      0.123936
B      1.862187     -0.403738      0.324587
B      3.584717     -0.150377      0.785151
B      6.990973      0.611062     -0.106825
B      8.307368      1.062865      0.631577
B     -7.619446      2.804022      0.298592
B     -6.123847      2.518506     -0.176534
B     -3.588598      2.327656     -0.236793
B     -0.906130      1.819502     -0.419754
B      1.623430      1.019912     -0.410817
B      3.010841      1.309010      0.529678
B      6.372866      1.858188     -0.915986
B     -6.527660      4.045620     -0.160807
B     -4.873588      3.494810     -0.388449
B     -3.415521      3.880123     -0.606384
B     -2.023468      3.220559     -0.676715
B     -0.497363      3.279553     -0.896985
B      0.710715      2.332441     -0.745678
B      2.335338      2.478091     -0.475438
B      3.816082      2.619470     -0.094099
B      5.369811      2.864588     -0.148865
B      6.055136      4.080007      0.631212
H      6.204101      5.147675      0.146336
H      8.218389     -1.121032      1.726840
H      6.622436      1.981791     -2.067388
H     -7.089961     -5.250634     -0.753775
H     -6.791161      5.181470     -0.285186
H      9.156919      1.846573      0.789984
H     -8.827690     -0.375757      0.328558
H      6.783879     -5.868988     -1.446538
H     -8.724710      3.001220      0.638842
H      7.891803     -2.883539     -1.473727
H      6.428164      3.999644      1.748458
H     -7.224878     -5.282314      1.218688
