31
drug @complex
O       1.84062556     -2.66656931      3.15243228
C       1.55445423     -1.44234198      3.26420205
C       0.16568268     -1.07144255      3.27278476
O      -0.65855078     -2.15327823      3.15923767
C      -0.25900315      0.23175755      3.38408358
C      -1.61255718      0.71904454      3.43017577
C      -1.86761128      2.07367672      3.69900636
C      -3.15476392      2.56473269      3.73767297
C      -4.23215318      1.72550640      3.49153385
O      -5.51015791      2.19846671      3.48151502
C      -3.99109736      0.37308448      3.20782596
O      -5.09486802     -0.40312425      2.93305866
C      -2.70791573     -0.12470588      3.18623589
O       0.69013193      1.23872757      3.46815636
C       2.00716360      0.95225324      3.46142579
C       2.88358996      2.02668517      3.52486534
C       4.25905793      1.80296512      3.50012674
O       5.07719629      2.89537760      3.52982332
C       4.75715715      0.50856972      3.42766513
C       3.88389805     -0.56066316      3.36503432
C       2.50066379     -0.35924701      3.37029089
H       0.00295212     -2.88897665      3.11478044
H      -1.03976325      2.73677164      3.88503555
H      -3.34732261      3.60490076      3.94388706
H      -6.07389648      1.45109431      3.22946838
H      -4.91538875     -0.95965852      2.15043672
H      -2.54290330     -1.16377972      2.97016259
H       2.50732175      3.03292806      3.59095269
H       5.99212843      2.61576184      3.41473360
H       5.82457257      0.34179529      3.41140022
H       4.24716365     -1.57329730      3.31165608
