91
Fisetin on beta12_supported 0 deg
O      -1.85251339      3.19642993      3.33151751
C      -1.55223343      2.00174214      3.38526239
C      -0.13576867      1.63645794      3.39030002
O       0.68640992      2.71217199      3.33814453
C       0.27734957      0.33564140      3.43514990
C       1.65445979     -0.14644690      3.44168052
C       1.91480941     -1.51275944      3.31380646
C       3.20853414     -1.99158803      3.32605271
C       4.28093536     -1.12229737      3.46950596
O       5.54979112     -1.59183570      3.48506234
C       4.02607801      0.25174870      3.59766008
O       5.11995179      1.07060281      3.73793883
C       2.73374161      0.73067297      3.58335173
O      -0.63940179     -0.67150967      3.47794571
C      -1.95843728     -0.41422230      3.49117126
C      -2.82030567     -1.50740318      3.55444355
C      -4.18947940     -1.30480693      3.57757643
O      -4.99259249     -2.39041891      3.64439792
C      -4.71034111     -0.00365181      3.53358468
C      -3.86266442      1.07180430      3.46812394
C      -2.47564606      0.88861006      3.44713368
H       0.06405055      3.47510491      3.29547611
H       1.09372841     -2.20131476      3.20000000
H       3.41302436     -3.04525104      3.22537008
H       6.14651512     -0.83756051      3.59241299
H       4.82328697      1.98440141      3.80843614
H       2.55888660      1.78888726      3.68612616
H      -2.42303533     -2.50789131      3.58864085
H      -5.91956006     -2.12059081      3.65808342
H      -5.78158080      0.14245367      3.55248778
H      -4.23799283      2.08281917      3.43342883
B      -5.85857624      3.38040841      0.00000000
B      -5.85854689      1.69158049     -0.00000000
B      -4.39532834      4.22466855     -0.00000000
B      -4.39711400      2.53475765     -0.00000000
B      -4.39575475      0.84147203     -0.00000000
B      -5.85854686     -1.69158078      0.00000000
B      -5.85857617     -3.38040837     -0.00000000
B      -4.39575479     -0.84147232     -0.00000000
B      -4.39711414     -2.53475765      0.00000000
B      -4.39532857     -4.22466843      0.00000000
B      -2.92793521      3.38324044     -0.00000000
B      -2.92888517      1.68724694     -0.00000000
B      -1.46554580      4.22439782     -0.00000000
B      -1.46605622      2.53507234     -0.00000000
B      -1.46573170      0.84295491     -0.00000000
B      -2.92888518     -1.68724692      0.00000000
B      -2.92793508     -3.38324074      0.00000000
B      -1.46573174     -0.84295512     -0.00000000
B      -1.46605627     -2.53507234      0.00000000
B      -1.46554588     -4.22439779     -0.00000000
B       0.00067086      3.38275146      0.00000000
B       0.00067433      1.68721076      0.00000000
B       1.46420559      4.22439023     -0.00000000
B       1.46473580      2.53506444     -0.00000000
B       1.46438553      0.84295188     -0.00000000
B       0.00067433     -1.68721088      0.00000000
B       0.00067085     -3.38275170      0.00000000
B       1.46438555     -0.84295208     -0.00000000
B       1.46473583     -2.53506442     -0.00000000
B       1.46420568     -4.22439021     -0.00000000
B       2.92927005      3.38326104     -0.00000000
B       2.93022956      1.68726759      0.00000000
B       4.39401124      4.22463050     -0.00000000
B       4.39579743      2.53472819      0.00000000
B       4.39441416      0.84146678     -0.00000000
B       2.93022962     -1.68726763     -0.00000000
B       2.92927005     -3.38326139     -0.00000000
B       4.39441419     -0.84146703     -0.00000000
B       4.39579756     -2.53472819     -0.00000000
B       4.39401144     -4.22463033     -0.00000000
B       5.85997303      3.38040496      0.00000000
B       5.85993260      1.69164307     -0.00000000
B       5.85993251     -1.69164335      0.00000000
B       5.85997297     -3.38040486      0.00000000
H      -6.86866001      3.98474441      0.00000000
H      -6.88164909      1.12316321     -0.00000000
H      -4.39961690      5.40226943     -0.00000000
H      -6.88164986     -1.12316494      0.00000000
H      -6.86866148     -3.98474191     -0.00000000
H      -4.39961557     -5.40226922      0.00000000
H      -1.46579024      5.40011773     -0.00000000
H      -1.46578943     -5.40011766      0.00000000
H       1.46622796      5.40011192     -0.00000000
H       1.46622721     -5.40011186     -0.00000000
H       4.39986570      5.40225046     -0.00000000
H       4.39986407     -5.40225022     -0.00000000
H       6.86878772      3.98676429      0.00000000
H       6.88200886      1.12155941     -0.00000000
H       6.88200989     -1.12156160      0.00000000
H       6.86878944     -3.98676138      0.00000000
