91
 energy: -123.211187552915 gnorm: 0.000695563648 xtb: 6.7.1 (edcfbbe)
O           -1.84045627979262        2.66449404291111        3.14792429717233
C           -1.55483139805021        1.44024510959575        3.26124086690785
C           -0.16619496722237        1.06885322828973        3.27129607020687
O            0.65842308544138        2.15025582146979        3.15675882759765
C            0.25798311843977       -0.23434579684729        3.38479441447012
C            1.61146077028770       -0.72173734820656        3.43326701786655
C            1.86634486766902       -2.07576667490360        3.70550036736005
C            3.15353084955045       -2.56660750889086        3.74623984504904
C            4.23105845476733       -1.72803333155705        3.49847504161407
O            5.50909342771970       -2.20101618372385        3.49097829053064
C            3.99017040253612       -0.37641337570309        3.21100602750602
O            5.09386764253317        0.39925824036795        2.93420372207688
C            2.70700859146317        0.12137346080601        3.18794685102171
O           -0.69151499304812       -1.24092528329544        3.46945003306297
C           -2.00848117431433       -0.95396268847058        3.46144433529279
C           -2.88534661612599       -2.02798175428943        3.52590996067121
C           -4.26072557561306       -1.80381196530658        3.49999903780318
O           -5.07927174519087       -2.89584107623890        3.53100162549321
C           -4.75829825170801       -0.50932218158406        3.42532006655012
C           -3.88462452449801        0.55948892294507        3.36168764527476
C           -2.50145267235277        0.35759800478253        3.36814047559379
H           -0.00284037444377        2.88607864554469        3.11104932130222
H            1.03842211203222       -2.73849563909880        3.89267348024486
H            3.34601757636903       -3.60623061917278        3.95531840880280
H            6.07329602044653       -1.45428580915871        3.23790294817092
H            4.91401169321142        0.95444036619688        2.15079458014087
H            2.54214585798783        1.15984260530072        2.96887494839457
H           -2.50943305464134       -3.03424494026390        3.59370352871449
H           -5.99402863573850       -2.61609267836861        3.41514057715000
H           -5.82563664407455       -0.34218133150632        3.40817224174023
H           -4.24749690049758        1.57217469403943        3.30663732048232
B           -5.93373887688862        3.49791241798856        0.19594051495633
B           -5.88377205356905        1.81184041641791       -0.08226884466470
B           -4.50129675521129        4.37891249367970       -0.14429158835227
B           -4.45226688104613        2.69629469636188        0.01516772160026
B           -4.39884721637850        1.00241720405361        0.09052535293777
B           -5.78102386885334       -1.57777500884377       -0.02457785552655
B           -5.72904928645853       -3.25371494286817        0.30670103863594
B           -4.34794678876724       -0.67473134606035        0.11844319047669
B           -4.29864479009945       -2.37038662602741        0.09152721029168
B           -4.24538580819695       -4.05717605683799       -0.00048552019595
B           -3.00723843822765        3.59241022955099       -0.00892212525770
B           -2.95749786977565        1.89152703602302        0.05384676242758
B           -1.57207011959680        4.47184091371685        0.17819036575020
B           -1.52163279445156        2.78602165380950        0.04487570005181
B           -1.46992603492751        1.09125159989125       -0.06262748057187
B           -2.85536954960517       -1.47522187147950        0.12046348901939
B           -2.80184532714678       -3.17754200353883        0.10704084135869
B           -1.41901247562939       -0.59100026320721       -0.02626173673717
B           -1.36798267081584       -2.28037263106120        0.15634998896955
B           -1.31614968558878       -3.96138550963123        0.32585585443566
B           -0.08139991442074        3.68066963551608        0.02399350508695
B           -0.03001032343006        1.97958584926518       -0.00209917906510
B            1.35655479718284        4.55783885065396       -0.13865259487660
B            1.40828448106591        2.87405059912187       -0.01212338900435
B            1.45913666943383        1.18199309297870        0.06322243317931
B            0.07219336380202       -1.38756485224703        0.06998409221319
B            0.12390024161482       -3.08705214760476        0.14625193432706
B            1.51008885855267       -0.49983641326102        0.09668123537428
B            1.56175310233569       -2.19336376699314        0.07983949714540
B            1.61180035661161       -3.88045120985322       -0.01032427965795
B            2.84409040609030        3.77070013897731        0.07572389076228
B            2.89818030256295        2.06823105163539       -0.01583873143222
B            4.28488836330610        4.64915823757047        0.17759557466486
B            4.33841515082383        2.96360715123060        0.06671099422427
B            4.38808391013725        1.26755671058117       -0.01072708334769
B            3.00017966438077       -1.29952323470154        0.02428681391644
B            3.04965224628603       -2.99887219316412        0.15833775162927
B            4.43868160773898       -0.41021279246661       -0.01154836980333
B            4.49223004421388       -2.10358172934697        0.10630370891504
B            4.54134467472031       -3.78506941991816        0.28377215845329
B            5.77259015878435        3.84926499283627       -0.12146995809663
B            5.82311619226297        2.16978917193288        0.17868068426177
B            5.92642752701591       -1.21894008928436        0.19716450566599
B            5.97678122708439       -2.90548733140830       -0.05465215962020
H           -6.89415604760923        4.05518793389311        0.56915609551586
H           -6.82977671705103        1.27300576375595       -0.50697435493994
H           -4.58765742741652        5.48352898603041       -0.52940752989303
H           -6.76287506651024       -1.10851983374166       -0.45158597075897
H           -6.65474243636180       -3.85766255647886        0.69634053754211
H           -4.26280276493834       -5.18024632714283       -0.33805467345889
H           -1.61209566854252        5.62179005680632        0.40141530818209
H           -1.28921560257512       -5.10109865818922        0.60144983801528
H            1.33234387071085        5.69740098004081       -0.41753108381434
H            1.65028569722005       -5.02951808360546       -0.24454521753423
H            4.29747791071962        5.78498177966803        0.46964930229753
H            4.62654330919342       -4.90365939700946        0.62132223864548
H            6.69400929328863        4.45799987730704       -0.51313890126594
H            6.80245997179049        1.69263092172163        0.60149027280187
H            6.87115158741489       -0.66801086401637        0.60763166661975
H            6.93058364069123       -3.46823022843357       -0.43640310673800
