91
 energy: -123.205100400373 gnorm: 0.000870529613 xtb: 6.7.1 (edcfbbe)
O            3.11316575545938        1.88143136321314        3.12342435239900
C            1.90122539389910        1.56011959522908        3.26847749614871
C            1.56161123862906        0.16539411384780        3.26459239496299
O            2.65255004698628       -0.63801112304299        3.09510156486397
C            0.26691360257551       -0.28942106910024        3.39169934769982
C           -0.19285826237568       -1.64886121125362        3.42551417548895
C           -1.56931611581030       -1.93026746951535        3.48249920888266
C           -2.03126051383452       -3.22736765901088        3.49420796422379
C           -1.14481686354764       -4.29561192613333        3.44358755104914
O           -1.60327909650713       -5.57964351434125        3.42054601609537
C            0.22996052487410       -4.02872950511463        3.39965622797178
O            1.07165218615695       -5.11878997491069        3.34252928665327
C            0.69901287818305       -2.73499671620719        3.39398373892974
O           -0.76047695958410        0.63575075043248        3.48118939746856
C           -0.50467062497080        1.95754690880661        3.46654283957559
C           -1.60049162686038        2.80864045691484        3.50347262421157
C           -1.40989189691700        4.18879935123473        3.47365322240555
O           -2.52250203801847        4.97890355174896        3.47922303699687
C           -0.12653913782580        4.71728808757224        3.42864893925050
C            0.96489888759219        3.86981634387739        3.38298436464358
C            0.79606091901975        2.48166697702009        3.39108711918477
H            3.36848331242542        0.03426506936855        2.97582265358885
H           -2.26739463109042       -1.11192887382774        3.51254269298554
H           -3.08659638494639       -3.44275761101596        3.53427979338142
H           -0.83184536564451       -6.15301630388539        3.32492416072724
H            1.96763894337947       -4.81101296543116        3.17379449266130
H            1.75912460185533       -2.54996535779351        3.36757575746246
H           -2.59726410592643        2.40632825774220        3.55474545379676
H           -2.25848384074001        5.90066579821608        3.38545574403383
H            0.01602182832409        5.78816724870609        3.41348838131925
H            1.96909747095782        4.25784399554557        3.33832756755434
B           -5.82084711219933        3.37405039453073       -0.10696628641668
B           -5.81998097576839        1.69085964524070        0.18876742168552
B           -4.36194764890255        4.21656347661926        0.20709085473982
B           -4.36315153033255        2.53116988333895        0.08147986680791
B           -4.36024602253883        0.83567628531299       -0.00448405787520
B           -5.81820090246747       -1.69995128934339        0.18044220723085
B           -5.81690501142849       -3.38257971980823       -0.11745005130260
B           -4.35925534609308       -0.84269034935638       -0.00775551909990
B           -4.36027927417946       -2.53838603256658        0.07478598834606
B           -4.35724734205336       -4.22395060736552        0.19761526580001
B           -2.89191007168822        3.38422984059473        0.09336681534776
B           -2.89321925755862        1.68183175749914        0.01429270624462
B           -1.43150345579777        4.21838080047737       -0.11582095555683
B           -1.43133840201740        2.53327293387874        0.01871932815090
B           -1.43005701165349        0.83955252175276        0.10688227834248
B           -2.89132659063859       -1.68721892215240        0.00883660820225
B           -2.88810245745446       -3.38976178261205        0.08265282816078
B           -1.42914058336840       -0.84348668747446        0.10359759596678
B           -1.42838135619768       -2.53704117819570        0.00806245176196
B           -1.42648986664385       -4.22161717029238       -0.13200996957830
B            0.03498373352996        3.38500252934487        0.04375897192021
B            0.03625452524016        1.68348687647021        0.04346928023830
B            1.49750874948499        4.22065274005691        0.20516247285884
B            1.49981040053970        2.53496992009354        0.05626885296542
B            1.50054887380854        0.84118683112724       -0.05150323702587
B            0.03808733627671       -1.68569555696136        0.04001325868664
B            0.03869180181922       -3.38714224829959        0.04302993254201
B            1.50160674335462       -0.84197745624531       -0.04773965383249
B            1.50257616068133       -2.53521681823560        0.08338393059468
B            1.50212775678557       -4.22161576659651        0.19740060147232
B            2.96247148027878        3.38744489205905        0.04279809449296
B            2.96500122424585        1.68511017482213        0.08088317345773
B            4.42963184436630        4.22157538591603       -0.06683074005588
B            4.43183096812122        2.53597395751369        0.06368256843836
B            4.43031473782744        0.84050030274023        0.12183456970079
B            2.96672757643221       -1.68369406582108        0.10414336203275
B            2.96609211499786       -3.38641842808992        0.04687852323440
B            4.43107372458855       -0.83761651292335        0.13188975944177
B            4.43455891787733       -2.53319441980482        0.07931497867298
B            4.43437198755829       -4.21927914067670       -0.04965535974201
B            5.88944828871895        3.38020572013455        0.26742891532186
B            5.89299008276629        1.69792071840449       -0.03655537046053
B            5.89481442766520       -1.69367531960666       -0.03546825678361
B            5.89352556982946       -3.37546395167109        0.26863334799498
H           -6.76021848416649        3.95166200588434       -0.50406564213632
H           -6.77876775537636        1.18020865657191        0.61777245129197
H           -4.41065010707373        5.34571624314543        0.51893615727019
H           -6.77826416064455       -1.19183800439725        0.60963901477041
H           -6.75590120239786       -3.96155307499098       -0.51318068514295
H           -4.40418028246545       -5.35038824276373        0.51663081907716
H           -1.43994328360401        5.36283644953846       -0.37869161401613
H           -1.43358623928607       -5.35784172996707       -0.42371432807477
H            1.50029942616780        5.37872973754328        0.39226409668527
H            1.50689239505432       -5.37928815276767        0.39012334628850
H            4.48195298917710        5.33728010782944       -0.42627917161458
H            4.48301859468599       -5.34926790940101       -0.36338883882259
H            6.82822260558580        3.96015180206345        0.65896065007396
H            6.85460106570782        1.19103823178953       -0.46431790638710
H            6.85057783062824       -1.18598132950066       -0.47537858966938
H            6.83069769450972       -3.95565552331549        0.66705783065990
