91
 energy: -123.205076921035 gnorm: 0.000691471781 xtb: 6.7.1 (edcfbbe)
O           -3.12729971767174       -1.86660385584524        3.13623230022318
C           -1.91340297360565       -1.54969125889855        3.27477715680954
C           -1.56846699211403       -0.15645566306695        3.26832214102582
O           -2.65730800319321        0.65120089753221        3.10484056285819
C           -0.27142750467204        0.29374087939407        3.38851484293118
C            0.19329945969857        1.65137113729686        3.42305096855157
C            1.57101314335041        1.92791802653226        3.47356889143273
C            2.03750004029178        3.22339534804719        3.48644605801246
C            1.15454339807175        4.29482934387149        3.44380770636258
O            1.61746248397077        5.57736255105534        3.42208791593866
C           -0.22141976458156        4.03285796243919        3.40718432099778
O           -1.05972832027912        5.12592704746714        3.35918729621010
C           -0.69492038685421        2.74078939539518        3.39984734070450
O            0.75322650822895       -0.63536404600236        3.47038866342329
C            0.49197293670210       -1.95629109057543        3.46100424385249
C            1.58456998566248       -2.81156143997994        3.49438866982724
C            1.38824452260362       -4.19109925413972        3.47114255760783
O            2.49776586727182       -4.98558040586492        3.47337236949031
C            0.10254839946647       -4.71450239818723        3.43599924161369
C           -0.98566198103472       -3.86277090158198        3.39281851132601
C           -0.81129009645025       -2.47532042282249        3.39427727721789
H           -3.37645745610626       -0.01851344790173        2.99116767676919
H            2.26642520806272        1.10714551749647        3.49774749345815
H            3.09376616071439        3.43505570289733        3.52154602793615
H            0.84749426389067        6.15372182684123        3.33326638556672
H           -1.95873780720042        4.82113672790654        3.20137667782938
H           -1.75584380433566        2.55958541506731        3.37909527766331
H            2.58322494893665       -2.41312049844712        3.53838488045513
H            2.22951718810453       -5.90673165848330        3.38577532362076
H           -0.04450367599704       -5.78486226041129        3.42685992688167
H           -1.99171990038764       -4.24681335450734        3.35558704106585
B           -5.88819990208654        3.37414428903224        0.27747329520075
B           -5.88996087564603        1.69254780240483       -0.03071738057414
B           -4.43197483542608        4.21816989339057       -0.04150080504096
B           -4.43214466272187        2.53198361469905        0.08657162442399
B           -4.42881246504610        0.83633333616189        0.13528765228702
B           -5.88839456016629       -1.69879823608743       -0.03584866712135
B           -5.88476174222136       -3.38158972702082        0.26645967406027
B           -4.42820029050230       -0.84181435004669        0.12380189581696
B           -4.42986646582596       -2.53725400203980        0.06268405411816
B           -4.42786780443481       -4.22269584949362       -0.07036569370683
B           -2.96114817660379        3.38504688921388        0.05116648421867
B           -2.96184106700773        1.68226988512313        0.10847244831595
B           -1.49947031542103        4.22000162434298        0.20296749884762
B           -1.50015277534594        2.53373569007602        0.08787915795021
B           -1.49952216525883        0.84059090265730       -0.04603060231775
B           -2.96040364266470       -1.68644959927947        0.08324079914975
B           -2.95806670558955       -3.38875037672777        0.04083220250571
B           -1.49859203519821       -0.84259956265109       -0.05057433698826
B           -1.49782752882238       -2.53644847902909        0.05744793505064
B           -1.49559730678443       -4.22219057478294        0.20417669300110
B           -0.03374733911184        3.38557707545020        0.04487468111445
B           -0.03327387773690        1.68413630615614        0.03833809290626
B            1.42866807627922        4.21996996805124       -0.13372064477181
B            1.43069579411823        2.53535878573387        0.00674182705955
B            1.43139615972378        0.84177114815525        0.10100018975887
B           -0.03168562495962       -1.68506083748519        0.04044362950355
B           -0.03055404608980       -3.38658342866846        0.04292275042566
B            1.43217670040733       -0.84125307334638        0.10372567887018
B            1.43328807774604       -2.53494196763774        0.01607479761941
B            1.43314633875343       -4.22000059469322       -0.11990963472903
B            2.89309404252687        3.38801698003095        0.07606784566743
B            2.89610456234540        1.68546445985286        0.00520307450792
B            4.35990052946171        4.22196636149248        0.19063960916360
B            4.36266086256509        2.53640802555638        0.06810859558506
B            4.36138122400015        0.84076375321728       -0.01357628625167
B            2.89774801385263       -1.68366599638736        0.01028783460972
B            2.89637450165033       -3.38610232439682        0.08716688891953
B            4.36223587915526       -0.83755855205791       -0.01056383319706
B            4.36514784591431       -2.53302736200851        0.07612507060147
B            4.36387083383497       -4.21841810531333        0.20229598520297
B            5.82176178288176        3.38052948973161       -0.12486800417003
B            5.82323314726388        1.69803726733219        0.17283838538240
B            5.82482488510245       -1.69300980573487        0.17970265447138
B            5.82525570227919       -3.37612306544578       -0.11254509951499
H           -6.82732478264847        3.95047611961497        0.67696973394296
H           -6.84814282738708        1.18786548696545       -0.46894445261402
H           -4.47909317852784        5.34843746513844       -0.35443715182816
H           -6.85220688036013       -1.19329653997188       -0.46036549101784
H           -6.82701808904942       -3.95992319847651        0.65205996774334
H           -4.47919444767646       -5.33594280791715       -0.43741497423850
H           -1.50220358939084        5.37667033506441        0.40140977903195
H           -1.49699963938606       -5.37997583038258        0.39303250833599
H            1.43638863385070        5.35662976851454       -0.42374473670768
H            1.44263552727173       -5.36430231995708       -0.38340802387802
H            4.40819541505062        5.34895316646108        0.50755522416367
H            4.41419632218519       -5.34703268711786        0.51588751801647
H            6.75807819160407        3.96108823963699       -0.52452399611431
H            6.78147657988141        1.18831643528833        0.60401914146543
H            6.78286581078648       -1.17982704194924        0.60726729332096
H            6.76306211403462       -3.95738007094548       -0.50795359521601
