29
drug @complex
N       0.45857745     -2.53419868      3.72983282
C       0.44422770     -1.14698065      3.82072258
C      -0.77077099     -0.46013569      3.90128446
C      -0.74401885      0.93618519      3.92960017
N       0.36759946      1.64680371      3.85983315
C       1.54914613      1.01155543      3.79444172
C       2.72162872      1.79174569      3.76939845
C       3.96142640      1.19564062      3.73638191
C       4.06966295     -0.19343862      3.71552093
C       2.94155007     -0.98267881      3.72851123
C       1.65501729     -0.40764833      3.77155543
C      -2.00897716      1.74144775      4.04163208
C      -3.15250044      0.92809765      4.63320900
C      -3.29949492     -0.36102839      3.83500887
C      -2.06028653     -1.23452129      4.01012171
H      -0.31930247     -3.00528119      4.16014313
H       1.34304634     -2.96669403      3.93683153
H       2.61172379      2.86381901      3.79485636
H       4.85559748      1.80077307      3.72987955
H       5.04589382     -0.65336004      3.69118718
H       3.06117505     -2.05638570      3.71568477
H      -1.79731377      2.62714048      4.64191854
H      -2.28779839      2.08213994      3.04180382
H      -2.94177655      0.69599926      5.67996726
H      -4.07872112      1.50522819      4.59864019
H      -3.42181584     -0.11285319      2.77987010
H      -4.18279448     -0.91436932      4.16116152
H      -2.09489310     -1.71345487      4.99775285
H      -2.07237458     -2.02534126      3.25658849
