89
Tacrine on beta12_supported 180 deg
N       0.47179488     -2.53271828      4.68882134
C       0.44932460     -1.15800006      4.68864244
C      -0.75767767     -0.46781770      4.64650798
C      -0.72691181      0.93806316      4.66703365
N       0.38172926      1.63830397      4.69287288
C       1.56357944      1.00008470      4.67528633
C       2.73967401      1.77910817      4.66906604
C       3.96879631      1.18383668      4.64786880
C       4.07480370     -0.21375122      4.63224278
C       2.95170194     -0.99543521      4.64410768
C       1.66766119     -0.41682356      4.66895648
C      -1.99413245      1.74719171      4.65636817
C      -3.20918186      0.93412776      5.08014238
C      -3.25109628     -0.34947259      4.26231745
C      -2.05819491     -1.23063386      4.61911287
H      -0.35726289     -3.00137814      5.01128649
H       1.33440074     -2.97199479      4.96051264
H       2.62724811      2.85191560      4.67522680
H       4.86734504      1.78367312      4.63930930
H       5.05229979     -0.67341226      4.60835652
H       3.06429531     -2.07077846      4.61622010
H      -1.84992359      2.61642985      5.29961291
H      -2.14184234      2.12294833      3.63918381
H      -3.14218230      0.68909758      6.14273008
H      -4.11903844      1.51720454      4.92512017
H      -3.21591433     -0.09828568      3.20000000
H      -4.17735394     -0.89768891      4.44782654
H      -2.22919765     -1.67783902      5.60713291
H      -1.98474385     -2.04595543      3.89300395
B      -5.85857624      3.38040841      0.00000000
B      -5.85854689      1.69158049     -0.00000000
B      -4.39532834      4.22466855     -0.00000000
B      -4.39711400      2.53475765     -0.00000000
B      -4.39575475      0.84147203     -0.00000000
B      -5.85854686     -1.69158078      0.00000000
B      -5.85857617     -3.38040837     -0.00000000
B      -4.39575479     -0.84147232     -0.00000000
B      -4.39711414     -2.53475765      0.00000000
B      -4.39532857     -4.22466843      0.00000000
B      -2.92793521      3.38324044     -0.00000000
B      -2.92888517      1.68724694     -0.00000000
B      -1.46554580      4.22439782     -0.00000000
B      -1.46605622      2.53507234     -0.00000000
B      -1.46573170      0.84295491     -0.00000000
B      -2.92888518     -1.68724692      0.00000000
B      -2.92793508     -3.38324074      0.00000000
B      -1.46573174     -0.84295512     -0.00000000
B      -1.46605627     -2.53507234      0.00000000
B      -1.46554588     -4.22439779     -0.00000000
B       0.00067086      3.38275146      0.00000000
B       0.00067433      1.68721076      0.00000000
B       1.46420559      4.22439023     -0.00000000
B       1.46473580      2.53506444     -0.00000000
B       1.46438553      0.84295188     -0.00000000
B       0.00067433     -1.68721088      0.00000000
B       0.00067085     -3.38275170      0.00000000
B       1.46438555     -0.84295208     -0.00000000
B       1.46473583     -2.53506442     -0.00000000
B       1.46420568     -4.22439021     -0.00000000
B       2.92927005      3.38326104     -0.00000000
B       2.93022956      1.68726759      0.00000000
B       4.39401124      4.22463050     -0.00000000
B       4.39579743      2.53472819      0.00000000
B       4.39441416      0.84146678     -0.00000000
B       2.93022962     -1.68726763     -0.00000000
B       2.92927005     -3.38326139     -0.00000000
B       4.39441419     -0.84146703     -0.00000000
B       4.39579756     -2.53472819     -0.00000000
B       4.39401144     -4.22463033     -0.00000000
B       5.85997303      3.38040496      0.00000000
B       5.85993260      1.69164307     -0.00000000
B       5.85993251     -1.69164335      0.00000000
B       5.85997297     -3.38040486      0.00000000
H      -6.86866001      3.98474441      0.00000000
H      -6.88164909      1.12316321     -0.00000000
H      -4.39961690      5.40226943     -0.00000000
H      -6.88164986     -1.12316494      0.00000000
H      -6.86866148     -3.98474191     -0.00000000
H      -4.39961557     -5.40226922      0.00000000
H      -1.46579024      5.40011773     -0.00000000
H      -1.46578943     -5.40011766      0.00000000
H       1.46622796      5.40011192     -0.00000000
H       1.46622721     -5.40011186     -0.00000000
H       4.39986570      5.40225046     -0.00000000
H       4.39986407     -5.40225022     -0.00000000
H       6.86878772      3.98676429      0.00000000
H       6.88200886      1.12155941     -0.00000000
H       6.88200989     -1.12156160      0.00000000
H       6.86878944     -3.98676138      0.00000000
