89
 energy: -102.379422498289 gnorm: 0.000697851586 xtb: 6.7.1 (edcfbbe)
N            0.45857744964353       -2.53419868172552        3.72983282303673
C            0.44422769721348       -1.14698064856039        3.82072257646386
C           -0.77077098747389       -0.46013568545067        3.90128445852389
C           -0.74401885005064        0.93618519014328        3.92960016912366
N            0.36759945882428        1.64680371129345        3.85983315142962
C            1.54914613201443        1.01155542939240        3.79444171991915
C            2.72162872344071        1.79174568647757        3.76939845376769
C            3.96142639759713        1.19564062024848        3.73638190646257
C            4.06966294927359       -0.19343862278733        3.71552093085278
C            2.94155006917867       -0.98267881297159        3.72851123107802
C            1.65501728973693       -0.40764832523327        3.77155543221089
C           -2.00897715959118        1.74144774671749        4.04163208379427
C           -3.15250043923310        0.92809765445560        4.63320900229791
C           -3.29949492275011       -0.36102839429168        3.83500886662955
C           -2.06028652899496       -1.23452129241632        4.01012170508021
H           -0.31930247464434       -3.00528119429332        4.16014312611688
H            1.34304633527928       -2.96669403229371        3.93683152649042
H            2.61172378808006        2.86381901381399        3.79485636180368
H            4.85559747525515        1.80077306719411        3.72987955347329
H            5.04589381781117       -0.65336003936612        3.69118717812935
H            3.06117505317787       -2.05638570379311        3.71568476581444
H           -1.79731376758844        2.62714048216608        4.64191853705821
H           -2.28779839066515        2.08213994341133        3.04180381739647
H           -2.94177655045955        0.69599926244686        5.67996726422321
H           -4.07872112338097        1.50522818797600        4.59864018548974
H           -3.42181583912240       -0.11285318586785        2.77987010065801
H           -4.18279447713611       -0.91436931601105        4.16116152249652
H           -2.09489310341127       -1.71345486838279        4.99775285333622
H           -2.07237458085410       -2.02534126064369        3.25658849048323
B           -5.84896310829535        3.38587757823723        0.48868297559481
B           -5.84935673420896        1.70211669783371        0.18381137436991
B           -4.38662630173753        4.22453850500724        0.17033195906330
B           -4.39151274804368        2.53977961341057        0.30079823000162
B           -4.39288742542312        0.84463429219611        0.38203609829613
B           -5.85398943863357       -1.68862434810435        0.18933672165791
B           -5.85857515631371       -3.37039993821261        0.50608329983428
B           -4.39524375565305       -0.83407655246760        0.38002508406579
B           -4.39861342101444       -2.52968369175566        0.31350496405346
B           -4.39837512964994       -4.21547559564006        0.20017620280010
B           -2.91862854167460        3.38927833391661        0.26593373854043
B           -2.92422669337360        1.68754503816682        0.42333324188409
B           -1.45845599938463        4.22374915235563        0.44467110286180
B           -1.46028711658965        2.53623961177607        0.38654899161931
B           -1.46212874025852        0.84278804060543        0.31659100299842
B           -2.92893313282029       -1.68093409880561        0.41918262664124
B           -2.92797675546881       -3.38367375218027        0.28892601397391
B           -1.46444136972329       -0.84089688771620        0.31721143904001
B           -1.46747982704077       -2.53352096319375        0.41449173927288
B           -1.47058796003218       -4.22007936479804        0.49653040595709
B            0.00713454163166        3.38336716696943        0.47152286871666
B            0.00589928007492        1.68382997735593        0.28784304353960
B            1.47246642660628        4.21846662302738        0.50685655576701
B            1.47038773000181        2.53192186342804        0.41525174085444
B            1.46853979600458        0.83875921471636        0.30364666176317
B            0.00116321464779       -1.68625549958731        0.28713703416430
B           -0.00233033647504       -3.38477994094071        0.48428489972200
B            1.46612744370058       -0.84511117945195        0.30748277090038
B            1.46331656110573       -2.53748452337066        0.42875091458579
B            1.46067081942359       -4.22325550749397        0.53691858330272
B            2.93511682400483        3.38168920874002        0.32758420150914
B            2.93419299121875        1.67940363691815        0.43793555669230
B            4.40379425814711        4.21268165106193        0.23087167664683
B            4.40263150282447        2.52750781914146        0.35314898288243
B            4.39841285248264        0.83228763800636        0.41651434832258
B            2.92953533243889       -1.68910446381531        0.44215681850139
B            2.92540547328707       -3.39205821091243        0.34128988451162
B            4.39606885728947       -0.84625210555115        0.41699755246692
B            4.39552547927385       -2.54175947177055        0.36668505303947
B            4.39187457613200       -4.22785805802078        0.25920583375469
B            5.86256210366791        3.36911222767270        0.56658553438122
B            5.86195434230793        1.68633810020072        0.25117288567562
B            5.85713793592527       -1.70524303996422        0.25719786271396
B            5.85320855430539       -3.38619738919501        0.58244848275522
H           -6.80027384846440        3.95883779628930        0.86804739667519
H           -6.81079227615370        1.20428928976503       -0.25889121021422
H           -4.43451088518900        5.34267368291183       -0.18654122925036
H           -6.81518088802916       -1.19234463225978       -0.25599596769310
H           -6.81248786033361       -3.93876942307704        0.88692019281079
H           -4.44732402824938       -5.34052332221226       -0.13595871153071
H           -1.46974770730684        5.39144953888584        0.57115565014643
H           -1.48845592306828       -5.37852071797500        0.69660440925960
H            1.48556686855247        5.38100552515588        0.67298631552759
H            1.47223500948193       -5.37899886124478        0.75199664031017
H            4.46160116811747        5.32516840566147       -0.14180293386040
H            4.44373117964912       -5.34996572273234       -0.08573214193829
H            6.80764321479491        3.93888321024812        0.96494600258145
H            6.82856908269009        1.18898897396170       -0.18107659848380
H            6.82540702618005       -1.21317079590560       -0.17710517833161
H            6.79707926146981       -3.95639626690523        0.98428010067535
