60
carrier @complex
B      -5.95608823      2.79659135      0.61982433
B      -5.89139682      1.09049642      0.74226448
B      -4.52392102      3.65156583      1.02277599
B      -4.46676498      1.98991189      0.72321136
B      -4.40407831      0.30987189      0.49933084
B      -5.77166422     -2.24073981      0.04187371
B      -5.70823403     -3.94779973      0.18336926
B      -4.34376281     -1.35211895      0.27272328
B      -4.28420947     -3.03317348      0.05453043
B      -4.22159213     -4.69727060     -0.22523380
B      -3.02815876      2.89540151      0.76972711
B      -2.96887906      1.20929305      0.53880883
B      -1.60003545      3.79739984      0.67621487
B      -1.53811766      2.10857750      0.62249282
B      -1.47623365      0.42345730      0.46027980
B      -2.84610807     -2.14382566      0.22839565
B      -2.78299838     -3.83158479      0.01170009
B      -1.41560084     -1.24525500      0.24800359
B      -1.35354089     -2.93642328      0.14642117
B      -1.29040857     -4.62464651      0.09740475
B      -0.10277887      3.00523357      0.73444636
B      -0.04138213      1.31797351      0.52314657
B       1.33155628      3.87141971      0.97092017
B       1.39155982      2.21202458      0.65258328
B       1.45125872      0.53996114      0.37041534
B       0.08078559     -2.03058408      0.16592172
B       0.14304543     -3.72574580      0.02855189
B       1.51305930     -1.13713141      0.23827632
B       1.57480361     -2.82158504      0.06853291
B       1.63390051     -4.48399621     -0.23537146
B       2.82278267      3.11646938      0.69974363
B       2.88605195      1.42518643      0.51695843
B       4.25480698      4.01737257      0.60690604
B       4.31975638      2.33214955      0.52063116
B       4.37970038      0.64503514      0.36249845
B       3.00814776     -1.92055575      0.13559766
B       3.06870208     -3.61736667      0.00835317
B       4.44150020     -1.02837106      0.24291196
B       4.50521364     -2.71918823      0.12346243
B       4.56540332     -4.40723595      0.07959011
B       5.75126822      3.20278955      0.80866199
B       5.80685789      1.56469857      0.30133380
B       5.93461137     -1.84106635      0.30789978
B       5.99293671     -3.48354030     -0.17387470
H      -6.91668948      3.37658966      0.28403103
H      -6.82621363      0.50418431      1.12379599
H      -4.60735402      4.72038130      1.50217931
H      -6.73967195     -1.73242653     -0.37285635
H      -6.62473030     -4.59354538      0.52087085
H      -4.23025628     -5.76490529     -0.71185309
H      -1.64893674      4.96922477      0.62779900
H      -1.25386334     -5.79655695      0.14699109
H       1.29675215      5.00840835      1.25909084
H       1.67511868     -5.61826836     -0.53223796
H       4.25220409      5.16218699      0.35019427
H       4.65550201     -5.54870230      0.32284246
H       6.67566088      3.75999956      1.25730914
H       6.75714325      1.16505139     -0.24865257
H       6.87013432     -1.33887843      0.79120497
H       6.92755397     -3.96884768     -0.68320449
