60
carrier @complex
B      -5.81338849      3.54000573      0.19107041
B      -5.83844281      1.85853229      0.47000222
B      -4.34328046      4.36276737      0.51593126
B      -4.36879921      2.67682340      0.38802070
B      -4.39011085      0.98057378      0.30076334
B      -5.88583736     -1.53075080      0.50147457
B      -5.90734488     -3.21867870      0.27123124
B      -4.41338821     -0.69772893      0.31864061
B      -4.43941428     -2.39152384      0.44040496
B      -4.46090389     -4.07353062      0.61911820
B      -2.88551783      3.50862944      0.40263245
B      -2.91119892      1.80560577      0.31473166
B      -1.41291696      4.32155240      0.22142908
B      -1.43721732      2.63615349      0.33958205
B      -1.46047382      0.94330261      0.41029741
B      -2.95810495     -1.56309741      0.35669368
B      -2.97978599     -3.26340887      0.48804456
B      -1.48393518     -0.73926450      0.43836983
B      -1.50779115     -2.43349923      0.40045817
B      -1.53040943     -4.12112843      0.31959824
B       0.04158198      3.46685183      0.36700883
B       0.01784131      1.76507345      0.33732947
B       1.51640162      4.28160708      0.52860583
B       1.49367351      2.59567523      0.40225238
B       1.46969726      0.90096440      0.27721078
B      -0.02913273     -1.60332465      0.40095782
B      -0.05285659     -3.30387656      0.46350242
B       1.44627550     -0.78208741      0.31111851
B       1.42304917     -2.47258800      0.48460215
B       1.39883298     -4.15505201      0.64165384
B       2.96823053      3.42675146      0.33731748
B       2.94652276      1.72483207      0.39725301
B       4.44659023      4.23827321      0.20645598
B       4.42535111      2.55403831      0.34690843
B       4.39962701      0.85942124      0.42516885
B       2.89961368     -1.64324205      0.44859551
B       2.87383648     -3.34627903      0.42891479
B       4.37631883     -0.81845551      0.44514467
B       4.35469311     -2.51452610      0.40802964
B       4.32859800     -4.20169162      0.30313194
B       5.89662951      3.37897574      0.52607271
B       5.87345554      1.69354882      0.24327457
B       5.82605481     -1.69746078      0.28066044
B       5.80283794     -3.37591829      0.59820962
H      -6.74687791      4.13436173     -0.19714900
H      -6.82706003      1.36065884      0.84816444
H      -4.37632054      5.48615895      0.85578261
H      -6.86515435     -0.99300883      0.84656864
H      -6.85520819     -3.79594867     -0.10756211
H      -4.52446500     -5.18970889      0.97719904
H      -1.40277571      5.47645539      0.00734611
H      -1.54930848     -5.27472996      0.10059339
H       1.53851710      5.42897493      0.77594243
H       1.39154389     -5.29530477      0.92105207
H       4.51183602      5.35660367     -0.14479396
H       4.36154075     -5.32254706     -0.04173216
H       6.84927543      3.95309128      0.89693752
H       6.82187257      1.16977609     -0.19515850
H       6.78853695     -1.21027489     -0.16913890
H       6.74066678     -3.97001510      0.96831147
