60
 energy: -61.506388718631 gnorm: 0.000966314893 xtb: 6.7.1 (edcfbbe)
B           -5.81203332286117        3.53875673393726        0.15351523334667
B           -5.83729088540911        1.86236024838665        0.49229590408365
B           -4.34497163946706        4.36030694367507        0.53092023812890
B           -4.37034503979164        2.67691270456204        0.38360190415928
B           -4.39132958392524        0.97850009175745        0.30686705370276
B           -5.88468284819442       -1.53389879397612        0.52734625641121
B           -5.90591253575494       -3.21796519958849        0.23113639411943
B           -4.41454667877178       -0.69514574226758        0.32523841682155
B           -4.44091245209600       -2.39135449825152        0.43872144988836
B           -4.46237485311764       -4.07072170703220        0.62936188296525
B           -2.88498318190720        3.51226544524319        0.39960023196707
B           -2.91167494331539        1.80283055471931        0.29658781104235
B           -1.41348658717254        4.31939240412632        0.18038716563035
B           -1.43807304733410        2.63603237590209        0.31490795871970
B           -1.46143177890356        0.94207532042447        0.40399586287738
B           -2.95849602499908       -1.56038463946170        0.33757570745562
B           -2.97923328308200       -3.26700351503546        0.47982935654567
B           -1.48482061202181       -0.73796840455967        0.42674405497653
B           -1.50857838445323       -2.43360089215746        0.37320527357157
B           -1.53086378626559       -4.11951899872728        0.27643068052780
B            0.04086805310269        3.47024034572009        0.36277391441264
B            0.01707304754468        1.76269769545687        0.34163767915915
B            1.51540546452438        4.27979158498064        0.55898121100718
B            1.49303348589020        2.59599796653824        0.41322169331001
B            1.46935288932142        0.90019798439336        0.29617291768313
B           -0.02979687558060       -1.60061222337391        0.39118962111756
B           -0.05355186748066       -3.30717115417845        0.44901222302369
B            1.44596172876244       -0.78035010237937        0.32147195868651
B            1.42246418733414       -2.47247997587213        0.48495693468457
B            1.39798387528621       -4.15240901286662        0.66493148041344
B            2.96604425909561        3.43054106251324        0.32488983573041
B            2.94542097936379        1.72248241733676        0.40854007155502
B            4.44667629377363        4.23560109297142        0.18112915809973
B            4.42554364781227        2.55418518585235        0.34243082016609
B            4.39921615496767        0.85730947645432        0.42396038921207
B            2.89862251650490       -1.64028205521989        0.45419369146227
B            2.87161224517334       -3.34994411552216        0.40918899925701
B            4.37597424385034       -0.81594096776448        0.44464640914362
B            4.35496520171931       -2.51430330819190        0.40106272660576
B            4.32895830524825       -4.19906925101501        0.27742164806767
B            5.89371519765017        3.37870963501140        0.55465524459523
B            5.87123171868477        1.69732200968752        0.23139434394608
B            5.82380819318559       -1.70079200038958        0.26831932711119
B            5.79995928104259       -3.37447204238468        0.62782650508929
H           -6.73668554815814        4.13579100875905       -0.25344548018393
H           -6.80153801154791        1.37941539359770        0.94487727059320
H           -4.39089799305675        5.47757821384648        0.89204283041363
H           -6.83606297258984       -1.01301139031734        0.96458091215991
H           -6.84662051139593       -3.79920956570666       -0.16178571391623
H           -4.53903051387651       -5.17827493333416        1.01434709546415
H           -1.40357796255752        5.46749016587758       -0.07402962127712
H           -1.55196697402118       -5.27066048679640        0.03687287665431
H            1.53927459913918        5.42027123529073        0.84368046213673
H            1.39059997776511       -5.28537432967259        0.97914370197391
H            4.52158670979780        5.35101659556321       -0.18138727338710
H            4.37121633312825       -5.32360017699539       -0.06147842500015
H            6.83664142394264        3.95435824585431        0.95023736226198
H            6.82074429034792        1.18121186669454       -0.21611557976435
H            6.78606357088072       -1.22129136845861       -0.19251832110212
H            6.72783366426853       -3.96744266363701        1.03293766249268
