60
carrier @complex
B      -5.90620230      3.68151090      0.31085834
B      -5.92089313      1.96977818      0.20349598
B      -4.44554568      4.46326959     -0.13135289
B      -4.45704400      2.80355746      0.17573868
B      -4.46615086      1.12742041      0.43411533
B      -5.93809178     -1.34653825      0.98405837
B      -5.95475912     -3.05727629      0.87777684
B      -4.47639804     -0.52952062      0.70285239
B      -4.48885484     -2.20753604      0.94914275
B      -4.49634265     -3.86951167      1.24717402
B      -2.98074342      3.63933565      0.06998852
B      -2.99211905      1.96753198      0.41147392
B      -1.51269398      4.47301797      0.06604863
B      -1.52458939      2.79418878      0.24519309
B      -1.53535184      1.11417632      0.46014535
B      -3.01515318     -1.38474395      0.75819362
B      -3.02428617     -3.07317790      0.97560110
B      -1.54602461     -0.55292521      0.69167517
B      -1.55876066     -2.24462322      0.81395320
B      -1.57028221     -3.93385065      0.88479079
B      -0.05133604      3.63276107      0.18001458
B      -0.06459806      1.92750700      0.24890706
B       1.41922310      4.45653824      0.10537196
B       1.40653764      2.77221454      0.22805603
B       1.39353132      1.07873791      0.33305853
B      -0.08593782     -1.40843420      0.72570451
B      -0.09688216     -3.09423110      0.95668704
B       1.38241921     -0.59208605      0.53991153
B       1.37317696     -2.25664423      0.86963628
B       1.36261995     -3.90626583      1.24349692
B       2.87286555      3.59016689     -0.01502968
B       2.86577929      1.91631255      0.31289170
B       4.34316860      4.38908407     -0.25563702
B       4.33614820      2.73370465      0.08094108
B       4.32462204      1.06093575      0.36477722
B       2.84336702     -1.42651353      0.73264442
B       2.82998832     -3.11754214      0.93208686
B       4.31373903     -0.60172850      0.59123352
B       4.30452363     -2.28428642      0.80347685
B       4.28996890     -3.97134719      0.91075580
B       5.80476434      3.58418904      0.14993172
B       5.78895044      1.87563869      0.06710670
B       5.76811080     -1.48189238      0.54864929
B       5.76085960     -3.10716132      1.07932046
H      -6.85068096      4.29998665      0.63072363
H      -6.89678237      1.42587987     -0.15133918
H      -4.49175446      5.51990325     -0.64446292
H      -6.88246876     -0.78216750      1.38403939
H      -6.91315623     -3.66384428      0.57906592
H      -4.53658799     -4.94734668      1.71086523
H      -1.50776813      5.64302617     -0.04754430
H      -1.57860648     -5.10424543      0.79073126
H       1.44485149      5.62860150      0.18794235
H       1.36756593     -5.01487310      1.63821060
H       4.39395170      5.45146744     -0.75509008
H       4.32251904     -5.13569961      0.75585562
H       6.76001938      4.19648258      0.44947065
H       6.74585655      1.31543896     -0.30606841
H       6.73249733     -1.04596807      0.05245303
H       6.70551594     -3.63345141      1.53431024
