      -----------------------------------------------------------      
     |                   =====================                   |     
     |                           x T B                           |     
     |                   =====================                   |     
     |                         S. Grimme                         |     
     |          Mulliken Center for Theoretical Chemistry        |     
     |                    University of Bonn                     |     
      -----------------------------------------------------------      

   * xtb version 6.7.1pre (5071a88) compiled by 'Marcel@Raven' on 2024-07-23

   xtb is free software: you can redistribute it and/or modify it under
   the terms of the GNU Lesser General Public License as published by
   the Free Software Foundation, either version 3 of the License, or
   (at your option) any later version.
   
   xtb is distributed in the hope that it will be useful,
   but WITHOUT ANY WARRANTY; without even the implied warranty of
   MERCHANTABILITY or FITNESS FOR A PARTICULAR PURPOSE.  See the
   GNU Lesser General Public License for more details.
   
   Cite this work as:
   * C. Bannwarth, E. Caldeweyher, S. Ehlert, A. Hansen, P. Pracht,
     J. Seibert, S. Spicher, S. Grimme, WIREs Comput. Mol. Sci., 2020, 11,
     e01493. DOI: 10.1002/wcms.1493
   
   for GFN2-xTB:
   * C. Bannwarth, S. Ehlert and S. Grimme., J. Chem. Theory Comput., 2019,
     15, 1652-1671. DOI: 10.1021/acs.jctc.8b01176
   for GFN1-xTB:
   * S. Grimme, C. Bannwarth, P. Shushkov, J. Chem. Theory Comput., 2017,
     13, 1989-2009. DOI: 10.1021/acs.jctc.7b00118
   for GFN0-xTB:
   * P. Pracht, E. Caldeweyher, S. Ehlert, S. Grimme, ChemRxiv, 2019, preprint.
     DOI: 10.26434/chemrxiv.8326202.v1
   for GFN-FF:
   * S. Spicher and S. Grimme, Angew. Chem. Int. Ed., 2020, 59, 15665-15673.
     DOI: 10.1002/anie.202004239
   
   for ALPB and GBSA implicit solvation:
   * S. Ehlert, M. Stahn, S. Spicher, S. Grimme, J. Chem. Theory Comput.,
     2021, 17, 4250-4261. DOI: 10.1021/acs.jctc.1c00471
   
   for ddCOSMO and CPCM-X implicit solvation:
   * M. Stahn, S. Ehlert, S. Grimme, J. Phys. Chem. A,
     2023, XX, XXXX-XXXX. DOI: 10.1021/acs.jpca.3c04382
   
   for DFT-D4:
   * E. Caldeweyher, C. Bannwarth and S. Grimme, J. Chem. Phys., 2017,
     147, 034112. DOI: 10.1063/1.4993215
   * E. Caldeweyher, S. Ehlert, A. Hansen, H. Neugebauer, S. Spicher,
     C. Bannwarth and S. Grimme, J. Chem. Phys., 2019, 150, 154122.
     DOI: 10.1063/1.5090222
   * E. Caldeweyher, J.-M. Mewes, S. Ehlert and S. Grimme, Phys. Chem. Chem. Phys.
     2020, 22, 8499-8512. DOI: 10.1039/D0CP00502A
   
   for sTDA-xTB:
   * S. Grimme and C. Bannwarth, J. Chem. Phys., 2016, 145, 054103.
     DOI: 10.1063/1.4959605
   
   in the mass-spec context:
   * V. Asgeirsson, C. Bauer and S. Grimme, Chem. Sci., 2017, 8, 4879.
     DOI: 10.1039/c7sc00601b
   * J. Koopman and S. Grimme, ACS Omega 2019, 4, 12, 15120-15133.
     DOI: 10.1021/acsomega.9b02011
   
   for metadynamics refer to:
   * S. Grimme, J. Chem. Theory Comput., 2019, 155, 2847-2862
     DOI: 10.1021/acs.jctc.9b00143
   
   for SPH calculations refer to:
   * S. Spicher and S. Grimme, J. Chem. Theory Comput., 2021, 17, 1701-1714
     DOI: 10.1021/acs.jctc.0c01306
   
   for ONIOM refer to:
   * C. Plett, A. Katbashev, S. Ehlert, S. Grimme, M. Bursch,
     Phys. Chem. Chem. Phys., 2023, 25, 17860-17868. DOI: 10.1039/D3CP02178E
   
   for DIPRO refer to:
   * J. Kohn, N. Gildemeister, S. Grimme, D. Fazzi, A. Hansen,
     J. Chem. Phys., 2023, just accepted.
   
   for PTB refer to:
   * S. Grimme, M. Mueller, A. Hansen, J. Chem. Phys., 2023, 158, 124111.
     DOI: 10.1063/5.0137838
   
   with help from (in alphabetical order)
   P. Atkinson, C. Bannwarth, F. Bohle, G. Brandenburg, E. Caldeweyher
   M. Checinski, S. Dohm, S. Ehlert, S. Ehrlich, I. Gerasimov, C. Hölzer
   A. Katbashev, J. Kohn, J. Koopman, C. Lavigne, S. Lehtola, F. März, M. Müller,
   F. Musil, H. Neugebauer, J. Pisarek, C. Plett, P. Pracht, F. Pultar,
   J. Seibert, P. Shushkov, S. Spicher, M. Stahn, M. Steiner, T. Strunk,
   J. Stückrath, T. Rose, and J. Unsleber
   
 * started run on 2026/09/01 at 16:36:41.745     
   ID    Z sym.   atoms
    1    8 O      1, 11, 14
    2    6 C      2-10, 12, 13, 15-17
    3    1 H      18-29, 78-89
    4    5 B      30-77

           -------------------------------------------------
          |                Calculation Setup                |
           -------------------------------------------------

          program call               : "c:\Users\Andre\Proyectos doctorado\kras-pancreatic-gC3N4-ai\tools\xtb\xtb-6.7.1\bin\xtb.exe" "c:\Users\Andre\Proyectos doctorado\borophene-alzheimer-tau-ai\calculations\tau\Resveratrol\Resveratrol_opt_270deg.xyz" --opt vloose --gfn 2 --chrg 0 --uhf 0 --etemp 300 --iterations 500 --cycles 15 --norestart
          coordinate file            : c:\Users\Andre\Proyectos doctorado\borophene-alzheimer-tau-ai\calculations\tau\Resveratrol\Resveratrol_opt_270deg.xyz
          omp threads                :                    16


molecular fragmentation (1/2 indicates fragments):
111111111111111111111111111112222222222222222222222222222222222222222222
22222222222222222
# atoms in fragment 1/2:    29    60
 fragment masses (1/2) :      228.24      531.02
CMA distance (Bohr)    :  11.309
constraining FC (au)   :  0.0500

           -------------------------------------------------
          |                 G F N 2 - x T B                 |
           -------------------------------------------------

        Reference                      10.1021/acs.jctc.8b01176
      * Hamiltonian:
        H0-scaling (s, p, d)           1.850000    2.230000    2.230000
        zeta-weighting                 0.500000
      * Dispersion:
        s8                             2.700000
        a1                             0.520000
        a2                             5.000000
        s9                             5.000000
      * Repulsion:
        kExp                           1.500000    1.000000
        rExp                           1.000000
      * Coulomb:
        alpha                          2.000000
        third order                    shell-resolved
        anisotropic                    true
        a3                             3.000000
        a5                             4.000000
        cn-shift                       1.200000
        cn-exp                         4.000000
        max-rad                        5.000000


          ...................................................
          :                      SETUP                      :
          :.................................................:
          :  # basis functions                 284          :
          :  # atomic orbitals                 284          :
          :  # shells                          154          :
          :  # electrons                       242          :
          :  max. iterations                   500          :
          :  Hamiltonian                  GFN2-xTB          :
          :  restarted?                      false          :
          :  GBSA solvation                  false          :
          :  PC potential                    false          :
          :  electronic temp.          300.0000000     K    :
          :  accuracy                    1.0000000          :
          :  -> integral cutoff          0.2500000E+02      :
          :  -> integral neglect         0.1000000E-07      :
          :  -> SCF convergence          0.1000000E-05 Eh   :
          :  -> wf. convergence          0.1000000E-03 e    :
          :  Broyden damping             0.4000000          :
          :  net charge                          0          :
          :  unpaired electrons                  0          :
          ...................................................

 iter      E             dE          RMSdq      gap      omega  full diag
   1   -113.5955880 -0.113596E+03  0.155E+01    0.42       0.0  T
   2   -109.3660668  0.422952E+01  0.101E+01    0.25       1.0  T
   3    -25.1149778  0.842511E+02  0.175E+01    0.21       1.0  T
   4    -62.5582322 -0.374433E+02  0.124E+01    0.09       1.0  T
   5    -92.4488858 -0.298907E+02  0.799E+00    0.14       1.0  T
   6   -100.6001887 -0.815130E+01  0.686E+00    0.14       1.0  T
   7    -98.0964125  0.250378E+01  0.554E+00    0.03       1.0  T
   8   -109.8264987 -0.117301E+02  0.395E+00    0.09       1.0  T
   9   -113.8922525 -0.406575E+01  0.240E+00    0.10       1.0  T
  10   -114.0861064 -0.193854E+00  0.212E+00    0.23       1.0  T
  11   -114.1311647 -0.450583E-01  0.185E+00    0.38       1.0  T
  12   -114.1755088 -0.443441E-01  0.171E+00    0.41       1.0  T
  13   -114.0989524  0.765564E-01  0.135E+00    0.54       1.0  T
  14   -114.1402954 -0.413430E-01  0.930E-01    0.56       1.0  T
  15   -114.2006579 -0.603625E-01  0.778E-01    0.48       1.0  T
  16   -114.1936764  0.698150E-02  0.741E-01    0.23       1.0  T
  17   -114.2389457 -0.452693E-01  0.579E-01    0.14       1.0  T
  18   -114.2437307 -0.478498E-02  0.502E-01    0.25       1.0  T
  19   -114.2530609 -0.933019E-02  0.416E-01    0.17       1.0  T
  20   -114.2604514 -0.739047E-02  0.273E-01    0.15       1.0  T
  21   -114.2625693 -0.211794E-02  0.129E-01    0.16       1.0  T
  22   -114.2601688  0.240050E-02  0.160E-01    0.10       1.0  T
  23   -114.2631029 -0.293409E-02  0.124E-01    0.14       1.0  T
  24   -114.2638901 -0.787183E-03  0.101E-01    0.13       1.0  T
  25   -114.2644741 -0.584010E-03  0.851E-02    0.13       1.0  T
  26   -114.2645901 -0.116046E-03  0.713E-02    0.13       1.0  T
  27   -114.2647893 -0.199173E-03  0.415E-02    0.13       1.0  T
  28   -114.2648690 -0.796956E-04  0.182E-02    0.14       1.0  T
  29   -114.2648758 -0.678528E-05  0.152E-02    0.14       1.0  T
  30   -114.2648862 -0.104445E-04  0.117E-02    0.14       1.0  T
  31   -114.2648911 -0.489698E-05  0.965E-03    0.13       1.1  T
  32   -114.2648907  0.414661E-06  0.889E-03    0.13       1.2  T
  33   -114.2648926 -0.191844E-05  0.729E-03    0.13       1.5  T
  34   -114.2648977 -0.506374E-05  0.516E-03    0.14       2.1  T
  35   -114.2648986 -0.846874E-06  0.448E-03    0.14       2.4  T
  36   -114.2648989 -0.371101E-06  0.417E-03    0.14       2.5  T
  37   -114.2649011 -0.217166E-05  0.203E-03    0.14       5.2  T
  38   -114.2649015 -0.417214E-06  0.115E-03    0.14       9.2  T
  39   -114.2649016 -0.131172E-06  0.714E-04    0.14      14.8  T
  40   -114.2649017 -0.348723E-07  0.517E-04    0.14      20.5  T

   *** convergence criteria satisfied after 40 iterations ***

         #    Occupation            Energy/Eh            Energy/eV
      -------------------------------------------------------------
         1        2.0000           -0.7062936             -19.2192
       ...           ...                  ...                  ...
       115        2.0000           -0.2779627              -7.5637
       116        2.0000           -0.2744510              -7.4682
       117        2.0000           -0.2740167              -7.4564
       118        2.0000           -0.2699755              -7.3464
       119        2.0000           -0.2670986              -7.2681
       120        2.0000           -0.2640147              -7.1842
       121        1.8670           -0.2524584              -6.8697 (HOMO)
       122        0.1330           -0.2474387              -6.7331 (LUMO)
       123        0.0001           -0.2399902              -6.5305
       124                         -0.2257943              -6.1442
       125                         -0.2255563              -6.1377
       126                         -0.2221021              -6.0437
       ...                                ...                  ...
       284                          1.2191804              33.1756
      -------------------------------------------------------------
                  HL-Gap            0.0050197 Eh            0.1366 eV
             Fermi-level           -0.2499488 Eh           -6.8015 eV

 SCC (total)                   0 d,  0 h,  0 min,  0.600 sec
 SCC setup                      ...        0 min,  0.001 sec (  0.167%)
 Dispersion                     ...        0 min,  0.002 sec (  0.333%)
 classical contributions        ...        0 min,  0.000 sec (  0.000%)
 integral evaluation            ...        0 min,  0.006 sec (  1.000%)
 iterations                     ...        0 min,  0.572 sec ( 95.333%)
 molecular gradient             ...        0 min,  0.017 sec (  2.833%)
 printout                       ...        0 min,  0.001 sec (  0.167%)

         :::::::::::::::::::::::::::::::::::::::::::::::::::::
         ::                     SUMMARY                     ::
         :::::::::::::::::::::::::::::::::::::::::::::::::::::
         :: total energy            -112.541210708659 Eh    ::
         :: gradient norm              0.043759086256 Eh/a0 ::
         :: HOMO-LUMO gap              0.136593815121 eV    ::
         ::.................................................::
         :: SCC energy              -114.262810290496 Eh    ::
         :: -> isotropic ES            0.346496596812 Eh    ::
         :: -> anisotropic ES          0.010570563698 Eh    ::
         :: -> anisotropic XC         -0.022945803096 Eh    ::
         :: -> dispersion             -0.098511443079 Eh    ::
         :: repulsion energy           1.721599581837 Eh    ::
         :: add. restraining           0.000000000000 Eh    ::
         :: total charge              -0.000000000001 e     ::
         :::::::::::::::::::::::::::::::::::::::::::::::::::::

      ----------------------------------------------------------- 
     |                   =====================                   |
     |                        A N C O P T                        |
     |                   =====================                   |
     |               Approximate Normal Coordinate               |
     |                Rational Function Optimizer                |
      ----------------------------------------------------------- 
      ----------------------------------------------------------- 
     |                   =====================                   |
     |                        A N C O P T                        |
     |                   =====================                   |
     |               Approximate Normal Coordinate               |
     |                Rational Function Optimizer                |
      ----------------------------------------------------------- 

          ...................................................
          :                      SETUP                      :
          :.................................................:
          :   optimization level            normal          :
          :   max. optcycles                    15          :
          :   ANC micro-cycles                  15          :
          :   degrees of freedom               261          :
          :.................................................:
          :   RF solver                   davidson          :
          :   write xtbopt.log                true          :
          :   linear?                        false          :
          :   energy convergence         0.5000000E-05 Eh   :
          :   grad. convergence          0.1000000E-02 Eh/α :
          :   maxmium RF displ.          1.0000000          :
          :   Hlow (freq-cutoff)         0.1000000E-01      :
          :   Hmax (freq-cutoff)         5.0000000          :
          :   S6 in model hess.         20.0000000          :
          ...................................................

generating ANC from exact Hessian ...
Using Lindh-Hessian (1995)
 Shifting diagonal of input Hessian by   1.033604801531625E-002
 Lowest  eigenvalues of input Hessian
    0.010000    0.010056    0.010078    0.010104    0.010166    0.010229
    0.010236    0.000000    0.000000    0.000000    0.000000    0.000000
    0.000000    0.010372    0.010383    0.010387    0.010427    0.010441
 Highest eigenvalues
    1.889372    1.930476    1.997319    2.061343    2.082140    2.099909
 

........................................................................
.............................. CYCLE    1 ..............................
........................................................................

 iter      E             dE          RMSdq      gap      omega  full diag
   1   -114.2649017 -0.114265E+03  0.232E-04    0.14       0.0  T
   2   -114.2649015  0.210965E-06  0.101E-03    0.14      10.5  T
   3   -114.2649017 -0.215811E-06  0.189E-04    0.14      56.0  T
   4   -114.2649017 -0.415054E-08  0.997E-05    0.14     106.3  T
     SCC iter.                  ...        0 min,  0.055 sec
     gradient                   ...        0 min,  0.016 sec
 * total energy  :  -112.5412108 Eh     change       -0.5017654E-07 Eh
   gradient norm :     0.0437429 Eh/α   predicted     0.0000000E+00 (-100.00%)
   displ. norm   :     0.2154948 α      lambda       -0.3796876E-02
   maximum displ.:     0.1302250 α      in ANC's #35, #46, #52, ...

........................................................................
.............................. CYCLE    2 ..............................
........................................................................

 iter      E             dE          RMSdq      gap      omega  full diag
   1   -114.2916142 -0.114292E+03  0.134E-01    0.11       0.0  T
   2   -114.2883112  0.330301E-02  0.149E-01    0.31       1.0  T
   3   -114.2883079  0.329042E-05  0.146E-01    0.09       1.0  T
   4   -114.2877476  0.560318E-03  0.136E-01    0.17       1.0  T
   5   -114.2913688 -0.362121E-02  0.708E-02    0.17       1.0  T
   6   -114.2923154 -0.946600E-03  0.246E-02    0.14       1.0  T
   7   -114.2924004 -0.850104E-04  0.120E-02    0.13       1.0  T
   8   -114.2924209 -0.204866E-04  0.718E-03    0.13       1.5  T
   9   -114.2924137  0.719418E-05  0.896E-03    0.14       1.2  T
  10   -114.2924297 -0.159491E-04  0.219E-03    0.13       4.8  T
  11   -114.2924300 -0.300598E-06  0.168E-03    0.13       6.3  T
  12   -114.2924304 -0.369813E-06  0.985E-04    0.13      10.8  T
  13   -114.2924304 -0.621834E-07  0.702E-04    0.13      15.1  T
     SCC iter.                  ...        0 min,  0.179 sec
     gradient                   ...        0 min,  0.016 sec
 * total energy  :  -112.5438960 Eh     change       -0.2685285E-02 Eh
   gradient norm :     0.0198607 Eh/α   predicted    -0.1987110E-02 ( -26.00%)
   displ. norm   :     0.3267893 α      lambda       -0.1991252E-02
   maximum displ.:     0.2335183 α      in ANC's #35, #46, #52, ...

........................................................................
.............................. CYCLE    3 ..............................
........................................................................

 iter      E             dE          RMSdq      gap      omega  full diag
   1   -114.2966198 -0.114297E+03  0.279E-01    0.06       0.0  T
   2   -114.2885608  0.805906E-02  0.338E-01    0.39       1.0  T
   3   -114.2971290 -0.856827E-02  0.247E-01    0.28       1.0  T
   4   -114.3016208 -0.449176E-02  0.181E-01    0.30       1.0  T
   5   -114.3058633 -0.424249E-02  0.112E-01    0.16       1.0  T
   6   -114.2697417  0.361216E-01  0.414E-01    0.03       1.0  T
   7   -114.3049820 -0.352403E-01  0.117E-01    0.23       1.0  T
   8   -114.3055735 -0.591564E-03  0.109E-01    0.22       1.0  T
   9   -114.3063173 -0.743750E-03  0.874E-02    0.19       1.0  T
  10   -114.3069535 -0.636222E-03  0.668E-02    0.17       1.0  T
  11   -114.3076781 -0.724542E-03  0.286E-02    0.14       1.0  T
  12   -114.3078429 -0.164855E-03  0.491E-03    0.13       2.2  T
  13   -114.3078279  0.149893E-04  0.967E-03    0.13       1.1  T
  14   -114.3078445 -0.165324E-04  0.354E-03    0.13       3.0  T
  15   -114.3078468 -0.235541E-05  0.737E-04    0.13      14.4  T
  16   -114.3078469 -0.552994E-07  0.412E-04    0.13      25.8  T
  17   -114.3078469 -0.684061E-08  0.331E-04    0.13      32.0  T
     SCC iter.                  ...        0 min,  0.250 sec
     gradient                   ...        0 min,  0.016 sec
 * total energy  :  -112.5452353 Eh     change       -0.1339302E-02 Eh
   gradient norm :     0.0113724 Eh/α   predicted    -0.1101950E-02 ( -17.72%)
   displ. norm   :     0.4560553 α      lambda       -0.1689948E-02
   maximum displ.:     0.3217757 α      in ANC's #35, #46, #42, ...

........................................................................
.............................. CYCLE    4 ..............................
........................................................................

 iter      E             dE          RMSdq      gap      omega  full diag
   1   -114.2627636 -0.114263E+03  0.523E-01    0.02       0.0  T
   2   -114.2454843  0.172793E-01  0.634E-01    0.45       1.0  T
   3   -114.2751065 -0.296222E-01  0.459E-01    0.23       1.0  T
   4   -114.2933122 -0.182057E-01  0.326E-01    0.36       1.0  T
   5   -114.3017357 -0.842354E-02  0.256E-01    0.34       1.0  T
   6   -114.3069916 -0.525591E-02  0.179E-01    0.24       1.0  T
   7   -114.2324665  0.745252E-01  0.609E-01    0.00       1.0  T
   8   -114.3071664 -0.747000E-01  0.159E-01    0.26       1.0  T
   9   -114.3073351 -0.168628E-03  0.152E-01    0.28       1.0  T
  10   -114.3082361 -0.901062E-03  0.132E-01    0.23       1.0  T
  11   -114.3092487 -0.101256E-02  0.108E-01    0.19       1.0  T
  12   -114.3107095 -0.146086E-02  0.647E-02    0.15       1.0  T
  13   -114.3109348 -0.225276E-03  0.541E-02    0.10       1.0  T
  14   -114.3111671 -0.232289E-03  0.430E-02    0.14       1.0  T
  15   -114.3113406 -0.173474E-03  0.315E-02    0.13       1.0  T
  16   -114.3115447 -0.204082E-03  0.110E-03    0.12       9.6  T
  17   -114.3115445  0.146052E-06  0.141E-03    0.12       7.5  T
  18   -114.3115403  0.419023E-05  0.470E-03    0.12       2.3  T
  19   -114.3115438 -0.348248E-05  0.230E-03    0.12       4.6  T
  20   -114.3115442 -0.444910E-06  0.175E-03    0.12       6.1  T
  21   -114.3115449 -0.635428E-06  0.998E-05    0.12     106.2  T
  22   -114.3115449  0.895835E-08  0.233E-04    0.12      45.4  T
     SCC iter.                  ...        0 min,  0.320 sec
     gradient                   ...        0 min,  0.034 sec
 * total energy  :  -112.5459419 Eh     change       -0.7065977E-03 Eh
   gradient norm :     0.0225314 Eh/α   predicted    -0.1020848E-02 (  44.47%)
   displ. norm   :     0.3454599 α      lambda       -0.1562385E-02
   maximum displ.:     0.2264090 α      in ANC's #35, #46, #2, ...

........................................................................
.............................. CYCLE    5 ..............................
........................................................................

 iter      E             dE          RMSdq      gap      omega  full diag
   1   -114.2843723 -0.114284E+03  0.361E-01    0.04       0.0  T
   2   -114.2704347  0.139375E-01  0.474E-01    0.41       1.0  T
   3   -114.2895316 -0.190969E-01  0.329E-01    0.26       1.0  T
   4   -114.2949870 -0.545542E-02  0.260E-01    0.35       1.0  T
   5   -114.2998213 -0.483432E-02  0.204E-01    0.26       1.0  T
   6   -114.2993410  0.480298E-03  0.184E-01    0.07       1.0  T
   7   -114.3019763 -0.263527E-02  0.149E-01    0.08       1.0  T
   8   -114.3055547 -0.357840E-02  0.735E-02    0.14       1.0  T
   9   -114.3057073 -0.152567E-03  0.638E-02    0.14       1.0  T
  10   -114.3065025 -0.795263E-03  0.128E-02    0.12       1.0  T
  11   -114.3064797  0.228112E-04  0.162E-02    0.11       1.0  T
  12   -114.3065299 -0.501254E-04  0.334E-03    0.11       3.2  T
  13   -114.3065202  0.966423E-05  0.765E-03    0.12       1.4  T
  14   -114.3065315 -0.113047E-04  0.184E-03    0.11       5.8  T
  15   -114.3065307  0.779046E-06  0.265E-03    0.11       4.0  T
  16   -114.3065322 -0.142892E-05  0.333E-04    0.11      31.8  T
  17   -114.3065321  0.121778E-07  0.404E-04    0.11      26.2  T
  18   -114.3065322 -0.305824E-07  0.847E-05    0.11     125.2  T
     SCC iter.                  ...        0 min,  0.280 sec
     gradient                   ...        0 min,  0.017 sec
 * total energy  :  -112.5468878 Eh     change       -0.9458395E-03 Eh
   gradient norm :     0.0223063 Eh/α   predicted    -0.8744226E-03 (  -7.55%)
   displ. norm   :     0.2728102 α      lambda       -0.1389390E-02
   maximum displ.:     0.1101207 α      in ANC's #35, #29, #14, ...

........................................................................
.............................. CYCLE    6 ..............................
........................................................................

 iter      E             dE          RMSdq      gap      omega  full diag
   1   -114.2978727 -0.114298E+03  0.172E-01    0.08       0.0  T
   2   -114.2890407  0.883206E-02  0.264E-01    0.36       1.0  T
   3   -114.2968031 -0.776243E-02  0.166E-01    0.19       1.0  T
   4   -114.2991121 -0.230903E-02  0.104E-01    0.13       1.0  T
   5   -114.2347707  0.643414E-01  0.554E-01    0.00       1.0  T
   6   -114.2997155 -0.649448E-01  0.753E-02    0.14       1.0  T
   7   -114.2995968  0.118713E-03  0.756E-02    0.15       1.0  T
   8   -114.3002502 -0.653448E-03  0.513E-02    0.13       1.0  T
   9   -114.3006217 -0.371476E-03  0.272E-02    0.12       1.0  T
  10   -114.3007636 -0.141888E-03  0.685E-03    0.11       1.5  T
  11   -114.3007706 -0.693972E-05  0.281E-03    0.11       3.8  T
  12   -114.3007710 -0.493008E-06  0.219E-03    0.11       4.8  T
  13   -114.3007718 -0.733808E-06  0.861E-04    0.11      12.3  T
  14   -114.3007719 -0.905870E-07  0.452E-04    0.11      23.5  T
     SCC iter.                  ...        0 min,  0.267 sec
     gradient                   ...        0 min,  0.018 sec
 * total energy  :  -112.5476146 Eh     change       -0.7268352E-03 Eh
   gradient norm :     0.0130647 Eh/α   predicted    -0.7464014E-03 (   2.69%)
   displ. norm   :     0.3922990 α      lambda       -0.1052610E-02
   maximum displ.:     0.2094622 α      in ANC's #35, #29, #9, ...

........................................................................
.............................. CYCLE    7 ..............................
........................................................................

 iter      E             dE          RMSdq      gap      omega  full diag
   1   -114.2890131 -0.114289E+03  0.232E-01    0.06       0.0  T
   2   -114.2774397  0.115734E-01  0.344E-01    0.39       1.0  T
   3   -114.2879030 -0.104633E-01  0.239E-01    0.30       1.0  T
   4   -114.2894898 -0.158684E-02  0.197E-01    0.21       1.0  T
   5   -114.2847604  0.472946E-02  0.232E-01    0.06       1.0  T
   6   -114.2857491 -0.988698E-03  0.218E-01    0.06       1.0  T
   7   -114.2945182 -0.876911E-02  0.883E-02    0.15       1.0  T
   8   -114.2950410 -0.522785E-03  0.737E-02    0.14       1.0  T
   9   -114.2958603 -0.819301E-03  0.335E-02    0.12       1.0  T
  10   -114.2960733 -0.213060E-03  0.683E-03    0.11       1.6  T
  11   -114.2960809 -0.757093E-05  0.345E-03    0.11       3.1  T
  12   -114.2960789  0.197056E-05  0.463E-03    0.11       2.3  T
  13   -114.2960827 -0.379511E-05  0.964E-04    0.11      11.0  T
  14   -114.2960826  0.878395E-07  0.112E-03    0.11       9.5  T
  15   -114.2960828 -0.148222E-06  0.748E-04    0.11      14.2  T
  16   -114.2960829 -0.105001E-06  0.160E-04    0.11      66.1  T
     SCC iter.                  ...        0 min,  0.228 sec
     gradient                   ...        0 min,  0.016 sec
 * total energy  :  -112.5483589 Eh     change       -0.7442720E-03 Eh
   gradient norm :     0.0125610 Eh/α   predicted    -0.6073041E-03 ( -18.40%)
   displ. norm   :     0.4620141 α      lambda       -0.9246615E-03
   maximum displ.:     0.2106893 α      in ANC's #35, #29, #9, ...

........................................................................
.............................. CYCLE    8 ..............................
........................................................................

 iter      E             dE          RMSdq      gap      omega  full diag
   1   -114.2907360 -0.114291E+03  0.213E-01    0.07       0.0  T
   2   -114.2801690  0.105670E-01  0.314E-01    0.38       1.0  T
   3   -114.2891298 -0.896078E-02  0.210E-01    0.22       1.0  T
   4   -114.2914590 -0.232926E-02  0.148E-01    0.13       1.0  T
   5   -114.1496141  0.141845E+00  0.835E-01    0.04       1.0  T
   6   -114.2919125 -0.142298E+00  0.130E-01    0.16       1.0  T
   7   -114.2921113 -0.198792E-03  0.123E-01    0.17       1.0  T
   8   -114.2935212 -0.140996E-02  0.892E-02    0.14       1.0  T
   9   -114.2943978 -0.876579E-03  0.574E-02    0.13       1.0  T
  10   -114.2949294 -0.531587E-03  0.241E-02    0.11       1.0  T
  11   -114.2950131 -0.837258E-04  0.112E-02    0.11       1.0  T
  12   -114.2950301 -0.169752E-04  0.612E-03    0.11       1.7  T
  13   -114.2950362 -0.608577E-05  0.183E-03    0.11       5.8  T
  14   -114.2950367 -0.510857E-06  0.773E-04    0.10      13.7  T
  15   -114.2950368 -0.745440E-07  0.393E-04    0.10      27.0  T
     SCC iter.                  ...        0 min,  0.207 sec
     gradient                   ...        0 min,  0.015 sec
 * total energy  :  -112.5489052 Eh     change       -0.5462986E-03 Eh
   gradient norm :     0.0139074 Eh/α   predicted    -0.5610673E-03 (   2.70%)
   displ. norm   :     0.3956123 α      lambda       -0.1017520E-02
   maximum displ.:     0.1834180 α      in ANC's #29, #9, #14, ...

........................................................................
.............................. CYCLE    9 ..............................
........................................................................

 iter      E             dE          RMSdq      gap      omega  full diag
   1   -114.3035978 -0.114304E+03  0.139E-01    0.11       0.0  T
   2   -114.3034466  0.151108E-03  0.893E-02    0.10       1.0  T
   3   -114.2949558  0.849082E-02  0.213E-01    0.24       1.0  T
   4   -114.3031229 -0.816710E-02  0.483E-02    0.11       1.0  T
   5   -114.3033986 -0.275707E-03  0.310E-02    0.11       1.0  T
   6   -114.3035973 -0.198700E-03  0.945E-03    0.10       1.1  T
   7   -114.3036099 -0.125553E-04  0.543E-03    0.11       2.0  T
   8   -114.3035945  0.154319E-04  0.103E-02    0.10       1.0  T
   9   -114.3036140 -0.195702E-04  0.282E-03    0.10       3.8  T
  10   -114.3036147 -0.646332E-06  0.209E-03    0.10       5.1  T
  11   -114.3036154 -0.750107E-06  0.710E-04    0.10      14.9  T
  12   -114.3036155 -0.664544E-07  0.423E-04    0.10      25.0  T
     SCC iter.                  ...        0 min,  0.181 sec
     gradient                   ...        0 min,  0.015 sec
 * total energy  :  -112.5493540 Eh     change       -0.4488247E-03 Eh
   gradient norm :     0.0111845 Eh/α   predicted    -0.5883964E-03 (  31.10%)
   displ. norm   :     0.4464931 α      lambda       -0.8046254E-03
   maximum displ.:     0.2050716 α      in ANC's #35, #9, #29, ...

........................................................................
.............................. CYCLE   10 ..............................
........................................................................

 iter      E             dE          RMSdq      gap      omega  full diag
   1   -114.2896290 -0.114290E+03  0.277E-01    0.05       0.0  T
   2   -114.2739630  0.156660E-01  0.414E-01    0.40       1.0  T
   3   -114.2889463 -0.149833E-01  0.288E-01    0.30       1.0  T
   4   -114.2914885 -0.254227E-02  0.240E-01    0.27       1.0  T
   5   -114.2991850 -0.769648E-02  0.118E-01    0.12       1.0  T
   6   -114.1328054  0.166380E+00  0.915E-01    0.05       1.0  T
   7   -114.2960479 -0.163243E+00  0.162E-01    0.19       1.0  T
   8   -114.2967187 -0.670739E-03  0.153E-01    0.18       1.0  T
   9   -114.2985097 -0.179101E-02  0.115E-01    0.15       1.0  T
  10   -114.2997026 -0.119289E-02  0.829E-02    0.13       1.0  T
  11   -114.3007352 -0.103263E-02  0.369E-02    0.11       1.0  T
  12   -114.3009657 -0.230503E-03  0.116E-02    0.11       1.0  T
  13   -114.3009700 -0.426325E-05  0.105E-02    0.10       1.0  T
  14   -114.3009663  0.364752E-05  0.111E-02    0.11       1.0  T
  15   -114.3009885 -0.221311E-04  0.293E-03    0.10       3.6  T
  16   -114.3009891 -0.648376E-06  0.218E-03    0.10       4.9  T
  17   -114.3009899 -0.834713E-06  0.536E-04    0.10      19.8  T
  18   -114.3009900 -0.539231E-07  0.927E-05    0.10     114.4  T
     SCC iter.                  ...        0 min,  0.263 sec
     gradient                   ...        0 min,  0.018 sec
 * total energy  :  -112.5497119 Eh     change       -0.3578367E-03 Eh
   gradient norm :     0.0125559 Eh/α   predicted    -0.4825220E-03 (  34.84%)
   displ. norm   :     0.2365193 α      lambda       -0.6940030E-03
   maximum displ.:     0.1225828 α      in ANC's #9, #14, #29, ...

........................................................................
.............................. CYCLE   11 ..............................
........................................................................

 iter      E             dE          RMSdq      gap      omega  full diag
   1   -114.3050810 -0.114305E+03  0.118E-01    0.11       0.0  T
   2   -114.2966129  0.846812E-02  0.221E-01    0.05       1.0  T
   3   -114.3017444 -0.513151E-02  0.146E-01    0.16       1.0  T
   4   -114.3025829 -0.838472E-03  0.114E-01    0.13       1.0  T
   5   -114.3035902 -0.100737E-02  0.877E-02    0.14       1.0  T
   6   -114.3044082 -0.818019E-03  0.618E-02    0.12       1.0  T
   7   -114.3047976 -0.389383E-03  0.428E-02    0.12       1.0  T
   8   -114.3050371 -0.239470E-03  0.239E-02    0.11       1.0  T
   9   -114.3051409 -0.103776E-03  0.505E-03    0.10       2.1  T
  10   -114.3051436 -0.277089E-05  0.280E-03    0.10       3.8  T
  11   -114.3051437 -0.103415E-06  0.261E-03    0.10       4.1  T
  12   -114.3051442 -0.503097E-06  0.218E-03    0.10       4.9  T
  13   -114.3051448 -0.557598E-06  0.132E-03    0.10       8.0  T
  14   -114.3051451 -0.337904E-06  0.228E-04    0.10      46.4  T
  15   -114.3051452 -0.622609E-08  0.129E-04    0.10      82.3  T
     SCC iter.                  ...        0 min,  0.360 sec
     gradient                   ...        0 min,  0.034 sec
 * total energy  :  -112.5500314 Eh     change       -0.3195135E-03 Eh
   gradient norm :     0.0075940 Eh/α   predicted    -0.3664155E-03 (  14.68%)
   displ. norm   :     0.3506116 α      lambda       -0.5011820E-03
   maximum displ.:     0.1753208 α      in ANC's #9, #29, #14, ...

........................................................................
.............................. CYCLE   12 ..............................
........................................................................

 iter      E             dE          RMSdq      gap      omega  full diag
   1   -114.3032939 -0.114303E+03  0.135E-01    0.09       0.0  T
   2   -114.2984494  0.484446E-02  0.180E-01    0.19       1.0  T
   3   -114.2728722  0.255772E-01  0.395E-01    0.03       1.0  T
   4   -114.2989898 -0.261176E-01  0.159E-01    0.18       1.0  T
   5   -114.2997696 -0.779836E-03  0.139E-01    0.17       1.0  T
   6   -114.3010420 -0.127236E-02  0.114E-01    0.15       1.0  T
   7   -114.3016334 -0.591411E-03  0.983E-02    0.14       1.0  T
   8   -114.3023959 -0.762479E-03  0.755E-02    0.13       1.0  T
   9   -114.3030754 -0.679473E-03  0.458E-02    0.12       1.0  T
  10   -114.3034339 -0.358562E-03  0.146E-02    0.11       1.0  T
  11   -114.3034717 -0.377625E-04  0.321E-03    0.10       3.3  T
  12   -114.3034726 -0.945116E-06  0.207E-03    0.10       5.1  T
  13   -114.3034734 -0.795428E-06  0.665E-04    0.10      15.9  T
  14   -114.3034733  0.987584E-07  0.101E-03    0.10      10.5  T
  15   -114.3034735 -0.161979E-06  0.288E-04    0.10      36.7  T
     SCC iter.                  ...        0 min,  0.280 sec
     gradient                   ...        0 min,  0.018 sec
 * total energy  :  -112.5502382 Eh     change       -0.2068644E-03 Eh
   gradient norm :     0.0074668 Eh/α   predicted    -0.2813965E-03 (  36.03%)
   displ. norm   :     0.3359940 α      lambda       -0.4379219E-03
   maximum displ.:     0.1783254 α      in ANC's #9, #29, #14, ...

........................................................................
.............................. CYCLE   13 ..............................
........................................................................

 iter      E             dE          RMSdq      gap      omega  full diag
   1   -114.3032410 -0.114303E+03  0.117E-01    0.09       0.0  T
   2   -114.2977003  0.554076E-02  0.188E-01    0.20       1.0  T
   3   -114.2962278  0.147247E-02  0.197E-01    0.06       1.0  T
   4   -114.2985107 -0.228295E-02  0.155E-01    0.16       1.0  T
   5   -114.3012629 -0.275216E-02  0.109E-01    0.15       1.0  T
   6   -114.3021832 -0.920297E-03  0.821E-02    0.13       1.0  T
   7   -114.3029241 -0.740870E-03  0.536E-02    0.12       1.0  T
   8   -114.3033801 -0.456071E-03  0.232E-02    0.11       1.0  T
   9   -114.3034628 -0.826525E-04  0.848E-03    0.10       1.2  T
  10   -114.3034750 -0.122133E-04  0.334E-03    0.10       3.2  T
  11   -114.3034765 -0.149905E-05  0.150E-03    0.10       7.1  T
  12   -114.3034760  0.443426E-06  0.207E-03    0.10       5.1  T
  13   -114.3034768 -0.739261E-06  0.678E-04    0.10      15.6  T
  14   -114.3034769 -0.768278E-07  0.302E-04    0.10      35.1  T
     SCC iter.                  ...        0 min,  0.229 sec
     gradient                   ...        0 min,  0.021 sec
 * total energy  :  -112.5505068 Eh     change       -0.2685629E-03 Eh
   gradient norm :     0.0053280 Eh/α   predicted    -0.2436806E-03 (  -9.26%)
   displ. norm   :     0.3638065 α      lambda       -0.3282355E-03
   maximum displ.:     0.2141205 α      in ANC's #9, #29, #14, ...

........................................................................
.............................. CYCLE   14 ..............................
........................................................................

 iter      E             dE          RMSdq      gap      omega  full diag
   1   -114.3056293 -0.114306E+03  0.109E-01    0.10       0.0  T
   2   -114.3054810  0.148374E-03  0.712E-02    0.11       1.0  T
   3   -114.2070938  0.983872E-01  0.697E-01    0.02       1.0  T
   4   -114.3038249 -0.967312E-01  0.906E-02    0.11       1.0  T
   5   -114.3054160 -0.159113E-02  0.316E-02    0.11       1.0  T
   6   -114.3055910 -0.174994E-03  0.161E-02    0.11       1.0  T
   7   -114.3056190 -0.279386E-04  0.107E-02    0.10       1.0  T
   8   -114.3056289 -0.996261E-05  0.755E-03    0.10       1.4  T
   9   -114.3056378 -0.886500E-05  0.382E-03    0.10       2.8  T
  10   -114.3056396 -0.182778E-05  0.180E-03    0.10       5.9  T
  11   -114.3056401 -0.483290E-06  0.693E-04    0.10      15.3  T
  12   -114.3056402 -0.621763E-07  0.316E-04    0.10      33.6  T
     SCC iter.                  ...        0 min,  0.187 sec
     gradient                   ...        0 min,  0.017 sec
 * total energy  :  -112.5507048 Eh     change       -0.1980411E-03 Eh
   gradient norm :     0.0053499 Eh/α   predicted    -0.1858439E-03 (  -6.16%)
   displ. norm   :     0.3549571 α      lambda       -0.2434970E-03
   maximum displ.:     0.2226092 α      in ANC's #9, #14, #29, ...

........................................................................
.............................. CYCLE   15 ..............................
........................................................................

 iter      E             dE          RMSdq      gap      omega  full diag
   1   -114.3077422 -0.114308E+03  0.805E-02    0.11       0.0  T
   2   -114.3006349  0.710731E-02  0.197E-01    0.06       1.0  T
   3   -114.3059550 -0.532010E-02  0.106E-01    0.14       1.0  T
   4   -114.3059484  0.663050E-05  0.895E-02    0.11       1.0  T
   5   -114.3073161 -0.136777E-02  0.499E-02    0.12       1.0  T
   6   -114.3075612 -0.245070E-03  0.351E-02    0.11       1.0  T
   7   -114.3076937 -0.132447E-03  0.237E-02    0.11       1.0  T
   8   -114.3077627 -0.690839E-04  0.138E-02    0.11       1.0  T
   9   -114.3077945 -0.317921E-04  0.464E-03    0.10       2.3  T
  10   -114.3077981 -0.351417E-05  0.113E-03    0.10       9.3  T
  11   -114.3077980  0.718526E-07  0.125E-03    0.10       8.5  T
  12   -114.3077981 -0.941066E-07  0.105E-03    0.10      10.1  T
  13   -114.3077982 -0.163641E-06  0.502E-04    0.10      21.1  T
  14   -114.3077983 -0.412831E-07  0.165E-04    0.10      64.2  T
     SCC iter.                  ...        0 min,  0.225 sec
     gradient                   ...        0 min,  0.020 sec
 * total energy  :  -112.5508895 Eh     change       -0.1846490E-03 Eh
   gradient norm :     0.0045455 Eh/α   predicted    -0.1370893E-03 ( -25.76%)
   displ. norm   :     0.4333797 α      lambda       -0.3012815E-03
   maximum displ.:     0.2713292 α      in ANC's #9, #14, #10, ...

   *** FAILED TO CONVERGE GEOMETRY OPTIMIZATION IN 15 ITERATIONS ***


 ANCopt (total)                0 d,  0 h,  0 min,  3.998 sec
 optimizer setup                ...        0 min,  0.001 sec (  0.025%)
 model hessian                  ...        0 min,  0.017 sec (  0.425%)
 ANC generation                 ...        0 min,  0.011 sec (  0.275%)
 coordinate transformation      ...        0 min,  0.000 sec (  0.000%)
 single point calculation       ...        0 min,  3.938 sec ( 98.499%)
 optimization log               ...        0 min,  0.018 sec (  0.450%)
 hessian update                 ...        0 min,  0.004 sec (  0.100%)
 rational function              ...        0 min,  0.003 sec (  0.075%)

================
 final structure:
================
89
 xtb: 6.7.1pre (5071a88)
O           -0.28943377696570        6.14647827358683        5.35520511943684
C           -0.30443848269583        4.78525966049620        5.43024467523618
C           -1.51595749405801        4.12440838073216        5.23908930179738
C           -1.56624577696661        2.75218251228182        5.30456258169357
C           -0.42034490397005        1.97972957711414        5.55746715713534
C           -0.54734693492576        0.54783446823437        5.62572726875098
C            0.45731097650206       -0.34893995016747        5.75393867037892
C            0.31464453980172       -1.77784264763831        5.85836868240372
C            1.45583488838350       -2.55060762932635        6.12438749823074
C            1.37130263855820       -3.92268824101401        6.26409644033153
O            2.46687275715575       -4.69069572491264        6.53236964374376
C            0.14518441364812       -4.56681077195411        6.12983658052506
C           -0.98823552950124       -3.81495573465122        5.85011188492901
O           -2.20874487528214       -4.40281034291721        5.69709129530699
C           -0.90967778256107       -2.43917965644463        5.71703865787296
C            0.78480216210018        2.66670068251502        5.75387267423432
C            0.84106850410132        4.04275597457572        5.69312252225114
H            0.60203764919979        6.47261024818231        5.52300622942860
H           -2.40056776531574        4.71128374265388        5.04976510419103
H           -2.51143535615158        2.24941531759907        5.16104173160211
H           -1.55711563050211        0.18566536801978        5.57219091679949
H            1.48154664360081        0.00822128906489        5.79716085997540
H            2.41319511162672       -2.05936479090406        6.23876091126728
H            3.23892911621499       -4.12169099856311        6.62795553290532
H            0.09571306001994       -5.63853645310236        6.24538822426609
H           -2.12377298675184       -5.35637309081889        5.81174014515761
H           -1.81644406115843       -1.90060620508827        5.50675330786908
H            1.68542903566290        2.11891437088248        5.97390415161931
H            1.77993035861762        4.55554150081516        5.85750906372042
B           -6.88573019337722       -4.66078565593846        0.51698978981185
B           -5.10923948728641       -2.22623997757636        0.45852451462453
B           -3.58830992352737       -2.17803262949004        0.33851267735674
B            0.99785720017751       -2.86200669190306        0.29622331459700
B            2.46882385190948       -3.01297827683185       -0.06625502250536
B            5.25628637533260       -3.80291850107348       -0.66007971078219
B            6.20538427762942       -4.76847626237712       -1.33366944044994
B           -6.42000203103565       -3.15952243477176        0.43800899285544
B           -6.75653382950154       -1.64026593203762        0.39231464361285
B           -2.05832005604443       -2.31497902600112        0.48809012325321
B           -0.49074828065353       -2.45841798040590        0.45708367813924
B            4.00700824097196       -2.87933799492657       -0.14554477947255
B            5.73797217835489       -2.28651728326237       -0.20971812391077
B            6.78235499517799       -3.20152455191320       -1.07985914498030
B           -7.64464175832241       -0.26072201114897        0.42676448983025
B           -6.03070557271059       -0.15018045730023        0.23229023030602
B           -4.42548843974509       -0.54549081437298        0.29568362374621
B           -2.72811317970271       -0.65645007121483        0.39438723922840
B           -1.04925339498486       -0.89646566623709        0.76426711700427
B            0.51682128437289       -1.16790696545065        0.89273826962739
B            3.10385777988535       -1.46319198829475        0.04674399531369
B            4.68866136079829       -1.15208346572764        0.46634132590494
B            6.25538834672879       -0.79384109491447        0.33892511561298
B            7.69976221809338       -0.36478243878615        1.04444942741797
B           -6.90012396553362        1.20177269660067        0.20608957270051
B           -3.40818069577172        0.78020183877869        0.14150412373386
B           -1.65410104057108        0.55131716727427        0.23107450713185
B            1.85016060567013       -0.38209085361791        0.45728279844671
B            3.58756899152955       -0.14901667492400        0.91404447453679
B            6.96464051509188        0.60167908602426       -0.05666288029803
B            8.33827213031238        1.03273067039010        0.58413499216261
B           -7.56812416316431        2.79874128450780        0.40255300121918
B           -6.15727849692688        2.50243015710282       -0.27351189450166
B           -3.58571310930168        2.31921710769529       -0.20643931074394
B           -0.89432952636108        1.84201968551304       -0.29146747580867
B            1.61839823218358        1.04816956303639       -0.25263493382575
B            3.00792125578590        1.31101551648148        0.69281901630011
B            6.33602448548875        1.86525639702319       -0.83250183534009
B           -6.51917737507413        4.03556402453631       -0.14332031161878
B           -4.88307941973341        3.45897075743430       -0.42241890681372
B           -3.42465454482907        3.87025106702760       -0.58019330496219
B           -2.02005425850619        3.23737935163013       -0.58824923232338
B           -0.48859583365378        3.31669147556866       -0.73721936562579
B            0.71927077640369        2.37348401972478       -0.57745708592797
B            2.33840583585082        2.50684341775790       -0.28902319677648
B            3.82180546199966        2.62577677368030        0.08195703458636
B            5.37473413349532        2.86525230133036       -0.00851851916439
B            6.08142194425230        4.06066506698372        0.78276905784985
H            6.20288790405944        5.14759753376447        0.33596508278376
H            8.28383863644356       -1.12666098387549        1.71581903204566
H            6.53688324586333        1.99871349984864       -1.99185834828584
H           -6.96990125171170       -5.36280945267668       -0.43448567462695
H           -6.77618710069830        5.17312536388264       -0.25343859857778
H            9.22013981262199        1.79112735060874        0.67362188957534
H           -8.81575741789748       -0.34130613009503        0.46243894996269
H            6.62563646270846       -5.76271130161739       -1.77476312895519
H           -8.62419757031771        2.99204188153482        0.86925727850943
H            7.85891287659199       -2.86656920622892       -1.41681821503713
H            6.49811169932189        3.93599147102151        1.88045125046146
H           -7.25433469657313       -5.18658488102169        1.51351197800450
 
 Bond Distances (Angstroems)
 ---------------------------
O1-C2=1.3634         O1-H18=0.9640        C2-O1=1.3634         C2-C3=1.3932         C2-C17=1.3902        C3-C2=1.3932         
C3-C4=1.3747         C3-H19=1.0783        C4-C3=1.3747         C4-C5=1.4049         C4-H20=1.0802        C5-C4=1.4049         
C5-C6=1.4391         C5-C16=1.4010        C6-C5=1.4391         C6-C7=1.3528         C6-H21=1.0741        C7-C6=1.3528         
C7-C8=1.4398         C7-H22=1.0856        C8-C7=1.4398         C8-C9=1.4037         C8-C15=1.3987        C9-C8=1.4037         
C9-C10=1.3818        C9-H23=1.0821        C10-C9=1.3818        C10-O11=1.3646       C10-C12=1.3915       O11-C10=1.3646       
O11-H24=0.9638       C12-C10=1.3915       C12-C13=1.3886       C12-H25=1.0791       C13-C12=1.3886       C13-O14=1.3633       
C13-C15=1.3844       O14-C13=1.3633       O14-H26=0.9642       C15-C8=1.3987        C15-C13=1.3844       C15-H27=1.0754       
C16-C5=1.4010        C16-C17=1.3785       C16-H28=1.0769       C17-C2=1.3902        C17-C16=1.3785       C17-H29=1.0823       
H18-O1=0.9640        H19-C3=1.0783        H20-C4=1.0802        H21-C6=1.0741        H22-C7=1.0856        H23-C9=1.0821        
H24-O11=0.9638       H25-C12=1.0791       H26-O14=0.9642       H27-C15=1.0754       H28-C16=1.0769       H29-C17=1.0823       
B30-B37=1.5738       B30-H81=1.1854       B30-H89=1.1855       B31-B32=1.5264       B31-B37=1.6092       B31-B38=1.7497       
B31-B46=1.8218       B32-B31=1.5264       B32-B39=1.5434       B32-B46=1.8352       B32-B47=1.7488       B33-B34=1.5225       
B33-B40=1.5507       B33-B49=1.8594       B34-B33=1.5225       B34-B41=1.5460       B34-B50=1.6787       B35-B36=1.5122       
B35-B41=1.6366       B35-B42=1.6536       B35-B43=1.6932       B36-B35=1.5122       B36-B43=1.6890       B36-H85=1.1661       
B37-B30=1.5738       B37-B31=1.6092       B37-B38=1.5568       B38-B31=1.7497       B38-B37=1.5568       B38-B44=1.6411       
B38-B45=1.6652       B39-B32=1.5434       B39-B40=1.5744       B39-B47=1.7911       B39-B48=1.7626       B40-B33=1.5507       
B40-B39=1.5744       B40-B48=1.6870       B40-B49=1.6942       B41-B34=1.5460       B41-B35=1.6366       B41-B42=1.8308       
B41-B50=1.6906       B41-B51=1.9551       B42-B35=1.6536       B42-B41=1.8308       B42-B43=1.6386       B42-B51=1.6867       
B42-B52=1.6724       B43-B35=1.6932       B43-B36=1.6890       B43-B42=1.6386       B43-H87=1.1767       B44-B38=1.6411       
B44-B45=1.6294       B44-B54=1.6559       B44-H84=1.1744       B45-B38=1.6652       B45-B44=1.6294       B45-B46=1.6544       
B45-B54=1.6076       B46-B31=1.8218       B46-B32=1.8352       B46-B45=1.6544       B46-B47=1.7039       B46-B55=1.6781       
B47-B32=1.7488       B47-B39=1.7911       B47-B46=1.7039       B47-B48=1.7358       B47-B55=1.6095       B47-B56=1.6245       
B48-B39=1.7626       B48-B40=1.6870       B48-B47=1.7358       B48-B49=1.5946       B48-B56=1.6572       B49-B33=1.8594       
B49-B40=1.6942       B49-B48=1.5946       B49-B57=1.6078       B50-B34=1.6787       B50-B41=1.6906       B50-B51=1.6687       
B50-B57=1.7056       B50-B58=1.6472       B51-B41=1.9551       B51-B42=1.6867       B51-B50=1.6687       B51-B52=1.6122       
B51-B58=1.5553       B52-B42=1.6724       B52-B51=1.6122       B52-B53=1.6638       B52-B59=1.6146       B53-B52=1.6638       
B53-B59=1.6392       B53-B60=1.6039       B53-H79=1.1715       B54-B44=1.6559       B54-B45=1.6076       B54-B61=1.7422       
B54-B62=1.5728       B55-B46=1.6781       B55-B47=1.6095       B55-B56=1.7712       B55-B63=1.5878       B56-B47=1.6245       
B56-B48=1.6572       B56-B55=1.7712       B56-B64=1.5863       B57-B49=1.6078       B57-B50=1.7056       B57-B58=1.8115       
B57-B65=1.6135       B57-B66=2.0646       B58-B50=1.6472       B58-B51=1.5553       B58-B57=1.8115       B58-B66=1.5864       
B59-B52=1.6146       B59-B53=1.6392       B59-B60=1.5758       B59-B67=1.6105       B60-B53=1.6039       B60-B59=1.5758       
B60-H83=1.1666       B61-B54=1.7422       B61-B62=1.5923       B61-B68=1.7111       B61-H86=1.1707       B62-B54=1.5728       
B62-B61=1.5923       B62-B68=1.5806       B62-B69=1.6002       B63-B55=1.5878       B63-B69=1.7404       B63-B70=1.6035       
B63-B71=1.8547       B64-B56=1.5863       B64-B71=1.8172       B64-B72=1.5931       B64-B73=1.7228       B65-B57=1.6135       
B65-B66=1.7011       B65-B73=1.6341       B65-B74=1.6271       B66-B57=2.0646       B66-B58=1.5864       B66-B65=1.7011       
B66-B74=1.6859       B66-B75=1.6626       B67-B59=1.6105       B67-B76=1.6134       B67-H80=1.1842       B68-B61=1.7111       
B68-B62=1.5806       B68-B69=1.7570       B68-H82=1.1714       B69-B62=1.6002       B69-B63=1.7404       B69-B68=1.7570       
B69-B70=1.5235       B70-B63=1.6035       B70-B69=1.5235       B70-B71=1.5406       B71-B63=1.8547       B71-B64=1.8172       
B71-B70=1.5406       B71-B72=1.5407       B72-B64=1.5931       B72-B71=1.5407       B72-B73=1.5408       B73-B64=1.7228       
B73-B65=1.6341       B73-B72=1.5408       B73-B74=1.6500       B74-B65=1.6271       B74-B66=1.6859       B74-B73=1.6500       
B74-B75=1.5337       B75-B66=1.6626       B75-B74=1.5337       B75-B76=1.5739       B76-B67=1.6134       B76-B75=1.5739       
B76-B77=1.5983       B77-B76=1.5983       B77-H78=1.1814       B77-H88=1.1807       H78-B77=1.1814       H79-B53=1.1715       
H80-B67=1.1842       H81-B30=1.1854       H82-B68=1.1714       H83-B60=1.1666       H84-B44=1.1744       H85-B36=1.1661       
H86-B61=1.1707       H87-B43=1.1767       H88-B77=1.1807       H89-B30=1.1855       
 B  H  Rav=1.1762 sigma=0.0068  Rmin=1.1661  Rmax=1.1855    12
 B  B  Rav=1.6583 sigma=0.0992  Rmin=1.5122  Rmax=2.0646    89
 C  H  Rav=1.0793 sigma=0.0034  Rmin=1.0741  Rmax=1.0856     9
 C  C  Rav=1.3949 sigma=0.0216  Rmin=1.3528  Rmax=1.4398    15
 O  H  Rav=0.9640 sigma=0.0001  Rmin=0.9638  Rmax=0.9642     3
 O  C  Rav=1.3638 sigma=0.0006  Rmin=1.3633  Rmax=1.3646     3
 
 selected bond angles (degree)
 --------------------
H18-O1-C2=109.78               C3-C2-O1=118.40                C17-C2-O1=122.32               C17-C2-C3=119.28               
C4-C3-C2=119.92                H19-C3-C2=118.64               H19-C3-C4=121.44               C5-C4-C3=121.84                
H20-C4-C3=119.36               H20-C4-C5=118.80               C6-C5-C4=118.92                C16-C5-C4=117.21               
C16-C5-C6=123.86               C7-C6-C5=126.77                H21-C6-C5=114.59               H21-C6-C7=118.65               
C8-C7-C6=126.24                H22-C7-C6=119.10               H22-C7-C8=114.65               C9-C8-C7=118.66                
C15-C8-C7=123.27               C15-C8-C9=118.07               C10-C9-C8=121.07               H23-C9-C8=119.30               
H23-C9-C10=119.62              O11-C10-C9=121.98              C12-C10-C9=120.25              C12-C10-O11=117.77             
 
 selected dihedral angles (degree)
 ---------------------------------
C3-C2-O1-H18=178.89           C17-C2-O1-H18=359.07          C4-C3-C2-O1=179.83            C4-C3-C2-C17=359.65           
H19-C3-C2-O1=359.32           H19-C3-C2-C17=179.14          C5-C4-C3-C2=359.80            C5-C4-C3-H19=180.33           
H20-C4-C3-C2=179.62           H20-C4-C3-H19=  0.15          C6-C5-C4-C3=179.39            C6-C5-C4-H20=359.57           
C16-C5-C4-C3=  0.55           C16-C5-C4-H20=180.72          C7-C6-C5-C4=174.41            C7-C6-C5-C16=353.17           
H21-C6-C5-C4=354.04           H21-C6-C5-C16=172.81          C8-C7-C6-C5=178.15            C8-C7-C6-H21=358.53           
H22-C7-C6-C5=358.92           H22-C7-C6-H21=179.30          C9-C8-C7-C6=186.48            C9-C8-C7-H22=  5.75           
C15-C8-C7-C6=  6.03           C15-C8-C7-H22=185.29          C10-C9-C8-C7=178.55           C10-C9-C8-C15=358.99          
H23-C9-C8-C7=359.65           H23-C9-C8-C15=180.08          O11-C10-C9-C8=180.48          O11-C10-C9-H23=359.39         
C12-C10-C9-C8=  0.60          C12-C10-C9-H23=179.51         
 
 CMA Distance (Angstroems)
 ---------------------------
R(CMA):  5.6829
           -------------------------------------------------
          |                Final Singlepoint                |
           -------------------------------------------------

          ...................................................
          :                      SETUP                      :
          :.................................................:
          :  # basis functions                 284          :
          :  # atomic orbitals                 284          :
          :  # shells                          154          :
          :  # electrons                       242          :
          :  max. iterations                   500          :
          :  Hamiltonian                  GFN2-xTB          :
          :  restarted?                      false          :
          :  GBSA solvation                  false          :
          :  PC potential                    false          :
          :  electronic temp.          300.0000000     K    :
          :  accuracy                    1.0000000          :
          :  -> integral cutoff          0.2500000E+02      :
          :  -> integral neglect         0.1000000E-07      :
          :  -> SCF convergence          0.1000000E-05 Eh   :
          :  -> wf. convergence          0.1000000E-03 e    :
          :  Broyden damping             0.4000000          :
          :  net charge                          0          :
          :  unpaired electrons                  0          :
          ...................................................

 iter      E             dE          RMSdq      gap      omega  full diag
   1   -114.3082221 -0.114308E+03  0.948E-02    0.10       0.0  T
   2   -114.3080947  0.127386E-03  0.627E-02    0.11       1.0  T
   3   -114.2686072  0.394875E-01  0.448E-01    0.02       1.0  T
   4   -114.3055812 -0.369740E-01  0.115E-01    0.13       1.0  T
   5   -114.3080825 -0.250127E-02  0.282E-02    0.11       1.0  T
   6   -114.3081752 -0.927341E-04  0.180E-02    0.11       1.0  T
   7   -114.3082004 -0.251915E-04  0.134E-02    0.11       1.0  T
   8   -114.3082269 -0.265242E-04  0.701E-03    0.10       1.5  T
   9   -114.3082330 -0.610559E-05  0.372E-03    0.10       2.9  T
  10   -114.3082355 -0.248854E-05  0.107E-03    0.10       9.9  T
  11   -114.3082355 -0.276204E-07  0.859E-04    0.10      12.3  T
  12   -114.3082356 -0.279632E-07  0.695E-04    0.10      15.3  T

   *** convergence criteria satisfied after 12 iterations ***

         #    Occupation            Energy/Eh            Energy/eV
      -------------------------------------------------------------
         1        2.0000           -0.7002526             -19.0548
       ...           ...                  ...                  ...
       115        2.0000           -0.2811306              -7.6500
       116        2.0000           -0.2772413              -7.5441
       117        2.0000           -0.2766152              -7.5271
       118        2.0000           -0.2743117              -7.4644
       119        2.0000           -0.2704728              -7.3599
       120        2.0000           -0.2680854              -7.2950
       121        1.7553           -0.2545575              -6.9269 (HOMO)
       122        0.2447           -0.2508135              -6.8250 (LUMO)
       123        0.0000           -0.2421621              -6.5896
       124                         -0.2290967              -6.2340
       125                         -0.2251374              -6.1263
       126                         -0.2216919              -6.0325
       ...                                ...                  ...
       284                          1.2159345              33.0873
      -------------------------------------------------------------
                  HL-Gap            0.0037440 Eh            0.1019 eV
             Fermi-level           -0.2526856 Eh           -6.8759 eV

 SCC (total)                   0 d,  0 h,  0 min,  0.212 sec
 SCC setup                      ...        0 min,  0.000 sec (  0.000%)
 Dispersion                     ...        0 min,  0.001 sec (  0.472%)
 classical contributions        ...        0 min,  0.000 sec (  0.000%)
 integral evaluation            ...        0 min,  0.006 sec (  2.830%)
 iterations                     ...        0 min,  0.187 sec ( 88.208%)
 molecular gradient             ...        0 min,  0.017 sec (  8.019%)
 printout                       ...        0 min,  0.001 sec (  0.472%)

         :::::::::::::::::::::::::::::::::::::::::::::::::::::
         ::                     SUMMARY                     ::
         :::::::::::::::::::::::::::::::::::::::::::::::::::::
         :: total energy            -112.551042692807 Eh    ::
         :: gradient norm              0.008650387650 Eh/a0 ::
         :: HOMO-LUMO gap              0.101878090299 eV    ::
         ::.................................................::
         :: SCC energy              -114.305966296419 Eh    ::
         :: -> isotropic ES            0.341899499545 Eh    ::
         :: -> anisotropic ES          0.010692274181 Eh    ::
         :: -> anisotropic XC         -0.025111262098 Eh    ::
         :: -> dispersion             -0.099670235575 Eh    ::
         :: repulsion energy           1.754923603612 Eh    ::
         :: add. restraining           0.000000000000 Eh    ::
         :: total charge              -0.000000000000 e     ::
         :::::::::::::::::::::::::::::::::::::::::::::::::::::

           -------------------------------------------------
          |                Property Printout                |
           -------------------------------------------------

    * Orbital Energies and Occupations

         #    Occupation            Energy/Eh            Energy/eV
      -------------------------------------------------------------
         1        2.0000           -0.7002526             -19.0548
       ...           ...                  ...                  ...
       109        2.0000           -0.2994848              -8.1494
       110        2.0000           -0.2968165              -8.0768
       111        2.0000           -0.2934222              -7.9844
       112        2.0000           -0.2928505              -7.9689
       113        2.0000           -0.2885405              -7.8516
       114        2.0000           -0.2860486              -7.7838
       115        2.0000           -0.2811306              -7.6500
       116        2.0000           -0.2772413              -7.5441
       117        2.0000           -0.2766152              -7.5271
       118        2.0000           -0.2743117              -7.4644
       119        2.0000           -0.2704728              -7.3599
       120        2.0000           -0.2680854              -7.2950
       121        1.7553           -0.2545575              -6.9269 (HOMO)
       122        0.2447           -0.2508135              -6.8250 (LUMO)
       123        0.0000           -0.2421621              -6.5896
       124                         -0.2290967              -6.2340
       125                         -0.2251374              -6.1263
       126                         -0.2216919              -6.0325
       127                         -0.2152967              -5.8585
       128                         -0.2115910              -5.7577
       129                         -0.2028414              -5.5196
       130                         -0.1985776              -5.4036
       131                         -0.1978990              -5.3851
       132                         -0.1929107              -5.2494
       ...                                ...                  ...
       284                          1.2159345              33.0873
      -------------------------------------------------------------
                  HL-Gap            0.0037440 Eh            0.1019 eV
             Fermi-level           -0.2526856 Eh           -6.8759 eV

     #   Z          covCN         q      C6AA      α(0)
     1   8 O        1.659    -0.402    20.885     6.169
     2   6 C        2.847     0.134    25.066     8.205
     3   6 C        2.915    -0.062    29.550     8.914
     4   6 C        2.930    -0.050    29.232     8.867
     5   6 C        2.967    -0.003    28.109     8.696
     6   6 C        2.903    -0.060    29.503     8.906
     7   6 C        2.902    -0.060    29.489     8.904
     8   6 C        2.969     0.006    27.873     8.660
     9   6 C        2.927    -0.101    30.543     9.063
    10   6 C        2.843     0.138    24.979     8.191
    11   8 O        1.660    -0.403    20.914     6.174
    12   6 C        2.918    -0.108    30.733     9.091
    13   6 C        2.844     0.138    24.973     8.190
    14   8 O        1.660    -0.401    20.863     6.166
    15   6 C        2.922    -0.085    30.139     9.003
    16   6 C        2.923    -0.046    29.154     8.855
    17   6 C        2.915    -0.076    29.902     8.967
    18   1 H        0.805     0.297     0.730     1.342
    19   1 H        0.926     0.044     2.390     2.418
    20   1 H        0.926     0.032     2.559     2.501
    21   1 H        0.926     0.033     2.550     2.497
    22   1 H        0.925     0.027     2.626     2.534
    23   1 H        0.925     0.022     2.698     2.569
    24   1 H        0.805     0.297     0.731     1.342
    25   1 H        0.926     0.039     2.463     2.454
    26   1 H        0.805     0.300     0.721     1.333
    27   1 H        0.926     0.049     2.337     2.391
    28   1 H        0.926     0.035     2.513     2.479
    29   1 H        0.925     0.023     2.693     2.566
    30   5 B        2.841     0.116    19.508     7.376
    31   5 B        3.855     0.034    22.107     7.578
    32   5 B        3.732    -0.015    22.924     7.734
    33   5 B        2.787     0.017    21.182     7.694
    34   5 B        2.909    -0.041    22.145     7.853
    35   5 B        3.856     0.016    22.429     7.633
    36   5 B        2.870     0.060    20.390     7.538
    37   5 B        2.920     0.002    21.361     7.712
    38   5 B        3.826     0.055    21.727     7.514
    39   5 B        3.761     0.022    22.276     7.616
    40   5 B        3.852     0.007    22.599     7.662
    41   5 B        4.432     0.052    21.807     7.524
    42   5 B        4.694     0.090    21.142     7.409
    43   5 B        3.803     0.066    21.525     7.481
    44   5 B        3.830     0.062    21.607     7.493
    45   5 B        3.974     0.050    21.835     7.529
    46   5 B        4.587     0.063    21.609     7.490
    47   5 B        5.634     0.111    20.785     7.346
    48   5 B        4.732     0.040    22.018     7.561
    49   5 B        3.718     0.043    21.827     7.552
    50   5 B        4.778     0.083    21.260     7.429
    51   5 B        4.537     0.027    22.241     7.599
    52   5 B        3.855     0.045    21.914     7.545
    53   5 B        3.834     0.041    21.979     7.557
    54   5 B        3.834     0.012    22.500     7.646
    55   5 B        3.808    -0.019    23.080     7.745
    56   5 B        3.812     0.005    22.633     7.670
    57   5 B        4.232    -0.013    22.985     7.725
    58   5 B        3.792     0.019    22.362     7.626
    59   5 B        3.879     0.030    22.179     7.589
    60   5 B        2.888     0.103    19.694     7.407
    61   5 B        3.782     0.079    21.289     7.442
    62   5 B        3.896     0.053    21.781     7.520
    63   5 B        3.708     0.039    21.871     7.565
    64   5 B        3.757     0.033    22.069     7.582
    65   5 B        3.855     0.045    21.917     7.545
    66   5 B        4.300     0.046    21.900     7.540
    67   5 B        2.876     0.086    19.960     7.458
    68   5 B        3.774     0.080    21.260     7.438
    69   5 B        3.797     0.009    22.552     7.657
    70   5 B        2.926     0.013    21.169     7.677
    71   5 B        3.657     0.006    22.264     7.671
    72   5 B        2.926     0.024    20.982     7.643
    73   5 B        3.843     0.000    22.731     7.684
    74   5 B        3.860     0.016    22.435     7.634
    75   5 B        2.912     0.007    21.291     7.700
    76   5 B        2.916     0.008    21.261     7.694
    77   5 B        2.842     0.138    19.166     7.311
    78   1 H        0.935    -0.138     7.095     4.165
    79   1 H        0.939    -0.105     5.721     3.739
    80   1 H        0.934    -0.134     6.911     4.110
    81   1 H        0.933    -0.150     7.687     4.335
    82   1 H        0.939    -0.131     6.772     4.068
    83   1 H        0.940    -0.143     7.351     4.239
    84   1 H        0.937    -0.114     6.091     3.859
    85   1 H        0.940    -0.150     7.679     4.332
    86   1 H        0.939    -0.129     6.693     4.045
    87   1 H        0.937    -0.140     7.173     4.187
    88   1 H        0.935    -0.140     7.182     4.190
    89   1 H        0.933    -0.149     7.656     4.326

 Mol. C6AA /au·bohr⁶  :     129754.208527
 Mol. C8AA /au·bohr⁸  :    4168705.745993
 Mol. α(0) /au        :        580.634864


Wiberg/Mayer (AO) data.
largest (>0.10) Wiberg bond orders for each atom

 ---------------------------------------------------------------------------
     #   Z sym  total        # sym  WBO       # sym  WBO       # sym  WBO
 ---------------------------------------------------------------------------
     1   8 O    2.094 --     2 C    1.060    18 H    0.891
     2   6 C    3.888 --    17 C    1.360     3 C    1.344     1 O    1.060
     3   6 C    3.985 --     4 C    1.492     2 C    1.344    19 H    0.968
     4   6 C    3.957 --     3 C    1.492     5 C    1.327    20 H    0.969
     5   6 C    3.965 --    16 C    1.337     4 C    1.327     6 C    1.152
     6   6 C    3.911 --     7 C    1.662     5 C    1.152    21 H    0.960
     7   6 C    3.911 --     6 C    1.662     8 C    1.151    22 H    0.960
     8   6 C    3.958 --    15 C    1.347     9 C    1.330     7 C    1.151
     9   6 C    3.943 --    10 C    1.408     8 C    1.330    23 H    0.964
    10   6 C    3.931 --     9 C    1.408    12 C    1.351    11 O    1.059
    11   8 O    2.103 --    10 C    1.059    24 H    0.891
    12   6 C    3.926 --    13 C    1.367    10 C    1.351    25 H    0.965
    13   6 C    3.933 --    15 C    1.391    12 C    1.367    14 O    1.063
    14   8 O    2.107 --    13 C    1.063    26 H    0.889
    15   6 C    3.942 --    13 C    1.391     8 C    1.347    27 H    0.963
    16   6 C    3.953 --    17 C    1.475     5 C    1.337    28 H    0.966
    17   6 C    3.986 --    16 C    1.475     2 C    1.360    29 H    0.966
    18   1 H    0.912 --     1 O    0.891
    19   1 H    0.998 --     3 C    0.968
    20   1 H    0.999 --     4 C    0.969
    21   1 H    0.998 --     6 C    0.960
    22   1 H    0.999 --     7 C    0.960
    23   1 H    0.999 --     9 C    0.964
    24   1 H    0.911 --    11 O    0.891
    25   1 H    0.998 --    12 C    0.965
    26   1 H    0.909 --    14 O    0.889
    27   1 H    0.998 --    15 C    0.963
    28   1 H    0.999 --    16 C    0.966
    29   1 H    0.999 --    17 C    0.966
    30   5 B    3.279 --    37 B    1.203    89 H    0.944    81 H    0.942
    31   5 B    3.549 --    32 B    1.171    37 B    0.850    38 B    0.536
                            46 B    0.507    45 B    0.150
    32   5 B    3.574 --    31 B    1.171    39 B    1.141    46 B    0.464
                            47 B    0.462
    33   5 B    3.367 --    34 B    1.371    40 B    1.069    49 B    0.456
                            50 B    0.104
    34   5 B    3.531 --    33 B    1.371    41 B    1.124    50 B    0.612
    35   5 B    3.568 --    36 B    1.311    41 B    0.732    43 B    0.693
                            42 B    0.691
    36   5 B    3.393 --    35 B    1.311    85 H    0.968    43 B    0.822
                            42 B    0.125
    37   5 B    3.395 --    30 B    1.203    38 B    1.076    31 B    0.850
    38   5 B    3.512 --    37 B    1.076    44 B    0.831    45 B    0.693
                            31 B    0.536
    39   5 B    3.441 --    32 B    1.141    40 B    0.999    48 B    0.531
                            47 B    0.441
    40   5 B    3.542 --    33 B    1.069    39 B    0.999    49 B    0.650
                            48 B    0.619
    41   5 B    3.534 --    34 B    1.124    35 B    0.732    50 B    0.640
                            42 B    0.463    51 B    0.341
    42   5 B    3.618 --    43 B    0.895    52 B    0.694    35 B    0.691
                            51 B    0.571    41 B    0.463    36 B    0.125
    43   5 B    3.573 --    87 H    0.938    42 B    0.895    36 B    0.822
                            35 B    0.693
    44   5 B    3.565 --    84 H    0.923    38 B    0.831    54 B    0.817
                            45 B    0.800
    45   5 B    3.644 --    54 B    0.864    46 B    0.808    44 B    0.800
                            38 B    0.693    31 B    0.150
    46   5 B    3.561 --    45 B    0.808    55 B    0.773    47 B    0.644
                            31 B    0.507    32 B    0.464
    47   5 B    3.670 --    55 B    0.731    56 B    0.704    46 B    0.644
                            48 B    0.519    32 B    0.462    39 B    0.441
    48   5 B    3.561 --    49 B    0.942    56 B    0.723    40 B    0.619
                            39 B    0.531    47 B    0.519
    49   5 B    3.495 --    57 B    1.022    48 B    0.942    40 B    0.650
                            33 B    0.456
    50   5 B    3.613 --    58 B    0.681    57 B    0.646    51 B    0.642
                            41 B    0.640    34 B    0.612    33 B    0.104
    51   5 B    3.607 --    58 B    1.024    52 B    0.764    50 B    0.642
                            42 B    0.571    41 B    0.341
    52   5 B    3.671 --    59 B    0.832    53 B    0.810    51 B    0.764
                            42 B    0.694    60 B    0.161
    53   5 B    3.630 --    60 B    1.014    79 H    0.909    52 B    0.810
                            59 B    0.737
    54   5 B    3.598 --    62 B    0.878    45 B    0.864    44 B    0.817
                            61 B    0.720
    55   5 B    3.625 --    63 B    1.109    46 B    0.773    47 B    0.731
                            56 B    0.615
    56   5 B    3.541 --    64 B    1.086    48 B    0.723    47 B    0.704
                            55 B    0.615
    57   5 B    3.593 --    49 B    1.022    65 B    0.915    50 B    0.646
                            58 B    0.454    66 B    0.271
    58   5 B    3.589 --    51 B    1.024    66 B    0.974    50 B    0.681
                            57 B    0.454
    59   5 B    3.606 --    60 B    0.964    67 B    0.899    52 B    0.832
                            53 B    0.737
    60   5 B    3.436 --    53 B    1.014    83 H    0.971    59 B    0.964
                            67 B    0.185    52 B    0.161
    61   5 B    3.547 --    86 H    0.954    68 B    0.865    62 B    0.828
                            54 B    0.720
    62   5 B    3.631 --    54 B    0.878    68 B    0.872    61 B    0.828
                            69 B    0.770
    63   5 B    3.597 --    55 B    1.109    70 B    0.828    69 B    0.690
                            71 B    0.546
    64   5 B    3.599 --    56 B    1.086    72 B    0.853    73 B    0.703
                            71 B    0.580
    65   5 B    3.552 --    57 B    0.915    73 B    0.779    74 B    0.705
                            66 B    0.660
    66   5 B    3.576 --    58 B    0.974    75 B    0.748    74 B    0.681
                            65 B    0.660    57 B    0.271
    67   5 B    3.437 --    76 B    0.989    80 H    0.934    59 B    0.899
                            60 B    0.185    77 B    0.156
    68   5 B    3.544 --    82 H    0.957    62 B    0.872    61 B    0.865
                            69 B    0.655
    69   5 B    3.581 --    70 B    1.254    62 B    0.770    63 B    0.690
                            68 B    0.655
    70   5 B    3.541 --    69 B    1.254    71 B    1.114    63 B    0.828
    71   5 B    3.547 --    72 B    1.125    70 B    1.114    64 B    0.580
                            63 B    0.546
    72   5 B    3.520 --    73 B    1.162    71 B    1.125    64 B    0.853
    73   5 B    3.589 --    72 B    1.162    65 B    0.779    74 B    0.744
                            64 B    0.703
    74   5 B    3.580 --    75 B    1.198    73 B    0.744    65 B    0.705
                            66 B    0.681
    75   5 B    3.519 --    74 B    1.198    76 B    1.058    66 B    0.748
                            77 B    0.121
    76   5 B    3.395 --    77 B    1.069    75 B    1.058    67 B    0.989
    77   5 B    3.284 --    76 B    1.069    78 H    0.953    88 H    0.951
                            67 B    0.156    75 B    0.121
    78   1 H    0.978 --    77 B    0.953
    79   1 H    0.983 --    53 B    0.909
    80   1 H    0.980 --    67 B    0.934
    81   1 H    0.969 --    30 B    0.942
    82   1 H    0.979 --    68 B    0.957
    83   1 H    0.979 --    60 B    0.971
    84   1 H    0.977 --    44 B    0.923
    85   1 H    0.976 --    36 B    0.968
    86   1 H    0.978 --    61 B    0.954
    87   1 H    0.973 --    43 B    0.938
    88   1 H    0.977 --    77 B    0.951
    89   1 H    0.970 --    30 B    0.944
 ---------------------------------------------------------------------------

Topologies differ in total number of bonds
Writing topology from bond orders to xtbtopo.mol

molecular dipole:
                 x           y           z       tot (Debye)
 q only:       -1.011       0.476      -2.303
   full:       -0.124       1.214      -1.503       4.920
molecular quadrupole (traceless):
                xx          xy          yy          xz          yz          zz
 q only:      -61.079     -22.191      14.282      23.456      -5.151      46.798
  q+dip:      -10.152     -20.993      -5.542      26.611      -4.762      15.694
   full:      -29.555     -21.748     -17.540      28.079      -2.263      47.095

           -------------------------------------------------
          |                Geometry Summary                 |
           -------------------------------------------------

      molecular mass/u    :      759.2684418
   center of mass at/Å    :        0.0472271      -0.0255948       1.7923594
  moments of inertia/u·Å² :        0.1161615E+05   0.1849248E+05   0.1980108E+05
rotational constants/cm⁻¹ :        0.1451223E-02   0.9115938E-03   0.8513490E-03

 * 113 selected distances

     #   Z          #   Z                                           value/Å
     1   8 O        2   6 C                                       1.3633681
     2   6 C        3   6 C                                       1.3932134
     3   6 C        4   6 C                                       1.3747072
     4   6 C        5   6 C                                       1.4048962
     6   6 C        7   6 C                                       1.3527677
     8   6 C        9   6 C                                       1.4036551
     9   6 C       10   6 C                                       1.3817633
    10   6 C       11   8 O                                       1.3645806
    10   6 C       12   6 C                                       1.3915049
    12   6 C       13   6 C                                       1.3885867
    13   6 C       14   8 O                                       1.3633165
     8   6 C       15   6 C                                       1.3986802
    13   6 C       15   6 C                                       1.3844277
     5   6 C       16   6 C                                       1.4010297
     2   6 C       17   6 C                                       1.3901810
    16   6 C       17   6 C                                       1.3785445
     1   8 O       18   1 H                                       0.9639713
     3   6 C       19   1 H                                       1.0783329
     4   6 C       20   1 H                                       1.0801651
     6   6 C       21   1 H                                       1.0740883
     7   6 C       22   1 H                                       1.0855834
     9   6 C       23   1 H                                       1.0820996
    11   8 O       24   1 H                                       0.9638331 (min)
    12   6 C       25   1 H                                       1.0790717
    14   8 O       26   1 H                                       0.9641819
    15   6 C       27   1 H                                       1.0754100
    16   6 C       28   1 H                                       1.0768531
    17   6 C       29   1 H                                       1.0823279
    31   5 B       32   5 B                                       1.5264187
    33   5 B       34   5 B                                       1.5224737
    35   5 B       36   5 B                                       1.5122209
    30   5 B       37   5 B                                       1.5738273
    31   5 B       37   5 B                                       1.6092035
    37   5 B       38   5 B                                       1.5567538
    32   5 B       39   5 B                                       1.5433720
    33   5 B       40   5 B                                       1.5507117
    39   5 B       40   5 B                                       1.5744262
    34   5 B       41   5 B                                       1.5460137
    35   5 B       41   5 B                                       1.6365951
    35   5 B       42   5 B                                       1.6535779
    35   5 B       43   5 B                                       1.6931555
    36   5 B       43   5 B                                       1.6889799
    42   5 B       43   5 B                                       1.6386335
    38   5 B       44   5 B                                       1.6410559
    38   5 B       45   5 B                                       1.6651696
    44   5 B       45   5 B                                       1.6293650
    45   5 B       46   5 B                                       1.6543916
    32   5 B       47   5 B                                       1.7487923 (max)
    46   5 B       47   5 B                                       1.7038596
    40   5 B       48   5 B                                       1.6870048
    47   5 B       48   5 B                                       1.7357965
    40   5 B       49   5 B                                       1.6942286
    48   5 B       49   5 B                                       1.5946083
    34   5 B       50   5 B                                       1.6786527
    41   5 B       50   5 B                                       1.6905992
    42   5 B       51   5 B                                       1.6867277
    50   5 B       51   5 B                                       1.6686681
    42   5 B       52   5 B                                       1.6723671
    51   5 B       52   5 B                                       1.6122055
    52   5 B       53   5 B                                       1.6637525
    44   5 B       54   5 B                                       1.6558670
    45   5 B       54   5 B                                       1.6075922
    46   5 B       55   5 B                                       1.6781382
    47   5 B       55   5 B                                       1.6094753
    47   5 B       56   5 B                                       1.6244615
    48   5 B       56   5 B                                       1.6571695
    49   5 B       57   5 B                                       1.6077695
    50   5 B       57   5 B                                       1.7056022
    50   5 B       58   5 B                                       1.6471927
    51   5 B       58   5 B                                       1.5553090
    52   5 B       59   5 B                                       1.6146224
    53   5 B       59   5 B                                       1.6391768
    53   5 B       60   5 B                                       1.6039413
    59   5 B       60   5 B                                       1.5758463
    54   5 B       62   5 B                                       1.5727515
    61   5 B       62   5 B                                       1.5922782
    55   5 B       63   5 B                                       1.5878132
    56   5 B       64   5 B                                       1.5862586
    57   5 B       65   5 B                                       1.6134876
    58   5 B       66   5 B                                       1.5863879
    65   5 B       66   5 B                                       1.7011014
    59   5 B       67   5 B                                       1.6105006
    61   5 B       68   5 B                                       1.7111394
    62   5 B       68   5 B                                       1.5806393
    62   5 B       69   5 B                                       1.6002272
    63   5 B       70   5 B                                       1.6035394
    69   5 B       70   5 B                                       1.5234985
    70   5 B       71   5 B                                       1.5406148
    64   5 B       72   5 B                                       1.5931014
    71   5 B       72   5 B                                       1.5407297
    64   5 B       73   5 B                                       1.7227742
    65   5 B       73   5 B                                       1.6341354
    72   5 B       73   5 B                                       1.5408136
    65   5 B       74   5 B                                       1.6271032
    66   5 B       74   5 B                                       1.6859033
    73   5 B       74   5 B                                       1.6500235
    66   5 B       75   5 B                                       1.6625756
    74   5 B       75   5 B                                       1.5337035
    67   5 B       76   5 B                                       1.6133877
    75   5 B       76   5 B                                       1.5738876
    76   5 B       77   5 B                                       1.5982978
    77   5 B       78   1 H                                       1.1814441
    53   5 B       79   1 H                                       1.1714698
    67   5 B       80   1 H                                       1.1841718
    30   5 B       81   1 H                                       1.1854231
    68   5 B       82   1 H                                       1.1714205
    60   5 B       83   1 H                                       1.1665609
    44   5 B       84   1 H                                       1.1744269
    36   5 B       85   1 H                                       1.1660528
    61   5 B       86   1 H                                       1.1706704
    43   5 B       87   1 H                                       1.1767386
    77   5 B       88   1 H                                       1.1807118
    30   5 B       89   1 H                                       1.1854918

 * 6 distinct bonds (by element types)

   Z      Z             #   av. dist./Å        max./Å        min./Å
   1 H    5 B          12     1.1762152     1.1854918     1.1660528
   5 B    5 B          73     1.6222253     1.7487923     1.5122209
   1 H    6 C           9     1.0793258     1.0855834     1.0740883
   6 C    6 C          13     1.3879967     1.4048962     1.3527677
   1 H    8 O           3     0.9639954     0.9641819     0.9638331
   6 C    8 O           3     1.3637550     1.3645806     1.3633165


optimized geometry written to: xtbopt.xyz


           -------------------------------------------------
          | TOTAL ENERGY             -112.551042692807 Eh   |
          | GRADIENT NORM               0.008650387650 Eh/α |
          | HOMO-LUMO GAP               0.101878090299 eV   |
           -------------------------------------------------

------------------------------------------------------------------------
 * finished run on 2026/09/01 at 16:36:46.640     
------------------------------------------------------------------------
 total:
 * wall-time:     0 d,  0 h,  0 min,  4.894 sec
 *  cpu-time:     0 d,  0 h,  0 min, 43.250 sec
 * ratio c/w:     8.837 speedup
 SCF:
 * wall-time:     0 d,  0 h,  0 min,  0.601 sec
 *  cpu-time:     0 d,  0 h,  0 min,  5.531 sec
 * ratio c/w:     9.203 speedup
 ANC optimizer:
 * wall-time:     0 d,  0 h,  0 min,  4.246 sec
 *  cpu-time:     0 d,  0 h,  0 min, 37.312 sec
 * ratio c/w:     8.788 speedup

