      -----------------------------------------------------------      
     |                   =====================                   |     
     |                           x T B                           |     
     |                   =====================                   |     
     |                         S. Grimme                         |     
     |          Mulliken Center for Theoretical Chemistry        |     
     |                    University of Bonn                     |     
      -----------------------------------------------------------      

   * xtb version 6.7.1pre (5071a88) compiled by 'Marcel@Raven' on 2024-07-23

   xtb is free software: you can redistribute it and/or modify it under
   the terms of the GNU Lesser General Public License as published by
   the Free Software Foundation, either version 3 of the License, or
   (at your option) any later version.
   
   xtb is distributed in the hope that it will be useful,
   but WITHOUT ANY WARRANTY; without even the implied warranty of
   MERCHANTABILITY or FITNESS FOR A PARTICULAR PURPOSE.  See the
   GNU Lesser General Public License for more details.
   
   Cite this work as:
   * C. Bannwarth, E. Caldeweyher, S. Ehlert, A. Hansen, P. Pracht,
     J. Seibert, S. Spicher, S. Grimme, WIREs Comput. Mol. Sci., 2020, 11,
     e01493. DOI: 10.1002/wcms.1493
   
   for GFN2-xTB:
   * C. Bannwarth, S. Ehlert and S. Grimme., J. Chem. Theory Comput., 2019,
     15, 1652-1671. DOI: 10.1021/acs.jctc.8b01176
   for GFN1-xTB:
   * S. Grimme, C. Bannwarth, P. Shushkov, J. Chem. Theory Comput., 2017,
     13, 1989-2009. DOI: 10.1021/acs.jctc.7b00118
   for GFN0-xTB:
   * P. Pracht, E. Caldeweyher, S. Ehlert, S. Grimme, ChemRxiv, 2019, preprint.
     DOI: 10.26434/chemrxiv.8326202.v1
   for GFN-FF:
   * S. Spicher and S. Grimme, Angew. Chem. Int. Ed., 2020, 59, 15665-15673.
     DOI: 10.1002/anie.202004239
   
   for ALPB and GBSA implicit solvation:
   * S. Ehlert, M. Stahn, S. Spicher, S. Grimme, J. Chem. Theory Comput.,
     2021, 17, 4250-4261. DOI: 10.1021/acs.jctc.1c00471
   
   for ddCOSMO and CPCM-X implicit solvation:
   * M. Stahn, S. Ehlert, S. Grimme, J. Phys. Chem. A,
     2023, XX, XXXX-XXXX. DOI: 10.1021/acs.jpca.3c04382
   
   for DFT-D4:
   * E. Caldeweyher, C. Bannwarth and S. Grimme, J. Chem. Phys., 2017,
     147, 034112. DOI: 10.1063/1.4993215
   * E. Caldeweyher, S. Ehlert, A. Hansen, H. Neugebauer, S. Spicher,
     C. Bannwarth and S. Grimme, J. Chem. Phys., 2019, 150, 154122.
     DOI: 10.1063/1.5090222
   * E. Caldeweyher, J.-M. Mewes, S. Ehlert and S. Grimme, Phys. Chem. Chem. Phys.
     2020, 22, 8499-8512. DOI: 10.1039/D0CP00502A
   
   for sTDA-xTB:
   * S. Grimme and C. Bannwarth, J. Chem. Phys., 2016, 145, 054103.
     DOI: 10.1063/1.4959605
   
   in the mass-spec context:
   * V. Asgeirsson, C. Bauer and S. Grimme, Chem. Sci., 2017, 8, 4879.
     DOI: 10.1039/c7sc00601b
   * J. Koopman and S. Grimme, ACS Omega 2019, 4, 12, 15120-15133.
     DOI: 10.1021/acsomega.9b02011
   
   for metadynamics refer to:
   * S. Grimme, J. Chem. Theory Comput., 2019, 155, 2847-2862
     DOI: 10.1021/acs.jctc.9b00143
   
   for SPH calculations refer to:
   * S. Spicher and S. Grimme, J. Chem. Theory Comput., 2021, 17, 1701-1714
     DOI: 10.1021/acs.jctc.0c01306
   
   for ONIOM refer to:
   * C. Plett, A. Katbashev, S. Ehlert, S. Grimme, M. Bursch,
     Phys. Chem. Chem. Phys., 2023, 25, 17860-17868. DOI: 10.1039/D3CP02178E
   
   for DIPRO refer to:
   * J. Kohn, N. Gildemeister, S. Grimme, D. Fazzi, A. Hansen,
     J. Chem. Phys., 2023, just accepted.
   
   for PTB refer to:
   * S. Grimme, M. Mueller, A. Hansen, J. Chem. Phys., 2023, 158, 124111.
     DOI: 10.1063/5.0137838
   
   with help from (in alphabetical order)
   P. Atkinson, C. Bannwarth, F. Bohle, G. Brandenburg, E. Caldeweyher
   M. Checinski, S. Dohm, S. Ehlert, S. Ehrlich, I. Gerasimov, C. Hölzer
   A. Katbashev, J. Kohn, J. Koopman, C. Lavigne, S. Lehtola, F. März, M. Müller,
   F. Musil, H. Neugebauer, J. Pisarek, C. Plett, P. Pracht, F. Pultar,
   J. Seibert, P. Shushkov, S. Spicher, M. Stahn, M. Steiner, T. Strunk,
   J. Stückrath, T. Rose, and J. Unsleber
   
 * started run on 2026/08/31 at 21:15:27.328     
   ID    Z sym.   atoms
    1    8 O      1, 11, 14
    2    6 C      2-10, 12, 13, 15-17
    3    1 H      18-29, 83-89
    4    5 B      30-82

           -------------------------------------------------
          |                Calculation Setup                |
           -------------------------------------------------

          program call               : "c:\Users\Andre\Proyectos doctorado\kras-pancreatic-gC3N4-ai\tools\xtb\xtb-6.7.1\bin\xtb.exe" "c:\Users\Andre\Proyectos doctorado\borophene-alzheimer-tau-ai\calculations\tau\Resveratrol\Resveratrol_B48H12_phys_complex.xyz" --gfn 2 --sp --chrg 0 --uhf 0 --etemp 300 --iterations 500 --norestart
          coordinate file            : c:\Users\Andre\Proyectos doctorado\borophene-alzheimer-tau-ai\calculations\tau\Resveratrol\Resveratrol_B48H12_phys_complex.xyz
          omp threads                :                    16


           -------------------------------------------------
          |                 G F N 2 - x T B                 |
           -------------------------------------------------

        Reference                      10.1021/acs.jctc.8b01176
      * Hamiltonian:
        H0-scaling (s, p, d)           1.850000    2.230000    2.230000
        zeta-weighting                 0.500000
      * Dispersion:
        s8                             2.700000
        a1                             0.520000
        a2                             5.000000
        s9                             5.000000
      * Repulsion:
        kExp                           1.500000    1.000000
        rExp                           1.000000
      * Coulomb:
        alpha                          2.000000
        third order                    shell-resolved
        anisotropic                    true
        a3                             3.000000
        a5                             4.000000
        cn-shift                       1.200000
        cn-exp                         4.000000
        max-rad                        5.000000


          ...................................................
          :                      SETUP                      :
          :.................................................:
          :  # basis functions                 299          :
          :  # atomic orbitals                 299          :
          :  # shells                          159          :
          :  # electrons                       252          :
          :  max. iterations                   500          :
          :  Hamiltonian                  GFN2-xTB          :
          :  restarted?                      false          :
          :  GBSA solvation                  false          :
          :  PC potential                    false          :
          :  electronic temp.          300.0000000     K    :
          :  accuracy                    1.0000000          :
          :  -> integral cutoff          0.2500000E+02      :
          :  -> integral neglect         0.1000000E-07      :
          :  -> SCF convergence          0.1000000E-05 Eh   :
          :  -> wf. convergence          0.1000000E-03 e    :
          :  Broyden damping             0.4000000          :
          :  net charge                          0          :
          :  unpaired electrons                  0          :
          ...................................................

 iter      E             dE          RMSdq      gap      omega  full diag
   1   -116.4471342 -0.116447E+03  0.159E+01    0.27       0.0  T
   2   -107.4987535  0.894838E+01  0.113E+01    0.10       1.0  T
   3     57.3654614  0.164864E+03  0.202E+01    0.15       1.0  T
   4     49.7958776 -0.756958E+01  0.167E+01    0.07       1.0  T
   5    -45.0226318 -0.948185E+02  0.122E+01    0.07       1.0  T
   6    -89.2711134 -0.442485E+02  0.927E+00    0.09       1.0  T
   7    -95.1519122 -0.588080E+01  0.681E+00    0.04       1.0  T
   8    -88.9557172  0.619620E+01  0.732E+00    0.11       1.0  T
   9   -115.4765484 -0.265208E+02  0.400E+00    0.25       1.0  T
  10   -116.5556267 -0.107908E+01  0.312E+00    0.07       1.0  T
  11   -117.1485667 -0.592940E+00  0.277E+00    0.24       1.0  T
  12   -117.4792168 -0.330650E+00  0.258E+00    0.34       1.0  T
  13   -117.5018433 -0.226265E-01  0.237E+00    0.27       1.0  T
  14   -117.5593193 -0.574760E-01  0.223E+00    0.35       1.0  T
  15   -117.4151608  0.144159E+00  0.160E+00    0.23       1.0  T
  16   -117.5688063 -0.153646E+00  0.115E+00    0.35       1.0  T
  17   -117.5556530  0.131534E-01  0.113E+00    0.31       1.0  T
  18   -117.5840758 -0.284228E-01  0.980E-01    0.38       1.0  T
  19   -117.6073902 -0.233144E-01  0.704E-01    0.38       1.0  T
  20   -117.6249340 -0.175438E-01  0.588E-01    0.40       1.0  T
  21   -117.6259407 -0.100667E-02  0.528E-01    0.39       1.0  T
  22   -117.6289143 -0.297364E-02  0.477E-01    0.39       1.0  T
  23   -117.6334702 -0.455582E-02  0.382E-01    0.37       1.0  T
  24   -117.6439242 -0.104541E-01  0.225E-01    0.33       1.0  T
  25   -117.6458539 -0.192970E-02  0.184E-01    0.32       1.0  T
  26   -117.6464513 -0.597337E-03  0.177E-01    0.32       1.0  T
  27   -117.6478109 -0.135961E-02  0.154E-01    0.33       1.0  T
  28   -117.6492208 -0.140989E-02  0.116E-01    0.34       1.0  T
  29   -117.6497081 -0.487356E-03  0.892E-02    0.34       1.0  T
  30   -117.6500586 -0.350477E-03  0.629E-02    0.34       1.0  T
  31   -117.6503252 -0.266568E-03  0.425E-02    0.34       1.0  T
  32   -117.6504178 -0.925835E-04  0.308E-02    0.34       1.0  T
  33   -117.6504305 -0.127128E-04  0.192E-02    0.34       1.0  T
  34   -117.6504359 -0.544889E-05  0.121E-02    0.35       1.0  T
  35   -117.6504405 -0.455256E-05  0.905E-03    0.35       1.2  T
  36   -117.6504421 -0.161311E-05  0.788E-03    0.35       1.3  T
  37   -117.6504453 -0.315717E-05  0.647E-03    0.34       1.6  T
  38   -117.6504473 -0.203293E-05  0.470E-03    0.34       2.3  T
  39   -117.6504478 -0.506754E-06  0.365E-03    0.34       2.9  T
  40   -117.6504487 -0.919683E-06  0.312E-03    0.34       3.4  T
  41   -117.6504493 -0.613532E-06  0.244E-03    0.34       4.3  T
  42   -117.6504495 -0.161540E-06  0.188E-03    0.34       5.7  T
  43   -117.6504497 -0.168640E-06  0.139E-03    0.34       7.6  T
  44   -117.6504498 -0.186021E-06  0.897E-04    0.34      11.8  T
  45   -117.6504499 -0.838055E-07  0.484E-04    0.34      21.9  T

   *** convergence criteria satisfied after 45 iterations ***

         #    Occupation            Energy/Eh            Energy/eV
      -------------------------------------------------------------
         1        2.0000           -0.6852566             -18.6468
       ...           ...                  ...                  ...
       120        2.0000           -0.2677599              -7.2861
       121        2.0000           -0.2645231              -7.1980
       122        2.0000           -0.2628439              -7.1523
       123        2.0000           -0.2601217              -7.0783
       124        2.0000           -0.2539493              -6.9103
       125        2.0000           -0.2479672              -6.7475
       126        1.9974           -0.2428166              -6.6074 (HOMO)
       127        0.0026           -0.2301903              -6.2638 (LUMO)
       128        0.0001           -0.2266149              -6.1665
       129        0.0000           -0.2232527              -6.0750
       130                         -0.2179507              -5.9307
       131                         -0.2122225              -5.7749
       ...                                ...                  ...
       299                          1.1914389              32.4207
      -------------------------------------------------------------
                  HL-Gap            0.0126263 Eh            0.3436 eV
             Fermi-level           -0.2365126 Eh           -6.4358 eV

 SCC (total)                   0 d,  0 h,  0 min,  0.748 sec
 SCC setup                      ...        0 min,  0.001 sec (  0.134%)
 Dispersion                     ...        0 min,  0.002 sec (  0.267%)
 classical contributions        ...        0 min,  0.000 sec (  0.000%)
 integral evaluation            ...        0 min,  0.006 sec (  0.802%)
 iterations                     ...        0 min,  0.721 sec ( 96.390%)
 molecular gradient             ...        0 min,  0.016 sec (  2.139%)
 printout                       ...        0 min,  0.002 sec (  0.267%)

         :::::::::::::::::::::::::::::::::::::::::::::::::::::
         ::                     SUMMARY                     ::
         :::::::::::::::::::::::::::::::::::::::::::::::::::::
         :: total energy            -115.837973684926 Eh    ::
         :: gradient norm              0.148789805902 Eh/a0 ::
         :: HOMO-LUMO gap              0.343580425129 eV    ::
         ::.................................................::
         :: SCC energy              -117.644475408457 Eh    ::
         :: -> isotropic ES            0.302646975164 Eh    ::
         :: -> anisotropic ES          0.004234451357 Eh    ::
         :: -> anisotropic XC         -0.040025253689 Eh    ::
         :: -> dispersion             -0.132839008388 Eh    ::
         :: repulsion energy           1.806501723531 Eh    ::
         :: add. restraining           0.000000000000 Eh    ::
         :: total charge              -0.000000001544 e     ::
         :::::::::::::::::::::::::::::::::::::::::::::::::::::

           -------------------------------------------------
          |                Property Printout                |
           -------------------------------------------------

    * Orbital Energies and Occupations

         #    Occupation            Energy/Eh            Energy/eV
      -------------------------------------------------------------
         1        2.0000           -0.6852566             -18.6468
       ...           ...                  ...                  ...
       114        2.0000           -0.2837463              -7.7211
       115        2.0000           -0.2797717              -7.6130
       116        2.0000           -0.2772284              -7.5438
       117        2.0000           -0.2740109              -7.4562
       118        2.0000           -0.2730358              -7.4297
       119        2.0000           -0.2692695              -7.3272
       120        2.0000           -0.2677599              -7.2861
       121        2.0000           -0.2645231              -7.1980
       122        2.0000           -0.2628439              -7.1523
       123        2.0000           -0.2601217              -7.0783
       124        2.0000           -0.2539493              -6.9103
       125        2.0000           -0.2479672              -6.7475
       126        1.9974           -0.2428166              -6.6074 (HOMO)
       127        0.0026           -0.2301903              -6.2638 (LUMO)
       128        0.0001           -0.2266149              -6.1665
       129        0.0000           -0.2232527              -6.0750
       130                         -0.2179507              -5.9307
       131                         -0.2122225              -5.7749
       132                         -0.2106498              -5.7321
       133                         -0.2034365              -5.5358
       134                         -0.2005423              -5.4570
       135                         -0.1986024              -5.4042
       136                         -0.1885111              -5.1296
       137                         -0.1833188              -4.9884
       ...                                ...                  ...
       299                          1.1914389              32.4207
      -------------------------------------------------------------
                  HL-Gap            0.0126263 Eh            0.3436 eV
             Fermi-level           -0.2365126 Eh           -6.4358 eV

     #   Z          covCN         q      C6AA      α(0)
     1   8 O        1.659    -0.425    21.333     6.235
     2   6 C        2.843     0.114    25.471     8.271
     3   6 C        2.911    -0.084    30.101     8.997
     4   6 C        2.920    -0.096    30.405     9.042
     5   6 C        3.300    -0.012    26.515     8.246
     6   6 C        4.216    -0.089    22.112     6.678
     7   6 C        2.898    -0.129    31.286     9.171
     8   6 C        2.969    -0.016    28.411     8.743
     9   6 C        2.917    -0.121    31.079     9.142
    10   6 C        2.844     0.127    25.204     8.228
    11   8 O        1.659    -0.418    21.201     6.216
    12   6 C        2.912    -0.127    31.229     9.164
    13   6 C        2.844     0.126    25.228     8.232
    14   8 O        1.659    -0.414    21.116     6.203
    15   6 C        2.916    -0.108    30.727     9.090
    16   6 C        2.934    -0.093    30.333     9.032
    17   6 C        2.910    -0.103    30.587     9.069
    18   1 H        0.804     0.290     0.753     1.363
    19   1 H        0.925     0.038     2.475     2.460
    20   1 H        0.925     0.053     2.277     2.360
    21   1 H        1.787     0.186     1.166     1.686
    22   1 H        0.925     0.007     2.945     2.683
    23   1 H        0.925     0.015     2.812     2.623
    24   1 H        0.804     0.297     0.731     1.343
    25   1 H        0.925     0.023     2.686     2.563
    26   1 H        0.804     0.294     0.740     1.351
    27   1 H        0.925     0.033     2.548     2.496
    28   1 H        0.925     0.060     2.205     2.322
    29   1 H        0.925     0.014     2.833     2.632
    30   5 B        2.872     0.045    20.642     7.584
    31   5 B        3.645     0.030    21.782     7.599
    32   5 B        3.704     0.005    22.479     7.671
    33   5 B        3.599     0.007    21.894     7.675
    34   5 B        3.804     0.019    22.363     7.625
    35   5 B        3.812     0.037    22.042     7.569
    36   5 B        4.425     0.064    21.594     7.487
    37   5 B        3.843     0.030    22.181     7.591
    38   5 B        5.059     0.041    21.986     7.555
    39   5 B        5.523     0.097    21.029     7.389
    40   5 B        3.792     0.006    22.601     7.666
    41   5 B        4.799     0.085    21.226     7.423
    42   5 B        4.746     0.064    21.589     7.487
    43   5 B        3.691     0.011    22.323     7.653
    44   5 B        5.604     0.075    21.400     7.454
    45   5 B        4.170    -0.029    23.289     7.776
    46   5 B        3.938     0.011    22.534     7.649
    47   5 B        3.779     0.074    21.365     7.456
    48   5 B        3.808     0.063    21.588     7.491
    49   5 B        3.812    -0.010    22.914     7.717
    50   5 B        4.369     0.079    21.322     7.440
    51   5 B        3.825     0.007    22.599     7.663
    52   5 B        4.691     0.055    21.737     7.512
    53   5 B        4.735     0.045    21.914     7.543
    54   5 B        3.813     0.073    21.406     7.459
    55   5 B        2.071    -0.000    43.032    13.721
    56   5 B        3.707     0.003    22.522     7.677
    57   5 B        4.547     0.011    22.536     7.649
    58   5 B        4.200     0.037    22.073     7.570
    59   5 B        3.748     0.072    21.380     7.465
    60   5 B        3.840    -0.005    22.820     7.700
    61   5 B        3.769     0.018    22.368     7.630
    62   5 B        4.530     0.063    21.601     7.489
    63   5 B        5.624     0.102    20.945     7.374
    64   5 B        3.805     0.027    22.221     7.600
    65   5 B        3.825     0.014    22.464     7.640
    66   5 B        2.886     0.068    20.256     7.512
    67   5 B        2.918     0.039    20.723     7.596
    68   5 B        2.913     0.017    21.115     7.668
    69   5 B        3.630     0.004    22.158     7.682
    70   5 B        3.792     0.006    22.598     7.666
    71   5 B        2.860    -0.002    21.455     7.733
    72   5 B        2.920    -0.030    21.946     7.817
    73   5 B        3.825     0.022    22.323     7.616
    74   5 B        2.901    -0.028    21.916     7.813
    75   5 B        4.532     0.048    21.876     7.536
    76   5 B        3.896     0.039    22.034     7.564
    77   5 B        3.818     0.015    22.445     7.637
    78   5 B        3.778    -0.040    23.460     7.813
    79   5 B        3.628    -0.025    22.689     7.775
    80   5 B        4.556     0.026    22.263     7.603
    81   5 B        3.280     0.020    21.024     7.647
    82   5 B        4.869     0.088    21.175     7.414
    83   1 H        0.937    -0.173     8.939     4.674
    84   1 H        0.935    -0.143     7.356     4.241
    85   1 H        0.936    -0.139     7.163     4.184
    86   1 H        0.939    -0.156     7.977     4.416
    87   1 H        0.936    -0.140     7.168     4.186
    88   1 H        0.937    -0.143     7.339     4.236
    89   1 H        0.934    -0.141     7.245     4.209

 Mol. C6AA /au·bohr⁶  :     139709.920421
 Mol. C8AA /au·bohr⁸  :    4680974.374051
 Mol. α(0) /au        :        604.527113


Wiberg/Mayer (AO) data.
largest (>0.10) Wiberg bond orders for each atom

 ---------------------------------------------------------------------------
     #   Z sym  total        # sym  WBO       # sym  WBO       # sym  WBO
 ---------------------------------------------------------------------------
     1   8 O    2.067 --     2 C    1.036    18 H    0.895
     2   6 C    3.895 --    17 C    1.361     3 C    1.358     1 O    1.036
     3   6 C    3.963 --     4 C    1.438     2 C    1.358    19 H    0.968
     4   6 C    3.955 --     3 C    1.438     5 C    1.333    20 H    0.946
     5   6 C    3.972 --     4 C    1.333    16 C    1.307     6 C    1.018
     6   6 C    3.911 --     7 C    1.407     5 C    1.018    21 H    0.683
                            44 B    0.313    50 B    0.292
     7   6 C    3.823 --     6 C    1.407     8 C    1.164    22 H    0.955
     8   6 C    3.964 --    15 C    1.324     9 C    1.314     7 C    1.164
     9   6 C    3.948 --    10 C    1.410     8 C    1.314    23 H    0.966
    10   6 C    3.924 --     9 C    1.410    12 C    1.348    11 O    1.049
    11   8 O    2.089 --    10 C    1.049    24 H    0.890
    12   6 C    3.911 --    13 C    1.356    10 C    1.348    25 H    0.965
    13   6 C    3.924 --    15 C    1.400    12 C    1.356    14 O    1.050
    14   8 O    2.091 --    13 C    1.050    26 H    0.892
    15   6 C    3.939 --    13 C    1.400     8 C    1.324    27 H    0.968
    16   6 C    3.954 --    17 C    1.433     5 C    1.307    28 H    0.935
    17   6 C    3.966 --    16 C    1.433     2 C    1.361    29 H    0.967
    18   1 H    0.916 --     1 O    0.895
    19   1 H    0.998 --     3 C    0.968
    20   1 H    0.997 --     4 C    0.946
    21   1 H    0.963 --     6 C    0.683    44 B    0.233
    22   1 H    0.995 --     7 C    0.955
    23   1 H    1.000 --     9 C    0.966
    24   1 H    0.911 --    11 O    0.890
    25   1 H    0.999 --    12 C    0.965
    26   1 H    0.913 --    14 O    0.892
    27   1 H    0.999 --    15 C    0.968
    28   1 H    0.996 --    16 C    0.935
    29   1 H    0.999 --    17 C    0.967
    30   5 B    3.485 --    72 B    1.430    83 H    0.959    36 B    0.835
    31   5 B    3.502 --    72 B    1.126    73 B    0.987    37 B    0.553
                            36 B    0.512
    32   5 B    3.512 --    74 B    1.282    73 B    1.006    39 B    0.486
                            38 B    0.457
    33   5 B    3.468 --    74 B    1.280    34 B    1.015    39 B    0.565
                            75 B    0.363
    34   5 B    3.531 --    76 B    1.080    33 B    1.015    40 B    0.685
                            75 B    0.495
    35   5 B    3.596 --    87 H    0.941    76 B    0.863    47 B    0.806
                            41 B    0.796
    36   5 B    3.621 --    30 B    0.835    42 B    0.827    72 B    0.788
                            31 B    0.512    43 B    0.390    37 B    0.101
    37   5 B    3.563 --    43 B    1.107    73 B    0.749    38 B    0.711
                            31 B    0.553    36 B    0.101
    38   5 B    3.629 --    44 B    0.882    37 B    0.711    39 B    0.539
                            73 B    0.511    32 B    0.457    45 B    0.217
    39   5 B    3.614 --    45 B    0.618    75 B    0.604    74 B    0.598
                            33 B    0.565    38 B    0.539    32 B    0.486
    40   5 B    3.587 --    46 B    1.112    75 B    0.908    34 B    0.685
                            76 B    0.506
    41   5 B    3.596 --    47 B    0.847    35 B    0.796    53 B    0.684
                            76 B    0.597    46 B    0.515
    42   5 B    3.618 --    36 B    0.827    48 B    0.754    43 B    0.699
                            49 B    0.557    82 B    0.495
    43   5 B    3.565 --    37 B    1.107    49 B    0.933    42 B    0.699
                            36 B    0.390
    44   5 B    3.473 --    38 B    0.882    50 B    0.711    51 B    0.527
                            45 B    0.397     6 C    0.313    21 H    0.233
    45   5 B    3.605 --    51 B    1.113    75 B    0.925    39 B    0.618
                            44 B    0.397    38 B    0.217
    46   5 B    3.549 --    40 B    1.112    52 B    0.823    53 B    0.612
                            41 B    0.515    76 B    0.181
    47   5 B    3.511 --    88 H    0.953    41 B    0.847    35 B    0.806
                            53 B    0.677
    48   5 B    3.539 --    84 H    0.940    54 B    0.833    42 B    0.754
                            82 B    0.732
    49   5 B    3.627 --    55 B    1.267    43 B    0.933    42 B    0.557
                            82 B    0.543
    50   5 B    3.473 --    56 B    1.139    44 B    0.711    51 B    0.527
                            57 B    0.399     6 C    0.292
    51   5 B    3.533 --    45 B    1.113    57 B    0.975    50 B    0.527
                            44 B    0.527
    52   5 B    3.579 --    58 B    0.866    46 B    0.823    65 B    0.564
                            53 B    0.540    59 B    0.503
    53   5 B    3.602 --    59 B    0.868    41 B    0.684    47 B    0.677
                            46 B    0.612    52 B    0.540
    54   5 B    3.574 --    85 H    0.942    48 B    0.833    82 B    0.778
                            60 B    0.720
    55   5 B    3.412 --    61 B    1.328    49 B    1.267    82 B    0.203
                            77 B    0.159
    56   5 B    3.511 --    50 B    1.139    62 B    1.016    63 B    0.518
                            57 B    0.444
    57   5 B    3.607 --    51 B    0.975    80 B    0.794    63 B    0.650
                            56 B    0.444    50 B    0.399
    58   5 B    3.560 --    64 B    1.005    52 B    0.866    65 B    0.632
                            71 B    0.536    81 B    0.320
    59   5 B    3.416 --    89 H    0.925    65 B    0.890    53 B    0.868
                            52 B    0.503
    60   5 B    3.610 --    66 B    1.235    54 B    0.720    77 B    0.714
                            82 B    0.688
    61   5 B    3.579 --    55 B    1.328    67 B    0.686    77 B    0.607
                            78 B    0.577
    62   5 B    3.527 --    56 B    1.016    68 B    0.653    78 B    0.579
                            63 B    0.530    79 B    0.451
    63   5 B    3.612 --    57 B    0.650    80 B    0.618    62 B    0.530
                            69 B    0.527    56 B    0.518    79 B    0.512
    64   5 B    3.544 --    80 B    1.022    58 B    1.005    70 B    0.628
                            81 B    0.526
    65   5 B    3.501 --    71 B    1.226    59 B    0.890    58 B    0.632
                            52 B    0.564
    66   5 B    3.472 --    60 B    1.235    86 H    0.957    77 B    0.855
                            67 B    0.144
    67   5 B    3.404 --    78 B    1.166    77 B    1.104    61 B    0.686
                            66 B    0.144
    68   5 B    3.344 --    79 B    1.200    78 B    1.135    62 B    0.653
    69   5 B    3.415 --    79 B    1.140    70 B    1.078    63 B    0.527
                            80 B    0.389
    70   5 B    3.486 --    69 B    1.078    81 B    1.052    64 B    0.628
                            80 B    0.501
    71   5 B    3.333 --    81 B    1.269    65 B    1.226    58 B    0.536
    72   5 B    3.540 --    30 B    1.430    31 B    1.126    36 B    0.788
    73   5 B    3.524 --    32 B    1.006    31 B    0.987    37 B    0.749
                            38 B    0.511
    74   5 B    3.462 --    32 B    1.282    33 B    1.280    39 B    0.598
    75   5 B    3.570 --    45 B    0.925    40 B    0.908    39 B    0.604
                            34 B    0.495    33 B    0.363
    76   5 B    3.473 --    34 B    1.080    35 B    0.863    41 B    0.597
                            40 B    0.506    46 B    0.181
    77   5 B    3.638 --    67 B    1.104    66 B    0.855    60 B    0.714
                            61 B    0.607    55 B    0.159
    78   5 B    3.633 --    67 B    1.166    68 B    1.135    62 B    0.579
                            61 B    0.577
    79   5 B    3.518 --    68 B    1.200    69 B    1.140    63 B    0.512
                            62 B    0.451
    80   5 B    3.618 --    64 B    1.022    57 B    0.794    63 B    0.618
                            70 B    0.501    69 B    0.389
    81   5 B    3.380 --    71 B    1.269    70 B    1.052    64 B    0.526
                            58 B    0.320
    82   5 B    3.632 --    54 B    0.778    48 B    0.732    60 B    0.688
                            49 B    0.543    42 B    0.495    55 B    0.203
    83   1 H    0.968 --    30 B    0.959
    84   1 H    0.973 --    48 B    0.940
    85   1 H    0.975 --    54 B    0.942
    86   1 H    0.972 --    66 B    0.957
    87   1 H    0.970 --    35 B    0.941
    88   1 H    0.976 --    47 B    0.953
    89   1 H    0.974 --    59 B    0.925
 ---------------------------------------------------------------------------

Topologies differ in total number of bonds
Writing topology from bond orders to xtbtopo.mol

molecular dipole:
                 x           y           z       tot (Debye)
 q only:        1.953       1.129      -1.688
   full:        2.112       1.124      -1.471       7.138
molecular quadrupole (traceless):
                xx          xy          yy          xz          yz          zz
 q only:      -70.836       8.901      73.364     -18.614       6.243      -2.528
  q+dip:      -34.510     -16.676      33.833     -14.868      20.853       0.677
   full:      -49.163     -11.896      22.628     -12.191      21.123      26.535


           -------------------------------------------------
          | TOTAL ENERGY             -115.837973684926 Eh   |
          | GRADIENT NORM               0.148789805902 Eh/α |
          | HOMO-LUMO GAP               0.343580425129 eV   |
           -------------------------------------------------

------------------------------------------------------------------------
 * finished run on 2026/08/31 at 21:15:28.122     
------------------------------------------------------------------------
 total:
 * wall-time:     0 d,  0 h,  0 min,  0.792 sec
 *  cpu-time:     0 d,  0 h,  0 min,  7.750 sec
 * ratio c/w:     9.785 speedup
 SCF:
 * wall-time:     0 d,  0 h,  0 min,  0.749 sec
 *  cpu-time:     0 d,  0 h,  0 min,  7.438 sec
 * ratio c/w:     9.930 speedup

normal termination of xtb
