89
Drug@B48H12 complex
O     -6.148481     -0.300244      3.171316
C     -4.785408     -0.293661      3.168681
C     -4.131910     -1.518372      3.126840
C     -2.735610     -1.558076      3.121320
C     -1.988944     -0.373222      3.169740
C     -0.522233     -0.457769      3.132334
C      0.290870      0.342003      3.841485
C      1.758043      0.250809      3.804918
C      2.511706      1.432175      3.859032
C      3.904938      1.370011      3.851437
O      4.665904      2.502266      3.892700
C      4.569050      0.150415      3.802690
C      3.820470     -1.019473      3.765772
O      4.420464     -2.244406      3.727201
C      2.428066     -0.979743      3.771500
C     -2.667781      0.853578      3.196394
C     -4.065622      0.895485      3.201074
H     -6.462839      0.617937      3.202973
H     -4.705224     -2.440457      3.097225
H     -2.237096     -2.524179      3.088087
H     -0.117237     -1.234776      2.487795
H     -0.114648      1.114894      4.489585
H      2.005833      2.392395      3.897516
H      4.076292      3.274099      3.914261
H      5.653392      0.133050      3.798695
H      5.383628     -2.115808      3.733197
H      1.877010     -1.916306      3.761143
H     -2.115456      1.789881      3.201295
H     -4.567175      1.857493      3.223796
B     -7.500000     -4.500000      0.000000
B     -4.500000     -4.500000      0.000000
B     -1.500000     -4.500000      0.000000
B      1.500000     -4.500000      0.000000
B      4.500000     -4.500000      0.000000
B      7.500000     -4.500000      0.000000
B     -7.500000     -3.000000      0.000000
B     -4.500000     -3.000000      0.000000
B     -1.500000     -3.000000      0.000000
B      1.500000     -3.000000      0.000000
B      4.500000     -3.000000      0.000000
B      7.500000     -3.000000      0.000000
B     -7.500000     -1.500000      0.000000
B     -4.500000     -1.500000      0.000000
B     -1.500000     -1.500000      0.000000
B      1.500000     -1.500000      0.000000
B      4.500000     -1.500000      0.000000
B      7.500000     -1.500000      0.000000
B     -7.500000      0.000000      0.000000
B     -4.500000      0.000000      0.000000
B     -1.500000      0.000000      0.000000
B      1.500000      0.000000      0.000000
B      4.500000      0.000000      0.000000
B      7.500000      0.000000      0.000000
B     -7.500000      1.500000      0.000000
B     -4.500000      1.500000      0.000000
B     -1.500000      1.500000      0.000000
B      1.500000      1.500000      0.000000
B      4.500000      1.500000      0.000000
B      7.500000      1.500000      0.000000
B     -7.500000      3.000000      0.000000
B     -4.500000      3.000000      0.000000
B     -1.500000      3.000000      0.000000
B      1.500000      3.000000      0.000000
B      4.500000      3.000000      0.000000
B      7.500000      3.000000      0.000000
B     -7.500000      4.500000      0.000000
B     -4.500000      4.500000      0.000000
B     -1.500000      4.500000      0.000000
B      1.500000      4.500000      0.000000
B      4.500000      4.500000      0.000000
B      7.500000      4.500000      0.000000
B     -6.000000     -3.750000      0.000000
B     -3.000000     -3.750000      0.000000
B      0.000000     -3.750000      0.000000
B      3.000000     -3.750000      0.000000
B      6.000000     -3.750000      0.000000
B     -6.000000      3.750000      0.000000
B     -3.000000      3.750000      0.000000
B      0.000000      3.750000      0.000000
B      3.000000      3.750000      0.000000
B      6.000000      3.750000      0.000000
B     -6.000000      0.000000      0.000000
H     -8.600000     -4.500000      0.000000
H     -8.600000     -1.500000      0.000000
H     -8.600000      1.500000      0.000000
H     -8.600000      4.500000      0.000000
H      8.600000     -4.500000      0.000000
H      8.600000     -1.500000      0.000000
H      8.600000      1.500000      0.000000
