84
Resveratrol 0 deg on B40H15
O     -6.148481     -0.300244      6.859195
C     -4.785408     -0.293661      6.856560
C     -4.131910     -1.518372      6.814719
C     -2.735610     -1.558076      6.809199
C     -1.988944     -0.373222      6.857619
C     -0.522233     -0.457769      6.820213
C      0.290870      0.342003      7.529364
C      1.758043      0.250809      7.492797
C      2.511706      1.432175      7.546911
C      3.904938      1.370011      7.539316
O      4.665904      2.502266      7.580579
C      4.569050      0.150415      7.490569
C      3.820470     -1.019473      7.453651
O      4.420464     -2.244406      7.415080
C      2.428066     -0.979743      7.459379
C     -2.667781      0.853578      6.884273
C     -4.065622      0.895485      6.888953
H     -6.462839      0.617937      6.890852
H     -4.705224     -2.440457      6.785104
H     -2.237096     -2.524179      6.775966
H     -0.117237     -1.234776      6.175674
H     -0.114648      1.114894      8.177464
H      2.005833      2.392395      7.585395
H      4.076292      3.274099      7.602140
H      5.653392      0.133050      7.486574
H      5.383628     -2.115808      7.421076
H      1.877010     -1.916306      7.449022
H     -2.115456      1.789881      6.889174
H     -4.567175      1.857493      6.911675
B     -4.780602     -2.604513      0.317266
B     -4.569465     -1.356683     -0.648004
B     -4.463861     -0.247381     -1.882945
B     -3.396531     -2.661979     -0.502827
B     -3.038009      0.177607     -1.404773
B     -4.390872      0.342644     -0.192397
B     -5.031012      1.403078      0.819222
B     -4.620094      2.986388      0.997562
B     -2.808851      0.512803      0.199513
B     -3.218551      3.227540      1.793236
B     -2.161133     -3.775821     -0.584343
B     -1.876928     -2.248084     -0.933414
B     -1.697164     -0.613334     -0.835751
B     -0.584443     -3.218984     -0.835049
B     -0.219751     -0.148448     -0.311803
B     -1.394985      0.035818      0.852087
B     -1.775686      1.662110      0.759224
B     -1.897502      3.236989      0.882584
B     -0.215292      1.037200      1.069695
B     -0.752118      4.348002      0.558417
B      0.826501     -4.112870     -0.740049
B      0.925144     -2.505404     -0.749723
B      1.214364     -0.948979     -0.586972
B      2.200665     -3.402586     -0.168167
B      2.622046     -0.195651     -0.292977
B      1.234081      0.551562      0.142600
B      1.124844      2.000923      1.042986
B      0.536600      3.437229      0.618007
B      2.458015      1.672646      0.087495
B      1.213646      3.017073     -0.852963
B      3.220244     -3.850820      1.104428
B      3.624046     -2.653486      0.063737
B      4.025027     -1.121930     -0.236552
B      4.417376     -2.835474      1.420329
B      5.363640     -0.241898     -0.689778
B      4.104119      0.531009     -0.013477
B      4.018093      2.321775     -0.033810
B      2.821838      3.096833     -0.912930
B      5.422007      1.458254     -0.185288
B      4.296118      3.550090     -1.013979
H     -5.168734     -3.094856      1.310677
H     -5.716063     -2.076392     -0.393509
H     -5.264034     -0.120717     -2.741690
H     -5.771097      1.007443      1.664604
H     -5.364514      3.843125      0.672044
H     -3.234300      3.224974      2.975674
H     -2.359297     -4.926237     -0.473225
H     -0.896482      5.475480      0.244253
H      0.822346     -5.249794     -1.023329
H      0.553695      2.694294     -1.783686
H      2.970323     -4.817556      1.717250
H      5.263074     -2.512454      2.156542
H      6.384778     -0.646686     -1.095590
H      6.503197      1.838169      0.065012
H      5.138890      4.252414     -1.415442
