84
 energy: -104.519950582086 gnorm: 0.013505362465 xtb: 6.7.1pre (5071a88)
O           -0.05791124024162        6.59366165602627        5.66801649298529
C           -0.18275057260978        5.24186474055113        5.50218015995846
C           -1.44797348026827        4.71140264142380        5.28111420025215
C           -1.60129541180272        3.35212586391748        5.10415161512229
C           -0.51290973223556        2.47896860898990        5.13041637399606
C           -0.75258829357502        1.03502052633578        4.81633147769303
C            0.17477917095260        0.04623738117876        5.35952195256857
C           -0.06405225225905       -1.32061801660675        5.34607816220114
C            0.92105416893687       -2.22400801227280        5.84192011657570
C            0.72722963973681       -3.57972480244503        5.81739677575867
O            1.65979774238335       -4.45610730739958        6.33685966917326
C           -0.43008721125560       -4.13149385379295        5.25106351444535
C           -1.40151110432971       -3.27199954177290        4.75727283013784
O           -2.54586022452524       -3.76461061145300        4.18125162994808
C           -1.25804471399958       -1.90087474857933        4.82860608876757
C            0.74678811275373        3.02765849450272        5.34552892476062
C            0.91298032381351        4.38839767409631        5.54055562598069
H            0.87173820605156        6.81169230068834        5.79963865698849
H           -2.29161497812674        5.38406051011480        5.24545079846149
H           -2.59344606999581        2.96251706714830        4.92985699449713
H           -1.77132712936881        0.78748476421203        5.13465201273365
H            1.15029377876629        0.37081544095941        5.69453415102487
H            1.83400304620624       -1.82124572056187        6.26892954132759
H            2.38675665529890       -3.95217395343324        6.72267272267572
H           -0.55104732946720       -5.20297036848134        5.23725839165391
H           -2.54767459108039       -4.72394161482320        4.26491159890529
H           -2.08946070136572       -1.29679502160345        4.51489684683619
H            1.61885664211122        2.39264664591344        5.37182708734002
H            1.90246119332683        4.79264355498993        5.71558123736324
B           -4.09266364375415       -2.32416375651938       -0.01644816582724
B           -3.93106752419430       -1.10060055214432       -1.15346560751472
B           -2.86408963741897        0.16568897555327       -1.58306966584072
B           -2.66652302885996       -2.97196925737671        0.16489568809317
B           -2.08048593337179       -0.08308016720135       -0.30878773429118
B           -3.91849484978384        0.06448789923064        0.05442945722658
B           -5.13684936020317        1.00363215902742        0.52804324030479
B           -4.81070377904439        2.58630830810123        0.58795781445996
B           -2.75401009397142        0.14108509796839        1.21246565351616
B           -4.01622995535034        3.20186061105152        1.85771994678755
B           -1.45691944633650       -4.08375705139294        0.04285428620291
B           -1.17029189880614       -2.58870315765939        0.58064220496433
B           -1.29314562299586       -0.97588492065013        0.82696146831988
B            0.07176083333981       -3.60421013021014        0.60364335637884
B           -0.20191133442718       -0.68344221800517        2.05800121468449
B           -1.70257403244526       -0.26514806674781        2.39718795013564
B           -2.19094032357917        1.33127004801351        2.20496460109750
B           -2.47301663944080        2.81075503895509        1.75014210892279
B           -0.81204354058893        0.96126409877444        3.11020309675137
B           -1.27461752266776        3.88380120365216        1.28128309529323
B            1.57128407686022       -4.26620758809872        0.65905928173792
B            1.27983573567990       -2.92278583701401        1.48064774038421
B            1.31964490702145       -1.44393680486315        2.08652903942860
B            2.80980796159021       -3.65913703476031        1.59609882082339
B            2.66093089253476       -0.50503590071163        2.04085789191134
B            1.22566024877660        0.17644164701901        2.18407210479687
B            0.51548394422116        1.72185592129653        2.36763010674318
B           -0.09824057916006        2.89220042381352        1.44121231592799
B            1.99679542018866        1.51094046811157        1.68755910397595
B            0.69327195778167        2.07383519736273        0.25911898046068
B            3.99726126509230       -4.19229539096145        2.61427660197833
B            4.14904479954721       -2.75624608557806        1.81460491570853
B            4.14321127259450       -1.16942764886792        1.58730968621153
B            5.17116915531635       -3.15356561005048        2.95590625831386
B            5.27956716053226       -0.08223718078327        0.96242436845023
B            4.00943504803521        0.44970596268412        1.82452316789780
B            3.51020113608312        2.09414514856079        1.29450170549936
B            2.28308879147068        2.33368198427853        0.17141662062180
B            5.08838770100807        1.58874904300553        1.36966899742579
B            3.72859694024276        2.76840304275536       -0.15844744547099
H           -5.15210187815475       -2.68446978168899        0.35106185959066
H           -4.50017472036175       -1.43886177902780       -2.13121862754002
H           -2.97060429357515        0.76945197169075       -2.58025069992522
H           -6.17468393195652        0.54989954600465        0.86420939332543
H           -5.15215524676594        3.29597137852881       -0.28721067465967
H           -4.54527221010091        3.78467061798880        2.73138160125443
H           -1.68130621703437       -5.20503310663980       -0.18937517497976
H           -1.43595437372769        4.97501892765608        0.88530333752063
H            1.89834665102973       -5.20110100887533        0.03548986459262
H            0.16101180657906        1.35516151582249       -0.50759245705911
H            3.95898211344357       -5.28217183849587        3.03022769207691
H            6.09822833085844       -2.89260785337873        3.60674515432579
H            6.25098774548665       -0.43224972265548        0.41710879822473
H            6.01479087193608        2.24861507209129        1.66091727008968
H            4.50044620703418        3.25324684360120       -0.88537225987152
