      -----------------------------------------------------------      
     |                   =====================                   |     
     |                           x T B                           |     
     |                   =====================                   |     
     |                         S. Grimme                         |     
     |          Mulliken Center for Theoretical Chemistry        |     
     |                    University of Bonn                     |     
      -----------------------------------------------------------      

   * xtb version 6.7.1pre (5071a88) compiled by 'Marcel@Raven' on 2024-07-23

   xtb is free software: you can redistribute it and/or modify it under
   the terms of the GNU Lesser General Public License as published by
   the Free Software Foundation, either version 3 of the License, or
   (at your option) any later version.
   
   xtb is distributed in the hope that it will be useful,
   but WITHOUT ANY WARRANTY; without even the implied warranty of
   MERCHANTABILITY or FITNESS FOR A PARTICULAR PURPOSE.  See the
   GNU Lesser General Public License for more details.
   
   Cite this work as:
   * C. Bannwarth, E. Caldeweyher, S. Ehlert, A. Hansen, P. Pracht,
     J. Seibert, S. Spicher, S. Grimme, WIREs Comput. Mol. Sci., 2020, 11,
     e01493. DOI: 10.1002/wcms.1493
   
   for GFN2-xTB:
   * C. Bannwarth, S. Ehlert and S. Grimme., J. Chem. Theory Comput., 2019,
     15, 1652-1671. DOI: 10.1021/acs.jctc.8b01176
   for GFN1-xTB:
   * S. Grimme, C. Bannwarth, P. Shushkov, J. Chem. Theory Comput., 2017,
     13, 1989-2009. DOI: 10.1021/acs.jctc.7b00118
   for GFN0-xTB:
   * P. Pracht, E. Caldeweyher, S. Ehlert, S. Grimme, ChemRxiv, 2019, preprint.
     DOI: 10.26434/chemrxiv.8326202.v1
   for GFN-FF:
   * S. Spicher and S. Grimme, Angew. Chem. Int. Ed., 2020, 59, 15665-15673.
     DOI: 10.1002/anie.202004239
   
   for ALPB and GBSA implicit solvation:
   * S. Ehlert, M. Stahn, S. Spicher, S. Grimme, J. Chem. Theory Comput.,
     2021, 17, 4250-4261. DOI: 10.1021/acs.jctc.1c00471
   
   for ddCOSMO and CPCM-X implicit solvation:
   * M. Stahn, S. Ehlert, S. Grimme, J. Phys. Chem. A,
     2023, XX, XXXX-XXXX. DOI: 10.1021/acs.jpca.3c04382
   
   for DFT-D4:
   * E. Caldeweyher, C. Bannwarth and S. Grimme, J. Chem. Phys., 2017,
     147, 034112. DOI: 10.1063/1.4993215
   * E. Caldeweyher, S. Ehlert, A. Hansen, H. Neugebauer, S. Spicher,
     C. Bannwarth and S. Grimme, J. Chem. Phys., 2019, 150, 154122.
     DOI: 10.1063/1.5090222
   * E. Caldeweyher, J.-M. Mewes, S. Ehlert and S. Grimme, Phys. Chem. Chem. Phys.
     2020, 22, 8499-8512. DOI: 10.1039/D0CP00502A
   
   for sTDA-xTB:
   * S. Grimme and C. Bannwarth, J. Chem. Phys., 2016, 145, 054103.
     DOI: 10.1063/1.4959605
   
   in the mass-spec context:
   * V. Asgeirsson, C. Bauer and S. Grimme, Chem. Sci., 2017, 8, 4879.
     DOI: 10.1039/c7sc00601b
   * J. Koopman and S. Grimme, ACS Omega 2019, 4, 12, 15120-15133.
     DOI: 10.1021/acsomega.9b02011
   
   for metadynamics refer to:
   * S. Grimme, J. Chem. Theory Comput., 2019, 155, 2847-2862
     DOI: 10.1021/acs.jctc.9b00143
   
   for SPH calculations refer to:
   * S. Spicher and S. Grimme, J. Chem. Theory Comput., 2021, 17, 1701-1714
     DOI: 10.1021/acs.jctc.0c01306
   
   for ONIOM refer to:
   * C. Plett, A. Katbashev, S. Ehlert, S. Grimme, M. Bursch,
     Phys. Chem. Chem. Phys., 2023, 25, 17860-17868. DOI: 10.1039/D3CP02178E
   
   for DIPRO refer to:
   * J. Kohn, N. Gildemeister, S. Grimme, D. Fazzi, A. Hansen,
     J. Chem. Phys., 2023, just accepted.
   
   for PTB refer to:
   * S. Grimme, M. Mueller, A. Hansen, J. Chem. Phys., 2023, 158, 124111.
     DOI: 10.1063/5.0137838
   
   with help from (in alphabetical order)
   P. Atkinson, C. Bannwarth, F. Bohle, G. Brandenburg, E. Caldeweyher
   M. Checinski, S. Dohm, S. Ehlert, S. Ehrlich, I. Gerasimov, C. Hölzer
   A. Katbashev, J. Kohn, J. Koopman, C. Lavigne, S. Lehtola, F. März, M. Müller,
   F. Musil, H. Neugebauer, J. Pisarek, C. Plett, P. Pracht, F. Pultar,
   J. Seibert, P. Shushkov, S. Spicher, M. Stahn, M. Steiner, T. Strunk,
   J. Stückrath, T. Rose, and J. Unsleber
   
 * started run on 2026/09/02 at 15:12:40.345     
   ID    Z sym.   atoms
    1    8 O      1, 11, 14
    2    6 C      2-10, 12, 13, 15-17
    3    1 H      18-29, 70-84
    4    5 B      30-69

           -------------------------------------------------
          |                Calculation Setup                |
           -------------------------------------------------

          program call               : "c:\Users\Andre\Proyectos doctorado\nano-qsar-ai-papers\kras-pancreatic-gC3N4-ai\tools\xtb\xtb-6.7.1\bin\xtb.exe" "c:\Users\Andre\Proyectos doctorado\borophene-alzheimer-tau-ai\calculations\tau\Resveratrol\Resveratrol_opt_180deg_input.xyz" --opt loose --gfn 2 --chrg 0 --uhf 0 --iterations 500 --cycles 400 --norestart
          coordinate file            : c:\Users\Andre\Proyectos doctorado\borophene-alzheimer-tau-ai\calculations\tau\Resveratrol\Resveratrol_opt_180deg_input.xyz
          omp threads                :                    16


molecular fragmentation (1/2 indicates fragments):
111111111111111111111111111112222222222222222222222222222222222222222222
222222222222
# atoms in fragment 1/2:    29    55
 fragment masses (1/2) :      228.24      447.56
CMA distance (Bohr)    :  13.684
constraining FC (au)   :  0.0500

           -------------------------------------------------
          |                 G F N 2 - x T B                 |
           -------------------------------------------------

        Reference                      10.1021/acs.jctc.8b01176
      * Hamiltonian:
        H0-scaling (s, p, d)           1.850000    2.230000    2.230000
        zeta-weighting                 0.500000
      * Dispersion:
        s8                             2.700000
        a1                             0.520000
        a2                             5.000000
        s9                             5.000000
      * Repulsion:
        kExp                           1.500000    1.000000
        rExp                           1.000000
      * Coulomb:
        alpha                          2.000000
        third order                    shell-resolved
        anisotropic                    true
        a3                             3.000000
        a5                             4.000000
        cn-shift                       1.200000
        cn-exp                         4.000000
        max-rad                        5.000000


          ...................................................
          :                      SETUP                      :
          :.................................................:
          :  # basis functions                 255          :
          :  # atomic orbitals                 255          :
          :  # shells                          141          :
          :  # electrons                       221          :
          :  max. iterations                   500          :
          :  Hamiltonian                  GFN2-xTB          :
          :  restarted?                      false          :
          :  GBSA solvation                  false          :
          :  PC potential                    false          :
          :  electronic temp.          300.0000000     K    :
          :  accuracy                    1.0000000          :
          :  -> integral cutoff          0.2500000E+02      :
          :  -> integral neglect         0.1000000E-07      :
          :  -> SCF convergence          0.1000000E-05 Eh   :
          :  -> wf. convergence          0.1000000E-03 e    :
          :  Broyden damping             0.4000000          :
          :  net charge                          0          :
          :  unpaired electrons                  0          :
          ...................................................

 iter      E             dE          RMSdq      gap      omega  full diag
   1   -105.3020942 -0.105302E+03  0.140E+01    0.08       0.0  T
   2   -104.1880055  0.111409E+01  0.920E+00    0.44       1.0  T
   3    -54.0771822  0.501108E+02  0.138E+01    0.08       1.0  T
   4    -52.7821484  0.129503E+01  0.114E+01    0.08       1.0  T
   5    -96.5790427 -0.437969E+02  0.565E+00    0.13       1.0  T
   6   -101.7791105 -0.520007E+01  0.436E+00    0.08       1.0  T
   7   -105.1701349 -0.339102E+01  0.255E+00    0.56       1.0  T
   8   -105.7780171 -0.607882E+00  0.169E+00    0.24       1.0  T
   9   -105.9189415 -0.140924E+00  0.144E+00    0.55       1.0  T
  10   -105.8571605  0.617810E-01  0.127E+00    0.29       1.0  T
  11   -105.8992375 -0.420769E-01  0.926E-01    0.49       1.0  T
  12   -105.9390253 -0.397879E-01  0.574E-01    0.22       1.0  T
  13   -105.9578480 -0.188226E-01  0.438E-01    0.19       1.0  T
  14   -105.9613842 -0.353626E-02  0.401E-01    0.16       1.0  T
  15   -105.9655641 -0.417985E-02  0.330E-01    0.16       1.0  T
  16   -105.9673164 -0.175237E-02  0.263E-01    0.14       1.0  T
  17   -105.9691402 -0.182377E-02  0.174E-01    0.16       1.0  T
  18   -105.9695710 -0.430775E-03  0.113E-01    0.13       1.0  T
  19   -105.9696722 -0.101192E-03  0.825E-02    0.15       1.0  T
  20   -105.9696165  0.556463E-04  0.724E-02    0.13       1.0  T
  21   -105.9697171 -0.100569E-03  0.452E-02    0.15       1.0  T
  22   -105.9697899 -0.727840E-04  0.243E-02    0.14       1.0  T
  23   -105.9697994 -0.953987E-05  0.152E-02    0.14       1.0  T
  24   -105.9698023 -0.285791E-05  0.104E-02    0.14       1.0  T
  25   -105.9698030 -0.713538E-06  0.684E-03    0.15       1.6  T
  26   -105.9698060 -0.298138E-05  0.466E-03    0.15       2.3  T
  27   -105.9698077 -0.166939E-05  0.222E-03    0.14       4.9  T
  28   -105.9698081 -0.410819E-06  0.148E-03    0.14       7.4  T
  29   -105.9698083 -0.212816E-06  0.967E-04    0.14      11.3  T
  30   -105.9698084 -0.991278E-07  0.593E-04    0.14      18.4  T

   *** convergence criteria satisfied after 30 iterations ***

         #    Occupation            Energy/Eh            Energy/eV
      -------------------------------------------------------------
         1        2.0000           -0.7077034             -19.2576
       ...           ...                  ...                  ...
       105        2.0000           -0.2883461              -7.8463
       106        2.0000           -0.2822282              -7.6798
       107        2.0000           -0.2794076              -7.6031
       108        2.0000           -0.2761791              -7.5152
       109        2.0000           -0.2712137              -7.3801
       110        1.9993           -0.2680954              -7.2952
       111        0.9429           -0.2544141              -6.9230 (HOMO)
       112        0.0578           -0.2491119              -6.7787 (LUMO)
       113        0.0000           -0.2389776              -6.5029
       114                         -0.2268403              -6.1726
       115                         -0.2212808              -6.0214
       116                         -0.2146981              -5.8422
       ...                                ...                  ...
       255                          1.0739846              29.2246
      -------------------------------------------------------------
                  HL-Gap            0.0053023 Eh            0.1443 eV
             Fermi-level           -0.2565010 Eh           -6.9797 eV

 SCC (total)                   0 d,  0 h,  0 min, 18.541 sec
 SCC setup                      ...        0 min,  0.024 sec (  0.129%)
 Dispersion                     ...        0 min,  0.062 sec (  0.334%)
 classical contributions        ...        0 min,  0.040 sec (  0.216%)
 integral evaluation            ...        0 min,  0.068 sec (  0.367%)
 iterations                     ...        0 min, 18.023 sec ( 97.206%)
 molecular gradient             ...        0 min,  0.235 sec (  1.267%)
 printout                       ...        0 min,  0.089 sec (  0.480%)

         :::::::::::::::::::::::::::::::::::::::::::::::::::::
         ::                     SUMMARY                     ::
         :::::::::::::::::::::::::::::::::::::::::::::::::::::
         :: total energy            -104.462124615729 Eh    ::
         :: gradient norm              0.041999569902 Eh/a0 ::
         :: HOMO-LUMO gap              0.144282398844 eV    ::
         ::.................................................::
         :: SCC energy              -105.967096653495 Eh    ::
         :: -> isotropic ES            0.272246159639 Eh    ::
         :: -> anisotropic ES          0.013347210152 Eh    ::
         :: -> anisotropic XC          0.000098972374 Eh    ::
         :: -> dispersion             -0.099756755027 Eh    ::
         :: repulsion energy           1.504972037766 Eh    ::
         :: add. restraining           0.000000000000 Eh    ::
         :: total charge              -0.000000000000 e     ::
         :::::::::::::::::::::::::::::::::::::::::::::::::::::

      ----------------------------------------------------------- 
     |                   =====================                   |
     |                        A N C O P T                        |
     |                   =====================                   |
     |               Approximate Normal Coordinate               |
     |                Rational Function Optimizer                |
      ----------------------------------------------------------- 
      ----------------------------------------------------------- 
     |                   =====================                   |
     |                        A N C O P T                        |
     |                   =====================                   |
     |               Approximate Normal Coordinate               |
     |                Rational Function Optimizer                |
      ----------------------------------------------------------- 

          ...................................................
          :                      SETUP                      :
          :.................................................:
          :   optimization level             loose          :
          :   max. optcycles                   400          :
          :   ANC micro-cycles                  20          :
          :   degrees of freedom               246          :
          :.................................................:
          :   RF solver                   davidson          :
          :   write xtbopt.log                true          :
          :   linear?                        false          :
          :   energy convergence         0.5000000E-04 Eh   :
          :   grad. convergence          0.4000000E-02 Eh/α :
          :   maxmium RF displ.          1.0000000          :
          :   Hlow (freq-cutoff)         0.1000000E-01      :
          :   Hmax (freq-cutoff)         5.0000000          :
          :   S6 in model hess.         20.0000000          :
          ...................................................

generating ANC from exact Hessian ...
Using Lindh-Hessian (1995)
 Shifting diagonal of input Hessian by   1.030002579702868E-002
 Lowest  eigenvalues of input Hessian
    0.010000    0.010098    0.010116    0.010125    0.000000    0.000000
    0.000000    0.000000    0.000000    0.000000    0.010326    0.010334
    0.010350    0.010356    0.010514    0.010725    0.010784    0.010820
 Highest eigenvalues
    1.889336    1.930438    1.997280    2.061305    2.082104    2.099873
 

........................................................................
.............................. CYCLE    1 ..............................
........................................................................

 iter      E             dE          RMSdq      gap      omega  full diag
   1   -105.9698084 -0.105970E+03  0.362E-04    0.14       0.0  T
   2   -105.9698082  0.256249E-06  0.114E-03    0.14       9.6  T
   3   -105.9698084 -0.280005E-06  0.296E-04    0.14      36.9  T
   4   -105.9698084  0.177991E-08  0.261E-04    0.14      41.9  T
     SCC iter.                  ...        0 min,  2.161 sec
     gradient                   ...        0 min,  0.259 sec
 * total energy  :  -104.4621247 Eh     change       -0.6983817E-07 Eh
   gradient norm :     0.0419995 Eh/α   predicted     0.0000000E+00 (-100.00%)
   displ. norm   :     0.1912240 α      lambda       -0.3482272E-02
   maximum displ.:     0.1164497 α      in ANC's #28, #43, #38, ...

........................................................................
.............................. CYCLE    2 ..............................
........................................................................

 iter      E             dE          RMSdq      gap      omega  full diag
   1   -105.9974144 -0.105997E+03  0.939E-02    0.14       0.0  T
   2   -105.9973982  0.161584E-04  0.550E-02    0.15       1.0  T
   3   -105.9944976  0.290062E-02  0.119E-01    0.08       1.0  T
   4   -105.9971961 -0.269847E-02  0.303E-02    0.17       1.0  T
   5   -105.9973782 -0.182123E-03  0.157E-02    0.15       1.0  T
   6   -105.9974177 -0.394536E-04  0.690E-03    0.15       1.6  T
   7   -105.9974237 -0.603279E-05  0.423E-03    0.15       2.6  T
   8   -105.9974267 -0.303695E-05  0.171E-03    0.14       6.4  T
   9   -105.9974270 -0.230633E-06  0.118E-03    0.14       9.3  T
  10   -105.9974270 -0.426828E-07  0.107E-03    0.14      10.2  T
  11   -105.9974271 -0.133553E-06  0.633E-04    0.14      17.2  T
  12   -105.9974272 -0.604209E-07  0.349E-04    0.14      31.3  T
     SCC iter.                  ...        0 min,  7.347 sec
     gradient                   ...        0 min,  0.405 sec
 * total energy  :  -104.4645207 Eh     change       -0.2395975E-02 Eh
   gradient norm :     0.0176418 Eh/α   predicted    -0.1805087E-02 ( -24.66%)
   displ. norm   :     0.2554757 α      lambda       -0.1367390E-02
   maximum displ.:     0.1940119 α      in ANC's #28, #38, #43, ...

........................................................................
.............................. CYCLE    3 ..............................
........................................................................

 iter      E             dE          RMSdq      gap      omega  full diag
   1   -106.0101433 -0.106010E+03  0.127E-01    0.10       0.0  T
   2   -106.0085391  0.160413E-02  0.119E-01    0.30       1.0  T
   3   -106.0083610  0.178140E-03  0.107E-01    0.11       1.0  T
   4   -106.0091414 -0.780449E-03  0.855E-02    0.14       1.0  T
   5   -106.0105897 -0.144826E-02  0.368E-02    0.13       1.0  T
   6   -106.0107655 -0.175856E-03  0.146E-02    0.13       1.0  T
   7   -106.0107928 -0.272039E-04  0.706E-03    0.13       1.5  T
   8   -106.0107979 -0.510078E-05  0.391E-03    0.14       2.8  T
   9   -106.0107999 -0.208688E-05  0.215E-03    0.13       5.1  T
  10   -106.0108006 -0.675892E-06  0.929E-04    0.13      11.7  T
  11   -106.0108006 -0.329008E-07  0.736E-04    0.13      14.8  T
     SCC iter.                  ...        0 min, 10.569 sec
     gradient                   ...        0 min,  0.648 sec
 * total energy  :  -104.4654654 Eh     change       -0.9447516E-03 Eh
   gradient norm :     0.0090950 Eh/α   predicted    -0.7287252E-03 ( -22.87%)
   displ. norm   :     0.3296324 α      lambda       -0.9070685E-03
   maximum displ.:     0.2586955 α      in ANC's #28, #38, #43, ...

........................................................................
.............................. CYCLE    4 ..............................
........................................................................

 iter      E             dE          RMSdq      gap      omega  full diag
   1   -106.0096778 -0.106010E+03  0.194E-01    0.06       0.0  T
   2   -106.0048220  0.485580E-02  0.222E-01    0.47       1.0  T
   3   -106.0095176 -0.469562E-02  0.160E-01    0.24       1.0  T
   4   -106.0117255 -0.220795E-02  0.106E-01    0.19       1.0  T
   5   -106.0104132  0.131230E-02  0.127E-01    0.07       1.0  T
   6   -106.0129705 -0.255727E-02  0.503E-02    0.11       1.0  T
   7   -106.0133216 -0.351100E-03  0.280E-02    0.14       1.0  T
   8   -106.0133730 -0.514439E-04  0.206E-02    0.14       1.0  T
   9   -106.0134422 -0.691718E-04  0.673E-03    0.13       1.6  T
  10   -106.0134485 -0.625959E-05  0.283E-03    0.12       3.9  T
  11   -106.0134496 -0.116731E-05  0.110E-03    0.12       9.9  T
  12   -106.0134496  0.901926E-08  0.110E-03    0.12       9.9  T
  13   -106.0134498 -0.162468E-06  0.472E-04    0.12      23.1  T
  14   -106.0134498 -0.272605E-07  0.243E-04    0.12      44.9  T
     SCC iter.                  ...        0 min,  7.533 sec
     gradient                   ...        0 min,  0.286 sec
 * total energy  :  -104.4661217 Eh     change       -0.6562943E-03 Eh
   gradient norm :     0.0140114 Eh/α   predicted    -0.5028206E-03 ( -23.38%)
   displ. norm   :     0.4600102 α      lambda       -0.1061245E-02
   maximum displ.:     0.3476343 α      in ANC's #28, #38, #34, ...

........................................................................
.............................. CYCLE    5 ..............................
........................................................................

 iter      E             dE          RMSdq      gap      omega  full diag
   1   -105.9925530 -0.105993E+03  0.347E-01    0.01       0.0  T
   2   -105.9779719  0.145811E-01  0.416E-01    0.53       1.0  T
   3   -105.9962429 -0.182710E-01  0.286E-01    0.33       1.0  T
   4   -106.0030640 -0.682113E-02  0.197E-01    0.40       1.0  T
   5   -106.0066906 -0.362661E-02  0.139E-01    0.19       1.0  T
   6   -105.9943180  0.123727E-01  0.271E-01    0.02       1.0  T
   7   -106.0077292 -0.134112E-01  0.857E-02    0.18       1.0  T
   8   -106.0079398 -0.210664E-03  0.763E-02    0.18       1.0  T
   9   -106.0085426 -0.602749E-03  0.481E-02    0.15       1.0  T
  10   -106.0089394 -0.396846E-03  0.582E-03    0.11       1.9  T
  11   -106.0089258  0.136445E-04  0.979E-03    0.10       1.1  T
  12   -106.0089324 -0.660444E-05  0.831E-03    0.12       1.3  T
  13   -106.0089404 -0.804649E-05  0.478E-03    0.11       2.3  T
  14   -106.0089444 -0.393369E-05  0.109E-03    0.11      10.0  T
  15   -106.0089445 -0.168873E-06  0.679E-04    0.11      16.1  T
  16   -106.0089446 -0.730378E-07  0.161E-04    0.11      67.9  T
     SCC iter.                  ...        0 min,  6.302 sec
     gradient                   ...        0 min,  0.212 sec
 * total energy  :  -104.4665672 Eh     change       -0.4455075E-03 Eh
   gradient norm :     0.0209355 Eh/α   predicted    -0.6429079E-03 (  44.31%)
   displ. norm   :     0.2276189 α      lambda       -0.9585403E-03
   maximum displ.:     0.1197535 α      in ANC's #28, #21, #9, ...

........................................................................
.............................. CYCLE    6 ..............................
........................................................................

 iter      E             dE          RMSdq      gap      omega  full diag
   1   -106.0044185 -0.106004E+03  0.145E-01    0.07       0.0  T
   2   -106.0002192  0.419930E-02  0.184E-01    0.35       1.0  T
   3   -106.0044020 -0.418285E-02  0.105E-01    0.13       1.0  T
   4   -106.0043823  0.197200E-04  0.899E-02    0.10       1.0  T
   5   -106.0016066  0.277568E-02  0.146E-01    0.05       1.0  T
   6   -106.0056677 -0.406108E-02  0.188E-02    0.11       1.0  T
   7   -106.0056712 -0.351542E-05  0.180E-02    0.12       1.0  T
   8   -106.0057142 -0.430228E-04  0.844E-03    0.11       1.3  T
   9   -106.0057244 -0.101627E-04  0.319E-03    0.10       3.4  T
  10   -106.0057256 -0.116266E-05  0.230E-03    0.10       4.7  T
  11   -106.0057264 -0.869656E-06  0.803E-04    0.11      13.6  T
  12   -106.0057264  0.348881E-08  0.810E-04    0.11      13.5  T
     SCC iter.                  ...        0 min,  4.493 sec
     gradient                   ...        0 min,  0.219 sec
 * total energy  :  -104.4671529 Eh     change       -0.5856923E-03 Eh
   gradient norm :     0.0156786 Eh/α   predicted    -0.5041050E-03 ( -13.93%)
   displ. norm   :     0.2188238 α      lambda       -0.7153100E-03
   maximum displ.:     0.0996613 α      in ANC's #21, #9, #33, ...

........................................................................
.............................. CYCLE    7 ..............................
........................................................................

 iter      E             dE          RMSdq      gap      omega  full diag
   1   -106.0055172 -0.106006E+03  0.787E-02    0.10       0.0  T
   2   -106.0048170  0.700191E-03  0.780E-02    0.15       1.0  T
   3   -105.9988302  0.598680E-02  0.182E-01    0.04       1.0  T
   4   -106.0047744 -0.594418E-02  0.615E-02    0.14       1.0  T
   5   -106.0053055 -0.531128E-03  0.388E-02    0.13       1.0  T
   6   -106.0053835 -0.780137E-04  0.304E-02    0.12       1.0  T
   7   -106.0054892 -0.105619E-03  0.202E-02    0.12       1.0  T
   8   -106.0055508 -0.616675E-04  0.911E-03    0.11       1.2  T
   9   -106.0055651 -0.143098E-04  0.231E-03    0.11       4.7  T
  10   -106.0055659 -0.807023E-06  0.522E-04    0.10      20.9  T
  11   -106.0055659  0.162934E-07  0.559E-04    0.10      19.5  T
     SCC iter.                  ...        0 min,  3.640 sec
     gradient                   ...        0 min,  0.117 sec
 * total energy  :  -104.4675952 Eh     change       -0.4423403E-03 Eh
   gradient norm :     0.0081349 Eh/α   predicted    -0.3747814E-03 ( -15.27%)
   displ. norm   :     0.4832356 α      lambda       -0.7256257E-03
   maximum displ.:     0.2620960 α      in ANC's #28, #21, #38, ...

........................................................................
.............................. CYCLE    8 ..............................
........................................................................

 iter      E             dE          RMSdq      gap      omega  full diag
   1   -105.9961014 -0.105996E+03  0.212E-01    0.04       0.0  T
   2   -105.9881587  0.794271E-02  0.280E-01    0.47       1.0  T
   3   -105.9966216 -0.846288E-02  0.187E-01    0.25       1.0  T
   4   -105.9972688 -0.647261E-03  0.149E-01    0.18       1.0  T
   5   -105.9851766  0.120923E-01  0.282E-01    0.01       1.0  T
   6   -106.0002936 -0.151170E-01  0.558E-02    0.11       1.0  T
   7   -106.0002870  0.658161E-05  0.548E-02    0.13       1.0  T
   8   -106.0005453 -0.258254E-03  0.366E-02    0.12       1.0  T
   9   -106.0007589 -0.213647E-03  0.115E-02    0.10       1.0  T
  10   -106.0007789 -0.200124E-04  0.313E-03    0.10       3.5  T
  11   -106.0007774  0.152586E-05  0.441E-03    0.10       2.5  T
  12   -106.0007778 -0.387911E-06  0.404E-03    0.10       2.7  T
  13   -106.0007806 -0.278617E-05  0.830E-04    0.10      13.2  T
  14   -106.0007805  0.390951E-07  0.935E-04    0.10      11.7  T
  15   -106.0007807 -0.149971E-06  0.187E-04    0.10      58.3  T
     SCC iter.                  ...        0 min,  5.472 sec
     gradient                   ...        0 min,  0.183 sec
 * total energy  :  -104.4680462 Eh     change       -0.4509123E-03 Eh
   gradient norm :     0.0119952 Eh/α   predicted    -0.4475365E-03 (  -0.75%)
   displ. norm   :     0.3132073 α      lambda       -0.5110411E-03
   maximum displ.:     0.1625964 α      in ANC's #21, #9, #28, ...

........................................................................
.............................. CYCLE    9 ..............................
........................................................................

 iter      E             dE          RMSdq      gap      omega  full diag
   1   -106.0031768 -0.106003E+03  0.112E-01    0.07       0.0  T
   2   -105.9989856  0.419118E-02  0.172E-01    0.29       1.0  T
   3   -106.0034684 -0.448274E-02  0.686E-02    0.11       1.0  T
   4   -106.0025529  0.915487E-03  0.828E-02    0.09       1.0  T
   5   -106.0019433  0.609609E-03  0.104E-01    0.06       1.0  T
   6   -106.0039326 -0.198930E-02  0.168E-02    0.09       1.0  T
   7   -106.0039673 -0.347716E-04  0.901E-03    0.10       1.2  T
   8   -106.0039730 -0.564507E-05  0.617E-03    0.10       1.8  T
   9   -106.0039794 -0.643589E-05  0.179E-03    0.10       6.1  T
  10   -106.0039796 -0.218960E-06  0.136E-03    0.09       8.0  T
  11   -106.0039798 -0.188445E-06  0.818E-04    0.09      13.3  T
  12   -106.0039799 -0.100515E-06  0.397E-04    0.09      27.5  T
     SCC iter.                  ...        0 min,  4.425 sec
     gradient                   ...        0 min,  0.438 sec
 * total energy  :  -104.4683787 Eh     change       -0.3325143E-03 Eh
   gradient norm :     0.0098208 Eh/α   predicted    -0.2805871E-03 ( -15.62%)
   displ. norm   :     0.3591645 α      lambda       -0.4095162E-03
   maximum displ.:     0.1687966 α      in ANC's #21, #9, #28, ...

........................................................................
.............................. CYCLE   10 ..............................
........................................................................

 iter      E             dE          RMSdq      gap      omega  full diag
   1   -106.0067065 -0.106007E+03  0.112E-01    0.07       0.0  T
   2   -106.0035125  0.319400E-02  0.151E-01    0.22       1.0  T
   3   -106.0045616 -0.104915E-02  0.114E-01    0.06       1.0  T
   4   -106.0033720  0.118959E-02  0.120E-01    0.14       1.0  T
   5   -106.0064089 -0.303683E-02  0.591E-02    0.12       1.0  T
   6   -106.0069148 -0.505954E-03  0.271E-02    0.11       1.0  T
   7   -106.0070407 -0.125885E-03  0.661E-03    0.09       1.7  T
   8   -106.0070414 -0.708004E-06  0.614E-03    0.10       1.8  T
   9   -106.0070464 -0.503257E-05  0.358E-03    0.09       3.0  T
  10   -106.0070484 -0.195581E-05  0.108E-03    0.09      10.1  T
  11   -106.0070485 -0.742714E-07  0.832E-04    0.09      13.1  T
  12   -106.0070486 -0.934864E-07  0.438E-04    0.09      24.9  T
     SCC iter.                  ...        0 min,  9.521 sec
     gradient                   ...        0 min,  0.021 sec
 * total energy  :  -104.4686735 Eh     change       -0.2948723E-03 Eh
   gradient norm :     0.0074551 Eh/α   predicted    -0.2311760E-03 ( -21.60%)
   displ. norm   :     0.3784041 α      lambda       -0.3541138E-03
   maximum displ.:     0.1696668 α      in ANC's #21, #9, #5, ...

........................................................................
.............................. CYCLE   11 ..............................
........................................................................

 iter      E             dE          RMSdq      gap      omega  full diag
   1   -106.0106332 -0.106011E+03  0.975E-02    0.08       0.0  T
   2   -106.0096378  0.995398E-03  0.933E-02    0.14       1.0  T
   3   -105.9916326  0.180052E-01  0.313E-01    0.00       1.0  T
   4   -106.0095123 -0.178798E-01  0.760E-02    0.14       1.0  T
   5   -106.0101250 -0.612660E-03  0.560E-02    0.12       1.0  T
   6   -106.0103037 -0.178727E-03  0.449E-02    0.12       1.0  T
   7   -106.0104932 -0.189513E-03  0.323E-02    0.11       1.0  T
   8   -106.0105832 -0.899449E-04  0.232E-02    0.10       1.0  T
   9   -106.0106663 -0.831097E-04  0.925E-03    0.10       1.2  T
  10   -106.0106808 -0.145713E-04  0.210E-03    0.09       5.2  T
  11   -106.0106815 -0.680661E-06  0.679E-04    0.09      16.1  T
  12   -106.0106815  0.110916E-08  0.726E-04    0.09      15.0  T
     SCC iter.                  ...        0 min,  3.753 sec
     gradient                   ...        0 min,  0.345 sec
 * total energy  :  -104.4689094 Eh     change       -0.2358911E-03 Eh
   gradient norm :     0.0059533 Eh/α   predicted    -0.2024134E-03 ( -14.19%)
   displ. norm   :     0.6204562 α      lambda       -0.3723408E-03
   maximum displ.:     0.2620016 α      in ANC's #21, #28, #9, ...

........................................................................
.............................. CYCLE   12 ..............................
........................................................................

 iter      E             dE          RMSdq      gap      omega  full diag
   1   -105.9990491 -0.105999E+03  0.217E-01    0.04       0.0  T
   2   -105.9905586  0.849045E-02  0.283E-01    0.46       1.0  T
   3   -105.9989281 -0.836948E-02  0.185E-01    0.19       1.0  T
   4   -105.9999696 -0.104148E-02  0.138E-01    0.13       1.0  T
   5   -105.9610446  0.389250E-01  0.473E-01    0.05       1.0  T
   6   -106.0020342 -0.409896E-01  0.761E-02    0.13       1.0  T
   7   -106.0021954 -0.161237E-03  0.689E-02    0.13       1.0  T
   8   -106.0026849 -0.489443E-03  0.420E-02    0.11       1.0  T
   9   -106.0029438 -0.258968E-03  0.152E-02    0.09       1.0  T
  10   -106.0029666 -0.227741E-04  0.914E-03    0.09       1.2  T
  11   -106.0029745 -0.788296E-05  0.644E-03    0.09       1.7  T
  12   -106.0029811 -0.655038E-05  0.152E-03    0.09       7.2  T
  13   -106.0029814 -0.319048E-06  0.458E-04    0.09      23.8  T
  14   -106.0029814 -0.165521E-07  0.247E-04    0.09      44.1  T
     SCC iter.                  ...        0 min,  6.931 sec
     gradient                   ...        0 min,  0.016 sec
 * total energy  :  -104.4689873 Eh     change       -0.7782772E-04 Eh
   gradient norm :     0.0134137 Eh/α   predicted    -0.2578402E-03 ( 231.30%)
   displ. norm   :     0.0909375 α      lambda       -0.3433805E-03
   maximum displ.:     0.0413791 α      in ANC's #28, #6, #33, ...

........................................................................
.............................. CYCLE   13 ..............................
........................................................................

 iter      E             dE          RMSdq      gap      omega  full diag
   1   -106.0085614 -0.106009E+03  0.534E-02    0.11       0.0  T
   2   -105.9685606  0.400008E-01  0.464E-01    0.04       1.0  T
   3   -106.0089103 -0.403497E-01  0.283E-02    0.08       1.0  T
   4   -106.0079693  0.941058E-03  0.671E-02    0.07       1.0  T
   5   -106.0086991 -0.729859E-03  0.385E-02    0.07       1.0  T
   6   -106.0088524 -0.153257E-03  0.231E-02    0.08       1.0  T
   7   -106.0089031 -0.507517E-04  0.155E-02    0.08       1.0  T
   8   -106.0089336 -0.304644E-04  0.861E-03    0.09       1.3  T
   9   -106.0089420 -0.840651E-05  0.511E-03    0.09       2.1  T
  10   -106.0089461 -0.407835E-05  0.161E-03    0.09       6.8  T
  11   -106.0089465 -0.425018E-06  0.535E-04    0.09      20.4  T
  12   -106.0089465 -0.303052E-07  0.302E-04    0.09      36.1  T
     SCC iter.                  ...        0 min,  0.876 sec
     gradient                   ...        0 min,  0.255 sec
 * total energy  :  -104.4691765 Eh     change       -0.1892108E-03 Eh
   gradient norm :     0.0049632 Eh/α   predicted    -0.1731114E-03 (  -8.51%)
   displ. norm   :     0.2608685 α      lambda       -0.1586337E-03
   maximum displ.:     0.1174883 α      in ANC's #5, #6, #9, ...

........................................................................
.............................. CYCLE   14 ..............................
........................................................................

 iter      E             dE          RMSdq      gap      omega  full diag
   1   -106.0096584 -0.106010E+03  0.650E-02    0.10       0.0  T
   2   -106.0076267  0.203171E-02  0.109E-01    0.05       1.0  T
