      -----------------------------------------------------------      
     |                   =====================                   |     
     |                           x T B                           |     
     |                   =====================                   |     
     |                         S. Grimme                         |     
     |          Mulliken Center for Theoretical Chemistry        |     
     |                    University of Bonn                     |     
      -----------------------------------------------------------      

   * xtb version 6.7.1pre (5071a88) compiled by 'Marcel@Raven' on 2024-07-23

   xtb is free software: you can redistribute it and/or modify it under
   the terms of the GNU Lesser General Public License as published by
   the Free Software Foundation, either version 3 of the License, or
   (at your option) any later version.
   
   xtb is distributed in the hope that it will be useful,
   but WITHOUT ANY WARRANTY; without even the implied warranty of
   MERCHANTABILITY or FITNESS FOR A PARTICULAR PURPOSE.  See the
   GNU Lesser General Public License for more details.
   
   Cite this work as:
   * C. Bannwarth, E. Caldeweyher, S. Ehlert, A. Hansen, P. Pracht,
     J. Seibert, S. Spicher, S. Grimme, WIREs Comput. Mol. Sci., 2020, 11,
     e01493. DOI: 10.1002/wcms.1493
   
   for GFN2-xTB:
   * C. Bannwarth, S. Ehlert and S. Grimme., J. Chem. Theory Comput., 2019,
     15, 1652-1671. DOI: 10.1021/acs.jctc.8b01176
   for GFN1-xTB:
   * S. Grimme, C. Bannwarth, P. Shushkov, J. Chem. Theory Comput., 2017,
     13, 1989-2009. DOI: 10.1021/acs.jctc.7b00118
   for GFN0-xTB:
   * P. Pracht, E. Caldeweyher, S. Ehlert, S. Grimme, ChemRxiv, 2019, preprint.
     DOI: 10.26434/chemrxiv.8326202.v1
   for GFN-FF:
   * S. Spicher and S. Grimme, Angew. Chem. Int. Ed., 2020, 59, 15665-15673.
     DOI: 10.1002/anie.202004239
   
   for ALPB and GBSA implicit solvation:
   * S. Ehlert, M. Stahn, S. Spicher, S. Grimme, J. Chem. Theory Comput.,
     2021, 17, 4250-4261. DOI: 10.1021/acs.jctc.1c00471
   
   for ddCOSMO and CPCM-X implicit solvation:
   * M. Stahn, S. Ehlert, S. Grimme, J. Phys. Chem. A,
     2023, XX, XXXX-XXXX. DOI: 10.1021/acs.jpca.3c04382
   
   for DFT-D4:
   * E. Caldeweyher, C. Bannwarth and S. Grimme, J. Chem. Phys., 2017,
     147, 034112. DOI: 10.1063/1.4993215
   * E. Caldeweyher, S. Ehlert, A. Hansen, H. Neugebauer, S. Spicher,
     C. Bannwarth and S. Grimme, J. Chem. Phys., 2019, 150, 154122.
     DOI: 10.1063/1.5090222
   * E. Caldeweyher, J.-M. Mewes, S. Ehlert and S. Grimme, Phys. Chem. Chem. Phys.
     2020, 22, 8499-8512. DOI: 10.1039/D0CP00502A
   
   for sTDA-xTB:
   * S. Grimme and C. Bannwarth, J. Chem. Phys., 2016, 145, 054103.
     DOI: 10.1063/1.4959605
   
   in the mass-spec context:
   * V. Asgeirsson, C. Bauer and S. Grimme, Chem. Sci., 2017, 8, 4879.
     DOI: 10.1039/c7sc00601b
   * J. Koopman and S. Grimme, ACS Omega 2019, 4, 12, 15120-15133.
     DOI: 10.1021/acsomega.9b02011
   
   for metadynamics refer to:
   * S. Grimme, J. Chem. Theory Comput., 2019, 155, 2847-2862
     DOI: 10.1021/acs.jctc.9b00143
   
   for SPH calculations refer to:
   * S. Spicher and S. Grimme, J. Chem. Theory Comput., 2021, 17, 1701-1714
     DOI: 10.1021/acs.jctc.0c01306
   
   for ONIOM refer to:
   * C. Plett, A. Katbashev, S. Ehlert, S. Grimme, M. Bursch,
     Phys. Chem. Chem. Phys., 2023, 25, 17860-17868. DOI: 10.1039/D3CP02178E
   
   for DIPRO refer to:
   * J. Kohn, N. Gildemeister, S. Grimme, D. Fazzi, A. Hansen,
     J. Chem. Phys., 2023, just accepted.
   
   for PTB refer to:
   * S. Grimme, M. Mueller, A. Hansen, J. Chem. Phys., 2023, 158, 124111.
     DOI: 10.1063/5.0137838
   
   with help from (in alphabetical order)
   P. Atkinson, C. Bannwarth, F. Bohle, G. Brandenburg, E. Caldeweyher
   M. Checinski, S. Dohm, S. Ehlert, S. Ehrlich, I. Gerasimov, C. Hölzer
   A. Katbashev, J. Kohn, J. Koopman, C. Lavigne, S. Lehtola, F. März, M. Müller,
   F. Musil, H. Neugebauer, J. Pisarek, C. Plett, P. Pracht, F. Pultar,
   J. Seibert, P. Shushkov, S. Spicher, M. Stahn, M. Steiner, T. Strunk,
   J. Stückrath, T. Rose, and J. Unsleber
   
 * started run on 2026/09/01 at 20:34:38.486     
   ID    Z sym.   atoms
    1    8 O      1, 11, 14
    2    6 C      2-10, 12, 13, 15-17
    3    1 H      18-29, 70-84
    4    5 B      30-69

           -------------------------------------------------
          |                Calculation Setup                |
           -------------------------------------------------

          program call               : "c:\Users\Andre\Proyectos doctorado\nano-qsar-ai-papers\kras-pancreatic-gC3N4-ai\tools\xtb\xtb-6.7.1\bin\xtb.exe" "c:\Users\Andre\Proyectos doctorado\borophene-alzheimer-tau-ai\calculations\tau\Resveratrol\Resveratrol_opt_0deg_input.xyz" --opt vloose --gfn 2 --chrg 0 --uhf 0 --iterations 500 --cycles 100 --norestart
          coordinate file            : c:\Users\Andre\Proyectos doctorado\borophene-alzheimer-tau-ai\calculations\tau\Resveratrol\Resveratrol_opt_0deg_input.xyz
          omp threads                :                    16


molecular fragmentation (1/2 indicates fragments):
111111111111111111111111111112222222222222222222222222222222222222222222
222222222222
# atoms in fragment 1/2:    29    55
 fragment masses (1/2) :      228.24      447.56
CMA distance (Bohr)    :  13.682
constraining FC (au)   :  0.0500

           -------------------------------------------------
          |                 G F N 2 - x T B                 |
           -------------------------------------------------

        Reference                      10.1021/acs.jctc.8b01176
      * Hamiltonian:
        H0-scaling (s, p, d)           1.850000    2.230000    2.230000
        zeta-weighting                 0.500000
      * Dispersion:
        s8                             2.700000
        a1                             0.520000
        a2                             5.000000
        s9                             5.000000
      * Repulsion:
        kExp                           1.500000    1.000000
        rExp                           1.000000
      * Coulomb:
        alpha                          2.000000
        third order                    shell-resolved
        anisotropic                    true
        a3                             3.000000
        a5                             4.000000
        cn-shift                       1.200000
        cn-exp                         4.000000
        max-rad                        5.000000


          ...................................................
          :                      SETUP                      :
          :.................................................:
          :  # basis functions                 255          :
          :  # atomic orbitals                 255          :
          :  # shells                          141          :
          :  # electrons                       221          :
          :  max. iterations                   500          :
          :  Hamiltonian                  GFN2-xTB          :
          :  restarted?                      false          :
          :  GBSA solvation                  false          :
          :  PC potential                    false          :
          :  electronic temp.          300.0000000     K    :
          :  accuracy                    1.0000000          :
          :  -> integral cutoff          0.2500000E+02      :
          :  -> integral neglect         0.1000000E-07      :
          :  -> SCF convergence          0.1000000E-05 Eh   :
          :  -> wf. convergence          0.1000000E-03 e    :
          :  Broyden damping             0.4000000          :
          :  net charge                          0          :
          :  unpaired electrons                  0          :
          ...................................................

 iter      E             dE          RMSdq      gap      omega  full diag
   1   -105.3077610 -0.105308E+03  0.140E+01    0.08       0.0  T
   2   -104.3023079  0.100545E+01  0.917E+00    0.47       1.0  T
   3    -58.6944412  0.456079E+02  0.134E+01    0.01       1.0  T
   4    -63.0483745 -0.435393E+01  0.106E+01    0.21       1.0  T
   5    -94.6178379 -0.315695E+02  0.606E+00    0.09       1.0  T
   6   -102.4933319 -0.787549E+01  0.396E+00    0.26       1.0  T
   7   -105.2508448 -0.275751E+01  0.238E+00    0.52       1.0  T
   8   -105.7805386 -0.529694E+00  0.168E+00    0.26       1.0  T
   9   -105.9404974 -0.159959E+00  0.139E+00    0.51       1.0  T
  10   -105.9067320  0.337654E-01  0.115E+00    0.32       1.0  T
  11   -105.8299091  0.768230E-01  0.100E+00    0.54       1.0  T
  12   -105.9185659 -0.886568E-01  0.624E-01    0.29       1.0  T
  13   -105.9562552 -0.376893E-01  0.444E-01    0.27       1.0  T
  14   -105.9631334 -0.687819E-02  0.395E-01    0.18       1.0  T
  15   -105.9659986 -0.286521E-02  0.353E-01    0.18       1.0  T
  16   -105.9676357 -0.163707E-02  0.306E-01    0.17       1.0  T
  17   -105.9693438 -0.170810E-02  0.232E-01    0.15       1.0  T
  18   -105.9695893 -0.245510E-03  0.159E-01    0.14       1.0  T
  19   -105.9697816 -0.192376E-03  0.101E-01    0.15       1.0  T
  20   -105.9698155 -0.338313E-04  0.791E-02    0.14       1.0  T
  21   -105.9699608 -0.145311E-03  0.484E-02    0.15       1.0  T
  22   -105.9700431 -0.822916E-04  0.350E-02    0.13       1.0  T
  23   -105.9701053 -0.622683E-04  0.238E-02    0.14       1.0  T
  24   -105.9701245 -0.191523E-04  0.140E-02    0.14       1.0  T
  25   -105.9701307 -0.624736E-05  0.737E-03    0.14       1.5  T
  26   -105.9701312 -0.432729E-06  0.451E-03    0.15       2.4  T
  27   -105.9701319 -0.686672E-06  0.303E-03    0.14       3.6  T
  28   -105.9701324 -0.506965E-06  0.252E-03    0.14       4.3  T
  29   -105.9701326 -0.241509E-06  0.174E-03    0.14       6.3  T
  30   -105.9701328 -0.148971E-06  0.106E-03    0.14      10.3  T
  31   -105.9701328 -0.527913E-07  0.584E-04    0.14      18.7  T
  32   -105.9701329 -0.554740E-07  0.376E-04    0.14      29.0  T

   *** convergence criteria satisfied after 32 iterations ***

         #    Occupation            Energy/Eh            Energy/eV
      -------------------------------------------------------------
         1        2.0000           -0.7071070             -19.2414
       ...           ...                  ...                  ...
       105        2.0000           -0.2881095              -7.8399
       106        2.0000           -0.2823674              -7.6836
       107        2.0000           -0.2796511              -7.6097
       108        2.0000           -0.2763830              -7.5208
       109        2.0000           -0.2712709              -7.3817
       110        1.9994           -0.2682635              -7.2998
       111        0.9428           -0.2542518              -6.9185 (HOMO)
       112        0.0578           -0.2489496              -6.7743 (LUMO)
       113        0.0000           -0.2391589              -6.5078
       114                         -0.2239382              -6.0937
       115                         -0.2215404              -6.0284
       116                         -0.2147123              -5.8426
       ...                                ...                  ...
       255                          1.0736966              29.2168
      -------------------------------------------------------------
                  HL-Gap            0.0053022 Eh            0.1443 eV
             Fermi-level           -0.2564202 Eh           -6.9775 eV

 SCC (total)                   0 d,  0 h,  0 min,  0.384 sec
 SCC setup                      ...        0 min,  0.000 sec (  0.000%)
 Dispersion                     ...        0 min,  0.002 sec (  0.521%)
 classical contributions        ...        0 min,  0.000 sec (  0.000%)
 integral evaluation            ...        0 min,  0.004 sec (  1.042%)
 iterations                     ...        0 min,  0.356 sec ( 92.708%)
 molecular gradient             ...        0 min,  0.019 sec (  4.948%)
 printout                       ...        0 min,  0.003 sec (  0.781%)

         :::::::::::::::::::::::::::::::::::::::::::::::::::::
         ::                     SUMMARY                     ::
         :::::::::::::::::::::::::::::::::::::::::::::::::::::
         :: total energy            -104.462417833484 Eh    ::
         :: gradient norm              0.042085474926 Eh/a0 ::
         :: HOMO-LUMO gap              0.144279896632 eV    ::
         ::.................................................::
         :: SCC energy              -105.967389874546 Eh    ::
         :: -> isotropic ES            0.272269589999 Eh    ::
         :: -> anisotropic ES          0.013364235588 Eh    ::
         :: -> anisotropic XC          0.000115045138 Eh    ::
         :: -> dispersion             -0.099791229080 Eh    ::
         :: repulsion energy           1.504972041062 Eh    ::
         :: add. restraining           0.000000000000 Eh    ::
         :: total charge              -0.000000000001 e     ::
         :::::::::::::::::::::::::::::::::::::::::::::::::::::

      ----------------------------------------------------------- 
     |                   =====================                   |
     |                        A N C O P T                        |
     |                   =====================                   |
     |               Approximate Normal Coordinate               |
     |                Rational Function Optimizer                |
      ----------------------------------------------------------- 
      ----------------------------------------------------------- 
     |                   =====================                   |
     |                        A N C O P T                        |
     |                   =====================                   |
     |               Approximate Normal Coordinate               |
     |                Rational Function Optimizer                |
      ----------------------------------------------------------- 

          ...................................................
          :                      SETUP                      :
          :.................................................:
          :   optimization level            normal          :
          :   max. optcycles                   100          :
          :   ANC micro-cycles                  20          :
          :   degrees of freedom               246          :
          :.................................................:
          :   RF solver                   davidson          :
          :   write xtbopt.log                true          :
          :   linear?                        false          :
          :   energy convergence         0.5000000E-05 Eh   :
          :   grad. convergence          0.1000000E-02 Eh/α :
          :   maxmium RF displ.          1.0000000          :
          :   Hlow (freq-cutoff)         0.1000000E-01      :
          :   Hmax (freq-cutoff)         5.0000000          :
          :   S6 in model hess.         20.0000000          :
          ...................................................

generating ANC from exact Hessian ...
Using Lindh-Hessian (1995)
 Shifting diagonal of input Hessian by   1.029908267882513E-002
 Lowest  eigenvalues of input Hessian
    0.010000    0.010096    0.010116    0.010120    0.010267    0.000000
    0.000000    0.000000    0.000000    0.000000    0.010322    0.010339
    0.000000    0.010355    0.010512    0.010724    0.010785    0.010819
 Highest eigenvalues
    1.889336    1.930436    1.997279    2.061304    2.082103    2.099871
 

........................................................................
.............................. CYCLE    1 ..............................
........................................................................

 iter      E             dE          RMSdq      gap      omega  full diag
   1   -105.9701329 -0.105970E+03  0.273E-04    0.14       0.0  T
   2   -105.9701328  0.923418E-07  0.690E-04    0.14      15.8  T
   3   -105.9701329 -0.102701E-06  0.188E-04    0.14      58.2  T
     SCC iter.                  ...        0 min,  0.029 sec
     gradient                   ...        0 min,  0.014 sec
 * total energy  :  -104.4624179 Eh     change       -0.3054876E-07 Eh
   gradient norm :     0.0420863 Eh/α   predicted     0.0000000E+00 (-100.00%)
   displ. norm   :     0.1927099 α      lambda       -0.3507030E-02
   maximum displ.:     0.1141531 α      in ANC's #28, #43, #38, ...

........................................................................
.............................. CYCLE    2 ..............................
........................................................................

 iter      E             dE          RMSdq      gap      omega  full diag
   1   -105.9978669 -0.105998E+03  0.943E-02    0.14       0.0  T
   2   -105.9978456  0.212316E-04  0.555E-02    0.15       1.0  T
   3   -105.9943929  0.345274E-02  0.131E-01    0.07       1.0  T
   4   -105.9976740 -0.328116E-02  0.292E-02    0.17       1.0  T
   5   -105.9978312 -0.157188E-03  0.164E-02    0.15       1.0  T
   6   -105.9978686 -0.373494E-04  0.707E-03    0.15       1.5  T
   7   -105.9978764 -0.777124E-05  0.386E-03    0.15       2.8  T
   8   -105.9978788 -0.243348E-05  0.158E-03    0.14       6.9  T
   9   -105.9978789 -0.141761E-06  0.115E-03    0.14       9.5  T
  10   -105.9978789 -0.160952E-07  0.101E-03    0.14      10.8  T
  11   -105.9978791 -0.115411E-06  0.677E-04    0.14      16.1  T
  12   -105.9978791 -0.730487E-07  0.365E-04    0.14      29.9  T
     SCC iter.                  ...        0 min,  0.115 sec
     gradient                   ...        0 min,  0.014 sec
 * total energy  :  -104.4648335 Eh     change       -0.2415682E-02 Eh
   gradient norm :     0.0177280 Eh/α   predicted    -0.1818941E-02 ( -24.70%)
   displ. norm   :     0.2600055 α      lambda       -0.1392432E-02
   maximum displ.:     0.1914562 α      in ANC's #28, #38, #43, ...

........................................................................
.............................. CYCLE    3 ..............................
........................................................................

 iter      E             dE          RMSdq      gap      omega  full diag
   1   -106.0107127 -0.106011E+03  0.129E-01    0.10       0.0  T
   2   -106.0091477  0.156496E-02  0.119E-01    0.30       1.0  T
   3   -106.0088446  0.303191E-03  0.109E-01    0.10       1.0  T
   4   -106.0095777 -0.733113E-03  0.879E-02    0.14       1.0  T
   5   -106.0111500 -0.157235E-02  0.372E-02    0.13       1.0  T
   6   -106.0113331 -0.183054E-03  0.141E-02    0.13       1.0  T
   7   -106.0113565 -0.234473E-04  0.730E-03    0.13       1.5  T
   8   -106.0113621 -0.555591E-05  0.404E-03    0.14       2.7  T
   9   -106.0113643 -0.224824E-05  0.223E-03    0.13       4.9  T
  10   -106.0113650 -0.722193E-06  0.991E-04    0.13      11.0  T
  11   -106.0113651 -0.433624E-07  0.785E-04    0.13      13.9  T
     SCC iter.                  ...        0 min,  0.107 sec
     gradient                   ...        0 min,  0.014 sec
 * total energy  :  -104.4658030 Eh     change       -0.9694137E-03 Eh
   gradient norm :     0.0091720 Eh/α   predicted    -0.7436636E-03 ( -23.29%)
   displ. norm   :     0.3360135 α      lambda       -0.9274330E-03
   maximum displ.:     0.2558454 α      in ANC's #28, #38, #43, ...

........................................................................
.............................. CYCLE    4 ..............................
........................................................................

 iter      E             dE          RMSdq      gap      omega  full diag
   1   -106.0101969 -0.106010E+03  0.195E-01    0.06       0.0  T
   2   -106.0054699  0.472699E-02  0.222E-01    0.46       1.0  T
   3   -106.0101628 -0.469291E-02  0.159E-01    0.25       1.0  T
   4   -106.0123459 -0.218306E-02  0.105E-01    0.20       1.0  T
   5   -106.0110632  0.128266E-02  0.125E-01    0.07       1.0  T
   6   -106.0134849 -0.242170E-02  0.546E-02    0.11       1.0  T
   7   -106.0139168 -0.431882E-03  0.273E-02    0.14       1.0  T
   8   -106.0139546 -0.378112E-04  0.211E-02    0.14       1.0  T
   9   -106.0140252 -0.706099E-04  0.775E-03    0.13       1.4  T
  10   -106.0140342 -0.900439E-05  0.254E-03    0.12       4.3  T
  11   -106.0140349 -0.704702E-06  0.138E-03    0.12       7.9  T
  12   -106.0140351 -0.132488E-06  0.113E-03    0.12       9.6  T
  13   -106.0140352 -0.155105E-06  0.706E-04    0.12      15.5  T
  14   -106.0140353 -0.850819E-07  0.184E-04    0.12      59.3  T
     SCC iter.                  ...        0 min,  0.137 sec
     gradient                   ...        0 min,  0.013 sec
 * total energy  :  -104.4665040 Eh     change       -0.7010544E-03 Eh
   gradient norm :     0.0140132 Eh/α   predicted    -0.5160779E-03 ( -26.39%)
   displ. norm   :     0.4337537 α      lambda       -0.9763802E-03
   maximum displ.:     0.3176743 α      in ANC's #28, #38, #34, ...

........................................................................
.............................. CYCLE    5 ..............................
........................................................................

 iter      E             dE          RMSdq      gap      omega  full diag
   1   -105.9967796 -0.105997E+03  0.305E-01    0.02       0.0  T
   2   -105.9849046  0.118750E-01  0.374E-01    0.51       1.0  T
   3   -106.0002308 -0.153262E-01  0.253E-01    0.33       1.0  T
   4   -106.0050323 -0.480150E-02  0.179E-01    0.36       1.0  T
   5   -106.0082562 -0.322388E-02  0.123E-01    0.18       1.0  T
   6   -105.9987519  0.950426E-02  0.238E-01    0.03       1.0  T
   7   -106.0092198 -0.104679E-01  0.690E-02    0.16       1.0  T
   8   -106.0093001 -0.803132E-04  0.635E-02    0.17       1.0  T
   9   -106.0097635 -0.463409E-03  0.377E-02    0.14       1.0  T
  10   -106.0100064 -0.242866E-03  0.581E-03    0.11       1.9  T
  11   -106.0099969  0.945057E-05  0.878E-03    0.11       1.2  T
  12   -106.0100072 -0.102770E-04  0.523E-03    0.11       2.1  T
  13   -106.0100093 -0.209030E-05  0.399E-03    0.11       2.7  T
  14   -106.0100120 -0.271715E-05  0.887E-04    0.11      12.3  T
  15   -106.0100120 -0.318548E-07  0.772E-04    0.11      14.1  T
  16   -106.0100121 -0.100135E-06  0.190E-04    0.11      57.3  T
     SCC iter.                  ...        0 min,  0.162 sec
     gradient                   ...        0 min,  0.013 sec
 * total energy  :  -104.4671093 Eh     change       -0.6052998E-03 Eh
   gradient norm :     0.0186470 Eh/α   predicted    -0.5800576E-03 (  -4.17%)
   displ. norm   :     0.3213607 α      lambda       -0.8692229E-03
   maximum displ.:     0.1868114 α      in ANC's #28, #21, #5, ...

........................................................................
.............................. CYCLE    6 ..............................
........................................................................

 iter      E             dE          RMSdq      gap      omega  full diag
   1   -106.0012974 -0.106001E+03  0.200E-01    0.05       0.0  T
   2   -105.9945643  0.673306E-02  0.252E-01    0.46       1.0  T
   3   -106.0013710 -0.680669E-02  0.172E-01    0.23       1.0  T
   4   -106.0030127 -0.164175E-02  0.123E-01    0.17       1.0  T
   5   -105.9920719  0.109408E-01  0.259E-01    0.02       1.0  T
   6   -106.0048475 -0.127755E-01  0.498E-02    0.13       1.0  T
   7   -106.0048336  0.138780E-04  0.486E-02    0.14       1.0  T
   8   -106.0050729 -0.239339E-03  0.308E-02    0.12       1.0  T
   9   -106.0052246 -0.151675E-03  0.888E-03    0.11       1.2  T
  10   -106.0052365 -0.118476E-04  0.327E-03    0.10       3.3  T
  11   -106.0052373 -0.848441E-06  0.274E-03    0.11       4.0  T
  12   -106.0052370  0.298172E-06  0.299E-03    0.11       3.6  T
  13   -106.0052385 -0.148925E-05  0.545E-04    0.10      20.0  T
  14   -106.0052385 -0.122079E-07  0.421E-04    0.10      25.9  T
  15   -106.0052385 -0.296308E-07  0.117E-04    0.10      93.0  T
     SCC iter.                  ...        0 min,  0.177 sec
     gradient                   ...        0 min,  0.014 sec
 * total energy  :  -104.4675772 Eh     change       -0.4679172E-03 Eh
   gradient norm :     0.0169814 Eh/α   predicted    -0.4794952E-03 (   2.47%)
   displ. norm   :     0.2884595 α      lambda       -0.1001014E-02
   maximum displ.:     0.1257414 α      in ANC's #21, #28, #9, ...

........................................................................
.............................. CYCLE    7 ..............................
........................................................................

 iter      E             dE          RMSdq      gap      omega  full diag
   1   -106.0034164 -0.106003E+03  0.132E-01    0.08       0.0  T
   2   -106.0005996  0.281682E-02  0.150E-01    0.24       1.0  T
   3   -105.9993791  0.122051E-02  0.151E-01    0.05       1.0  T
   4   -105.9992698  0.109317E-03  0.136E-01    0.18       1.0  T
   5   -106.0028220 -0.355224E-02  0.750E-02    0.15       1.0  T
   6   -106.0034199 -0.597937E-03  0.481E-02    0.13       1.0  T
   7   -106.0037539 -0.333936E-03  0.236E-02    0.11       1.0  T
   8   -106.0038180 -0.641537E-04  0.164E-02    0.11       1.0  T
   9   -106.0038611 -0.430524E-04  0.576E-03    0.10       1.9  T
  10   -106.0038656 -0.450252E-05  0.210E-03    0.10       5.2  T
  11   -106.0038662 -0.643140E-06  0.107E-03    0.10      10.2  T
  12   -106.0038663 -0.570659E-07  0.820E-04    0.10      13.3  T
  13   -106.0038664 -0.895921E-07  0.500E-04    0.10      21.8  T
     SCC iter.                  ...        0 min,  0.140 sec
     gradient                   ...        0 min,  0.019 sec
 * total energy  :  -104.4680998 Eh     change       -0.5225578E-03 Eh
   gradient norm :     0.0124186 Eh/α   predicted    -0.5421542E-03 (   3.75%)
   displ. norm   :     0.3996951 α      lambda       -0.7355565E-03
   maximum displ.:     0.1994656 α      in ANC's #28, #21, #38, ...

........................................................................
.............................. CYCLE    8 ..............................
........................................................................

 iter      E             dE          RMSdq      gap      omega  full diag
   1   -105.9997365 -0.106000E+03  0.158E-01    0.06       0.0  T
   2   -105.9950522  0.468428E-02  0.201E-01    0.34       1.0  T
   3   -105.9999024 -0.485013E-02  0.105E-01    0.12       1.0  T
   4   -105.9982442  0.165815E-02  0.118E-01    0.09       1.0  T
   5   -105.9964993  0.174490E-02  0.153E-01    0.04       1.0  T
   6   -106.0009511 -0.445174E-02  0.239E-02    0.10       1.0  T
   7   -106.0009780 -0.269536E-04  0.200E-02    0.11       1.0  T
   8   -106.0010313 -0.532989E-04  0.814E-03    0.10       1.3  T
   9   -106.0010409 -0.958342E-05  0.332E-03    0.10       3.3  T
  10   -106.0010426 -0.167874E-05  0.147E-03    0.10       7.4  T
  11   -106.0010427 -0.177504E-06  0.965E-04    0.10      11.3  T
  12   -106.0010428 -0.955160E-07  0.518E-04    0.10      21.1  T
     SCC iter.                  ...        0 min,  0.170 sec
     gradient                   ...        0 min,  0.014 sec
 * total energy  :  -104.4685154 Eh     change       -0.4156184E-03 Eh
   gradient norm :     0.0133831 Eh/α   predicted    -0.4265403E-03 (   2.63%)
   displ. norm   :     0.2536337 α      lambda       -0.5401551E-03
   maximum displ.:     0.1316138 α      in ANC's #21, #5, #33, ...

........................................................................
.............................. CYCLE    9 ..............................
........................................................................

 iter      E             dE          RMSdq      gap      omega  full diag
   1   -106.0066730 -0.106007E+03  0.801E-02    0.09       0.0  T
   2   -106.0057168  0.956267E-03  0.867E-02    0.14       1.0  T
   3   -106.0001362  0.558061E-02  0.182E-01    0.04       1.0  T
   4   -106.0058512 -0.571502E-02  0.665E-02    0.13       1.0  T
   5   -106.0063086 -0.457387E-03  0.462E-02    0.12       1.0  T
   6   -106.0065524 -0.243784E-03  0.310E-02    0.11       1.0  T
   7   -106.0066231 -0.706867E-04  0.233E-02    0.11       1.0  T
   8   -106.0067106 -0.875246E-04  0.101E-02    0.10       1.1  T
   9   -106.0067278 -0.172232E-04  0.167E-03    0.10       6.5  T
  10   -106.0067282 -0.398594E-06  0.109E-03    0.10      10.0  T
  11   -106.0067284 -0.161955E-06  0.421E-04    0.10      25.9  T
  12   -106.0067284 -0.848608E-08  0.313E-04    0.10      34.9  T
     SCC iter.                  ...        0 min,  0.120 sec
     gradient                   ...        0 min,  0.015 sec
 * total energy  :  -104.4688798 Eh     change       -0.3643618E-03 Eh
   gradient norm :     0.0074289 Eh/α   predicted    -0.2874952E-03 ( -21.10%)
   displ. norm   :     0.4528759 α      lambda       -0.4899996E-03
   maximum displ.:     0.2112080 α      in ANC's #21, #28, #5, ...

........................................................................
.............................. CYCLE   10 ..............................
........................................................................

 iter      E             dE          RMSdq      gap      omega  full diag
   1   -106.0053356 -0.106005E+03  0.178E-01    0.05       0.0  T
   2   -105.9992540  0.608160E-02  0.229E-01    0.41       1.0  T
   3   -106.0054890 -0.623498E-02  0.130E-01    0.13       1.0  T
   4   -106.0056155 -0.126493E-03  0.105E-01    0.09       1.0  T
   5   -105.9910006  0.146149E-01  0.293E-01    0.00       1.0  T
   6   -106.0071056 -0.161050E-01  0.427E-02    0.11       1.0  T
   7   -106.0071871 -0.814517E-04  0.361E-02    0.11       1.0  T
   8   -106.0073680 -0.180910E-03  0.146E-02    0.10       1.0  T
   9   -106.0074010 -0.330153E-04  0.343E-03    0.09       3.2  T
  10   -106.0074023 -0.129238E-05  0.203E-03    0.09       5.4  T
  11   -106.0074021  0.204067E-06  0.237E-03    0.09       4.6  T
  12   -106.0074028 -0.689854E-06  0.124E-03    0.09       8.8  T
  13   -106.0074029 -0.174935E-06  0.823E-04    0.09      13.3  T
  14   -106.0074030 -0.653519E-07  0.535E-04    0.09      20.4  T
     SCC iter.                  ...        0 min,  0.155 sec
     gradient                   ...        0 min,  0.013 sec
 * total energy  :  -104.4691308 Eh     change       -0.2510250E-03 Eh
   gradient norm :     0.0113840 Eh/α   predicted    -0.2952488E-03 (  17.62%)
   displ. norm   :     0.2716096 α      lambda       -0.4053435E-03
   maximum displ.:     0.1196346 α      in ANC's #21, #7, #5, ...

........................................................................
.............................. CYCLE   11 ..............................
........................................................................

 iter      E             dE          RMSdq      gap      omega  full diag
   1   -106.0117498 -0.106012E+03  0.717E-02    0.10       0.0  T
   2   -106.0074617  0.428812E-02  0.157E-01    0.04       1.0  T
   3   -106.0114062 -0.394452E-02  0.585E-02    0.12       1.0  T
   4   -106.0114565 -0.502554E-04  0.431E-02    0.10       1.0  T
   5   -106.0117052 -0.248733E-03  0.228E-02    0.10       1.0  T
   6   -106.0117876 -0.823314E-04  0.122E-02    0.10       1.0  T
   7   -106.0118083 -0.207013E-04  0.591E-03    0.10       1.8  T
   8   -106.0118143 -0.604538E-05  0.134E-03    0.09       8.1  T
   9   -106.0118142  0.874451E-07  0.134E-03    0.09       8.2  T
  10   -106.0118144 -0.150578E-06  0.108E-03    0.09      10.1  T
  11   -106.0118145 -0.140062E-06  0.661E-04    0.09      16.5  T
  12   -106.0118146 -0.536739E-07  0.398E-04    0.09      27.4  T
     SCC iter.                  ...        0 min,  0.117 sec
     gradient                   ...        0 min,  0.013 sec
 * total energy  :  -104.4693624 Eh     change       -0.2315902E-03 Eh
   gradient norm :     0.0064907 Eh/α   predicted    -0.2176298E-03 (  -6.03%)
   displ. norm   :     0.4562776 α      lambda       -0.3421149E-03
   maximum displ.:     0.1903219 α      in ANC's #21, #28, #5, ...

........................................................................
.............................. CYCLE   12 ..............................
........................................................................

 iter      E             dE          RMSdq      gap      omega  full diag
   1   -106.0057619 -0.106006E+03  0.158E-01    0.06       0.0  T
   2   -106.0004361  0.532585E-02  0.208E-01    0.34       1.0  T
   3   -106.0059615 -0.552547E-02  0.976E-02    0.10       1.0  T
   4   -106.0040771  0.188447E-02  0.120E-01    0.09       1.0  T
   5   -106.0030189  0.105816E-02  0.148E-01    0.04       1.0  T
   6   -106.0070063 -0.398745E-02  0.212E-02    0.10       1.0  T
   7   -106.0070245 -0.182001E-04  0.183E-02    0.10       1.0  T
   8   -106.0070724 -0.478146E-04  0.607E-03    0.09       1.8  T
   9   -106.0070765 -0.412414E-05  0.329E-03    0.09       3.3  T
  10   -106.0070781 -0.159590E-05  0.129E-03    0.09       8.5  T
  11   -106.0070783 -0.197959E-06  0.714E-04    0.09      15.3  T
  12   -106.0070783 -0.420823E-07  0.474E-04    0.09      23.0  T
     SCC iter.                  ...        0 min,  0.119 sec
     gradient                   ...        0 min,  0.012 sec
 * total energy  :  -104.4695560 Eh     change       -0.1936019E-03 Eh
   gradient norm :     0.0064321 Eh/α   predicted    -0.2066756E-03 (   6.75%)
   displ. norm   :     0.2576923 α      lambda       -0.1764256E-03
   maximum displ.:     0.1148303 α      in ANC's #7, #6, #5, ...

........................................................................
.............................. CYCLE   13 ..............................
........................................................................

 iter      E             dE          RMSdq      gap      omega  full diag
   1   -106.0079483 -0.106008E+03  0.677E-02    0.09       0.0  T
   2   -106.0079033  0.450042E-04  0.436E-02    0.08       1.0  T
   3   -106.0052958  0.260755E-02  0.114E-01    0.16       1.0  T
   4   -106.0077923 -0.249650E-02  0.284E-02    0.08       1.0  T
   5   -106.0079009 -0.108629E-03  0.169E-02    0.10       1.0  T
   6   -106.0079461 -0.452262E-04  0.665E-03    0.09       1.6  T
   7   -106.0079536 -0.749601E-05  0.249E-03    0.09       4.4  T
   8   -106.0079540 -0.401671E-06  0.181E-03    0.09       6.0  T
   9   -106.0079544 -0.391267E-06  0.128E-03    0.09       8.5  T
  10   -106.0079547 -0.334869E-06  0.400E-04    0.09      27.3  T
  11   -106.0079548 -0.237422E-07  0.157E-04    0.09      69.6  T
     SCC iter.                  ...        0 min,  0.108 sec
     gradient                   ...        0 min,  0.014 sec
 * total energy  :  -104.4696863 Eh     change       -0.1303459E-03 Eh
   gradient norm :     0.0048226 Eh/α   predicted    -0.9407443E-04 ( -27.83%)
   displ. norm   :     0.3411430 α      lambda       -0.2019430E-03
   maximum displ.:     0.1661153 α      in ANC's #7, #6, #5, ...

........................................................................
.............................. CYCLE   14 ..............................
........................................................................

 iter      E             dE          RMSdq      gap      omega  full diag
   1   -106.0109281 -0.106011E+03  0.854E-02    0.10       0.0  T
   2   -106.0083636  0.256450E-02  0.128E-01    0.05       1.0  T
   3   -106.0092673 -0.903668E-03  0.102E-01    0.15       1.0  T
   4   -106.0102607 -0.993423E-03  0.640E-02    0.10       1.0  T
   5   -106.0105961 -0.335383E-03  0.436E-02    0.11       1.0  T
   6   -106.0108447 -0.248602E-03  0.267E-02    0.10       1.0  T
   7   -106.0109384 -0.937237E-04  0.148E-02    0.10       1.0  T
   8   -106.0109739 -0.354896E-04  0.499E-03    0.09       2.2  T
   9   -106.0109776 -0.373156E-05  0.178E-03    0.09       6.1  T
  10   -106.0109780 -0.377239E-06  0.119E-03    0.09       9.2  T
  11   -106.0109782 -0.178168E-06  0.776E-04    0.09      14.1  T
  12   -106.0109782 -0.133963E-07  0.719E-04    0.09      15.2  T
     SCC iter.                  ...        0 min,  0.116 sec
     gradient                   ...        0 min,  0.013 sec
 * total energy  :  -104.4697427 Eh     change       -0.5640188E-04 Eh
   gradient norm :     0.0089255 Eh/α   predicted    -0.1127246E-03 (  99.86%)
   displ. norm   :     0.2742204 α      lambda       -0.2201119E-03
   maximum displ.:     0.1317260 α      in ANC's #7, #6, #5, ...

........................................................................
.............................. CYCLE   15 ..............................
........................................................................

 iter      E             dE          RMSdq      gap      omega  full diag
   1   -106.0119981 -0.106012E+03  0.656E-02    0.09       0.0  T
   2   -106.0119738  0.242687E-04  0.411E-02    0.09       1.0  T
   3   -106.0106626  0.131122E-02  0.873E-02    0.12       1.0  T
   4   -106.0113673 -0.704665E-03  0.571E-02    0.07       1.0  T
   5   -106.0119747 -0.607453E-03  0.122E-02    0.10       1.0  T
   6   -106.0120015 -0.268207E-04  0.357E-03    0.09       3.1  T
   7   -106.0120017 -0.152054E-06  0.281E-03    0.09       3.9  T
   8   -106.0120032 -0.148172E-05  0.115E-03    0.09       9.5  T
   9   -106.0120032 -0.692979E-07  0.983E-04    0.09      11.1  T
  10   -106.0120034 -0.157573E-06  0.507E-04    0.09      21.5  T
     SCC iter.                  ...        0 min,  0.093 sec
     gradient                   ...        0 min,  0.014 sec
 * total energy  :  -104.4698573 Eh     change       -0.1145552E-03 Eh
   gradient norm :     0.0046351 Eh/α   predicted    -0.1183336E-03 (   3.30%)
   displ. norm   :     0.2386090 α      lambda       -0.7989017E-04
   maximum displ.:     0.1108997 α      in ANC's #7, #6, #21, ...

........................................................................
.............................. CYCLE   16 ..............................
........................................................................

 iter      E             dE          RMSdq      gap      omega  full diag
   1   -106.0101811 -0.106010E+03  0.579E-02    0.09       0.0  T
   2   -106.0098950  0.286175E-03  0.539E-02    0.11       1.0  T
   3   -106.0043848  0.551020E-02  0.173E-01    0.03       1.0  T
   4   -106.0097822 -0.539742E-02  0.475E-02    0.11       1.0  T
   5   -106.0100578 -0.275660E-03  0.263E-02    0.10       1.0  T
   6   -106.0101504 -0.925832E-04  0.158E-02    0.10       1.0  T
   7   -106.0101714 -0.209180E-04  0.108E-02    0.10       1.0  T
   8   -106.0101903 -0.189787E-04  0.425E-03    0.09       2.6  T
   9   -106.0101932 -0.285249E-05  0.855E-04    0.09      12.8  T
  10   -106.0101933 -0.793579E-07  0.615E-04    0.09      17.8  T
  11   -106.0101933 -0.553593E-07  0.213E-04    0.09      51.2  T
     SCC iter.                  ...        0 min,  0.144 sec
     gradient                   ...        0 min,  0.016 sec
 * total energy  :  -104.4699064 Eh     change       -0.4907838E-04 Eh
   gradient norm :     0.0034429 Eh/α   predicted    -0.4222443E-04 ( -13.97%)
   displ. norm   :     0.1550573 α      lambda       -0.9838070E-04
   maximum displ.:     0.0968871 α      in ANC's #7, #6, #1, ...

........................................................................
.............................. CYCLE   17 ..............................
........................................................................

 iter      E             dE          RMSdq      gap      omega  full diag
   1   -106.0130598 -0.106013E+03  0.323E-02    0.10       0.0  T
   2   -106.0120753  0.984546E-03  0.758E-02    0.06       1.0  T
   3   -106.0129811 -0.905866E-03  0.277E-02    0.10       1.0  T
   4   -106.0129023  0.787803E-04  0.301E-02    0.09       1.0  T
   5   -106.0130596 -0.157254E-03  0.973E-03    0.09       1.1  T
   6   -106.0130770 -0.174522E-04  0.403E-03    0.09       2.7  T
   7   -106.0130795 -0.249198E-05  0.171E-03    0.09       6.4  T
   8   -106.0130800 -0.422460E-06  0.724E-04    0.09      15.1  T
   9   -106.0130800 -0.559013E-07  0.396E-04    0.09      27.6  T
     SCC iter.                  ...        0 min,  0.089 sec
     gradient                   ...        0 min,  0.015 sec
 * total energy  :  -104.4699497 Eh     change       -0.4333864E-04 Eh
   gradient norm :     0.0043017 Eh/α   predicted    -0.5037763E-04 (  16.24%)
   displ. norm   :     0.1519533 α      lambda       -0.7614282E-04
   maximum displ.:     0.0886552 α      in ANC's #7, #6, #5, ...

........................................................................
.............................. CYCLE   18 ..............................
........................................................................

 iter      E             dE          RMSdq      gap      omega  full diag
   1   -106.0134217 -0.106013E+03  0.348E-02    0.09       0.0  T
   2   -106.0132907  0.131027E-03  0.336E-02    0.08       1.0  T
   3   -106.0126191  0.671605E-03  0.668E-02    0.13       1.0  T
   4   -106.0133075 -0.688494E-03  0.239E-02    0.09       1.0  T
   5   -106.0134024 -0.948984E-04  0.109E-02    0.10       1.0  T
   6   -106.0134188 -0.163523E-04  0.599E-03    0.09       1.8  T
   7   -106.0134253 -0.649037E-05  0.192E-03    0.09       5.7  T
   8   -106.0134258 -0.537459E-06  0.739E-04    0.09      14.8  T
   9   -106.0134258 -0.110087E-08  0.721E-04    0.09      15.1  T
     SCC iter.                  ...        0 min,  0.086 sec
     gradient                   ...        0 min,  0.012 sec
 * total energy  :  -104.4700068 Eh     change       -0.5714240E-04 Eh
   gradient norm :     0.0036868 Eh/α   predicted    -0.3895125E-04 ( -31.83%)
   displ. norm   :     0.2043989 α      lambda       -0.7718756E-04
   maximum displ.:     0.1224040 α      in ANC's #7, #6, #1, ...

........................................................................
.............................. CYCLE   19 ..............................
........................................................................

 iter      E             dE          RMSdq      gap      omega  full diag
   1   -106.0131282 -0.106013E+03  0.392E-02    0.09       0.0  T
   2   -106.0125950  0.533247E-03  0.586E-02    0.12       1.0  T
   3   -106.0126465 -0.515278E-04  0.529E-02    0.07       1.0  T
   4   -106.0129540 -0.307513E-03  0.330E-02    0.10       1.0  T
   5   -106.0131218 -0.167765E-03  0.116E-02    0.10       1.0  T
   6   -106.0131409 -0.190684E-04  0.633E-03    0.09       1.7  T
   7   -106.0131466 -0.576800E-05  0.282E-03    0.09       3.9  T
   8   -106.0131481 -0.150919E-05  0.741E-04    0.09      14.7  T
   9   -106.0131481  0.135556E-07  0.792E-04    0.09      13.8  T
  10   -106.0131482 -0.970874E-07  0.343E-04    0.09      31.8  T
     SCC iter.                  ...        0 min,  0.104 sec
     gradient                   ...        0 min,  0.014 sec
 * total energy  :  -104.4700703 Eh     change       -0.6349145E-04 Eh
   gradient norm :     0.0025984 Eh/α   predicted    -0.4020823E-04 ( -36.67%)
   displ. norm   :     0.2651250 α      lambda       -0.1008769E-03
   maximum displ.:     0.1669988 α      in ANC's #7, #6, #14, ...

........................................................................
.............................. CYCLE   20 ..............................
........................................................................

 iter      E             dE          RMSdq      gap      omega  full diag
   1   -106.0136327 -0.106014E+03  0.414E-02    0.09       0.0  T
   2   -106.0135609  0.717534E-04  0.321E-02    0.08       1.0  T
   3   -106.0125366  0.102427E-02  0.795E-02    0.14       1.0  T
   4   -106.0133519 -0.815230E-03  0.350E-02    0.08       1.0  T
   5   -106.0136138 -0.261956E-03  0.113E-02    0.10       1.0  T
   6   -106.0136298 -0.159941E-04  0.624E-03    0.09       1.7  T
   7   -106.0136364 -0.655752E-05  0.237E-03    0.09       4.6  T
   8   -106.0136373 -0.967939E-06  0.784E-04    0.09      13.9  T
   9   -106.0136373  0.352177E-07  0.899E-04    0.09      12.1  T
     SCC iter.                  ...        0 min,  0.113 sec
     gradient                   ...        0 min,  0.042 sec
 * total energy  :  -104.4701609 Eh     change       -0.9058816E-04 Eh
   gradient norm :     0.0038362 Eh/α   predicted    -0.5398744E-04 ( -40.40%)
   displ. norm   :     0.4024382 α      lambda       -0.1657039E-03
   maximum displ.:     0.2482186 α      in ANC's #7, #6, #14, ...
 * RMSD in coord.:     0.5449303 α      energy gain  -0.7743095E-02 Eh

generating ANC from exact Hessian ...
Using Lindh-Hessian (1995)
 Shifting diagonal of input Hessian by   1.029847339975736E-002
 Lowest  eigenvalues of input Hessian
    0.010000    0.010094    0.010112    0.010119    0.000000    0.000000
    0.000000    0.000000    0.000000    0.000000    0.010324    0.010340
    0.010350    0.010363    0.010524    0.010691    0.010820    0.010823
 Highest eigenvalues
    1.928631    1.985318    2.025335    2.113743    2.128538    2.158601
 

........................................................................
.............................. CYCLE   21 ..............................
........................................................................

 iter      E             dE          RMSdq      gap      omega  full diag
   1   -106.0135062 -0.106014E+03  0.611E-02    0.09       0.0  T
   2   -106.0128016  0.704562E-03  0.718E-02    0.12       1.0  T
   3   -106.0105980  0.220365E-02  0.124E-01    0.05       1.0  T
   4   -106.0131138 -0.251585E-02  0.536E-02    0.11       1.0  T
   5   -106.0133995 -0.285627E-03  0.267E-02    0.10       1.0  T
   6   -106.0134754 -0.759162E-04  0.181E-02    0.10       1.0  T
   7   -106.0135117 -0.362931E-04  0.112E-02    0.10       1.0  T
   8   -106.0135323 -0.206037E-04  0.453E-03    0.09       2.4  T
   9   -106.0135356 -0.329289E-05  0.867E-04    0.09      12.6  T
  10   -106.0135356 -0.727271E-07  0.568E-04    0.09      19.2  T
  11   -106.0135356 -0.268300E-08  0.577E-04    0.09      18.9  T
     SCC iter.                  ...        0 min,  0.106 sec
     gradient                   ...        0 min,  0.013 sec
 * total energy  :  -104.4703193 Eh     change       -0.1583848E-03 Eh
   gradient norm :     0.0037709 Eh/α   predicted     0.0000000E+00 (-100.00%)
   displ. norm   :     0.0607648 α      lambda       -0.8905429E-04
   maximum displ.:     0.0320980 α      in ANC's #7, #32, #8, ...

........................................................................
.............................. CYCLE   22 ..............................
........................................................................

 iter      E             dE          RMSdq      gap      omega  full diag
   1   -106.0129602 -0.106013E+03  0.411E-02    0.09       0.0  T
   2   -106.0126630  0.297211E-03  0.476E-02    0.11       1.0  T
   3   -106.0115341  0.112893E-02  0.878E-02    0.06       1.0  T
   4   -106.0127124 -0.117831E-02  0.346E-02    0.10       1.0  T
   5   -106.0129380 -0.225674E-03  0.143E-02    0.10       1.0  T
   6   -106.0129541 -0.160673E-04  0.985E-03    0.10       1.1  T
   7   -106.0129680 -0.138978E-04  0.519E-03    0.09       2.1  T
   8   -106.0129725 -0.452131E-05  0.105E-03    0.09      10.4  T
   9   -106.0129725  0.705635E-07  0.112E-03    0.09       9.8  T
  10   -106.0129726 -0.139110E-06  0.794E-04    0.09      13.7  T
  11   -106.0129727 -0.849517E-07  0.406E-04    0.09      26.9  T
     SCC iter.                  ...        0 min,  0.103 sec
     gradient                   ...        0 min,  0.014 sec
 * total energy  :  -104.4703700 Eh     change       -0.5065595E-04 Eh
   gradient norm :     0.0018369 Eh/α   predicted    -0.4498924E-04 ( -11.19%)
   displ. norm   :     0.1475350 α      lambda       -0.8080234E-04
   maximum displ.:     0.0828317 α      in ANC's #7, #8, #32, ...

........................................................................
.............................. CYCLE   23 ..............................
........................................................................

 iter      E             dE          RMSdq      gap      omega  full diag
   1   -106.0119108 -0.106012E+03  0.414E-02    0.08       0.0  T
   2   -106.0110157  0.895150E-03  0.740E-02    0.13       1.0  T
   3   -106.0116549 -0.639239E-03  0.426E-02    0.08       1.0  T
   4   -106.0117044 -0.495185E-04  0.308E-02    0.10       1.0  T
   5   -106.0119335 -0.229112E-03  0.943E-03    0.09       1.2  T
   6   -106.0119424 -0.883785E-05  0.525E-03    0.09       2.1  T
   7   -106.0119465 -0.407981E-05  0.222E-03    0.09       4.9  T
   8   -106.0119471 -0.599056E-06  0.114E-03    0.09       9.5  T
   9   -106.0119470  0.422250E-07  0.115E-03    0.09       9.4  T
  10   -106.0119472 -0.228984E-06  0.421E-04    0.09      25.9  T
  11   -106.0119473 -0.248301E-07  0.169E-04    0.09      64.6  T
     SCC iter.                  ...        0 min,  0.106 sec
     gradient                   ...        0 min,  0.013 sec
 * total energy  :  -104.4704378 Eh     change       -0.6784089E-04 Eh
   gradient norm :     0.0036646 Eh/α   predicted    -0.4079231E-04 ( -39.87%)
   displ. norm   :     0.1612449 α      lambda       -0.1035974E-03
   maximum displ.:     0.0950070 α      in ANC's #7, #8, #5, ...

........................................................................
.............................. CYCLE   24 ..............................
........................................................................

 iter      E             dE          RMSdq      gap      omega  full diag
   1   -106.0114667 -0.106011E+03  0.565E-02    0.09       0.0  T
   2   -106.0110553  0.411401E-03  0.585E-02    0.11       1.0  T
   3   -106.0073606  0.369477E-02  0.149E-01    0.04       1.0  T
   4   -106.0108566 -0.349598E-02  0.551E-02    0.11       1.0  T
   5   -106.0113937 -0.537190E-03  0.231E-02    0.10       1.0  T
   6   -106.0114233 -0.295772E-04  0.180E-02    0.10       1.0  T
   7   -106.0114626 -0.392562E-04  0.107E-02    0.10       1.0  T
   8   -106.0114802 -0.175991E-04  0.413E-03    0.09       2.6  T
   9   -106.0114830 -0.278093E-05  0.764E-04    0.09      14.3  T
  10   -106.0114830 -0.681811E-08  0.677E-04    0.09      16.1  T
  11   -106.0114830 -0.752961E-08  0.694E-04    0.09      15.7  T
     SCC iter.                  ...        0 min,  0.119 sec
     gradient                   ...        0 min,  0.015 sec
 * total energy  :  -104.4704883 Eh     change       -0.5049429E-04 Eh
   gradient norm :     0.0047827 Eh/α   predicted    -0.5315172E-04 (   5.26%)
   displ. norm   :     0.1890710 α      lambda       -0.1285914E-03
   maximum displ.:     0.1062652 α      in ANC's #7, #8, #5, ...

........................................................................
.............................. CYCLE   25 ..............................
........................................................................

 iter      E             dE          RMSdq      gap      omega  full diag
   1   -106.0116082 -0.106012E+03  0.414E-02    0.09       0.0  T
   2   -106.0115870  0.212673E-04  0.271E-02    0.10       1.0  T
   3   -106.0075994  0.398760E-02  0.144E-01    0.04       1.0  T
   4   -106.0115218 -0.392247E-02  0.215E-02    0.10       1.0  T
   5   -106.0116023 -0.804891E-04  0.632E-03    0.09       1.7  T
   6   -106.0116078 -0.545657E-05  0.374E-03    0.09       2.9  T
   7   -106.0116089 -0.115138E-05  0.249E-03    0.09       4.4  T
   8   -106.0116099 -0.102640E-05  0.932E-04    0.09      11.7  T
   9   -106.0116101 -0.108174E-06  0.482E-04    0.09      22.6  T
  10   -106.0116101 -0.143260E-07  0.384E-04    0.09      28.4  T
     SCC iter.                  ...        0 min,  0.129 sec
     gradient                   ...        0 min,  0.013 sec
 * total energy  :  -104.4705903 Eh     change       -0.1020174E-03 Eh
   gradient norm :     0.0032377 Eh/α   predicted    -0.6659616E-04 ( -34.72%)
   displ. norm   :     0.4098387 α      lambda       -0.2211347E-03
   maximum displ.:     0.2364548 α      in ANC's #7, #8, #5, ...

........................................................................
.............................. CYCLE   26 ..............................
........................................................................

 iter      E             dE          RMSdq      gap      omega  full diag
   1   -106.0119224 -0.106012E+03  0.719E-02    0.09       0.0  T
   2   -106.0118774  0.449991E-04  0.458E-02    0.10       1.0  T
   3   -105.9983808  0.134965E-01  0.267E-01    0.01       1.0  T
   4   -106.0117357 -0.133548E-01  0.317E-02    0.10       1.0  T
   5   -106.0119058 -0.170174E-03  0.111E-02    0.09       1.0  T
   6   -106.0119121 -0.630092E-05  0.876E-03    0.09       1.2  T
   7   -106.0119217 -0.953029E-05  0.542E-03    0.09       2.0  T
   8   -106.0119258 -0.417270E-05  0.238E-03    0.09       4.6  T
   9   -106.0119267 -0.874137E-06  0.633E-04    0.09      17.2  T
  10   -106.0119267 -0.117511E-07  0.520E-04    0.09      21.0  T
     SCC iter.                  ...        0 min,  0.112 sec
     gradient                   ...        0 min,  0.017 sec
 * total energy  :  -104.4707608 Eh     change       -0.1704819E-03 Eh
   gradient norm :     0.0040239 Eh/α   predicted    -0.1291452E-03 ( -24.25%)
   displ. norm   :     0.5081004 α      lambda       -0.2269017E-03
   maximum displ.:     0.2971146 α      in ANC's #7, #8, #5, ...

........................................................................
.............................. CYCLE   27 ..............................
........................................................................

 iter      E             dE          RMSdq      gap      omega  full diag
   1   -106.0118535 -0.106012E+03  0.794E-02    0.09       0.0  T
   2   -106.0112737  0.579737E-03  0.723E-02    0.12       1.0  T
   3   -105.9973610  0.139128E-01  0.277E-01    0.01       1.0  T
   4   -106.0114327 -0.140717E-01  0.498E-02    0.12       1.0  T
   5   -106.0116241 -0.191367E-03  0.375E-02    0.11       1.0  T
   6   -106.0117361 -0.112080E-03  0.277E-02    0.10       1.0  T
   7   -106.0118157 -0.795513E-04  0.184E-02    0.10       1.0  T
   8   -106.0118535 -0.378096E-04  0.113E-02    0.10       1.0  T
   9   -106.0118733 -0.197942E-04  0.435E-03    0.09       2.5  T
  10   -106.0118764 -0.307362E-05  0.652E-04    0.09      16.7  T
  11   -106.0118764 -0.313352E-07  0.501E-04    0.09      21.8  T
  12   -106.0118764 -0.156492E-07  0.451E-04    0.09      24.2  T
     SCC iter.                  ...        0 min,  0.138 sec
     gradient                   ...        0 min,  0.016 sec
 * total energy  :  -104.4709625 Eh     change       -0.2016634E-03 Eh
   gradient norm :     0.0059448 Eh/α   predicted    -0.1427406E-03 ( -29.22%)
   displ. norm   :     0.5700734 α      lambda       -0.3040251E-03
   maximum displ.:     0.3335347 α      in ANC's #7, #8, #5, ...

........................................................................
.............................. CYCLE   28 ..............................
........................................................................

 iter      E             dE          RMSdq      gap      omega  full diag
   1   -106.0123593 -0.106012E+03  0.818E-02    0.09       0.0  T
   2   -106.0117427  0.616663E-03  0.740E-02    0.12       1.0  T
   3   -105.9964088  0.153339E-01  0.291E-01    0.00       1.0  T
   4   -106.0119476 -0.155389E-01  0.497E-02    0.12       1.0  T
   5   -106.0121140 -0.166369E-03  0.385E-02    0.11       1.0  T
   6   -106.0122440 -0.130025E-03  0.275E-02    0.10       1.0  T
   7   -106.0123244 -0.803650E-04  0.182E-02    0.10       1.0  T
   8   -106.0123597 -0.352871E-04  0.116E-02    0.10       1.0  T
   9   -106.0123815 -0.218166E-04  0.355E-03    0.09       3.1  T
  10   -106.0123836 -0.209216E-05  0.615E-04    0.09      17.7  T
  11   -106.0123836  0.282250E-07  0.641E-04    0.09      17.0  T
  12   -106.0123836 -0.255858E-07  0.616E-04    0.09      17.7  T
     SCC iter.                  ...        0 min,  0.122 sec
     gradient                   ...        0 min,  0.014 sec
 * total energy  :  -104.4712395 Eh     change       -0.2770115E-03 Eh
   gradient norm :     0.0059139 Eh/α   predicted    -0.2014232E-03 ( -27.29%)
   displ. norm   :     0.6257745 α      lambda       -0.3538338E-03
   maximum displ.:     0.3672490 α      in ANC's #7, #8, #5, ...

........................................................................
.............................. CYCLE   29 ..............................
........................................................................

 iter      E             dE          RMSdq      gap      omega  full diag
   1   -106.0130017 -0.106013E+03  0.836E-02    0.09       0.0  T
   2   -106.0126725  0.329210E-03  0.640E-02    0.11       1.0  T
   3   -105.9876124  0.250600E-01  0.366E-01    0.01       1.0  T
   4   -106.0127415 -0.251291E-01  0.410E-02    0.11       1.0  T
   5   -106.0128358 -0.942737E-04  0.309E-02    0.11       1.0  T
   6   -106.0129285 -0.926715E-04  0.221E-02    0.10       1.0  T
   7   -106.0129797 -0.512461E-04  0.138E-02    0.10       1.0  T
   8   -106.0130034 -0.237204E-04  0.824E-03    0.09       1.3  T
   9   -106.0130135 -0.100615E-04  0.263E-03    0.09       4.2  T
  10   -106.0130147 -0.123464E-05  0.554E-04    0.09      19.7  T
  11   -106.0130147  0.180924E-08  0.549E-04    0.09      19.9  T
  12   -106.0130148 -0.321121E-07  0.368E-04    0.09      29.7  T
     SCC iter.                  ...        0 min,  0.125 sec
     gradient                   ...        0 min,  0.016 sec
 * total energy  :  -104.4715537 Eh     change       -0.3142313E-03 Eh
   gradient norm :     0.0050294 Eh/α   predicted    -0.2462029E-03 ( -21.65%)
   displ. norm   :     0.6543122 α      lambda       -0.3380125E-03
   maximum displ.:     0.3859867 α      in ANC's #7, #8, #5, ...

........................................................................
.............................. CYCLE   30 ..............................
........................................................................

 iter      E             dE          RMSdq      gap      omega  full diag
   1   -106.0132569 -0.106013E+03  0.842E-02    0.09       0.0  T
   2   -106.0132476  0.929651E-05  0.510E-02    0.09       1.0  T
   3   -106.0114530  0.179461E-02  0.964E-02    0.06       1.0  T
   4   -106.0128804 -0.142745E-02  0.453E-02    0.11       1.0  T
   5   -106.0132546 -0.374170E-03  0.588E-03    0.09       1.9  T
   6   -106.0132580 -0.342464E-05  0.350E-03    0.09       3.1  T
   7   -106.0132588 -0.812119E-06  0.241E-03    0.09       4.5  T
   8   -106.0132596 -0.815468E-06  0.151E-03    0.09       7.2  T
   9   -106.0132600 -0.350298E-06  0.852E-04    0.09      12.8  T
  10   -106.0132601 -0.115711E-06  0.357E-04    0.09      30.6  T
     SCC iter.                  ...        0 min,  0.099 sec
     gradient                   ...        0 min,  0.013 sec
 * total energy  :  -104.4718614 Eh     change       -0.3076693E-03 Eh
   gradient norm :     0.0046588 Eh/α   predicted    -0.2413634E-03 ( -21.55%)
   displ. norm   :     0.6682691 α      lambda       -0.3533721E-03
   maximum displ.:     0.3974727 α      in ANC's #7, #8, #5, ...

........................................................................
.............................. CYCLE   31 ..............................
........................................................................

 iter      E             dE          RMSdq      gap      omega  full diag
   1   -106.0143264 -0.106014E+03  0.779E-02    0.10       0.0  T
   2   -106.0136940  0.632353E-03  0.761E-02    0.07       1.0  T
   3   -106.0118833  0.181067E-02  0.116E-01    0.17       1.0  T
   4   -106.0138674 -0.198401E-02  0.511E-02    0.10       1.0  T
   5   -106.0141026 -0.235250E-03  0.356E-02    0.11       1.0  T
   6   -106.0142551 -0.152475E-03  0.218E-02    0.10       1.0  T
   7   -106.0143306 -0.755104E-04  0.886E-03    0.10       1.2  T
   8   -106.0143431 -0.125033E-04  0.209E-03    0.09       5.2  T
   9   -106.0143432 -0.100503E-06  0.171E-03    0.09       6.4  T
  10   -106.0143434 -0.228763E-06  0.139E-03    0.09       7.9  T
  11   -106.0143437 -0.306713E-06  0.607E-04    0.09      18.0  T
  12   -106.0143437  0.154437E-07  0.658E-04    0.09      16.6  T
     SCC iter.                  ...        0 min,  0.135 sec
     gradient                   ...        0 min,  0.013 sec
 * total energy  :  -104.4721914 Eh     change       -0.3299865E-03 Eh
   gradient norm :     0.0045631 Eh/α   predicted    -0.2555978E-03 ( -22.54%)
   displ. norm   :     0.7294541 α      lambda       -0.4136316E-03
   maximum displ.:     0.4364571 α      in ANC's #7, #8, #5, ...

........................................................................
.............................. CYCLE   32 ..............................
........................................................................

 iter      E             dE          RMSdq      gap      omega  full diag
   1   -106.0154561 -0.106015E+03  0.856E-02    0.10       0.0  T
   2   -106.0138402  0.161591E-02  0.108E-01    0.06       1.0  T
   3   -106.0135113  0.328893E-03  0.108E-01    0.16       1.0  T
   4   -106.0146367 -0.112542E-02  0.668E-02    0.10       1.0  T
   5   -106.0151540 -0.517354E-03  0.426E-02    0.11       1.0  T
   6   -106.0153401 -0.186042E-03  0.287E-02    0.11       1.0  T
   7   -106.0154529 -0.112821E-03  0.151E-02    0.10       1.0  T
   8   -106.0154860 -0.331223E-04  0.622E-03    0.10       1.8  T
   9   -106.0154921 -0.607224E-05  0.152E-03    0.09       7.2  T
  10   -106.0154921  0.114039E-07  0.161E-03    0.09       6.8  T
  11   -106.0154925 -0.422164E-06  0.674E-04    0.09      16.2  T
  12   -106.0154924  0.764024E-07  0.939E-04    0.09      11.6  T
     SCC iter.                  ...        0 min,  0.127 sec
     gradient                   ...        0 min,  0.014 sec
 * total energy  :  -104.4725880 Eh     change       -0.3966621E-03 Eh
   gradient norm :     0.0051947 Eh/α   predicted    -0.3168696E-03 ( -20.12%)
   displ. norm   :     0.7742456 α      lambda       -0.4884265E-03
   maximum displ.:     0.4678434 α      in ANC's #7, #8, #5, ...

........................................................................
.............................. CYCLE   33 ..............................
........................................................................

 iter      E             dE          RMSdq      gap      omega  full diag
   1   -106.0167742 -0.106017E+03  0.863E-02    0.10       0.0  T
   2   -106.0147073  0.206683E-02  0.118E-01    0.05       1.0  T
   3   -106.0150350 -0.327632E-03  0.104E-01    0.16       1.0  T
   4   -106.0158150 -0.780063E-03  0.720E-02    0.10       1.0  T
   5   -106.0164665 -0.651533E-03  0.432E-02    0.12       1.0  T
   6   -106.0166691 -0.202574E-03  0.287E-02    0.11       1.0  T
   7   -106.0167753 -0.106211E-03  0.163E-02    0.10       1.0  T
   8   -106.0168135 -0.381707E-04  0.727E-03    0.10       1.5  T
   9   -106.0168221 -0.861455E-05  0.162E-03    0.09       6.7  T
  10   -106.0168222 -0.712652E-07  0.154E-03    0.09       7.1  T
  11   -106.0168226 -0.411217E-06  0.592E-04    0.09      18.4  T
  12   -106.0168225  0.801335E-07  0.895E-04    0.09      12.2  T
     SCC iter.                  ...        0 min,  0.127 sec
     gradient                   ...        0 min,  0.014 sec
 * total energy  :  -104.4730591 Eh     change       -0.4710827E-03 Eh
   gradient norm :     0.0057361 Eh/α   predicted    -0.3906114E-03 ( -17.08%)
   displ. norm   :     0.7994264 α      lambda       -0.5535281E-03
   maximum displ.:     0.4886079 α      in ANC's #7, #8, #5, ...

........................................................................
.............................. CYCLE   34 ..............................
........................................................................

 iter      E             dE          RMSdq      gap      omega  full diag
   1   -106.0184911 -0.106018E+03  0.909E-02    0.10       0.0  T
   2   -106.0172752  0.121584E-02  0.983E-02    0.06       1.0  T
   3   -106.0160880  0.118727E-02  0.120E-01    0.18       1.0  T
   4   -106.0175640 -0.147600E-02  0.712E-02    0.11       1.0  T
   5   -106.0180942 -0.530215E-03  0.472E-02    0.12       1.0  T
   6   -106.0183730 -0.278853E-03  0.289E-02    0.11       1.0  T
   7   -106.0184975 -0.124476E-03  0.138E-02    0.10       1.0  T
   8   -106.0185265 -0.289944E-04  0.515E-03    0.10       2.1  T
   9   -106.0185303 -0.382558E-05  0.181E-03    0.10       6.0  T
  10   -106.0185307 -0.363834E-06  0.132E-03    0.09       8.3  T
  11   -106.0185310 -0.318111E-06  0.445E-04    0.10      24.5  T
  12   -106.0185309  0.820211E-07  0.793E-04    0.09      13.8  T
     SCC iter.                  ...        0 min,  0.116 sec
     gradient                   ...        0 min,  0.015 sec
 * total energy  :  -104.4735808 Eh     change       -0.5216820E-03 Eh
   gradient norm :     0.0059911 Eh/α   predicted    -0.4536436E-03 ( -13.04%)
   displ. norm   :     0.8079170 α      lambda       -0.5765138E-03
   maximum displ.:     0.4959756 α      in ANC's #7, #8, #5, ...

........................................................................
.............................. CYCLE   35 ..............................
........................................................................

 iter      E             dE          RMSdq      gap      omega  full diag
   1   -106.0196617 -0.106020E+03  0.958E-02    0.10       0.0  T
   2   -106.0196040  0.576529E-04  0.615E-02    0.09       1.0  T
   3   -106.0177187  0.188526E-02  0.110E-01    0.13       1.0  T
   4   -106.0185095 -0.790783E-03  0.769E-02    0.07       1.0  T
   5   -106.0195809 -0.107134E-02  0.227E-02    0.11       1.0  T
   6   -106.0196743 -0.933915E-04  0.611E-03    0.10       1.8  T
   7   -106.0196752 -0.983704E-06  0.483E-03    0.10       2.3  T
   8   -106.0196796 -0.433661E-05  0.194E-03    0.10       5.6  T
   9   -106.0196799 -0.305379E-06  0.119E-03    0.10       9.2  T
  10   -106.0196800 -0.155114E-06  0.844E-04    0.10      12.9  T
  11   -106.0196801 -0.941964E-07  0.424E-04    0.10      25.7  T
     SCC iter.                  ...        0 min,  0.129 sec
     gradient                   ...        0 min,  0.013 sec
 * total energy  :  -104.4741060 Eh     change       -0.5251701E-03 Eh
   gradient norm :     0.0059145 Eh/α   predicted    -0.4764127E-03 (  -9.28%)
   displ. norm   :     0.7714068 α      lambda       -0.5464038E-03
   maximum displ.:     0.4712776 α      in ANC's #7, #8, #5, ...

........................................................................
.............................. CYCLE   36 ..............................
........................................................................

 iter      E             dE          RMSdq      gap      omega  full diag
   1   -106.0214711 -0.106021E+03  0.107E-01    0.09       0.0  T
   2   -106.0210658  0.405292E-03  0.818E-02    0.12       1.0  T
   3   -105.9901677  0.308980E-01  0.404E-01    0.02       1.0  T
   4   -106.0201614 -0.299936E-01  0.911E-02    0.13       1.0  T
   5   -106.0211976 -0.103623E-02  0.411E-02    0.12       1.0  T
   6   -106.0213418 -0.144143E-03  0.312E-02    0.11       1.0  T
   7   -106.0213910 -0.492085E-04  0.250E-02    0.11       1.0  T
   8   -106.0214645 -0.735029E-04  0.158E-02    0.10       1.0  T
   9   -106.0214933 -0.288403E-04  0.846E-03    0.10       1.3  T
  10   -106.0215042 -0.109144E-04  0.303E-03    0.10       3.6  T
  11   -106.0215056 -0.137660E-05  0.796E-04    0.10      13.7  T
  12   -106.0215057 -0.769582E-07  0.370E-04    0.10      29.5  T
  13   -106.0215057 -0.115523E-07  0.254E-04    0.10      43.0  T
     SCC iter.                  ...        0 min,  0.152 sec
     gradient                   ...        0 min,  0.016 sec
 * total energy  :  -104.4745887 Eh     change       -0.4827865E-03 Eh
   gradient norm :     0.0067826 Eh/α   predicted    -0.4357825E-03 (  -9.74%)
   displ. norm   :     0.7299365 α      lambda       -0.5098194E-03
   maximum displ.:     0.4372006 α      in ANC's #7, #8, #5, ...

........................................................................
.............................. CYCLE   37 ..............................
........................................................................

 iter      E             dE          RMSdq      gap      omega  full diag
   1   -106.0206790 -0.106021E+03  0.120E-01    0.08       0.0  T
   2   -106.0185171  0.216183E-02  0.135E-01    0.18       1.0  T
   3   -106.0122594  0.625771E-02  0.211E-01    0.03       1.0  T
   4   -106.0185569 -0.629745E-02  0.109E-01    0.16       1.0  T
   5   -106.0198459 -0.128899E-02  0.764E-02    0.15       1.0  T
   6   -106.0201303 -0.284397E-03  0.632E-02    0.13       1.0  T
   7   -106.0204884 -0.358128E-03  0.456E-02    0.12       1.0  T
   8   -106.0207049 -0.216509E-03  0.298E-02    0.11       1.0  T
   9   -106.0208481 -0.143209E-03  0.102E-02    0.10       1.1  T
  10   -106.0208647 -0.165795E-04  0.295E-03    0.10       3.7  T
  11   -106.0208662 -0.151405E-05  0.681E-04    0.10      16.0  T
  12   -106.0208660  0.186810E-06  0.121E-03    0.09       9.0  T
  13   -106.0208663 -0.224142E-06  0.295E-04    0.10      37.0  T
  14   -106.0208663 -0.933980E-09  0.306E-04    0.10      35.7  T
     SCC iter.                  ...        0 min,  0.152 sec
     gradient                   ...        0 min,  0.013 sec
 * total energy  :  -104.4750295 Eh     change       -0.4407888E-03 Eh
   gradient norm :     0.0063923 Eh/α   predicted    -0.3907304E-03 ( -11.36%)
   displ. norm   :     0.6940945 α      lambda       -0.4981449E-03
   maximum displ.:     0.3953921 α      in ANC's #7, #8, #5, ...

........................................................................
.............................. CYCLE   38 ..............................
........................................................................

 iter      E             dE          RMSdq      gap      omega  full diag
   1   -106.0210513 -0.106021E+03  0.147E-01    0.07       0.0  T
   2   -106.0178026  0.324879E-02  0.165E-01    0.22       1.0  T
   3   -106.0118110  0.599151E-02  0.222E-01    0.03       1.0  T
   4   -106.0175017 -0.569070E-02  0.136E-01    0.19       1.0  T
   5   -106.0197715 -0.226972E-02  0.989E-02    0.16       1.0  T
   6   -106.0200949 -0.323410E-03  0.855E-02    0.15       1.0  T
   7   -106.0206896 -0.594739E-03  0.641E-02    0.13       1.0  T
   8   -106.0211568 -0.467211E-03  0.390E-02    0.11       1.0  T
   9   -106.0214048 -0.247922E-03  0.987E-03    0.10       1.1  T
  10   -106.0214166 -0.118663E-04  0.573E-03    0.10       1.9  T
  11   -106.0214217 -0.511797E-05  0.159E-03    0.09       6.9  T
  12   -106.0214220 -0.241484E-06  0.842E-04    0.09      13.0  T
  13   -106.0214221 -0.841101E-07  0.559E-04    0.09      19.5  T
     SCC iter.                  ...        0 min,  0.142 sec
     gradient                   ...        0 min,  0.015 sec
 * total energy  :  -104.4754414 Eh     change       -0.4118246E-03 Eh
   gradient norm :     0.0068627 Eh/α   predicted    -0.3690709E-03 ( -10.38%)
   displ. norm   :     0.6523366 α      lambda       -0.4812716E-03
   maximum displ.:     0.3676435 α      in ANC's #7, #8, #5, ...

........................................................................
.............................. CYCLE   39 ..............................
........................................................................

 iter      E             dE          RMSdq      gap      omega  full diag
   1   -106.0182383 -0.106018E+03  0.138E-01    0.07       0.0  T
   2   -106.0146820  0.355627E-02  0.166E-01    0.22       1.0  T
   3   -106.0126697  0.201233E-02  0.178E-01    0.04       1.0  T
   4   -106.0139253 -0.125559E-02  0.141E-01    0.17       1.0  T
   5   -106.0172212 -0.329591E-02  0.913E-02    0.15       1.0  T
   6   -106.0178526 -0.631342E-03  0.666E-02    0.13       1.0  T
   7   -106.0183066 -0.454060E-03  0.435E-02    0.11       1.0  T
   8   -106.0185707 -0.264109E-03  0.229E-02    0.10       1.0  T
   9   -106.0186475 -0.767964E-04  0.814E-03    0.10       1.3  T
  10   -106.0186571 -0.955556E-05  0.323E-03    0.09       3.4  T
  11   -106.0186589 -0.176723E-05  0.936E-04    0.09      11.7  T
  12   -106.0186589 -0.526425E-07  0.642E-04    0.09      17.0  T
  13   -106.0186590 -0.542460E-07  0.346E-04    0.09      31.6  T
     SCC iter.                  ...        0 min,  0.166 sec
     gradient                   ...        0 min,  0.017 sec
 * total energy  :  -104.4758319 Eh     change       -0.3904920E-03 Eh
   gradient norm :     0.0061513 Eh/α   predicted    -0.3430422E-03 ( -12.15%)
   displ. norm   :     0.6118357 α      lambda       -0.4983552E-03
   maximum displ.:     0.3108236 α      in ANC's #7, #5, #6, ...

........................................................................
.............................. CYCLE   40 ..............................
........................................................................

 iter      E             dE          RMSdq      gap      omega  full diag
   1   -106.0204623 -0.106020E+03  0.168E-01    0.07       0.0  T
   2   -106.0169250  0.353729E-02  0.174E-01    0.22       1.0  T
   3   -105.9973814  0.195436E-01  0.354E-01    0.01       1.0  T
   4   -106.0164314 -0.190501E-01  0.152E-01    0.22       1.0  T
   5   -106.0183350 -0.190355E-02  0.125E-01    0.19       1.0  T
   6   -106.0185298 -0.194825E-03  0.114E-01    0.17       1.0  T
   7   -106.0194493 -0.919485E-03  0.910E-02    0.15       1.0  T
   8   -106.0199819 -0.532570E-03  0.712E-02    0.13       1.0  T
   9   -106.0206606 -0.678740E-03  0.321E-02    0.11       1.0  T
  10   -106.0208043 -0.143719E-03  0.159E-02    0.10       1.0  T
  11   -106.0208449 -0.406325E-04  0.336E-03    0.09       3.2  T
  12   -106.0208462 -0.125713E-05  0.199E-03    0.09       5.5  T
  13   -106.0208467 -0.544306E-06  0.627E-04    0.09      17.4  T
  14   -106.0208467  0.807050E-07  0.898E-04    0.09      12.2  T
     SCC iter.                  ...        0 min,  0.245 sec
     gradient                   ...        0 min,  0.014 sec
 * total energy  :  -104.4762219 Eh     change       -0.3900049E-03 Eh
   gradient norm :     0.0072742 Eh/α   predicted    -0.3424612E-03 ( -12.19%)
   displ. norm   :     0.6424417 α      lambda       -0.5125125E-03
   maximum displ.:     0.3360431 α      in ANC's #7, #5, #6, ...

........................................................................
.............................. CYCLE   41 ..............................
........................................................................

 iter      E             dE          RMSdq      gap      omega  full diag
   1   -106.0207520 -0.106021E+03  0.157E-01    0.08       0.0  T
   2   -106.0195490  0.120299E-02  0.125E-01    0.14       1.0  T
   3   -105.9600954  0.594536E-01  0.578E-01    0.07       1.0  T
   4   -106.0182809 -0.581855E-01  0.115E-01    0.15       1.0  T
   5   -106.0200052 -0.172433E-02  0.720E-02    0.13       1.0  T
   6   -106.0200852 -0.799540E-04  0.639E-02    0.13       1.0  T
   7   -106.0204830 -0.397807E-03  0.456E-02    0.12       1.0  T
   8   -106.0206243 -0.141243E-03  0.348E-02    0.11       1.0  T
   9   -106.0207567 -0.132463E-03  0.206E-02    0.10       1.0  T
  10   -106.0208147 -0.580363E-04  0.897E-03    0.10       1.2  T
  11   -106.0208267 -0.119200E-04  0.257E-03    0.09       4.2  T
  12   -106.0208277 -0.102396E-05  0.947E-04    0.09      11.5  T
  13   -106.0208278 -0.104867E-06  0.307E-04    0.09      35.6  T
  14   -106.0208278  0.203582E-07  0.474E-04    0.09      23.0  T
     SCC iter.                  ...        0 min,  0.146 sec
     gradient                   ...        0 min,  0.013 sec
 * total energy  :  -104.4766321 Eh     change       -0.4102743E-03 Eh
   gradient norm :     0.0088186 Eh/α   predicted    -0.3620227E-03 ( -11.76%)
   displ. norm   :     0.7049911 α      lambda       -0.5790125E-03
   maximum displ.:     0.3567413 α      in ANC's #7, #6, #5, ...

........................................................................
.............................. CYCLE   42 ..............................
........................................................................

 iter      E             dE          RMSdq      gap      omega  full diag
   1   -106.0204553 -0.106020E+03  0.194E-01    0.08       0.0  T
   2   -106.0189736  0.148173E-02  0.150E-01    0.15       1.0  T
   3   -105.9363601  0.826135E-01  0.677E-01    0.11       1.0  T
   4   -106.0179567 -0.815966E-01  0.121E-01    0.15       1.0  T
   5   -106.0195519 -0.159524E-02  0.788E-02    0.14       1.0  T
   6   -106.0197065 -0.154564E-03  0.681E-02    0.13       1.0  T
   7   -106.0201723 -0.465863E-03  0.485E-02    0.12       1.0  T
   8   -106.0203263 -0.153999E-03  0.369E-02    0.11       1.0  T
   9   -106.0204932 -0.166835E-03  0.194E-02    0.10       1.0  T
  10   -106.0205437 -0.505533E-04  0.841E-03    0.09       1.3  T
  11   -106.0205540 -0.103367E-04  0.262E-03    0.09       4.2  T
  12   -106.0205551 -0.103867E-05  0.903E-04    0.09      12.1  T
  13   -106.0205552 -0.731275E-07  0.485E-04    0.09      22.5  T
  14   -106.0205552 -0.171530E-07  0.364E-04    0.09      30.0  T
     SCC iter.                  ...        0 min,  0.146 sec
     gradient                   ...        0 min,  0.038 sec
 * total energy  :  -104.4771694 Eh     change       -0.5372492E-03 Eh
   gradient norm :     0.0084651 Eh/α   predicted    -0.4334020E-03 ( -19.33%)
   displ. norm   :     0.7108677 α      lambda       -0.8031484E-03
   maximum displ.:     0.3162365 α      in ANC's #7, #6, #5, ...
 * RMSD in coord.:     1.2678044 α      energy gain  -0.7008454E-02 Eh

generating ANC from exact Hessian ...
Using Lindh-Hessian (1995)
 Shifting diagonal of input Hessian by   1.026693411266334E-002
 Lowest  eigenvalues of input Hessian
    0.010000    0.010061    0.010125    0.010172    0.000000    0.000000
    0.000000    0.000000    0.000000    0.000000    0.010333    0.010365
    0.010403    0.010543    0.010674    0.010760    0.010819    0.011058
 Highest eigenvalues
    1.927218    1.982588    2.029395    2.112617    2.131047    2.157356
 

........................................................................
.............................. CYCLE   43 ..............................
........................................................................

 iter      E             dE          RMSdq      gap      omega  full diag
   1   -106.0228972 -0.106023E+03  0.239E-01    0.09       0.0  T
   2   -106.0228263  0.708997E-04  0.151E-01    0.09       1.0  T
   3   -106.0172229  0.560344E-02  0.176E-01    0.06       1.0  T
   4   -106.0208884 -0.366549E-02  0.102E-01    0.16       1.0  T
   5   -106.0228788 -0.199043E-02  0.172E-02    0.09       1.0  T
   6   -106.0228990 -0.202287E-04  0.131E-02    0.10       1.0  T
   7   -106.0229297 -0.306643E-04  0.543E-03    0.09       2.0  T
   8   -106.0229336 -0.394067E-05  0.273E-03    0.09       4.0  T
   9   -106.0229341 -0.425194E-06  0.237E-03    0.09       4.6  T
  10   -106.0229348 -0.744670E-06  0.112E-03    0.09       9.7  T
  11   -106.0229350 -0.229219E-06  0.493E-04    0.09      22.1  T
  12   -106.0229351 -0.246733E-07  0.326E-04    0.09      33.5  T
     SCC iter.                  ...        0 min,  0.112 sec
     gradient                   ...        0 min,  0.013 sec
 * total energy  :  -104.4778610 Eh     change       -0.6916062E-03 Eh
   gradient norm :     0.0073779 Eh/α   predicted     0.0000000E+00 (-100.00%)
   displ. norm   :     0.1330322 α      lambda       -0.2952420E-03
   maximum displ.:     0.0948291 α      in ANC's #5, #9, #13, ...

........................................................................
.............................. CYCLE   44 ..............................
........................................................................

 iter      E             dE          RMSdq      gap      omega  full diag
   1   -106.0235788 -0.106024E+03  0.617E-02    0.09       0.0  T
   2   -106.0227907  0.788066E-03  0.775E-02    0.13       1.0  T
   3   -106.0220079  0.782815E-03  0.939E-02    0.06       1.0  T
   4   -106.0232120 -0.120407E-02  0.478E-02    0.11       1.0  T
   5   -106.0234899 -0.277981E-03  0.253E-02    0.10       1.0  T
   6   -106.0235782 -0.882502E-04  0.147E-02    0.10       1.0  T
   7   -106.0236026 -0.244090E-04  0.841E-03    0.10       1.3  T
   8   -106.0236145 -0.118510E-04  0.302E-03    0.09       3.6  T
   9   -106.0236157 -0.125262E-05  0.121E-03    0.09       9.0  T
  10   -106.0236159 -0.199363E-06  0.531E-04    0.09      20.6  T
  11   -106.0236160 -0.459784E-07  0.255E-04    0.09      42.9  T
     SCC iter.                  ...        0 min,  0.107 sec
     gradient                   ...        0 min,  0.015 sec
 * total energy  :  -104.4781059 Eh     change       -0.2448905E-03 Eh
   gradient norm :     0.0038988 Eh/α   predicted    -0.1502340E-03 ( -38.65%)
   displ. norm   :     0.3880134 α      lambda       -0.6744120E-03
   maximum displ.:     0.2502303 α      in ANC's #5, #9, #13, ...

........................................................................
.............................. CYCLE   45 ..............................
........................................................................

 iter      E             dE          RMSdq      gap      omega  full diag
   1   -106.0243950 -0.106024E+03  0.179E-01    0.07       0.0  T
   2   -106.0208977  0.349723E-02  0.181E-01    0.21       1.0  T
   3   -105.9974826  0.234151E-01  0.378E-01    0.01       1.0  T
   4   -106.0212373 -0.237547E-01  0.148E-01    0.21       1.0  T
   5   -106.0219937 -0.756372E-03  0.126E-01    0.19       1.0  T
   6   -106.0226609 -0.667146E-03  0.110E-01    0.17       1.0  T
   7   -106.0231989 -0.538006E-03  0.947E-02    0.15       1.0  T
   8   -106.0238322 -0.633296E-03  0.729E-02    0.13       1.0  T
   9   -106.0245808 -0.748609E-03  0.318E-02    0.10       1.0  T
  10   -106.0247336 -0.152836E-03  0.127E-02    0.10       1.0  T
  11   -106.0247575 -0.238388E-04  0.504E-03    0.09       2.2  T
  12   -106.0247612 -0.377319E-05  0.141E-03    0.09       7.7  T
  13   -106.0247584  0.284984E-05  0.451E-03    0.09       2.4  T
  14   -106.0247614 -0.305826E-05  0.110E-03    0.09       9.9  T
  15   -106.0247616 -0.166628E-06  0.198E-04    0.09      55.0  T
  16   -106.0247616  0.272160E-07  0.459E-04    0.09      23.7  T
     SCC iter.                  ...        0 min,  0.156 sec
     gradient                   ...        0 min,  0.014 sec
 * total energy  :  -104.4785122 Eh     change       -0.4063641E-03 Eh
   gradient norm :     0.0084218 Eh/α   predicted    -0.3879759E-03 (  -4.53%)
   displ. norm   :     0.4144779 α      lambda       -0.6325779E-03
   maximum displ.:     0.2622896 α      in ANC's #5, #9, #13, ...

........................................................................
.............................. CYCLE   46 ..............................
........................................................................

 iter      E             dE          RMSdq      gap      omega  full diag
   1   -106.0247500 -0.106025E+03  0.186E-01    0.07       0.0  T
   2   -106.0217431  0.300697E-02  0.175E-01    0.18       1.0  T
   3   -105.9748334  0.469096E-01  0.514E-01    0.05       1.0  T
   4   -106.0210775 -0.462441E-01  0.166E-01    0.18       1.0  T
   5   -106.0224082 -0.133068E-02  0.121E-01    0.18       1.0  T
   6   -106.0232149 -0.806701E-03  0.104E-01    0.16       1.0  T
   7   -106.0237057 -0.490773E-03  0.874E-02    0.14       1.0  T
   8   -106.0241110 -0.405333E-03  0.724E-02    0.13       1.0  T
   9   -106.0246522 -0.541191E-03  0.445E-02    0.11       1.0  T
  10   -106.0249231 -0.270892E-03  0.189E-02    0.10       1.0  T
  11   -106.0249679 -0.447804E-04  0.103E-02    0.09       1.1  T
  12   -106.0249832 -0.153285E-04  0.317E-03    0.09       3.4  T
  13   -106.0249814  0.183260E-05  0.473E-03    0.09       2.3  T
  14   -106.0249849 -0.352508E-05  0.670E-04    0.09      16.3  T
  15   -106.0249849 -0.711862E-07  0.217E-04    0.09      50.3  T
  16   -106.0249849  0.232722E-07  0.437E-04    0.09      24.9  T
     SCC iter.                  ...        0 min,  0.185 sec
     gradient                   ...        0 min,  0.015 sec
 * total energy  :  -104.4789826 Eh     change       -0.4703931E-03 Eh
   gradient norm :     0.0113757 Eh/α   predicted    -0.3706276E-03 ( -21.21%)
   displ. norm   :     0.4853547 α      lambda       -0.6482009E-03
   maximum displ.:     0.2985419 α      in ANC's #5, #9, #13, ...

........................................................................
.............................. CYCLE   47 ..............................
........................................................................

 iter      E             dE          RMSdq      gap      omega  full diag
   1   -106.0244356 -0.106024E+03  0.208E-01    0.07       0.0  T
   2   -106.0217855  0.265007E-02  0.179E-01    0.17       1.0  T
   3   -105.9454705  0.763150E-01  0.649E-01    0.10       1.0  T
   4   -106.0213827 -0.759122E-01  0.150E-01    0.17       1.0  T
   5   -106.0222947 -0.911971E-03  0.113E-01    0.16       1.0  T
   6   -106.0231650 -0.870303E-03  0.941E-02    0.14       1.0  T
   7   -106.0236886 -0.523673E-03  0.751E-02    0.13       1.0  T
   8   -106.0239645 -0.275861E-03  0.628E-02    0.12       1.0  T
   9   -106.0243896 -0.425062E-03  0.375E-02    0.11       1.0  T
  10   -106.0245809 -0.191326E-03  0.159E-02    0.09       1.0  T
  11   -106.0246095 -0.286203E-04  0.939E-03    0.09       1.2  T
  12   -106.0246212 -0.116840E-04  0.380E-03    0.09       2.9  T
  13   -106.0246211  0.893840E-07  0.402E-03    0.09       2.7  T
  14   -106.0246237 -0.256021E-05  0.500E-04    0.09      21.8  T
  15   -106.0246237 -0.418768E-07  0.184E-04    0.09      59.2  T
  16   -106.0246237  0.210502E-07  0.418E-04    0.09      26.1  T
     SCC iter.                  ...        0 min,  0.158 sec
     gradient                   ...        0 min,  0.014 sec
 * total energy  :  -104.4795477 Eh     change       -0.5650469E-03 Eh
   gradient norm :     0.0100005 Eh/α   predicted    -0.4004528E-03 ( -29.13%)
   displ. norm   :     0.6439589 α      lambda       -0.9178037E-03
   maximum displ.:     0.3889740 α      in ANC's #5, #9, #13, ...

........................................................................
.............................. CYCLE   48 ..............................
........................................................................

 iter      E             dE          RMSdq      gap      omega  full diag
   1   -106.0240835 -0.106024E+03  0.260E-01    0.07       0.0  T
   2   -106.0212153  0.286815E-02  0.205E-01    0.17       1.0  T
   3   -105.9166903  0.104525E+00  0.753E-01    0.18       1.0  T
   4   -106.0210186 -0.104328E+00  0.146E-01    0.16       1.0  T
   5   -106.0223800 -0.136133E-02  0.103E-01    0.15       1.0  T
   6   -106.0231484 -0.768428E-03  0.818E-02    0.13       1.0  T
   7   -106.0236651 -0.516734E-03  0.600E-02    0.12       1.0  T
   8   -106.0239544 -0.289266E-03  0.446E-02    0.11       1.0  T
   9   -106.0242031 -0.248691E-03  0.223E-02    0.10       1.0  T
  10   -106.0242718 -0.687284E-04  0.110E-02    0.09       1.0  T
  11   -106.0242864 -0.145560E-04  0.540E-03    0.09       2.0  T
  12   -106.0242902 -0.381547E-05  0.233E-03    0.09       4.7  T
  13   -106.0242903 -0.141333E-06  0.236E-03    0.09       4.6  T
  14   -106.0242912 -0.836040E-06  0.436E-04    0.09      25.0  T
  15   -106.0242912 -0.302404E-07  0.156E-04    0.09      69.9  T
     SCC iter.                  ...        0 min,  0.144 sec
     gradient                   ...        0 min,  0.014 sec
 * total energy  :  -104.4803172 Eh     change       -0.7695628E-03 Eh
   gradient norm :     0.0070474 Eh/α   predicted    -0.6492047E-03 ( -15.64%)
   displ. norm   :     0.7043642 α      lambda       -0.8751088E-03
   maximum displ.:     0.4222476 α      in ANC's #5, #9, #13, ...

........................................................................
.............................. CYCLE   49 ..............................
........................................................................

 iter      E             dE          RMSdq      gap      omega  full diag
   1   -106.0238622 -0.106024E+03  0.258E-01    0.07       0.0  T
   2   -106.0206542  0.320799E-02  0.210E-01    0.18       1.0  T
   3   -105.9211753  0.994788E-01  0.739E-01    0.16       1.0  T
   4   -106.0206514 -0.994761E-01  0.150E-01    0.18       1.0  T
   5   -106.0218079 -0.115649E-02  0.114E-01    0.16       1.0  T
   6   -106.0225674 -0.759467E-03  0.944E-02    0.14       1.0  T
   7   -106.0231956 -0.628186E-03  0.728E-02    0.12       1.0  T
   8   -106.0235465 -0.350925E-03  0.571E-02    0.11       1.0  T
   9   -106.0239615 -0.414948E-03  0.283E-02    0.10       1.0  T
  10   -106.0240731 -0.111640E-03  0.144E-02    0.09       1.0  T
  11   -106.0241009 -0.277838E-04  0.509E-03    0.09       2.1  T
  12   -106.0241010 -0.131741E-06  0.543E-03    0.09       2.0  T
  13   -106.0241041 -0.309078E-05  0.291E-03    0.09       3.7  T
  14   -106.0241055 -0.136518E-05  0.562E-04    0.09      19.4  T
  15   -106.0241055 -0.490981E-07  0.266E-04    0.09      41.0  T
  16   -106.0241055  0.124267E-07  0.405E-04    0.09      26.9  T
     SCC iter.                  ...        0 min,  0.159 sec
     gradient                   ...        0 min,  0.016 sec
 * total energy  :  -104.4810561 Eh     change       -0.7388680E-03 Eh
   gradient norm :     0.0090828 Eh/α   predicted    -0.6546391E-03 ( -11.40%)
   displ. norm   :     0.7290513 α      lambda       -0.8492544E-03
   maximum displ.:     0.4320201 α      in ANC's #5, #9, #10, ...

........................................................................
.............................. CYCLE   50 ..............................
........................................................................

 iter      E             dE          RMSdq      gap      omega  full diag
   1   -106.0239998 -0.106024E+03  0.250E-01    0.07       0.0  T
   2   -106.0202321  0.376772E-02  0.213E-01    0.19       1.0  T
   3   -105.9319320  0.883001E-01  0.702E-01    0.13       1.0  T
   4   -106.0202866 -0.883546E-01  0.163E-01    0.19       1.0  T
   5   -106.0215125 -0.122592E-02  0.130E-01    0.18       1.0  T
   6   -106.0220444 -0.531860E-03  0.114E-01    0.16       1.0  T
   7   -106.0229912 -0.946823E-03  0.897E-02    0.14       1.0  T
   8   -106.0232925 -0.301333E-03  0.777E-02    0.13       1.0  T
   9   -106.0240082 -0.715669E-03  0.428E-02    0.11       1.0  T
  10   -106.0242580 -0.249791E-03  0.181E-02    0.09       1.0  T
  11   -106.0243014 -0.434101E-04  0.759E-03    0.09       1.4  T
  12   -106.0242950  0.638694E-05  0.102E-02    0.09       1.1  T
  13   -106.0243083 -0.132641E-04  0.401E-03    0.09       2.7  T
  14   -106.0243111 -0.277685E-05  0.908E-04    0.09      12.0  T
  15   -106.0243112 -0.136968E-06  0.266E-04    0.09      41.0  T
  16   -106.0243111  0.650700E-07  0.703E-04    0.09      15.5  T
     SCC iter.                  ...        0 min,  0.167 sec
     gradient                   ...        0 min,  0.014 sec
 * total energy  :  -104.4818164 Eh     change       -0.7602965E-03 Eh
   gradient norm :     0.0104119 Eh/α   predicted    -0.6503283E-03 ( -14.46%)
   displ. norm   :     0.7557627 α      lambda       -0.9876889E-03
   maximum displ.:     0.4382874 α      in ANC's #5, #10, #9, ...

........................................................................
.............................. CYCLE   51 ..............................
........................................................................

 iter      E             dE          RMSdq      gap      omega  full diag
   1   -106.0266091 -0.106027E+03  0.219E-01    0.07       0.0  T
   2   -106.0221530  0.445612E-02  0.209E-01    0.22       1.0  T
   3   -105.9706252  0.515277E-01  0.550E-01    0.06       1.0  T
   4   -106.0219877 -0.513625E-01  0.180E-01    0.22       1.0  T
   5   -106.0236501 -0.166239E-02  0.147E-01    0.20       1.0  T
   6   -106.0237805 -0.130425E-03  0.137E-01    0.18       1.0  T
   7   -106.0250176 -0.123703E-02  0.113E-01    0.16       1.0  T
   8   -106.0253869 -0.369292E-03  0.101E-01    0.14       1.0  T
   9   -106.0263053 -0.918458E-03  0.670E-02    0.12       1.0  T
  10   -106.0269099 -0.604614E-03  0.285E-02    0.10       1.0  T
  11   -106.0270236 -0.113670E-03  0.109E-02    0.09       1.0  T
  12   -106.0270272 -0.356139E-05  0.101E-02    0.09       1.1  T
  13   -106.0270391 -0.119309E-04  0.511E-03    0.09       2.1  T
  14   -106.0270428 -0.372658E-05  0.211E-03    0.09       5.2  T
  15   -106.0270434 -0.593135E-06  0.906E-04    0.08      12.0  T
  16   -106.0270435 -0.103650E-06  0.419E-04    0.08      26.1  T
     SCC iter.                  ...        0 min,  0.153 sec
     gradient                   ...        0 min,  0.015 sec
 * total energy  :  -104.4826985 Eh     change       -0.8820762E-03 Eh
   gradient norm :     0.0092516 Eh/α   predicted    -0.7759217E-03 ( -12.03%)
   displ. norm   :     0.8056763 α      lambda       -0.1047281E-02
   maximum displ.:     0.4528252 α      in ANC's #5, #10, #9, ...

........................................................................
.............................. CYCLE   52 ..............................
........................................................................

 iter      E             dE          RMSdq      gap      omega  full diag
   1   -106.0276219 -0.106028E+03  0.256E-01    0.06       0.0  T
   2   -106.0215110  0.611087E-02  0.247E-01    0.27       1.0  T
   3   -105.9749958  0.465152E-01  0.529E-01    0.05       1.0  T
   4   -106.0208282 -0.458324E-01  0.212E-01    0.28       1.0  T
   5   -106.0238856 -0.305746E-02  0.175E-01    0.25       1.0  T
   6   -106.0237481  0.137497E-03  0.165E-01    0.23       1.0  T
   7   -106.0251652 -0.141705E-02  0.144E-01    0.19       1.0  T
   8   -106.0259702 -0.805043E-03  0.124E-01    0.16       1.0  T
   9   -106.0273104 -0.134019E-02  0.830E-02    0.12       1.0  T
  10   -106.0283931 -0.108273E-02  0.264E-02    0.09       1.0  T
  11   -106.0284790 -0.858341E-04  0.138E-02    0.09       1.0  T
  12   -106.0284931 -0.141332E-04  0.102E-02    0.09       1.1  T
  13   -106.0285017 -0.863285E-05  0.708E-03    0.09       1.5  T
  14   -106.0285099 -0.813210E-05  0.176E-03    0.08       6.2  T
  15   -106.0285103 -0.471491E-06  0.565E-04    0.08      19.3  T
  16   -106.0285104 -0.203975E-07  0.424E-04    0.08      25.7  T
     SCC iter.                  ...        0 min,  0.185 sec
     gradient                   ...        0 min,  0.015 sec
 * total energy  :  -104.4836285 Eh     change       -0.9300458E-03 Eh
   gradient norm :     0.0077700 Eh/α   predicted    -0.8635433E-03 (  -7.15%)
   displ. norm   :     0.7919853 α      lambda       -0.1099901E-02
   maximum displ.:     0.4203924 α      in ANC's #5, #10, #6, ...

........................................................................
.............................. CYCLE   53 ..............................
........................................................................

 iter      E             dE          RMSdq      gap      omega  full diag
   1   -106.0317374 -0.106032E+03  0.200E-01    0.05       0.0  T
   2   -106.0244610  0.727640E-02  0.242E-01    0.30       1.0  T
   3   -106.0252876 -0.826594E-03  0.200E-01    0.03       1.0  T
   4   -106.0211243  0.416331E-02  0.219E-01    0.18       1.0  T
   5   -106.0303424 -0.921808E-02  0.121E-01    0.13       1.0  T
   6   -106.0325179 -0.217547E-02  0.481E-02    0.10       1.0  T
   7   -106.0329067 -0.388788E-03  0.182E-02    0.08       1.0  T
   8   -106.0328801  0.265552E-04  0.235E-02    0.09       1.0  T
   9   -106.0329490 -0.689425E-04  0.117E-02    0.08       1.0  T
  10   -106.0329702 -0.211276E-04  0.332E-03    0.08       3.3  T
  11   -106.0329718 -0.163061E-05  0.196E-03    0.08       5.6  T
  12   -106.0329722 -0.438876E-06  0.991E-04    0.08      11.0  T
  13   -106.0329724 -0.125753E-06  0.404E-04    0.08      27.0  T
     SCC iter.                  ...        0 min,  0.124 sec
     gradient                   ...        0 min,  0.013 sec
 * total energy  :  -104.4844359 Eh     change       -0.8073343E-03 Eh
   gradient norm :     0.0122526 Eh/α   predicted    -0.8949021E-03 (  10.85%)
   displ. norm   :     0.7728942 α      lambda       -0.1042644E-02
   maximum displ.:     0.4182359 α      in ANC's #5, #10, #9, ...

........................................................................
.............................. CYCLE   54 ..............................
........................................................................

 iter      E             dE          RMSdq      gap      omega  full diag
   1   -106.0298941 -0.106030E+03  0.262E-01    0.05       0.0  T
   2   -106.0231058  0.678825E-02  0.257E-01    0.27       1.0  T
   3   -105.9769876  0.461182E-01  0.532E-01    0.06       1.0  T
   4   -106.0215706 -0.445830E-01  0.227E-01    0.28       1.0  T
   5   -106.0256430 -0.407239E-02  0.185E-01    0.25       1.0  T
   6   -106.0256388  0.414206E-05  0.173E-01    0.22       1.0  T
   7   -106.0270621 -0.142325E-02  0.151E-01    0.18       1.0  T
   8   -106.0282373 -0.117522E-02  0.125E-01    0.15       1.0  T
   9   -106.0300880 -0.185064E-02  0.645E-02    0.11       1.0  T
  10   -106.0307197 -0.631736E-03  0.279E-02    0.09       1.0  T
  11   -106.0308252 -0.105514E-03  0.110E-02    0.08       1.0  T
  12   -106.0308206  0.458536E-05  0.123E-02    0.08       1.0  T
  13   -106.0308418 -0.211535E-04  0.446E-03    0.08       2.4  T
  14   -106.0308425 -0.768764E-06  0.420E-03    0.08       2.6  T
  15   -106.0308443 -0.171687E-05  0.260E-03    0.08       4.2  T
  16   -106.0308452 -0.942887E-06  0.811E-04    0.08      13.4  T
  17   -106.0308452  0.383662E-07  0.941E-04    0.08      11.6  T
     SCC iter.                  ...        0 min,  0.265 sec
     gradient                   ...        0 min,  0.016 sec
 * total energy  :  -104.4852601 Eh     change       -0.8241969E-03 Eh
   gradient norm :     0.0096588 Eh/α   predicted    -0.8327445E-03 (   1.04%)
   displ. norm   :     0.7317964 α      lambda       -0.8423330E-03
   maximum displ.:     0.3776658 α      in ANC's #5, #6, #7, ...

........................................................................
.............................. CYCLE   55 ..............................
........................................................................

 iter      E             dE          RMSdq      gap      omega  full diag
   1   -106.0303622 -0.106030E+03  0.200E-01    0.05       0.0  T
   2   -106.0240323  0.632993E-02  0.228E-01    0.24       1.0  T
   3   -106.0065835  0.174488E-01  0.362E-01    0.02       1.0  T
   4   -106.0218441 -0.152607E-01  0.215E-01    0.22       1.0  T
   5   -106.0266890 -0.484490E-02  0.165E-01    0.19       1.0  T
   6   -106.0272739 -0.584842E-03  0.147E-01    0.17       1.0  T
   7   -106.0285887 -0.131485E-02  0.119E-01    0.14       1.0  T
   8   -106.0300541 -0.146536E-02  0.767E-02    0.11       1.0  T
   9   -106.0309710 -0.916945E-03  0.219E-02    0.08       1.0  T
  10   -106.0310182 -0.472241E-04  0.166E-02    0.08       1.0  T
  11   -106.0310583 -0.400616E-04  0.539E-03    0.08       2.0  T
  12   -106.0310613 -0.297158E-05  0.349E-03    0.08       3.1  T
  13   -106.0310627 -0.138738E-05  0.181E-03    0.08       6.0  T
  14   -106.0310632 -0.521766E-06  0.540E-04    0.08      20.2  T
  15   -106.0310632 -0.447153E-07  0.181E-04    0.08      60.4  T
     SCC iter.                  ...        0 min,  0.199 sec
     gradient                   ...        0 min,  0.017 sec
 * total energy  :  -104.4859812 Eh     change       -0.7211657E-03 Eh
   gradient norm :     0.0082924 Eh/α   predicted    -0.6467147E-03 ( -10.32%)
   displ. norm   :     0.6940527 α      lambda       -0.9673429E-03
   maximum displ.:     0.2997518 α      in ANC's #5, #6, #7, ...

........................................................................
.............................. CYCLE   56 ..............................
........................................................................

 iter      E             dE          RMSdq      gap      omega  full diag
   1   -106.0329350 -0.106033E+03  0.179E-01    0.06       0.0  T
   2   -106.0267675  0.616749E-02  0.217E-01    0.22       1.0  T
   3   -106.0147107  0.120568E-01  0.320E-01    0.01       1.0  T
   4   -106.0248816 -0.101709E-01  0.208E-01    0.20       1.0  T
   5   -106.0296468 -0.476519E-02  0.153E-01    0.17       1.0  T
   6   -106.0304083 -0.761479E-03  0.132E-01    0.15       1.0  T
   7   -106.0317381 -0.132982E-02  0.100E-01    0.12       1.0  T
   8   -106.0329105 -0.117238E-02  0.590E-02    0.10       1.0  T
   9   -106.0334422 -0.531683E-03  0.195E-02    0.08       1.0  T
  10   -106.0334927 -0.505178E-04  0.106E-02    0.08       1.0  T
  11   -106.0335099 -0.172362E-04  0.284E-03    0.08       3.8  T
  12   -106.0335105 -0.555287E-06  0.234E-03    0.08       4.7  T
  13   -106.0335112 -0.721859E-06  0.864E-04    0.07      12.6  T
  14   -106.0335110  0.183769E-06  0.138E-03    0.08       7.9  T
  15   -106.0335112 -0.188200E-06  0.796E-04    0.07      13.7  T
     SCC iter.                  ...        0 min,  0.219 sec
     gradient                   ...        0 min,  0.015 sec
 * total energy  :  -104.4867345 Eh     change       -0.7533063E-03 Eh
   gradient norm :     0.0070464 Eh/α   predicted    -0.7166602E-03 (  -4.86%)
   displ. norm   :     0.7213104 α      lambda       -0.8254130E-03
   maximum displ.:     0.3421274 α      in ANC's #5, #6, #7, ...

........................................................................
.............................. CYCLE   57 ..............................
........................................................................

 iter      E             dE          RMSdq      gap      omega  full diag
   1   -106.0317699 -0.106032E+03  0.178E-01    0.06       0.0  T
   2   -106.0282132  0.355676E-02  0.181E-01    0.16       1.0  T
   3   -105.9879219  0.402913E-01  0.498E-01    0.06       1.0  T
   4   -106.0260284 -0.381066E-01  0.177E-01    0.16       1.0  T
   5   -106.0296349 -0.360643E-02  0.123E-01    0.14       1.0  T
   6   -106.0300263 -0.391396E-03  0.107E-01    0.13       1.0  T
   7   -106.0309177 -0.891441E-03  0.800E-02    0.11       1.0  T
   8   -106.0313780 -0.460298E-03  0.603E-02    0.10       1.0  T
   9   -106.0318416 -0.463572E-03  0.287E-02    0.09       1.0  T
  10   -106.0319543 -0.112714E-03  0.138E-02    0.08       1.0  T
  11   -106.0319810 -0.267126E-04  0.423E-03    0.08       2.6  T
  12   -106.0319837 -0.270593E-05  0.153E-03    0.07       7.1  T
  13   -106.0319839 -0.188094E-06  0.104E-03    0.07      10.5  T
  14   -106.0319840 -0.152482E-06  0.305E-04    0.07      35.7  T
  15   -106.0319841 -0.110459E-07  0.191E-04    0.07      57.2  T
     SCC iter.                  ...        0 min,  0.203 sec
     gradient                   ...        0 min,  0.020 sec
 * total energy  :  -104.4873761 Eh     change       -0.6416078E-03 Eh
   gradient norm :     0.0095958 Eh/α   predicted    -0.6274368E-03 (  -2.21%)
   displ. norm   :     0.7125165 α      lambda       -0.7492303E-03
   maximum displ.:     0.3372496 α      in ANC's #5, #6, #7, ...

........................................................................
.............................. CYCLE   58 ..............................
........................................................................

 iter      E             dE          RMSdq      gap      omega  full diag
   1   -106.0290762 -0.106029E+03  0.184E-01    0.06       0.0  T
   2   -106.0257018  0.337438E-02  0.179E-01    0.15       1.0  T
   3   -105.9766771  0.490247E-01  0.543E-01    0.07       1.0  T
   4   -106.0245846 -0.479075E-01  0.160E-01    0.15       1.0  T
   5   -106.0271410 -0.255638E-02  0.115E-01    0.13       1.0  T
   6   -106.0276006 -0.459600E-03  0.976E-02    0.12       1.0  T
   7   -106.0284265 -0.825870E-03  0.710E-02    0.10       1.0  T
   8   -106.0287597 -0.333282E-03  0.548E-02    0.10       1.0  T
   9   -106.0291406 -0.380809E-03  0.271E-02    0.08       1.0  T
  10   -106.0292397 -0.991702E-04  0.128E-02    0.08       1.0  T
  11   -106.0292642 -0.244443E-04  0.336E-03    0.08       3.2  T
  12   -106.0292656 -0.142489E-05  0.170E-03    0.07       6.4  T
  13   -106.0292659 -0.350605E-06  0.729E-04    0.07      15.0  T
  14   -106.0292660 -0.723168E-07  0.314E-04    0.07      34.8  T
     SCC iter.                  ...        0 min,  0.163 sec
     gradient                   ...        0 min,  0.014 sec
 * total energy  :  -104.4880240 Eh     change       -0.6479023E-03 Eh
   gradient norm :     0.0093927 Eh/α   predicted    -0.5648021E-03 ( -12.83%)
   displ. norm   :     0.7272679 α      lambda       -0.9501318E-03
   maximum displ.:     0.3218457 α      in ANC's #6, #7, #4, ...

........................................................................
.............................. CYCLE   59 ..............................
........................................................................

 iter      E             dE          RMSdq      gap      omega  full diag
   1   -106.0322551 -0.106032E+03  0.199E-01    0.07       0.0  T
   2   -106.0295571  0.269794E-02  0.171E-01    0.14       1.0  T
   3   -105.9585862  0.709709E-01  0.640E-01    0.12       1.0  T
   4   -106.0283746 -0.697884E-01  0.145E-01    0.13       1.0  T
   5   -106.0309619 -0.258725E-02  0.907E-02    0.11       1.0  T
   6   -106.0314999 -0.537977E-03  0.716E-02    0.11       1.0  T
   7   -106.0319962 -0.496322E-03  0.491E-02    0.09       1.0  T
   8   -106.0322223 -0.226161E-03  0.323E-02    0.09       1.0  T
   9   -106.0323588 -0.136456E-03  0.168E-02    0.08       1.0  T
  10   -106.0323912 -0.324387E-04  0.808E-03    0.08       1.4  T
  11   -106.0324019 -0.106415E-04  0.206E-03    0.08       5.3  T
  12   -106.0324024 -0.508978E-06  0.825E-04    0.08      13.2  T
  13   -106.0324025 -0.663933E-07  0.427E-04    0.08      25.6  T
     SCC iter.                  ...        0 min,  0.127 sec
     gradient                   ...        0 min,  0.013 sec
 * total energy  :  -104.4887521 Eh     change       -0.7280751E-03 Eh
   gradient norm :     0.0080311 Eh/α   predicted    -0.7263439E-03 (  -0.24%)
   displ. norm   :     0.7288054 α      lambda       -0.9482572E-03
   maximum displ.:     0.3586710 α      in ANC's #5, #6, #7, ...

........................................................................
.............................. CYCLE   60 ..............................
........................................................................

 iter      E             dE          RMSdq      gap      omega  full diag
   1   -106.0307693 -0.106031E+03  0.193E-01    0.07       0.0  T
   2   -106.0295268  0.124251E-02  0.145E-01    0.11       1.0  T
   3   -105.9529720  0.765548E-01  0.652E-01    0.13       1.0  T
   4   -106.0255053 -0.725333E-01  0.170E-01    0.12       1.0  T
   5   -106.0302010 -0.469569E-02  0.598E-02    0.10       1.0  T
   6   -106.0305853 -0.384284E-03  0.405E-02    0.09       1.0  T
   7   -106.0307372 -0.151882E-03  0.264E-02    0.09       1.0  T
   8   -106.0308322 -0.950548E-04  0.136E-02    0.08       1.0  T
   9   -106.0308515 -0.192631E-04  0.727E-03    0.08       1.5  T
  10   -106.0308604 -0.893046E-05  0.268E-03    0.08       4.1  T
  11   -106.0308612 -0.830546E-06  0.122E-03    0.08       8.9  T
  12   -106.0308615 -0.242630E-06  0.534E-04    0.08      20.4  T
  13   -106.0308615 -0.367607E-07  0.279E-04    0.08      39.1  T
     SCC iter.                  ...        0 min,  0.122 sec
     gradient                   ...        0 min,  0.015 sec
 * total energy  :  -104.4894727 Eh     change       -0.7206139E-03 Eh
   gradient norm :     0.0088387 Eh/α   predicted    -0.7259663E-03 (   0.74%)
   displ. norm   :     0.7389992 α      lambda       -0.7686146E-03
   maximum displ.:     0.3369543 α      in ANC's #6, #5, #7, ...

........................................................................
.............................. CYCLE   61 ..............................
........................................................................

 iter      E             dE          RMSdq      gap      omega  full diag
   1   -106.0292241 -0.106029E+03  0.182E-01    0.06       0.0  T
   2   -106.0242125  0.501168E-02  0.199E-01    0.18       1.0  T
   3   -105.9927265  0.314860E-01  0.451E-01    0.05       1.0  T
   4   -106.0237661 -0.310396E-01  0.180E-01    0.17       1.0  T
   5   -106.0260349 -0.226885E-02  0.144E-01    0.16       1.0  T
   6   -106.0269793 -0.944357E-03  0.122E-01    0.14       1.0  T
   7   -106.0279109 -0.931654E-03  0.982E-02    0.12       1.0  T
   8   -106.0286289 -0.717992E-03  0.735E-02    0.11       1.0  T
   9   -106.0293562 -0.727257E-03  0.345E-02    0.09       1.0  T
  10   -106.0295099 -0.153726E-03  0.169E-02    0.08       1.0  T
  11   -106.0295521 -0.421615E-04  0.760E-03    0.08       1.4  T
  12   -106.0295605 -0.846551E-05  0.172E-03    0.08       6.3  T
  13   -106.0295596  0.962783E-06  0.315E-03    0.08       3.5  T
  14   -106.0295610 -0.141840E-05  0.966E-04    0.08      11.3  T
  15   -106.0295611 -0.102873E-06  0.421E-04    0.08      25.9  T
  16   -106.0295611  0.123187E-07  0.494E-04    0.08      22.1  T
     SCC iter.                  ...        0 min,  0.161 sec
     gradient                   ...        0 min,  0.013 sec
 * total energy  :  -104.4901714 Eh     change       -0.6986781E-03 Eh
   gradient norm :     0.0089062 Eh/α   predicted    -0.5941876E-03 ( -14.96%)
   displ. norm   :     0.7188075 α      lambda       -0.9544060E-03
   maximum displ.:     0.3639376 α      in ANC's #6, #5, #7, ...

........................................................................
.............................. CYCLE   62 ..............................
........................................................................

 iter      E             dE          RMSdq      gap      omega  full diag
   1   -106.0341760 -0.106034E+03  0.163E-01    0.06       0.0  T
   2   -106.0276396  0.653638E-02  0.211E-01    0.20       1.0  T
   3   -106.0189863  0.865328E-02  0.292E-01    0.02       1.0  T
   4   -106.0289504 -0.996410E-02  0.178E-01    0.17       1.0  T
   5   -106.0310629 -0.211250E-02  0.142E-01    0.15       1.0  T
   6   -106.0323003 -0.123736E-02  0.114E-01    0.13       1.0  T
   7   -106.0334548 -0.115451E-02  0.813E-02    0.11       1.0  T
   8   -106.0342856 -0.830819E-03  0.445E-02    0.09       1.0  T
   9   -106.0345956 -0.310009E-03  0.170E-02    0.08       1.0  T
  10   -106.0346299 -0.342524E-04  0.852E-03    0.08       1.3  T
  11   -106.0346425 -0.126075E-04  0.228E-03    0.08       4.8  T
  12   -106.0346430 -0.575626E-06  0.109E-03    0.08      10.0  T
  13   -106.0346431 -0.940218E-07  0.781E-04    0.08      14.0  T
  14   -106.0346432 -0.531042E-07  0.503E-04    0.08      21.7  T
     SCC iter.                  ...        0 min,  0.133 sec
     gradient                   ...        0 min,  0.014 sec
 * total energy  :  -104.4909487 Eh     change       -0.7772551E-03 Eh
   gradient norm :     0.0083957 Eh/α   predicted    -0.7237732E-03 (  -6.88%)
   displ. norm   :     0.8046698 α      lambda       -0.8638708E-03
   maximum displ.:     0.3907691 α      in ANC's #6, #5, #4, ...

........................................................................
.............................. CYCLE   63 ..............................
........................................................................

 iter      E             dE          RMSdq      gap      omega  full diag
   1   -106.0324001 -0.106032E+03  0.199E-01    0.05       0.0  T
   2   -106.0246067  0.779340E-02  0.239E-01    0.24       1.0  T
   3   -106.0067626  0.178441E-01  0.379E-01    0.03       1.0  T
   4   -106.0239470 -0.171844E-01  0.216E-01    0.21       1.0  T
   5   -106.0278795 -0.393251E-02  0.176E-01    0.19       1.0  T
   6   -106.0290754 -0.119591E-02  0.150E-01    0.16       1.0  T
   7   -106.0304884 -0.141300E-02  0.122E-01    0.13       1.0  T
   8   -106.0321063 -0.161789E-02  0.751E-02    0.10       1.0  T
   9   -106.0330378 -0.931431E-03  0.223E-02    0.08       1.0  T
  10   -106.0330964 -0.586157E-04  0.127E-02    0.08       1.0  T
  11   -106.0331199 -0.235387E-04  0.566E-03    0.08       1.9  T
  12   -106.0331244 -0.447007E-05  0.197E-03    0.08       5.5  T
  13   -106.0331233  0.104713E-05  0.336E-03    0.08       3.2  T
  14   -106.0331244 -0.103887E-05  0.225E-03    0.07       4.9  T
  15   -106.0331250 -0.659651E-06  0.728E-04    0.08      15.0  T
  16   -106.0331251 -0.216543E-07  0.608E-04    0.07      17.9  T
     SCC iter.                  ...        0 min,  0.154 sec
     gradient                   ...        0 min,  0.014 sec
 * total energy  :  -104.4917042 Eh     change       -0.7555611E-03 Eh
   gradient norm :     0.0092466 Eh/α   predicted    -0.7116167E-03 (  -5.82%)
   displ. norm   :     0.7686951 α      lambda       -0.8717036E-03
   maximum displ.:     0.4032130 α      in ANC's #6, #5, #4, ...

........................................................................
.............................. CYCLE   64 ..............................
........................................................................

 iter      E             dE          RMSdq      gap      omega  full diag
   1   -106.0336025 -0.106034E+03  0.171E-01    0.05       0.0  T
   2   -106.0250120  0.859055E-02  0.240E-01    0.24       1.0  T
   3   -106.0231332  0.187875E-02  0.247E-01    0.02       1.0  T
   4   -106.0259971 -0.286392E-02  0.198E-01    0.18       1.0  T
   5   -106.0304168 -0.441963E-02  0.149E-01    0.14       1.0  T
   6   -106.0323784 -0.196160E-02  0.102E-01    0.12       1.0  T
   7   -106.0338199 -0.144148E-02  0.515E-02    0.09       1.0  T
   8   -106.0342003 -0.380451E-03  0.295E-02    0.08       1.0  T
   9   -106.0343149 -0.114646E-03  0.141E-02    0.08       1.0  T
  10   -106.0343427 -0.277742E-04  0.463E-03    0.07       2.4  T
  11   -106.0343463 -0.361349E-05  0.223E-03    0.07       4.9  T
  12   -106.0343469 -0.553742E-06  0.117E-03    0.07       9.3  T
  13   -106.0343471 -0.185264E-06  0.487E-04    0.07      22.4  T
  14   -106.0343471 -0.134860E-07  0.365E-04    0.07      29.9  T
     SCC iter.                  ...        0 min,  0.167 sec
     gradient                   ...        0 min,  0.016 sec
 * total energy  :  -104.4924987 Eh     change       -0.7944447E-03 Eh
   gradient norm :     0.0085955 Eh/α   predicted    -0.6934003E-03 ( -12.72%)
   displ. norm   :     0.7529740 α      lambda       -0.9231957E-03
   maximum displ.:     0.4153717 α      in ANC's #6, #5, #4, ...

........................................................................
.............................. CYCLE   65 ..............................
........................................................................

 iter      E             dE          RMSdq      gap      omega  full diag
   1   -106.0373618 -0.106037E+03  0.169E-01    0.05       0.0  T
   2   -106.0272414  0.101204E-01  0.256E-01    0.26       1.0  T
   3   -106.0307657 -0.352432E-02  0.204E-01    0.03       1.0  T
   4   -106.0293550  0.141065E-02  0.196E-01    0.16       1.0  T
   5   -106.0356121 -0.625708E-02  0.124E-01    0.11       1.0  T
   6   -106.0377125 -0.210037E-02  0.565E-02    0.09       1.0  T
   7   -106.0383038 -0.591364E-03  0.133E-02    0.07       1.0  T
   8   -106.0382894  0.144888E-04  0.188E-02    0.08       1.0  T
   9   -106.0383296 -0.402466E-04  0.890E-03    0.07       1.2  T
  10   -106.0383404 -0.107534E-04  0.333E-03    0.07       3.3  T
  11   -106.0383419 -0.155583E-05  0.159E-03    0.07       6.8  T
  12   -106.0383421 -0.207990E-06  0.115E-03    0.07       9.5  T
  13   -106.0383423 -0.190738E-06  0.406E-04    0.07      26.9  T
  14   -106.0383423 -0.159600E-07  0.241E-04    0.07      45.3  T
     SCC iter.                  ...        0 min,  0.139 sec
     gradient                   ...        0 min,  0.014 sec
 * total energy  :  -104.4933155 Eh     change       -0.8168051E-03 Eh
   gradient norm :     0.0069265 Eh/α   predicted    -0.7233130E-03 ( -11.45%)
   displ. norm   :     0.8144363 α      lambda       -0.8680986E-03
   maximum displ.:     0.4515772 α      in ANC's #6, #5, #4, ...

........................................................................
.............................. CYCLE   66 ..............................
........................................................................

 iter      E             dE          RMSdq      gap      omega  full diag
   1   -106.0352961 -0.106035E+03  0.185E-01    0.05       0.0  T
   2   -106.0243129  0.109831E-01  0.269E-01    0.27       1.0  T
   3   -106.0261474 -0.183443E-02  0.236E-01    0.02       1.0  T
   4   -106.0258012  0.346150E-03  0.213E-01    0.17       1.0  T
   5   -106.0328244 -0.702320E-02  0.144E-01    0.12       1.0  T
   6   -106.0354684 -0.264400E-02  0.702E-02    0.09       1.0  T
   7   -106.0363528 -0.884341E-03  0.176E-02    0.07       1.0  T
   8   -106.0362751  0.777004E-04  0.305E-02    0.08       1.0  T
   9   -106.0363927 -0.117652E-03  0.126E-02    0.07       1.0  T
  10   -106.0364127 -0.200308E-04  0.568E-03    0.07       1.9  T
  11   -106.0364175 -0.476058E-05  0.210E-03    0.07       5.2  T
  12   -106.0364178 -0.272980E-06  0.173E-03    0.07       6.3  T
  13   -106.0364182 -0.417015E-06  0.515E-04    0.07      21.2  T
  14   -106.0364182 -0.249859E-07  0.313E-04    0.07      34.9  T
     SCC iter.                  ...        0 min,  0.134 sec
     gradient                   ...        0 min,  0.015 sec
 * total energy  :  -104.4940864 Eh     change       -0.7708879E-03 Eh
   gradient norm :     0.0068400 Eh/α   predicted    -0.7219607E-03 (  -6.35%)
   displ. norm   :     0.7633278 α      lambda       -0.8065628E-03
   maximum displ.:     0.4535350 α      in ANC's #6, #5, #4, ...
 * RMSD in coord.:     1.5472083 α      energy gain  -0.1691698E-01 Eh

generating ANC from exact Hessian ...
Using Lindh-Hessian (1995)
 Shifting diagonal of input Hessian by   1.026338332331100E-002
 Lowest  eigenvalues of input Hessian
    0.010000    0.010072    0.000000    0.010121    0.010158    0.000000
    0.000000    0.000000    0.000000    0.000000    0.010332    0.010426
    0.010489    0.010603    0.010775    0.010886    0.011123    0.011152
 Highest eigenvalues
    1.921411    1.974613    2.022922    2.104908    2.123269    2.154374
 

........................................................................
.............................. CYCLE   67 ..............................
........................................................................

 iter      E             dE          RMSdq      gap      omega  full diag
   1   -106.0386801 -0.106039E+03  0.185E-01    0.04       0.0  T
   2   -106.0260283  0.126517E-01  0.283E-01    0.29       1.0  T
   3   -106.0317405 -0.571222E-02  0.213E-01    0.03       1.0  T
   4   -106.0303500  0.139053E-02  0.201E-01    0.15       1.0  T
   5   -106.0379443 -0.759428E-02  0.112E-01    0.09       1.0  T
   6   -106.0397294 -0.178514E-02  0.393E-02    0.08       1.0  T
   7   -106.0400117 -0.282283E-03  0.147E-02    0.06       1.0  T
   8   -106.0400055  0.618537E-05  0.175E-02    0.07       1.0  T
   9   -106.0400448 -0.393171E-04  0.675E-03    0.07       1.6  T
  10   -106.0400504 -0.554043E-05  0.301E-03    0.07       3.6  T
  11   -106.0400514 -0.980019E-06  0.193E-03    0.07       5.6  T
  12   -106.0400518 -0.471348E-06  0.124E-03    0.07       8.8  T
  13   -106.0400521 -0.223553E-06  0.410E-04    0.07      26.6  T
  14   -106.0400521 -0.937280E-08  0.285E-04    0.07      38.3  T
     SCC iter.                  ...        0 min,  0.141 sec
     gradient                   ...        0 min,  0.014 sec
 * total energy  :  -104.4947593 Eh     change       -0.6729746E-03 Eh
   gradient norm :     0.0064823 Eh/α   predicted     0.0000000E+00 (-100.00%)
   displ. norm   :     0.1161235 α      lambda       -0.2376913E-03
   maximum displ.:     0.0532989 α      in ANC's #10, #5, #8, ...

........................................................................
.............................. CYCLE   68 ..............................
........................................................................

 iter      E             dE          RMSdq      gap      omega  full diag
   1   -106.0399361 -0.106040E+03  0.681E-02    0.06       0.0  T
   2   -106.0393641  0.571969E-03  0.702E-02    0.09       1.0  T
   3   -106.0315704  0.779372E-02  0.220E-01    0.02       1.0  T
   4   -106.0393719 -0.780148E-02  0.550E-02    0.08       1.0  T
   5   -106.0398366 -0.464674E-03  0.262E-02    0.07       1.0  T
   6   -106.0398912 -0.546336E-04  0.184E-02    0.07       1.0  T
   7   -106.0399364 -0.452152E-04  0.978E-03    0.07       1.1  T
   8   -106.0399478 -0.113968E-04  0.493E-03    0.07       2.2  T
   9   -106.0399516 -0.383457E-05  0.145E-03    0.07       7.5  T
  10   -106.0399518 -0.203807E-06  0.643E-04    0.07      17.0  T
  11   -106.0399519 -0.427589E-07  0.386E-04    0.07      28.3  T
     SCC iter.                  ...        0 min,  0.105 sec
     gradient                   ...        0 min,  0.014 sec
 * total energy  :  -104.4949075 Eh     change       -0.1481517E-03 Eh
   gradient norm :     0.0043005 Eh/α   predicted    -0.1205354E-03 ( -18.64%)
   displ. norm   :     0.3211496 α      lambda       -0.5185347E-03
   maximum displ.:     0.1444994 α      in ANC's #10, #8, #11, ...

........................................................................
.............................. CYCLE   69 ..............................
........................................................................

 iter      E             dE          RMSdq      gap      omega  full diag
   1   -106.0393692 -0.106039E+03  0.114E-01    0.06       0.0  T
   2   -106.0359044  0.346473E-02  0.151E-01    0.12       1.0  T
   3   -106.0242472  0.116573E-01  0.298E-01    0.02       1.0  T
   4   -106.0375965 -0.133493E-01  0.107E-01    0.10       1.0  T
   5   -106.0382105 -0.614041E-03  0.834E-02    0.10       1.0  T
   6   -106.0389490 -0.738457E-03  0.563E-02    0.08       1.0  T
   7   -106.0392711 -0.322154E-03  0.354E-02    0.08       1.0  T
   8   -106.0394177 -0.146531E-03  0.199E-02    0.07       1.0  T
   9   -106.0394652 -0.475676E-04  0.970E-03    0.07       1.1  T
  10   -106.0394789 -0.136246E-04  0.431E-03    0.07       2.5  T
  11   -106.0394815 -0.261882E-05  0.141E-03    0.07       7.7  T
  12   -106.0394818 -0.279667E-06  0.588E-04    0.07      18.6  T
  13   -106.0394818 -0.446526E-07  0.284E-04    0.06      38.4  T
     SCC iter.                  ...        0 min,  0.130 sec
     gradient                   ...        0 min,  0.013 sec
 * total energy  :  -104.4952224 Eh     change       -0.3149033E-03 Eh
   gradient norm :     0.0062237 Eh/α   predicted    -0.2860125E-03 (  -9.17%)
   displ. norm   :     0.3204518 α      lambda       -0.3384255E-03
   maximum displ.:     0.1472695 α      in ANC's #10, #8, #5, ...

........................................................................
.............................. CYCLE   70 ..............................
........................................................................

 iter      E             dE          RMSdq      gap      omega  full diag
   1   -106.0388083 -0.106039E+03  0.895E-02    0.06       0.0  T
   2   -106.0341840  0.462430E-02  0.165E-01    0.14       1.0  T
   3   -106.0346074 -0.423420E-03  0.162E-01    0.03       1.0  T
   4   -106.0377233 -0.311590E-02  0.857E-02    0.09       1.0  T
   5   -106.0382176 -0.494257E-03  0.642E-02    0.09       1.0  T
   6   -106.0386924 -0.474821E-03  0.390E-02    0.08       1.0  T
   7   -106.0389030 -0.210633E-03  0.187E-02    0.07       1.0  T
   8   -106.0389521 -0.490800E-04  0.786E-03    0.07       1.4  T
   9   -106.0389606 -0.847087E-05  0.398E-03    0.07       2.7  T
  10   -106.0389623 -0.176113E-05  0.207E-03    0.06       5.3  T
  11   -106.0389630 -0.673643E-06  0.672E-04    0.06      16.2  T
  12   -106.0389631 -0.472621E-07  0.463E-04    0.06      23.5  T
     SCC iter.                  ...        0 min,  0.118 sec
     gradient                   ...        0 min,  0.015 sec
 * total energy  :  -104.4954977 Eh     change       -0.2752641E-03 Eh
   gradient norm :     0.0077873 Eh/α   predicted    -0.1865967E-03 ( -32.21%)
   displ. norm   :     0.4944348 α      lambda       -0.5142255E-03
   maximum displ.:     0.2239102 α      in ANC's #10, #8, #5, ...

........................................................................
.............................. CYCLE   71 ..............................
........................................................................

 iter      E             dE          RMSdq      gap      omega  full diag
   1   -106.0378979 -0.106038E+03  0.121E-01    0.05       0.0  T
   2   -106.0300601  0.783777E-02  0.215E-01    0.18       1.0  T
   3   -106.0316123 -0.155220E-02  0.199E-01    0.02       1.0  T
   4   -106.0351378 -0.352556E-02  0.133E-01    0.12       1.0  T
   5   -106.0364693 -0.133148E-02  0.100E-01    0.10       1.0  T
   6   -106.0375758 -0.110649E-02  0.619E-02    0.08       1.0  T
   7   -106.0381611 -0.585246E-03  0.258E-02    0.07       1.0  T
   8   -106.0382418 -0.807720E-04  0.148E-02    0.07       1.0  T
   9   -106.0382714 -0.295723E-04  0.732E-03    0.07       1.5  T
  10   -106.0382785 -0.707027E-05  0.317E-03    0.06       3.4  T
  11   -106.0382799 -0.147128E-05  0.138E-03    0.06       7.9  T
  12   -106.0382802 -0.277889E-06  0.622E-04    0.06      17.6  T
  13   -106.0382803 -0.483253E-07  0.263E-04    0.06      41.6  T
     SCC iter.                  ...        0 min,  0.140 sec
     gradient                   ...        0 min,  0.017 sec
 * total energy  :  -104.4959226 Eh     change       -0.4249336E-03 Eh
   gradient norm :     0.0078297 Eh/α   predicted    -0.3199684E-03 ( -24.70%)
   displ. norm   :     0.5745328 α      lambda       -0.5240338E-03
   maximum displ.:     0.2637644 α      in ANC's #8, #5, #10, ...

........................................................................
.............................. CYCLE   72 ..............................
........................................................................

 iter      E             dE          RMSdq      gap      omega  full diag
   1   -106.0376787 -0.106038E+03  0.130E-01    0.05       0.0  T
   2   -106.0278848  0.979387E-02  0.240E-01    0.21       1.0  T
   3   -106.0332312 -0.534635E-02  0.172E-01    0.02       1.0  T
   4   -106.0340872 -0.855996E-03  0.144E-01    0.12       1.0  T
   5   -106.0369643 -0.287708E-02  0.856E-02    0.09       1.0  T
   6   -106.0379800 -0.101571E-02  0.376E-02    0.07       1.0  T
   7   -106.0382563 -0.276362E-03  0.948E-03    0.06       1.2  T
   8   -106.0382419  0.144015E-04  0.126E-02    0.07       1.0  T
   9   -106.0382643 -0.224013E-04  0.562E-03    0.06       1.9  T
  10   -106.0382683 -0.395064E-05  0.225E-03    0.06       4.9  T
  11   -106.0382691 -0.843738E-06  0.886E-04    0.06      12.3  T
  12   -106.0382692 -0.711609E-07  0.583E-04    0.06      18.7  T
     SCC iter.                  ...        0 min,  0.137 sec
     gradient                   ...        0 min,  0.016 sec
 * total energy  :  -104.4963481 Eh     change       -0.4254848E-03 Eh
   gradient norm :     0.0073400 Eh/α   predicted    -0.3485064E-03 ( -18.09%)
   displ. norm   :     0.5705832 α      lambda       -0.4590258E-03
   maximum displ.:     0.2749728 α      in ANC's #8, #5, #10, ...

........................................................................
.............................. CYCLE   73 ..............................
........................................................................

 iter      E             dE          RMSdq      gap      omega  full diag
   1   -106.0381868 -0.106038E+03  0.126E-01    0.04       0.0  T
   2   -106.0278636  0.103231E-01  0.247E-01    0.22       1.0  T
   3   -106.0354129 -0.754928E-02  0.143E-01    0.03       1.0  T
   4   -106.0348457  0.567244E-03  0.134E-01    0.10       1.0  T
   5   -106.0382882 -0.344249E-02  0.574E-02    0.08       1.0  T
   6   -106.0387593 -0.471161E-03  0.199E-02    0.07       1.0  T
   7   -106.0388316 -0.722704E-04  0.746E-03    0.06       1.5  T
   8   -106.0388306  0.102172E-05  0.804E-03    0.06       1.4  T
   9   -106.0388384 -0.784965E-05  0.459E-03    0.06       2.4  T
  10   -106.0388412 -0.273748E-05  0.164E-03    0.06       6.7  T
  11   -106.0388414 -0.276975E-06  0.111E-03    0.06       9.8  T
  12   -106.0388416 -0.176820E-06  0.484E-04    0.06      22.5  T
  13   -106.0388416 -0.227629E-07  0.224E-04    0.06      48.7  T
     SCC iter.                  ...        0 min,  0.131 sec
     gradient                   ...        0 min,  0.014 sec
 * total energy  :  -104.4967179 Eh     change       -0.3698096E-03 Eh
   gradient norm :     0.0064718 Eh/α   predicted    -0.3042349E-03 ( -17.73%)
   displ. norm   :     0.5334422 α      lambda       -0.4159691E-03
   maximum displ.:     0.2689493 α      in ANC's #8, #5, #10, ...

........................................................................
.............................. CYCLE   74 ..............................
........................................................................

 iter      E             dE          RMSdq      gap      omega  full diag
   1   -106.0394798 -0.106039E+03  0.128E-01    0.04       0.0  T
   2   -106.0301608  0.931902E-02  0.239E-01    0.19       1.0  T
   3   -106.0350619 -0.490107E-02  0.172E-01    0.02       1.0  T
   4   -106.0357413 -0.679477E-03  0.146E-01    0.11       1.0  T
   5   -106.0386815 -0.294015E-02  0.873E-02    0.09       1.0  T
   6   -106.0395909 -0.909421E-03  0.456E-02    0.07       1.0  T
   7   -106.0399705 -0.379630E-03  0.107E-02    0.06       1.0  T
   8   -106.0399747 -0.413024E-05  0.951E-03    0.06       1.1  T
   9   -106.0399803 -0.567645E-05  0.771E-03    0.06       1.4  T
  10   -106.0399896 -0.924598E-05  0.166E-03    0.06       6.6  T
  11   -106.0399901 -0.464208E-06  0.833E-04    0.06      13.1  T
  12   -106.0399900  0.229121E-07  0.843E-04    0.06      12.9  T
     SCC iter.                  ...        0 min,  0.126 sec
     gradient                   ...        0 min,  0.015 sec
 * total energy  :  -104.4970162 Eh     change       -0.2983508E-03 Eh
   gradient norm :     0.0057644 Eh/α   predicted    -0.2671717E-03 ( -10.45%)
   displ. norm   :     0.4723282 α      lambda       -0.3570571E-03
   maximum displ.:     0.2582188 α      in ANC's #8, #5, #10, ...

........................................................................
.............................. CYCLE   75 ..............................
........................................................................

 iter      E             dE          RMSdq      gap      omega  full diag
   1   -106.0406809 -0.106041E+03  0.127E-01    0.04       0.0  T
   2   -106.0325656  0.811530E-02  0.227E-01    0.18       1.0  T
   3   -106.0353937 -0.282809E-02  0.186E-01    0.02       1.0  T
   4   -106.0369588 -0.156513E-02  0.145E-01    0.11       1.0  T
   5   -106.0396891 -0.273022E-02  0.896E-02    0.09       1.0  T
   6   -106.0406564 -0.967334E-03  0.478E-02    0.07       1.0  T
   7   -106.0410166 -0.360246E-03  0.162E-02    0.06       1.0  T
   8   -106.0410467 -0.300752E-04  0.114E-02    0.06       1.0  T
   9   -106.0410562 -0.952543E-05  0.730E-03    0.06       1.5  T
  10   -106.0410649 -0.864244E-05  0.191E-03    0.06       5.7  T
  11   -106.0410653 -0.403010E-06  0.104E-03    0.06      10.5  T
  12   -106.0410652  0.348634E-07  0.104E-03    0.06      10.5  T
  13   -106.0410654 -0.173125E-06  0.300E-04    0.06      36.4  T
  14   -106.0410654 -0.161464E-07  0.125E-04    0.06      87.6  T
     SCC iter.                  ...        0 min,  0.161 sec
     gradient                   ...        0 min,  0.014 sec
 * total energy  :  -104.4972451 Eh     change       -0.2288382E-03 Eh
   gradient norm :     0.0055397 Eh/α   predicted    -0.2183582E-03 (  -4.58%)
   displ. norm   :     0.3286174 α      lambda       -0.2137979E-03
   maximum displ.:     0.1885823 α      in ANC's #8, #5, #6, ...

........................................................................
.............................. CYCLE   76 ..............................
........................................................................

 iter      E             dE          RMSdq      gap      omega  full diag
   1   -106.0411925 -0.106041E+03  0.786E-02    0.05       0.0  T
   2   -106.0378757  0.331673E-02  0.147E-01    0.11       1.0  T
   3   -106.0383439 -0.468114E-03  0.135E-01    0.03       1.0  T
   4   -106.0401403 -0.179647E-02  0.794E-02    0.08       1.0  T
   5   -106.0410405 -0.900219E-03  0.389E-02    0.07       1.0  T
   6   -106.0411868 -0.146205E-03  0.242E-02    0.07       1.0  T
   7   -106.0412643 -0.775158E-04  0.120E-02    0.06       1.0  T
   8   -106.0412855 -0.212760E-04  0.379E-03    0.06       2.9  T
   9   -106.0412878 -0.227680E-05  0.147E-03    0.06       7.4  T
  10   -106.0412881 -0.248524E-06  0.710E-04    0.06      15.4  T
  11   -106.0412881 -0.389295E-07  0.459E-04    0.06      23.8  T
     SCC iter.                  ...        0 min,  0.112 sec
     gradient                   ...        0 min,  0.014 sec
 * total energy  :  -104.4974128 Eh     change       -0.1677102E-03 Eh
   gradient norm :     0.0048405 Eh/α   predicted    -0.1184453E-03 ( -29.38%)
   displ. norm   :     0.3879933 α      lambda       -0.2841493E-03
   maximum displ.:     0.2307099 α      in ANC's #8, #5, #6, ...

........................................................................
.............................. CYCLE   77 ..............................
........................................................................

 iter      E             dE          RMSdq      gap      omega  full diag
   1   -106.0420010 -0.106042E+03  0.110E-01    0.05       0.0  T
   2   -106.0400028  0.199812E-02  0.129E-01    0.10       1.0  T
   3   -106.0269089  0.130939E-01  0.302E-01    0.03       1.0  T
   4   -106.0398906 -0.129817E-01  0.112E-01    0.09       1.0  T
   5   -106.0416386 -0.174801E-02  0.519E-02    0.07       1.0  T
   6   -106.0418417 -0.203128E-03  0.361E-02    0.07       1.0  T
   7   -106.0419929 -0.151140E-03  0.215E-02    0.06       1.0  T
   8   -106.0420397 -0.468169E-04  0.125E-02    0.06       1.0  T
   9   -106.0420633 -0.236105E-04  0.422E-03    0.06       2.6  T
  10   -106.0420655 -0.222759E-05  0.117E-03    0.06       9.3  T
  11   -106.0420657 -0.147648E-06  0.512E-04    0.06      21.3  T
  12   -106.0420657 -0.249304E-07  0.323E-04    0.06      33.8  T
     SCC iter.                  ...        0 min,  0.112 sec
     gradient                   ...        0 min,  0.015 sec
 * total energy  :  -104.4976303 Eh     change       -0.2174978E-03 Eh
   gradient norm :     0.0050029 Eh/α   predicted    -0.1634662E-03 ( -24.84%)
   displ. norm   :     0.4486165 α      lambda       -0.2956570E-03
   maximum displ.:     0.2673864 α      in ANC's #8, #5, #6, ...

........................................................................
.............................. CYCLE   78 ..............................
........................................................................

 iter      E             dE          RMSdq      gap      omega  full diag
   1   -106.0413662 -0.106041E+03  0.111E-01    0.06       0.0  T
   2   -106.0397882  0.157795E-02  0.119E-01    0.09       1.0  T
   3   -106.0234639  0.163244E-01  0.328E-01    0.03       1.0  T
   4   -106.0396017 -0.161379E-01  0.106E-01    0.08       1.0  T
   5   -106.0411671 -0.156539E-02  0.410E-02    0.07       1.0  T
   6   -106.0412666 -0.995373E-04  0.301E-02    0.07       1.0  T
   7   -106.0413739 -0.107257E-03  0.177E-02    0.06       1.0  T
   8   -106.0414083 -0.344131E-04  0.932E-03    0.06       1.2  T
   9   -106.0414220 -0.136597E-04  0.277E-03    0.06       3.9  T
  10   -106.0414228 -0.849383E-06  0.930E-04    0.06      11.7  T
  11   -106.0414229 -0.582784E-07  0.644E-04    0.06      16.9  T
     SCC iter.                  ...        0 min,  0.110 sec
     gradient                   ...        0 min,  0.015 sec
 * total energy  :  -104.4978613 Eh     change       -0.2309812E-03 Eh
   gradient norm :     0.0064323 Eh/α   predicted    -0.1775857E-03 ( -23.12%)
   displ. norm   :     0.4636254 α      lambda       -0.2822796E-03
   maximum displ.:     0.2760546 α      in ANC's #8, #5, #6, ...

........................................................................
.............................. CYCLE   79 ..............................
........................................................................

 iter      E             dE          RMSdq      gap      omega  full diag
   1   -106.0407523 -0.106041E+03  0.105E-01    0.06       0.0  T
   2   -106.0384735  0.227886E-02  0.133E-01    0.10       1.0  T
   3   -106.0297154  0.875808E-02  0.260E-01    0.02       1.0  T
   4   -106.0391954 -0.947996E-02  0.101E-01    0.08       1.0  T
   5   -106.0405019 -0.130658E-02  0.456E-02    0.07       1.0  T
   6   -106.0406212 -0.119297E-03  0.340E-02    0.07       1.0  T
   7   -106.0407609 -0.139683E-03  0.197E-02    0.07       1.0  T
   8   -106.0408036 -0.426861E-04  0.103E-02    0.06       1.1  T
   9   -106.0408203 -0.167149E-04  0.288E-03    0.06       3.8  T
  10   -106.0408213 -0.958495E-06  0.855E-04    0.06      12.8  T
  11   -106.0408213 -0.582915E-07  0.547E-04    0.06      20.0  T
     SCC iter.                  ...        0 min,  0.126 sec
     gradient                   ...        0 min,  0.014 sec
 * total energy  :  -104.4980929 Eh     change       -0.2316131E-03 Eh
   gradient norm :     0.0066844 Eh/α   predicted    -0.1714795E-03 ( -25.96%)
   displ. norm   :     0.5054478 α      lambda       -0.3135811E-03
   maximum displ.:     0.3002667 α      in ANC's #8, #5, #6, ...

........................................................................
.............................. CYCLE   80 ..............................
........................................................................

 iter      E             dE          RMSdq      gap      omega  full diag
   1   -106.0402274 -0.106040E+03  0.119E-01    0.06       0.0  T
   2   -106.0372529  0.297450E-02  0.151E-01    0.11       1.0  T
   3   -106.0263059  0.109470E-01  0.293E-01    0.03       1.0  T
   4   -106.0386476 -0.123417E-01  0.104E-01    0.09       1.0  T
   5   -106.0398225 -0.117487E-02  0.561E-02    0.08       1.0  T
   6   -106.0400309 -0.208447E-03  0.413E-02    0.07       1.0  T
   7   -106.0402181 -0.187141E-03  0.253E-02    0.07       1.0  T
   8   -106.0402797 -0.615934E-04  0.150E-02    0.07       1.0  T
   9   -106.0403132 -0.334913E-04  0.544E-03    0.06       2.0  T
  10   -106.0403168 -0.365572E-05  0.153E-03    0.06       7.1  T
  11   -106.0403170 -0.221717E-06  0.601E-04    0.06      18.2  T
  12   -106.0403171 -0.410659E-07  0.322E-04    0.06      33.9  T
     SCC iter.                  ...        0 min,  0.132 sec
     gradient                   ...        0 min,  0.014 sec
 * total energy  :  -104.4983492 Eh     change       -0.2563653E-03 Eh
   gradient norm :     0.0057149 Eh/α   predicted    -0.1968526E-03 ( -23.21%)
   displ. norm   :     0.5403289 α      lambda       -0.3383893E-03
   maximum displ.:     0.3233045 α      in ANC's #8, #5, #6, ...

........................................................................
.............................. CYCLE   81 ..............................
........................................................................

 iter      E             dE          RMSdq      gap      omega  full diag
   1   -106.0406864 -0.106041E+03  0.113E-01    0.05       0.0  T
   2   -106.0358576  0.482882E-02  0.180E-01    0.13       1.0  T
   3   -106.0345680  0.128961E-02  0.199E-01    0.03       1.0  T
   4   -106.0393853 -0.481728E-02  0.980E-02    0.09       1.0  T
   5   -106.0401578 -0.772494E-03  0.647E-02    0.08       1.0  T
   6   -106.0405594 -0.401571E-03  0.417E-02    0.08       1.0  T
   7   -106.0407511 -0.191786E-03  0.246E-02    0.07       1.0  T
   8   -106.0408287 -0.775990E-04  0.999E-03    0.07       1.1  T
   9   -106.0408439 -0.152111E-04  0.411E-03    0.06       2.7  T
  10   -106.0408459 -0.197951E-05  0.152E-03    0.06       7.2  T
  11   -106.0408462 -0.223028E-06  0.705E-04    0.06      15.5  T
  12   -106.0408462 -0.385213E-07  0.460E-04    0.06      23.7  T
     SCC iter.                  ...        0 min,  0.117 sec
     gradient                   ...        0 min,  0.013 sec
 * total energy  :  -104.4986180 Eh     change       -0.2687143E-03 Eh
   gradient norm :     0.0053748 Eh/α   predicted    -0.2185946E-03 ( -18.65%)
   displ. norm   :     0.5614262 α      lambda       -0.3300458E-03
   maximum displ.:     0.3397520 α      in ANC's #8, #5, #6, ...

........................................................................
.............................. CYCLE   82 ..............................
........................................................................

 iter      E             dE          RMSdq      gap      omega  full diag
   1   -106.0407117 -0.106041E+03  0.129E-01    0.05       0.0  T
   2   -106.0344506  0.626118E-02  0.205E-01    0.15       1.0  T
   3   -106.0333883  0.106226E-02  0.219E-01    0.03       1.0  T
   4   -106.0389217 -0.553343E-02  0.116E-01    0.10       1.0  T
   5   -106.0396632 -0.741442E-03  0.874E-02    0.09       1.0  T
   6   -106.0405258 -0.862676E-03  0.521E-02    0.08       1.0  T
   7   -106.0407788 -0.252982E-03  0.326E-02    0.07       1.0  T
   8   -106.0409245 -0.145701E-03  0.129E-02    0.07       1.0  T
   9   -106.0409361 -0.115252E-04  0.922E-03    0.07       1.2  T
  10   -106.0409477 -0.116729E-04  0.322E-03    0.06       3.4  T
  11   -106.0409490 -0.131734E-05  0.756E-04    0.06      14.4  T
  12   -106.0409491 -0.372408E-07  0.472E-04    0.06      23.1  T
  13   -106.0409491 -0.128179E-07  0.433E-04    0.06      25.2  T
     SCC iter.                  ...        0 min,  0.131 sec
     gradient                   ...        0 min,  0.015 sec
 * total energy  :  -104.4988836 Eh     change       -0.2656066E-03 Eh
   gradient norm :     0.0061790 Eh/α   predicted    -0.2170416E-03 ( -18.28%)
   displ. norm   :     0.5622821 α      lambda       -0.3267722E-03
   maximum displ.:     0.3424996 α      in ANC's #8, #5, #12, ...

........................................................................
.............................. CYCLE   83 ..............................
........................................................................

 iter      E             dE          RMSdq      gap      omega  full diag
   1   -106.0419757 -0.106042E+03  0.121E-01    0.05       0.0  T
   2   -106.0348266  0.714909E-02  0.216E-01    0.16       1.0  T
   3   -106.0379353 -0.310871E-02  0.168E-01    0.03       1.0  T
   4   -106.0401825 -0.224725E-02  0.114E-01    0.10       1.0  T
   5   -106.0412148 -0.103228E-02  0.773E-02    0.09       1.0  T
   6   -106.0420392 -0.824341E-03  0.395E-02    0.08       1.0  T
   7   -106.0422154 -0.176190E-03  0.198E-02    0.07       1.0  T
   8   -106.0422773 -0.619790E-04  0.567E-03    0.06       1.9  T
   9   -106.0422727  0.462050E-05  0.806E-03    0.07       1.4  T
  10   -106.0422810 -0.824915E-05  0.272E-03    0.07       4.0  T
  11   -106.0422819 -0.938997E-06  0.885E-04    0.06      12.3  T
  12   -106.0422820 -0.591006E-07  0.517E-04    0.06      21.1  T
     SCC iter.                  ...        0 min,  0.125 sec
     gradient                   ...        0 min,  0.015 sec
 * total energy  :  -104.4991453 Eh     change       -0.2617190E-03 Eh
   gradient norm :     0.0068659 Eh/α   predicted    -0.2150444E-03 ( -17.83%)
   displ. norm   :     0.5728471 α      lambda       -0.3035406E-03
   maximum displ.:     0.3532128 α      in ANC's #8, #5, #12, ...

........................................................................
.............................. CYCLE   84 ..............................
........................................................................

 iter      E             dE          RMSdq      gap      omega  full diag
   1   -106.0416462 -0.106042E+03  0.124E-01    0.05       0.0  T
   2   -106.0342416  0.740462E-02  0.221E-01    0.16       1.0  T
   3   -106.0374080 -0.316636E-02  0.172E-01    0.03       1.0  T
   4   -106.0394079 -0.199995E-02  0.124E-01    0.10       1.0  T
   5   -106.0407882 -0.138027E-02  0.808E-02    0.09       1.0  T
   6   -106.0417470 -0.958764E-03  0.393E-02    0.08       1.0  T
   7   -106.0419208 -0.173821E-03  0.196E-02    0.07       1.0  T
   8   -106.0419794 -0.586504E-04  0.581E-03    0.07       1.9  T
   9   -106.0419770  0.245506E-05  0.732E-03    0.07       1.5  T
  10   -106.0419833 -0.629186E-05  0.291E-03    0.07       3.8  T
  11   -106.0419844 -0.108650E-05  0.853E-04    0.06      12.8  T
  12   -106.0419844 -0.337524E-07  0.648E-04    0.06      16.8  T
  13   -106.0419844 -0.483118E-07  0.441E-04    0.06      24.7  T
     SCC iter.                  ...        0 min,  0.124 sec
     gradient                   ...        0 min,  0.016 sec
 * total energy  :  -104.4993740 Eh     change       -0.2287347E-03 Eh
   gradient norm :     0.0057765 Eh/α   predicted    -0.2015759E-03 ( -11.87%)
   displ. norm   :     0.5124836 α      lambda       -0.2919394E-03
   maximum displ.:     0.3041676 α      in ANC's #8, #5, #11, ...

........................................................................
.............................. CYCLE   85 ..............................
........................................................................

 iter      E             dE          RMSdq      gap      omega  full diag
   1   -106.0456941 -0.106046E+03  0.111E-01    0.06       0.0  T
   2   -106.0406667  0.502744E-02  0.184E-01    0.13       1.0  T
   3   -106.0402532  0.413464E-03  0.191E-01    0.03       1.0  T
   4   -106.0437271 -0.347391E-02  0.115E-01    0.10       1.0  T
   5   -106.0451257 -0.139860E-02  0.675E-02    0.08       1.0  T
   6   -106.0456064 -0.480704E-03  0.417E-02    0.08       1.0  T
   7   -106.0458050 -0.198602E-03  0.237E-02    0.07       1.0  T
   8   -106.0458639 -0.588391E-04  0.123E-02    0.07       1.0  T
   9   -106.0458862 -0.223787E-04  0.497E-03    0.07       2.2  T
  10   -106.0458886 -0.239552E-05  0.248E-03    0.07       4.4  T
  11   -106.0458893 -0.676230E-06  0.715E-04    0.07      15.3  T
  12   -106.0458893 -0.217733E-07  0.586E-04    0.07      18.6  T
     SCC iter.                  ...        0 min,  0.128 sec
     gradient                   ...        0 min,  0.015 sec
 * total energy  :  -104.4995236 Eh     change       -0.1496108E-03 Eh
   gradient norm :     0.0100079 Eh/α   predicted    -0.1843097E-03 (  23.19%)
   displ. norm   :     0.4369767 α      lambda       -0.2372447E-03
   maximum displ.:     0.2690139 α      in ANC's #8, #5, #12, ...

........................................................................
.............................. CYCLE   86 ..............................
........................................................................

 iter      E             dE          RMSdq      gap      omega  full diag
   1   -106.0419022 -0.106042E+03  0.951E-02    0.06       0.0  T
   2   -106.0378757  0.402652E-02  0.167E-01    0.13       1.0  T
   3   -106.0389442 -0.106850E-02  0.143E-01    0.04       1.0  T
   4   -106.0404822 -0.153804E-02  0.959E-02    0.09       1.0  T
   5   -106.0416351 -0.115285E-02  0.480E-02    0.08       1.0  T
   6   -106.0419716 -0.336504E-03  0.232E-02    0.07       1.0  T
   7   -106.0420325 -0.608968E-04  0.113E-02    0.07       1.0  T
   8   -106.0420491 -0.166482E-04  0.397E-03    0.07       2.7  T
   9   -106.0420506 -0.150280E-05  0.229E-03    0.07       4.8  T
  10   -106.0420515 -0.903014E-06  0.942E-04    0.07      11.6  T
  11   -106.0420516 -0.753192E-07  0.553E-04    0.07      19.7  T
     SCC iter.                  ...        0 min,  0.131 sec
     gradient                   ...        0 min,  0.016 sec
 * total energy  :  -104.4996664 Eh     change       -0.1428120E-03 Eh
   gradient norm :     0.0063255 Eh/α   predicted    -0.1412786E-03 (  -1.07%)
   displ. norm   :     0.1770569 α      lambda       -0.1807445E-03
   maximum displ.:     0.0788907 α      in ANC's #5, #8, #11, ...

........................................................................
.............................. CYCLE   87 ..............................
........................................................................

 iter      E             dE          RMSdq      gap      omega  full diag
   1   -106.0443229 -0.106044E+03  0.567E-02    0.07       0.0  T
   2   -106.0412225  0.310041E-02  0.145E-01    0.04       1.0  T
   3   -106.0440769 -0.285439E-02  0.514E-02    0.08       1.0  T
   4   -106.0436453  0.431658E-03  0.663E-02    0.06       1.0  T
   5   -106.0443581 -0.712876E-03  0.138E-02    0.07       1.0  T
   6   -106.0443762 -0.180242E-04  0.691E-03    0.07       1.6  T
   7   -106.0443843 -0.815878E-05  0.262E-03    0.07       4.2  T
   8   -106.0443849 -0.573826E-06  0.193E-03    0.07       5.7  T
   9   -106.0443855 -0.604776E-06  0.799E-04    0.07      13.6  T
  10   -106.0443856 -0.572879E-07  0.460E-04    0.07      23.7  T
     SCC iter.                  ...        0 min,  0.167 sec
     gradient                   ...        0 min,  0.016 sec
 * total energy  :  -104.4997651 Eh     change       -0.9862057E-04 Eh
   gradient norm :     0.0073409 Eh/α   predicted    -0.9320785E-04 (  -5.49%)
   displ. norm   :     0.4391734 α      lambda       -0.2481150E-03
   maximum displ.:     0.2393461 α      in ANC's #8, #5, #11, ...

........................................................................
.............................. CYCLE   88 ..............................
........................................................................

 iter      E             dE          RMSdq      gap      omega  full diag
   1   -106.0418469 -0.106042E+03  0.960E-02    0.07       0.0  T
   2   -106.0408206  0.102625E-02  0.983E-02    0.09       1.0  T
   3   -106.0324507  0.836997E-02  0.244E-01    0.04       1.0  T
   4   -106.0394443 -0.699365E-02  0.125E-01    0.10       1.0  T
   5   -106.0417773 -0.233301E-02  0.302E-02    0.07       1.0  T
   6   -106.0418460 -0.686975E-04  0.193E-02    0.07       1.0  T
   7   -106.0419023 -0.562773E-04  0.939E-03    0.07       1.2  T
   8   -106.0419090 -0.674504E-05  0.559E-03    0.07       2.0  T
   9   -106.0419132 -0.418791E-05  0.189E-03    0.07       5.8  T
  10   -106.0419130  0.200998E-06  0.208E-03    0.07       5.2  T
  11   -106.0419138 -0.728400E-06  0.594E-04    0.07      18.4  T
  12   -106.0419138 -0.426814E-07  0.246E-04    0.07      44.3  T
     SCC iter.                  ...        0 min,  0.115 sec
     gradient                   ...        0 min,  0.013 sec
 * total energy  :  -104.4999114 Eh     change       -0.1463568E-03 Eh
   gradient norm :     0.0055535 Eh/α   predicted    -0.1479890E-03 (   1.12%)
   displ. norm   :     0.2245866 α      lambda       -0.1394423E-03
   maximum displ.:     0.1042664 α      in ANC's #5, #11, #8, ...

........................................................................
.............................. CYCLE   89 ..............................
........................................................................

 iter      E             dE          RMSdq      gap      omega  full diag
   1   -106.0425570 -0.106043E+03  0.700E-02    0.07       0.0  T
   2   -106.0417991  0.757968E-03  0.825E-02    0.05       1.0  T
   3   -106.0404447  0.135442E-02  0.118E-01    0.11       1.0  T
   4   -106.0410867 -0.642073E-03  0.919E-02    0.06       1.0  T
   5   -106.0425259 -0.143919E-02  0.214E-02    0.07       1.0  T
   6   -106.0425475 -0.215662E-04  0.150E-02    0.07       1.0  T
   7   -106.0425845 -0.370518E-04  0.654E-03    0.07       1.7  T
   8   -106.0425892 -0.469539E-05  0.286E-03    0.07       3.8  T
   9   -106.0425904 -0.111512E-05  0.947E-04    0.07      11.5  T
  10   -106.0425904 -0.286338E-07  0.777E-04    0.07      14.0  T
  11   -106.0425905 -0.978782E-07  0.272E-04    0.07      40.1  T
     SCC iter.                  ...        0 min,  0.111 sec
     gradient                   ...        0 min,  0.016 sec
 * total energy  :  -104.5000057 Eh     change       -0.9424456E-04 Eh
   gradient norm :     0.0039855 Eh/α   predicted    -0.7323970E-04 ( -22.29%)
   displ. norm   :     0.3018874 α      lambda       -0.1121261E-03
   maximum displ.:     0.1406795 α      in ANC's #5, #11, #8, ...

........................................................................
.............................. CYCLE   90 ..............................
........................................................................

 iter      E             dE          RMSdq      gap      omega  full diag
   1   -106.0432934 -0.106043E+03  0.703E-02    0.07       0.0  T
   2   -106.0431429  0.150526E-03  0.533E-02    0.06       1.0  T
   3   -106.0416968  0.144602E-02  0.104E-01    0.10       1.0  T
   4   -106.0401696  0.152727E-02  0.133E-01    0.04       1.0  T
   5   -106.0432723 -0.310278E-02  0.176E-02    0.07       1.0  T
   6   -106.0433015 -0.291920E-04  0.893E-03    0.07       1.2  T
   7   -106.0433146 -0.130163E-04  0.438E-03    0.07       2.5  T
   8   -106.0433162 -0.167965E-05  0.230E-03    0.07       4.7  T
   9   -106.0433170 -0.739347E-06  0.783E-04    0.07      13.9  T
  10   -106.0433170 -0.141945E-07  0.615E-04    0.07      17.7  T
     SCC iter.                  ...        0 min,  0.109 sec
     gradient                   ...        0 min,  0.015 sec
 * total energy  :  -104.5000914 Eh     change       -0.8575180E-04 Eh
   gradient norm :     0.0039588 Eh/α   predicted    -0.6117410E-04 ( -28.66%)
   displ. norm   :     0.3678803 α      lambda       -0.1437318E-03
   maximum displ.:     0.1773275 α      in ANC's #5, #11, #8, ...

........................................................................
.............................. CYCLE   91 ..............................
........................................................................

 iter      E             dE          RMSdq      gap      omega  full diag
   1   -106.0439634 -0.106044E+03  0.895E-02    0.07       0.0  T
   2   -106.0437712  0.192238E-03  0.631E-02    0.07       1.0  T
   3   -106.0380157  0.575552E-02  0.190E-01    0.04       1.0  T
   4   -106.0415552 -0.353956E-02  0.124E-01    0.11       1.0  T
   5   -106.0439427 -0.238750E-02  0.183E-02    0.07       1.0  T
   6   -106.0439582 -0.154673E-04  0.131E-02    0.07       1.0  T
   7   -106.0439900 -0.318383E-04  0.490E-03    0.07       2.2  T
   8   -106.0439927 -0.265082E-05  0.208E-03    0.07       5.3  T
   9   -106.0439930 -0.335260E-06  0.126E-03    0.07       8.6  T
  10   -106.0439931 -0.105714E-06  0.841E-04    0.07      13.0  T
  11   -106.0439932 -0.902150E-07  0.442E-04    0.07      24.7  T
     SCC iter.                  ...        0 min,  0.116 sec
     gradient                   ...        0 min,  0.015 sec
 * total energy  :  -104.5001768 Eh     change       -0.8538456E-04 Eh
   gradient norm :     0.0052421 Eh/α   predicted    -0.8159630E-04 (  -4.44%)
   displ. norm   :     0.3299120 α      lambda       -0.1055249E-03
   maximum displ.:     0.1609078 α      in ANC's #5, #11, #8, ...

........................................................................
.............................. CYCLE   92 ..............................
........................................................................

 iter      E             dE          RMSdq      gap      omega  full diag
   1   -106.0435471 -0.106044E+03  0.785E-02    0.07       0.0  T
   2   -106.0433462  0.200921E-03  0.578E-02    0.07       1.0  T
   3   -106.0358203  0.752584E-02  0.215E-01    0.04       1.0  T
   4   -106.0420423 -0.622201E-02  0.980E-02    0.09       1.0  T
   5   -106.0435360 -0.149363E-02  0.156E-02    0.07       1.0  T
   6   -106.0435527 -0.167060E-04  0.965E-03    0.07       1.1  T
   7   -106.0435684 -0.157656E-04  0.419E-03    0.07       2.6  T
   8   -106.0435701 -0.168419E-05  0.226E-03    0.07       4.8  T
   9   -106.0435707 -0.604777E-06  0.113E-03    0.07       9.7  T
  10   -106.0435708 -0.915661E-07  0.704E-04    0.07      15.5  T
  11   -106.0435709 -0.606959E-07  0.381E-04    0.07      28.6  T
     SCC iter.                  ...        0 min,  0.118 sec
     gradient                   ...        0 min,  0.014 sec
 * total energy  :  -104.5002436 Eh     change       -0.6676602E-04 Eh
   gradient norm :     0.0041308 Eh/α   predicted    -0.5850852E-04 ( -12.37%)
   displ. norm   :     0.2211642 α      lambda       -0.7029490E-04
   maximum displ.:     0.1103486 α      in ANC's #5, #11, #7, ...
 * RMSD in coord.:     0.9761928 α      energy gain  -0.6157200E-02 Eh

generating ANC from exact Hessian ...
Using Lindh-Hessian (1995)
 Shifting diagonal of input Hessian by   1.020823129571499E-002
 Lowest  eigenvalues of input Hessian
    0.000000    0.010000    0.010029    0.010101    0.000000    0.000000
    0.000000    0.000000    0.000000    0.010288    0.010399    0.010480
    0.010542    0.010787    0.010886    0.010995    0.011242    0.011359
 Highest eigenvalues
    1.926555    1.975264    2.018727    2.113360    2.125080    2.154905
 

........................................................................
.............................. CYCLE   93 ..............................
........................................................................

 iter      E             dE          RMSdq      gap      omega  full diag
   1   -106.0440337 -0.106044E+03  0.531E-02    0.07       0.0  T
   2   -106.0439339  0.998009E-04  0.422E-02    0.06       1.0  T
   3   -106.0419995  0.193435E-02  0.113E-01    0.11       1.0  T
   4   -106.0434242 -0.142470E-02  0.559E-02    0.06       1.0  T
   5   -106.0440139 -0.589678E-03  0.137E-02    0.07       1.0  T
   6   -106.0440321 -0.182291E-04  0.719E-03    0.07       1.5  T
   7   -106.0440405 -0.840209E-05  0.294E-03    0.07       3.7  T
   8   -106.0440415 -0.975187E-06  0.976E-04    0.07      11.2  T
   9   -106.0440415 -0.167299E-07  0.902E-04    0.07      12.1  T
     SCC iter.                  ...        0 min,  0.095 sec
     gradient                   ...        0 min,  0.040 sec
 * total energy  :  -104.5002961 Eh     change       -0.5252326E-04 Eh
   gradient norm :     0.0038863 Eh/α   predicted     0.0000000E+00 (-100.00%)
   displ. norm   :     0.0387054 α      lambda       -0.4030664E-04
   maximum displ.:     0.0177968 α      in ANC's #6, #7, #14, ...

........................................................................
.............................. CYCLE   94 ..............................
........................................................................

 iter      E             dE          RMSdq      gap      omega  full diag
   1   -106.0441966 -0.106044E+03  0.190E-02    0.07       0.0  T
   2   -106.0441480  0.485142E-04  0.210E-02    0.06       1.0  T
   3   -106.0439406  0.207420E-03  0.409E-02    0.08       1.0  T
   4   -106.0441480 -0.207334E-03  0.170E-02    0.07       1.0  T
   5   -106.0441953 -0.473128E-04  0.421E-03    0.07       2.6  T
   6   -106.0441980 -0.271922E-05  0.111E-03    0.07       9.8  T
   7   -106.0441981 -0.144328E-06  0.558E-04    0.07      19.6  T
   8   -106.0441982 -0.267773E-07  0.389E-04    0.07      28.0  T
     SCC iter.                  ...        0 min,  0.094 sec
     gradient                   ...        0 min,  0.018 sec
 * total energy  :  -104.5003282 Eh     change       -0.3207001E-04 Eh
   gradient norm :     0.0019822 Eh/α   predicted    -0.2116524E-04 ( -34.00%)
   displ. norm   :     0.1750607 α      lambda       -0.8044964E-04
   maximum displ.:     0.0892551 α      in ANC's #7, #14, #8, ...

........................................................................
.............................. CYCLE   95 ..............................
........................................................................

 iter      E             dE          RMSdq      gap      omega  full diag
   1   -106.0445848 -0.106045E+03  0.846E-02    0.07       0.0  T
   2   -106.0416142  0.297063E-02  0.146E-01    0.04       1.0  T
   3   -106.0427735 -0.115935E-02  0.116E-01    0.11       1.0  T
   4   -106.0437394 -0.965895E-03  0.705E-02    0.07       1.0  T
   5   -106.0444794 -0.739965E-03  0.308E-02    0.08       1.0  T
   6   -106.0445948 -0.115425E-03  0.174E-02    0.07       1.0  T
   7   -106.0446347 -0.398632E-04  0.762E-03    0.07       1.4  T
   8   -106.0446433 -0.868318E-05  0.245E-03    0.07       4.5  T
   9   -106.0446438 -0.462098E-06  0.140E-03    0.07       7.8  T
  10   -106.0446439 -0.107344E-06  0.104E-03    0.07      10.5  T
  11   -106.0446441 -0.179934E-06  0.360E-04    0.07      30.3  T
  12   -106.0446441 -0.192942E-07  0.220E-04    0.07      49.5  T
     SCC iter.                  ...        0 min,  0.151 sec
     gradient                   ...        0 min,  0.014 sec
 * total energy  :  -104.5003032 Eh     change        0.2494930E-04 Eh
   gradient norm :     0.0061715 Eh/α   predicted    -0.4077683E-04 (-263.44%)
   displ. norm   :     0.0458813 α      lambda       -0.1091449E-03
   maximum displ.:     0.0284104 α      in ANC's #6, #29, #28, ...

........................................................................
.............................. CYCLE   96 ..............................
........................................................................

 iter      E             dE          RMSdq      gap      omega  full diag
   1   -106.0448399 -0.106045E+03  0.404E-02    0.07       0.0  T
   2   -106.0448302  0.972313E-05  0.259E-02    0.07       1.0  T
   3   -106.0433251  0.150511E-02  0.955E-02    0.10       1.0  T
   4   -106.0448157 -0.149062E-02  0.112E-02    0.07       1.0  T
   5   -106.0448367 -0.210468E-04  0.453E-03    0.07       2.4  T
   6   -106.0448402 -0.348666E-05  0.208E-03    0.07       5.3  T
   7   -106.0448408 -0.576216E-06  0.885E-04    0.07      12.3  T
   8   -106.0448408 -0.369364E-07  0.615E-04    0.07      17.8  T
     SCC iter.                  ...        0 min,  0.091 sec
     gradient                   ...        0 min,  0.014 sec
 * total energy  :  -104.5003702 Eh     change       -0.6695851E-04 Eh
   gradient norm :     0.0041086 Eh/α   predicted    -0.5469707E-04 ( -18.31%)
   displ. norm   :     0.0347183 α      lambda       -0.4610784E-04
   maximum displ.:     0.0121911 α      in ANC's #39, #3, #33, ...

........................................................................
.............................. CYCLE   97 ..............................
........................................................................

 iter      E             dE          RMSdq      gap      omega  full diag
   1   -106.0447512 -0.106045E+03  0.265E-02    0.07       0.0  T
   2   -106.0446907  0.604167E-04  0.255E-02    0.07       1.0  T
   3   -106.0439870  0.703793E-03  0.703E-02    0.05       1.0  T
   4   -106.0446220 -0.635000E-03  0.248E-02    0.07       1.0  T
   5   -106.0447486 -0.126665E-03  0.554E-03    0.07       2.0  T
   6   -106.0447522 -0.362417E-05  0.293E-03    0.07       3.7  T
   7   -106.0447534 -0.116176E-05  0.140E-03    0.07       7.8  T
   8   -106.0447536 -0.190305E-06  0.720E-04    0.07      15.1  T
   9   -106.0447537 -0.682222E-07  0.433E-04    0.07      25.2  T
     SCC iter.                  ...        0 min,  0.093 sec
     gradient                   ...        0 min,  0.016 sec
 * total energy  :  -104.5003911 Eh     change       -0.2096290E-04 Eh
   gradient norm :     0.0011327 Eh/α   predicted    -0.2308424E-04 (  10.12%)
   displ. norm   :     0.0721655 α      lambda       -0.2291020E-04
   maximum displ.:     0.0441870 α      in ANC's #7, #6, #14, ...

........................................................................
.............................. CYCLE   98 ..............................
........................................................................

 iter      E             dE          RMSdq      gap      omega  full diag
   1   -106.0447008 -0.106045E+03  0.409E-02    0.07       0.0  T
   2   -106.0444808  0.220006E-03  0.441E-02    0.06       1.0  T
   3   -106.0435412  0.939598E-03  0.861E-02    0.10       1.0  T
   4   -106.0446601 -0.111883E-02  0.163E-02    0.07       1.0  T
   5   -106.0446956 -0.355791E-04  0.790E-03    0.07       1.4  T
   6   -106.0447023 -0.663375E-05  0.469E-03    0.07       2.3  T
   7   -106.0447055 -0.318993E-05  0.188E-03    0.07       5.8  T
   8   -106.0447059 -0.434497E-06  0.610E-04    0.07      17.9  T
   9   -106.0447058  0.923322E-07  0.859E-04    0.07      12.7  T
     SCC iter.                  ...        0 min,  0.090 sec
     gradient                   ...        0 min,  0.014 sec
 * total energy  :  -104.5004007 Eh     change       -0.9614337E-05 Eh
   gradient norm :     0.0016866 Eh/α   predicted    -0.1148180E-04 (  19.42%)
   displ. norm   :     0.0997722 α      lambda       -0.2275494E-04
   maximum displ.:     0.0567302 α      in ANC's #7, #8, #6, ...

........................................................................
.............................. CYCLE   99 ..............................
........................................................................

 iter      E             dE          RMSdq      gap      omega  full diag
   1   -106.0447814 -0.106045E+03  0.405E-02    0.07       0.0  T
   2   -106.0444137  0.367647E-03  0.535E-02    0.06       1.0  T
   3   -106.0439909  0.422826E-03  0.725E-02    0.09       1.0  T
   4   -106.0447062 -0.715257E-03  0.237E-02    0.07       1.0  T
   5   -106.0447772 -0.710786E-04  0.910E-03    0.07       1.2  T
   6   -106.0447871 -0.982373E-05  0.434E-03    0.07       2.5  T
   7   -106.0447891 -0.203088E-05  0.227E-03    0.07       4.8  T
   8   -106.0447899 -0.856607E-06  0.651E-04    0.07      16.8  T
   9   -106.0447900 -0.143555E-07  0.608E-04    0.07      17.9  T
     SCC iter.                  ...        0 min,  0.088 sec
     gradient                   ...        0 min,  0.015 sec
 * total energy  :  -104.5004236 Eh     change       -0.2288686E-04 Eh
   gradient norm :     0.0010348 Eh/α   predicted    -0.1142844E-04 ( -50.07%)
   displ. norm   :     0.1789655 α      lambda       -0.2886166E-04
   maximum displ.:     0.1099931 α      in ANC's #7, #8, #6, ...

........................................................................
.............................. CYCLE  100 ..............................
........................................................................

 iter      E             dE          RMSdq      gap      omega  full diag
   1   -106.0447947 -0.106045E+03  0.721E-02    0.07       0.0  T
   2   -106.0433673  0.142741E-02  0.104E-01    0.05       1.0  T
   3   -106.0429601  0.407252E-03  0.112E-01    0.11       1.0  T
   4   -106.0446512 -0.169113E-02  0.318E-02    0.07       1.0  T
   5   -106.0447439 -0.927618E-04  0.211E-02    0.08       1.0  T
   6   -106.0448007 -0.567595E-04  0.121E-02    0.07       1.0  T
   7   -106.0448169 -0.162474E-04  0.591E-03    0.07       1.8  T
   8   -106.0448222 -0.529361E-05  0.141E-03    0.07       7.8  T
   9   -106.0448223 -0.761778E-07  0.101E-03    0.07      10.8  T
  10   -106.0448225 -0.146418E-06  0.479E-04    0.07      22.8  T
  11   -106.0448225 -0.223158E-07  0.294E-04    0.07      37.1  T
     SCC iter.                  ...        0 min,  0.107 sec
     gradient                   ...        0 min,  0.016 sec
 * total energy  :  -104.5004333 Eh     change       -0.9691057E-05 Eh
   gradient norm :     0.0017531 Eh/α   predicted    -0.1463914E-04 (  51.06%)
   displ. norm   :     0.0513743 α      lambda       -0.1769589E-04
   maximum displ.:     0.0313827 α      in ANC's #7, #8, #6, ...

........................................................................
.............................. CYCLE  101 ..............................
........................................................................

 iter      E             dE          RMSdq      gap      omega  full diag
   1   -106.0449010 -0.106045E+03  0.243E-02    0.07       0.0  T
   2   -106.0448954  0.552337E-05  0.160E-02    0.07       1.0  T
   3   -106.0447470  0.148471E-03  0.305E-02    0.07       1.0  T
   4   -106.0448762 -0.129244E-03  0.128E-02    0.07       1.0  T
   5   -106.0448851 -0.886562E-05  0.991E-03    0.07       1.1  T
   6   -106.0449021 -0.170099E-04  0.127E-03    0.07       8.6  T
   7   -106.0449023 -0.216632E-06  0.575E-04    0.07      19.0  T
   8   -106.0449023 -0.195736E-08  0.406E-04    0.07      26.9  T
     SCC iter.                  ...        0 min,  0.079 sec
     gradient                   ...        0 min,  0.016 sec
 * total energy  :  -104.5004491 Eh     change       -0.1573734E-04 Eh
   gradient norm :     0.0008855 Eh/α   predicted    -0.8860271E-05 ( -43.70%)
   displ. norm   :     0.0573984 α      lambda       -0.8109032E-05
   maximum displ.:     0.0378136 α      in ANC's #7, #8, #6, ...

........................................................................
.............................. CYCLE  102 ..............................
........................................................................

 iter      E             dE          RMSdq      gap      omega  full diag
   1   -106.0450076 -0.106045E+03  0.214E-02    0.07       0.0  T
   2   -106.0449973  0.102305E-04  0.156E-02    0.07       1.0  T
   3   -106.0446282  0.369096E-03  0.466E-02    0.08       1.0  T
   4   -106.0448479 -0.219619E-03  0.319E-02    0.06       1.0  T
   5   -106.0450061 -0.158254E-03  0.379E-03    0.07       2.9  T
   6   -106.0450084 -0.223952E-05  0.124E-03    0.07       8.8  T
   7   -106.0450086 -0.267907E-06  0.635E-04    0.07      17.2  T
   8   -106.0450087 -0.321786E-07  0.413E-04    0.07      26.4  T
     SCC iter.                  ...        0 min,  0.113 sec
     gradient                   ...        0 min,  0.016 sec
 * total energy  :  -104.5004561 Eh     change       -0.7061957E-05 Eh
   gradient norm :     0.0008574 Eh/α   predicted    -0.4061289E-05 ( -42.49%)
   displ. norm   :     0.0895893 α      lambda       -0.9415613E-05
   maximum displ.:     0.0572240 α      in ANC's #7, #2, #8, ...

........................................................................
.............................. CYCLE  103 ..............................
........................................................................

 iter      E             dE          RMSdq      gap      omega  full diag
   1   -106.0450449 -0.106045E+03  0.271E-02    0.07       0.0  T
   2   -106.0450294  0.154426E-04  0.196E-02    0.07       1.0  T
   3   -106.0448330  0.196428E-03  0.362E-02    0.07       1.0  T
   4   -106.0448286  0.441310E-05  0.359E-02    0.06       1.0  T
   5   -106.0450391 -0.210545E-03  0.734E-03    0.07       1.5  T
   6   -106.0450472 -0.802792E-05  0.134E-03    0.07       8.1  T
   7   -106.0450474 -0.269644E-06  0.803E-04    0.07      13.6  T
   8   -106.0450475 -0.692802E-07  0.570E-04    0.07      19.1  T
     SCC iter.                  ...        0 min,  0.091 sec
     gradient                   ...        0 min,  0.017 sec
 * total energy  :  -104.5004652 Eh     change       -0.9028625E-05 Eh
   gradient norm :     0.0008081 Eh/α   predicted    -0.4726583E-05 ( -47.65%)
   displ. norm   :     0.1213167 α      lambda       -0.1023819E-04
   maximum displ.:     0.0752364 α      in ANC's #7, #2, #8, ...

........................................................................
.............................. CYCLE  104 ..............................
........................................................................

 iter      E             dE          RMSdq      gap      omega  full diag
   1   -106.0449046 -0.106045E+03  0.351E-02    0.07       0.0  T
   2   -106.0448787  0.259334E-04  0.254E-02    0.07       1.0  T
   3   -106.0445146  0.364082E-03  0.482E-02    0.08       1.0  T
   4   -106.0444441  0.705056E-04  0.525E-02    0.06       1.0  T
   5   -106.0449001 -0.455952E-03  0.727E-03    0.07       1.5  T
   6   -106.0449082 -0.809866E-05  0.151E-03    0.07       7.2  T
   7   -106.0449084 -0.246753E-06  0.108E-03    0.07      10.1  T
   8   -106.0449086 -0.149992E-06  0.652E-04    0.07      16.7  T
   9   -106.0449086 -0.329611E-07  0.381E-04    0.07      28.7  T
     SCC iter.                  ...        0 min,  0.137 sec
     gradient                   ...        0 min,  0.035 sec
 * total energy  :  -104.5004748 Eh     change       -0.9615754E-05 Eh
   gradient norm :     0.0007661 Eh/α   predicted    -0.5157007E-05 ( -46.37%)
   displ. norm   :     0.1315508 α      lambda       -0.8592743E-05
   maximum displ.:     0.0795774 α      in ANC's #7, #2, #8, ...

........................................................................
.............................. CYCLE  105 ..............................
........................................................................

 iter      E             dE          RMSdq      gap      omega  full diag
   1   -106.0446885 -0.106045E+03  0.370E-02    0.07       0.0  T
   2   -106.0446275  0.609627E-04  0.303E-02    0.06       1.0  T
   3   -106.0434471  0.118042E-02  0.853E-02    0.10       1.0  T
   4   -106.0443884 -0.941276E-03  0.444E-02    0.06       1.0  T
   5   -106.0446848 -0.296391E-03  0.692E-03    0.07       1.6  T
   6   -106.0446897 -0.490209E-05  0.349E-03    0.07       3.1  T
   7   -106.0446920 -0.233995E-05  0.129E-03    0.07       8.4  T
   8   -106.0446922 -0.179005E-06  0.573E-04    0.07      19.0  T
   9   -106.0446922  0.212964E-07  0.619E-04    0.07      17.6  T
     SCC iter.                  ...        0 min,  0.097 sec
     gradient                   ...        0 min,  0.016 sec
 * total energy  :  -104.5004814 Eh     change       -0.6644258E-05 Eh
   gradient norm :     0.0008218 Eh/α   predicted    -0.4330485E-05 ( -34.82%)
   displ. norm   :     0.0941302 α      lambda       -0.5603217E-05
   maximum displ.:     0.0537522 α      in ANC's #7, #6, #2, ...

........................................................................
.............................. CYCLE  106 ..............................
........................................................................

 iter      E             dE          RMSdq      gap      omega  full diag
   1   -106.0447297 -0.106045E+03  0.228E-02    0.07       0.0  T
   2   -106.0446782  0.515190E-04  0.233E-02    0.06       1.0  T
   3   -106.0443370  0.341249E-03  0.496E-02    0.08       1.0  T
   4   -106.0446890 -0.352074E-03  0.155E-02    0.07       1.0  T
   5   -106.0447291 -0.400320E-04  0.378E-03    0.07       2.9  T
   6   -106.0447309 -0.182332E-05  0.141E-03    0.07       7.7  T
   7   -106.0447312 -0.329387E-06  0.661E-04    0.07      16.5  T
   8   -106.0447313 -0.501258E-07  0.372E-04    0.07      29.3  T
     SCC iter.                  ...        0 min,  0.085 sec
     gradient                   ...        0 min,  0.016 sec
 * total energy  :  -104.5004868 Eh     change       -0.5381916E-05 Eh
   gradient norm :     0.0007058 Eh/α   predicted    -0.2814244E-05 ( -47.71%)
   displ. norm   :     0.1071816 α      lambda       -0.6036590E-05
   maximum displ.:     0.0550675 α      in ANC's #7, #6, #2, ...

........................................................................
.............................. CYCLE  107 ..............................
........................................................................

 iter      E             dE          RMSdq      gap      omega  full diag
   1   -106.0449157 -0.106045E+03  0.277E-02    0.07       0.0  T
   2   -106.0447036  0.212084E-03  0.408E-02    0.06       1.0  T
   3   -106.0446596  0.440207E-04  0.419E-02    0.08       1.0  T
   4   -106.0448711 -0.211566E-03  0.150E-02    0.07       1.0  T
   5   -106.0449164 -0.452919E-04  0.431E-03    0.07       2.5  T
   6   -106.0449199 -0.343536E-05  0.156E-03    0.07       7.0  T
   7   -106.0449201 -0.281164E-06  0.708E-04    0.07      15.4  T
   8   -106.0449202 -0.411785E-07  0.393E-04    0.07      27.7  T
     SCC iter.                  ...        0 min,  0.083 sec
     gradient                   ...        0 min,  0.014 sec
 * total energy  :  -104.5004926 Eh     change       -0.5762634E-05 Eh
   gradient norm :     0.0007168 Eh/α   predicted    -0.3034908E-05 ( -47.33%)
   displ. norm   :     0.0999108 α      lambda       -0.5432377E-05
   maximum displ.:     0.0416017 α      in ANC's #7, #2, #14, ...

........................................................................
.............................. CYCLE  108 ..............................
........................................................................

 iter      E             dE          RMSdq      gap      omega  full diag
   1   -106.0451121 -0.106045E+03  0.221E-02    0.07       0.0  T
   2   -106.0449644  0.147673E-03  0.339E-02    0.06       1.0  T
   3   -106.0449530  0.114299E-04  0.331E-02    0.08       1.0  T
   4   -106.0450668 -0.113835E-03  0.152E-02    0.07       1.0  T
   5   -106.0451113 -0.444951E-04  0.442E-03    0.07       2.5  T
   6   -106.0451153 -0.401687E-05  0.136E-03    0.07       8.1  T
   7   -106.0451154 -0.142582E-06  0.851E-04    0.07      12.8  T
   8   -106.0451155 -0.786187E-07  0.473E-04    0.07      23.1  T
     SCC iter.                  ...        0 min,  0.084 sec
     gradient                   ...        0 min,  0.014 sec
 * total energy  :  -104.5004975 Eh     change       -0.4912708E-05 Eh
   gradient norm :     0.0006212 Eh/α   predicted    -0.2729466E-05 ( -44.44%)
   displ. norm   :     0.0561912 α      lambda       -0.2915424E-05
   maximum displ.:     0.0249828 α      in ANC's #14, #2, #10, ...

   *** GEOMETRY OPTIMIZATION CONVERGED AFTER 108 ITERATIONS ***

------------------------------------------------------------------------
 total energy gain   :        -0.0380796 Eh      -23.8953 kcal/mol
 total RMSD          :         3.2172001 a0        1.7025 Å
 total power (kW/mol):        -0.9257229 (step)   -5.8988 (real)
------------------------------------------------------------------------

 ANCopt (total)                0 d,  0 h,  0 min, 16.949 sec
 optimizer setup                ...        0 min,  0.000 sec (  0.000%)
 model hessian                  ...        0 min,  0.162 sec (  0.956%)
 ANC generation                 ...        0 min,  0.033 sec (  0.195%)
 coordinate transformation      ...        0 min,  0.010 sec (  0.059%)
 single point calculation       ...        0 min, 16.562 sec ( 97.717%)
 optimization log               ...        0 min,  0.126 sec (  0.743%)
 hessian update                 ...        0 min,  0.013 sec (  0.077%)
 rational function              ...        0 min,  0.032 sec (  0.189%)

================
 final structure:
================
84
 xtb: 6.7.1pre (5071a88)
O           -6.02014149787991       -0.61559553098314        4.19758710647911
C           -4.71512704241569       -0.59876515547861        4.57868108975601
C           -4.06518815681109       -1.81094133059996        4.80591145324125
C           -2.72716413671269       -1.82590696694555        5.12275127458129
C           -1.98183338022584       -0.64108821730183        5.23650183415860
C           -0.55635545680462       -0.72097818865012        5.39372029088360
C            0.30295376222539        0.32784913188064        5.36789418918540
C            1.73369365757194        0.25064781259103        5.26381459042305
C            2.46443599774533        1.44346325351477        5.12360339554727
C            3.82761497444389        1.41943822603865        4.90010718360595
O            4.54670117224845        2.56440135074633        4.71569172968839
C            4.50969846370586        0.20791782189587        4.82290012540588
C            3.80022092768522       -0.97631584204922        4.99022604408601
O            4.41573733883264       -2.18986162431221        4.94152385333923
C            2.43210055024255       -0.95965887473992        5.19509923521031
C           -2.67327711242272        0.56919084478279        5.07063111825031
C           -4.01158879095502        0.58976563304847        4.74450947442037
H           -6.26248173810348        0.25963782980837        3.86498335188433
H           -4.62420651871623       -2.72642721511759        4.70625458288022
H           -2.22973816166325       -2.77340479183236        5.26921848318089
H           -0.16098181922688       -1.72563159199270        5.43295407245388
H           -0.09559671858000        1.33128021330815        5.37537028451251
H            1.94962188394781        2.39204677338711        5.18661484509071
H            3.95620948104538        3.32519529002936        4.74934965710225
H            5.57301991575450        0.21001121410120        4.64421416923307
H            5.33644753489163       -2.08281645438492        4.67895193514227
H            1.92930683150367       -1.90418229785216        5.30200374962676
H           -2.15864195286455        1.50812698914576        5.18723145856595
H           -4.51228598159332        1.53406586624498        4.58949750922518
B           -5.03637681039729       -2.30964276896770        1.27441429874998
B           -4.58008103249537       -1.04271350461499        0.41534740166259
B           -4.24723307011431        0.01369179786188       -0.82909315868762
B           -3.52198228590678       -2.40597041296601        0.74490228457421
B           -2.87002240451236        0.37237311731905       -0.18762332817295
B           -4.34803679621186        0.66814645593778        0.84459034784869
B           -5.09463783423836        1.86050050016032        1.61202654000262
B           -4.56184595536556        3.41638793957089        1.66758430691080
B           -2.82088610342271        0.77245112478665        1.41910073912062
B           -3.28256181676181        3.72552760667430        2.62978500787915
B           -2.33910171459404       -3.57631896156541        0.87092160273534
B           -1.93908894366436       -2.07788054209605        0.53541053263621
B           -1.66614727833451       -0.45861073151871        0.57738839300030
B           -0.71152763515048       -3.10782086799065        0.71613321578096
B           -0.23507467441043       -0.05247905326125        1.24940462729684
B           -1.50385671263432        0.29128664633473        2.24104937902574
B           -1.77869753071319        1.91264106572152        2.01148135827363
B           -1.86881757570464        3.49217547493616        1.91136326905894
B           -0.27892753733612        1.25766639534040        2.46132639532293
B           -0.63275725971218        4.48771122203324        1.50849399745515
B            0.65830062122770       -4.07307046758294        0.67645258612192
B            0.85742426856993       -2.50507134227227        0.90045182557054
B            1.14822467674064       -0.95317322758733        1.13319849288315
B            2.13449696983607       -3.50601932051841        1.19849534425491
B            2.58190155581870       -0.23428260550706        1.37400565509500
B            1.22579677294342        0.58186417035898        1.77757236611161
B            1.11705945356748        2.15701758277911        2.40692248392410
B            0.59529109645581        3.53861429005402        1.78340377412190
B            2.47705117937346        1.65082492019479        1.55500286082200
B            1.28820741524481        2.90681996476303        0.39342969857271
B            3.39997693058051       -4.30610953487841        1.92418235627796
B            3.59842603175046       -2.77563213718706        1.38767298704416
B            3.94118952350406       -1.19905871796218        1.19333817262536
B            4.75512411557421       -3.47556858176457        2.19475998493118
B            5.27981973073520       -0.33561755583511        0.68112959460781
B            4.10547016328472        0.42262774466907        1.51321514965693
B            4.05040824711367        2.22194265001156        1.34825759118081
B            2.89442032098241        2.90469272442101        0.35198344467647
B            5.43699575260894        1.31697073047423        1.22579899513192
B            4.39224171288659        3.26282533169148        0.18929420144413
H           -5.64803758371431       -2.84330332871871        2.11608284946831
H           -5.79174653693591       -1.64729642149524        0.46650578664354
H           -4.93115649353500        0.16255567985836       -1.77798132771314
H           -6.04100891044171        1.62982633508521        2.30430712145067
H           -5.15569945794834        4.26022940549581        1.09415859206196
H           -3.45396744574960        3.95966911532000        3.77468691105884
H           -2.58105958532621       -4.71125003808508        1.02520397585361
H           -0.69976239763924        5.56641519588777        1.03960815546796
H            0.55357447702553       -5.16517418049150        0.26740892813560
H            0.63288566215403        2.47399043305852       -0.49339055094825
H            3.31579665111661       -5.41757427739551        2.27793266321096
H            5.83245297656779       -3.47514840070139        2.63917359008138
H            6.23589668907604       -0.80164872326632        0.19314206254099
H            6.52031711061822        1.66970223687918        1.50459198573427
H            5.24554325067280        3.87227767832258       -0.32330860605982
 
 Bond Distances (Angstroems)
 ---------------------------
O1-C2=1.3596         O1-H18=0.9672        C2-O1=1.3596         C2-C3=1.3941         C2-C17=1.3911        C3-C2=1.3941         
C3-C4=1.3751         C3-H19=1.0773        C4-C3=1.3751         C4-C5=1.4044         C4-H20=1.0801        C5-C4=1.4044         
C5-C6=1.4363         C5-C16=1.4037        C6-C5=1.4363         C6-C7=1.3561         C6-H21=1.0804        C7-C6=1.3561         
C7-C8=1.4366         C7-H22=1.0797        C8-C7=1.4366         C8-C9=1.4059         C8-C15=1.3990        C9-C8=1.4059         
C9-C10=1.3816        C9-H23=1.0811        C10-C9=1.3816        C10-O11=1.3646       C10-C12=1.3925       O11-C10=1.3646       
O11-H24=0.9636       C12-C10=1.3925       C12-C13=1.3906       C12-H25=1.0782       C13-C12=1.3906       C13-O14=1.3616       
C13-C15=1.3835       O14-C13=1.3616       O14-H26=0.9634       C15-C8=1.3990        C15-C13=1.3835       C15-H27=1.0753       
C16-C5=1.4037        C16-C17=1.3776       C16-H28=1.0771       C17-C2=1.3911        C17-C16=1.3776       C17-H29=1.0800       
H18-O1=0.9672        H19-C3=1.0773        H20-C4=1.0801        H21-C6=1.0804        H22-C7=1.0797        H23-C9=1.0811        
H24-O11=0.9636       H25-C12=1.0782       H26-O14=0.9634       H27-C15=1.0753       H28-C16=1.0771       H29-C17=1.0800       
B30-B31=1.5973       B30-B33=1.6072       B30-H70=1.1693       B30-H71=1.2892       B31-B30=1.5973       B31-B32=1.6660       
B31-B33=1.7569       B31-B35=1.7791       B31-H71=1.3551       B32-B31=1.6660       B32-B34=1.5610       B32-B35=1.7999       
B32-H72=1.1791       B33-B30=1.6072       B33-B31=1.7569       B33-B40=1.6688       B33-B41=1.6301       B34-B32=1.5610       
B34-B35=1.8269       B34-B38=1.6565       B34-B42=1.6508       B35-B31=1.7791       B35-B32=1.7999       B35-B34=1.8269       
B35-B36=1.6025       B35-B38=1.6350       B36-B35=1.6025       B36-B37=1.6455       B36-H73=1.1950       B37-B36=1.6455       
B37-B39=1.6303       B37-H74=1.1805       B38-B34=1.6565       B38-B35=1.6350       B38-B42=1.8861       B38-B45=1.6253       
B38-B46=1.6544       B39-B37=1.6303       B39-B47=1.6029       B39-H75=1.1811       B40-B33=1.6688       B40-B41=1.5868       
B40-B43=1.7007       B40-H76=1.1706       B41-B33=1.6301       B41-B40=1.5868       B41-B42=1.6426       B41-B43=1.6126       
B42-B34=1.6508       B42-B38=1.8861       B42-B41=1.6426       B42-B44=1.6323       B42-B45=1.8321       B43-B40=1.7007       
B43-B41=1.6126       B43-B50=1.6762       B43-B51=1.6908       B44-B42=1.6323       B44-B45=1.6466       B44-B48=1.7853       
B44-B52=1.6548       B44-B55=1.6779       B45-B38=1.6253       B45-B42=1.8321       B45-B44=1.6466       B45-B46=1.6604       
B45-B48=1.5757       B46-B38=1.6544       B46-B45=1.6604       B46-B47=1.5853       B46-B48=1.6973       B47-B39=1.6029       
B47-B46=1.5853       B47-B49=1.6374       B48-B44=1.7853       B48-B45=1.5757       B48-B46=1.6973       B48-B55=1.7856       
B48-B56=1.6615       B49-B47=1.6374       B49-B57=1.5762       B49-H77=1.1781       B50-B43=1.6762       B50-B51=1.5964       
B50-B53=1.6653       B50-H78=1.1709       B51-B43=1.6908       B51-B50=1.5964       B51-B52=1.5960       B51-B53=1.6497       
B52-B44=1.6548       B52-B51=1.5960       B52-B54=1.6218       B52-B55=1.6666       B53-B50=1.6653       B53-B51=1.6497       
B53-B60=1.6638       B53-B61=1.6469       B54-B52=1.6218       B54-B55=1.6334       B54-B58=1.8967       B54-B62=1.6766       
B54-B65=1.6650       B55-B44=1.6779       B55-B48=1.7856       B55-B52=1.6666       B55-B54=1.6334       B55-B56=1.6997       
B55-B58=1.6607       B56-B48=1.6615       B56-B55=1.6997       B56-B57=1.6031       B56-B58=1.6827       B56-B59=2.1554       
B57-B49=1.5762       B57-B56=1.6031       B57-B59=1.6767       B58-B54=1.8967       B58-B55=1.6607       B58-B56=1.6827       
B58-B59=2.0833       B58-B65=2.0401       B58-B66=1.6865       B58-B67=1.7871       B59-B56=2.1554       B59-B57=1.6767       
B59-B58=2.0833       B59-B67=1.6067       B59-H79=1.1846       B60-B53=1.6638       B60-B61=1.6339       B60-B63=1.6123       
B60-H80=1.1694       B61-B53=1.6469       B61-B60=1.6339       B61-B62=1.6251       B61-B63=1.5746       B62-B54=1.6766       
B62-B61=1.6251       B62-B64=1.6733       B62-B65=1.6611       B63-B60=1.6123       B63-B61=1.5746       B63-H81=1.1654       
B64-B62=1.6733       B64-B65=1.6268       B64-B68=1.7471       B64-H82=1.1702       B65-B54=1.6650       B65-B58=2.0401       
B65-B62=1.6611       B65-B64=1.6268       B65-B66=1.8077       B65-B68=1.6295       B66-B58=1.6865       B66-B65=1.8077       
B66-B67=1.6718       B66-B68=1.6603       B66-B69=1.5948       B67-B58=1.7871       B67-B59=1.6067       B67-B66=1.6718       
B67-B69=1.5486       B68-B64=1.7471       B68-B65=1.6295       B68-B66=1.6603       B68-H83=1.1729       B69-B66=1.5948       
B69-B67=1.5486       B69-H84=1.1672       H70-B30=1.1693       H71-B30=1.2892       H71-B31=1.3551       H72-B32=1.1791       
H73-B36=1.1950       H74-B37=1.1805       H75-B39=1.1811       H76-B40=1.1706       H77-B49=1.1781       H78-B50=1.1709       
H79-B59=1.1846       H80-B60=1.1694       H81-B63=1.1654       H82-B64=1.1702       H83-B68=1.1729       H84-B69=1.1672       
 B  H  Rav=1.1937 sigma=0.0505  Rmin=1.1654  Rmax=1.3551    16
 B  B  Rav=1.6822 sigma=0.1097  Rmin=1.5486  Rmax=2.1554    77
 C  H  Rav=1.0788 sigma=0.0018  Rmin=1.0753  Rmax=1.0811     9
 C  C  Rav=1.3952 sigma=0.0205  Rmin=1.3561  Rmax=1.4366    15
 O  H  Rav=0.9647 sigma=0.0017  Rmin=0.9634  Rmax=0.9672     3
 O  C  Rav=1.3619 sigma=0.0020  Rmin=1.3596  Rmax=1.3646     3
 
 selected bond angles (degree)
 --------------------
H18-O1-C2=109.01               C3-C2-O1=118.84                C17-C2-O1=121.97               C17-C2-C3=119.19               
C4-C3-C2=120.04                H19-C3-C2=118.81               H19-C3-C4=121.13               C5-C4-C3=121.73                
H20-C4-C3=119.27               H20-C4-C5=118.99               C6-C5-C4=119.25                C16-C5-C4=117.16               
C16-C5-C6=123.35               C7-C6-C5=125.71                H21-C6-C5=114.76               H21-C6-C7=119.21               
C8-C7-C6=126.22                H22-C7-C6=118.99               H22-C7-C8=114.71               C9-C8-C7=118.64                
C15-C8-C7=123.18               C15-C8-C9=118.01               C10-C9-C8=120.95               H23-C9-C8=119.41               
H23-C9-C10=119.64              O11-C10-C9=121.82              C12-C10-C9=120.49              C12-C10-O11=117.67             
 
 selected dihedral angles (degree)
 ---------------------------------
C3-C2-O1-H18=194.27           C17-C2-O1-H18= 14.11          C4-C3-C2-O1=176.54            C4-C3-C2-C17=356.70           
H19-C3-C2-O1=357.92           H19-C3-C2-C17=178.07          C5-C4-C3-C2=  0.46            C5-C4-C3-H19=179.05           
H20-C4-C3-C2=181.69           H20-C4-C3-H19=  0.28          C6-C5-C4-C3=188.19            C6-C5-C4-H20=  6.96           
C16-C5-C4-C3=  2.73           C16-C5-C4-H20=181.50          C7-C6-C5-C4=172.28            C7-C6-C5-C16=358.11           
H21-C6-C5-C4=358.79           H21-C6-C5-C16=184.61          C8-C7-C6-C5=192.89            C8-C7-C6-H21=  6.13           
H22-C7-C6-C5=  9.60           H22-C7-C6-H21=182.83          C9-C8-C7-C6=174.05            C9-C8-C7-H22=357.22           
C15-C8-C7-C6=358.96           C15-C8-C7-H22=182.13          C10-C9-C8-C7=185.82           C10-C9-C8-C15=  1.17          
H23-C9-C8-C7=  5.49           H23-C9-C8-C15=180.84          O11-C10-C9-C8=177.71          O11-C10-C9-H23=358.04         
C12-C10-C9-C8=359.33          C12-C10-C9-H23=179.66         
 
 CMA Distance (Angstroems)
 ---------------------------
R(CMA):  3.7416
           -------------------------------------------------
          |                Final Singlepoint                |
           -------------------------------------------------

          ...................................................
          :                      SETUP                      :
          :.................................................:
          :  # basis functions                 255          :
          :  # atomic orbitals                 255          :
          :  # shells                          141          :
          :  # electrons                       221          :
          :  max. iterations                   500          :
          :  Hamiltonian                  GFN2-xTB          :
          :  restarted?                      false          :
          :  GBSA solvation                  false          :
          :  PC potential                    false          :
          :  electronic temp.          300.0000000     K    :
          :  accuracy                    1.0000000          :
          :  -> integral cutoff          0.2500000E+02      :
          :  -> integral neglect         0.1000000E-07      :
          :  -> SCF convergence          0.1000000E-05 Eh   :
          :  -> wf. convergence          0.1000000E-03 e    :
          :  Broyden damping             0.4000000          :
          :  net charge                          0          :
          :  unpaired electrons                  0          :
          ...................................................

 iter      E             dE          RMSdq      gap      omega  full diag
   1   -106.0451155 -0.106045E+03  0.334E-04    0.07       0.0  T
   2   -106.0451149  0.602620E-06  0.190E-03    0.07       5.7  T
   3   -106.0451155 -0.602339E-06  0.351E-04    0.07      31.1  T
   4   -106.0451156 -0.180876E-07  0.832E-05    0.07     131.1  T

   *** convergence criteria satisfied after 4 iterations ***

         #    Occupation            Energy/Eh            Energy/eV
      -------------------------------------------------------------
         1        2.0000           -0.6996090             -19.0373
       ...           ...                  ...                  ...
       105        2.0000           -0.2905503              -7.9063
       106        2.0000           -0.2870742              -7.8117
       107        2.0000           -0.2825862              -7.6896
       108        2.0000           -0.2820911              -7.6761
       109        2.0000           -0.2775425              -7.5523
       110        1.9999           -0.2716315              -7.3915
       111        0.7922           -0.2546636              -6.9297 (HOMO)
       112        0.2078           -0.2521218              -6.8606 (LUMO)
       113        0.0001           -0.2446206              -6.6565
       114                         -0.2280641              -6.2059
       115                         -0.2174409              -5.9169
       116                         -0.2131791              -5.8009
       ...                                ...                  ...
       255                          1.0631341              28.9294
      -------------------------------------------------------------
                  HL-Gap            0.0025418 Eh            0.0692 eV
             Fermi-level           -0.2582856 Eh           -7.0283 eV

 SCC (total)                   0 d,  0 h,  0 min,  0.069 sec
 SCC setup                      ...        0 min,  0.001 sec (  1.449%)
 Dispersion                     ...        0 min,  0.001 sec (  1.450%)
 classical contributions        ...        0 min,  0.000 sec (  0.000%)
 integral evaluation            ...        0 min,  0.005 sec (  7.246%)
 iterations                     ...        0 min,  0.043 sec ( 62.319%)
 molecular gradient             ...        0 min,  0.017 sec ( 24.638%)
 printout                       ...        0 min,  0.002 sec (  2.899%)

         :::::::::::::::::::::::::::::::::::::::::::::::::::::
         ::                     SUMMARY                     ::
         :::::::::::::::::::::::::::::::::::::::::::::::::::::
         :: total energy            -104.500497504287 Eh    ::
         :: gradient norm              0.000680597359 Eh/a0 ::
         :: HOMO-LUMO gap              0.069166996987 eV    ::
         ::.................................................::
         :: SCC energy              -106.038831519660 Eh    ::
         :: -> isotropic ES            0.262793966076 Eh    ::
         :: -> anisotropic ES          0.010527249064 Eh    ::
         :: -> anisotropic XC         -0.002607437966 Eh    ::
         :: -> dispersion             -0.127477338697 Eh    ::
         :: repulsion energy           1.538334015372 Eh    ::
         :: add. restraining           0.000000000000 Eh    ::
         :: total charge              -0.000000000004 e     ::
         :::::::::::::::::::::::::::::::::::::::::::::::::::::

           -------------------------------------------------
          |                Property Printout                |
           -------------------------------------------------

    * Orbital Energies and Occupations

         #    Occupation            Energy/Eh            Energy/eV
      -------------------------------------------------------------
         1        2.0000           -0.6996090             -19.0373
       ...           ...                  ...                  ...
        99        2.0000           -0.3111332              -8.4664
       100        2.0000           -0.3069444              -8.3524
       101        2.0000           -0.3052186              -8.3054
       102        2.0000           -0.3042820              -8.2799
       103        2.0000           -0.2993125              -8.1447
       104        2.0000           -0.2982206              -8.1150
       105        2.0000           -0.2905503              -7.9063
       106        2.0000           -0.2870742              -7.8117
       107        2.0000           -0.2825862              -7.6896
       108        2.0000           -0.2820911              -7.6761
       109        2.0000           -0.2775425              -7.5523
       110        1.9999           -0.2716315              -7.3915
       111        0.7922           -0.2546636              -6.9297 (HOMO)
       112        0.2078           -0.2521218              -6.8606 (LUMO)
       113        0.0001           -0.2446206              -6.6565
       114                         -0.2280641              -6.2059
       115                         -0.2174409              -5.9169
       116                         -0.2131791              -5.8009
       117                         -0.2073106              -5.6412
       118                         -0.2024728              -5.5096
       119                         -0.1978611              -5.3841
       120                         -0.1957115              -5.3256
       121                         -0.1923320              -5.2336
       122                         -0.1893446              -5.1523
       ...                                ...                  ...
       255                          1.0631341              28.9294
      -------------------------------------------------------------
                  HL-Gap            0.0025418 Eh            0.0692 eV
             Fermi-level           -0.2582856 Eh           -7.0283 eV

     #   Z          covCN         q      C6AA      α(0)
     1   8 O        1.659    -0.407    20.985     6.184
     2   6 C        2.847     0.135    25.055     8.203
     3   6 C        2.915    -0.066    29.653     8.929
     4   6 C        2.929    -0.054    29.339     8.883
     5   6 C        2.968    -0.009    28.250     8.718
     6   6 C        2.902    -0.068    29.682     8.933
     7   6 C        2.904    -0.074    29.852     8.959
     8   6 C        2.969     0.002    27.989     8.678
     9   6 C        2.926    -0.113    30.859     9.110
    10   6 C        2.843     0.134    25.065     8.205
    11   8 O        1.660    -0.409    21.024     6.190
    12   6 C        2.917    -0.120    31.051     9.138
    13   6 C        2.844     0.132    25.099     8.211
    14   8 O        1.660    -0.409    21.021     6.189
    15   6 C        2.922    -0.095    30.376     9.038
    16   6 C        2.924    -0.057    29.421     8.895
    17   6 C        2.915    -0.086    30.165     9.006
    18   1 H        0.805     0.310     0.692     1.307
    19   1 H        0.926     0.049     2.337     2.391
    20   1 H        0.926     0.032     2.564     2.504
    21   1 H        0.926     0.029     2.596     2.520
    22   1 H        0.926     0.040     2.449     2.447
    23   1 H        0.926     0.034     2.524     2.484
    24   1 H        0.805     0.304     0.709     1.323
    25   1 H        0.926     0.041     2.441     2.443
    26   1 H        0.805     0.307     0.700     1.314
    27   1 H        0.926     0.049     2.327     2.385
    28   1 H        0.926     0.044     2.390     2.418
    29   1 H        0.926     0.041     2.434     2.440
    30   5 B        3.728     0.075    21.296     7.456
    31   5 B        4.584     0.062    21.623     7.492
    32   5 B        3.757     0.033    22.077     7.583
    33   5 B        3.815     0.039    22.012     7.564
    34   5 B        3.861     0.059    21.660     7.501
    35   5 B        4.591     0.022    22.332     7.614
    36   5 B        2.871     0.060    20.396     7.539
    37   5 B        2.866     0.084    20.004     7.467
    38   5 B        4.654     0.034    22.126     7.579
    39   5 B        2.897     0.074    20.148     7.491
    40   5 B        3.817     0.057    21.687     7.507
    41   5 B        3.874     0.020    22.367     7.622
    42   5 B        4.541    -0.002    22.776     7.689
    43   5 B        3.824     0.055    21.724     7.513
    44   5 B        4.748     0.056    21.734     7.512
    45   5 B        4.722     0.071    21.474     7.467
    46   5 B        3.869     0.047    21.877     7.538
    47   5 B        2.926     0.022    21.018     7.650
    48   5 B        4.687     0.032    22.163     7.585
    49   5 B        2.876     0.056    20.455     7.550
    50   5 B        3.825     0.064    21.575     7.487
    51   5 B        3.858     0.021    22.353     7.620
    52   5 B        3.860     0.002    22.695     7.678
    53   5 B        3.844     0.050    21.814     7.528
    54   5 B        4.625     0.026    22.258     7.602
    55   5 B        5.687     0.112    20.771     7.343
    56   5 B        4.125     0.024    22.302     7.609
    57   5 B        2.924     0.028    20.920     7.632
    58   5 B        5.488     0.063    21.602     7.489
    59   5 B        3.584     0.065    20.787     7.497
    60   5 B        3.834     0.053    21.760     7.519
    61   5 B        3.872     0.024    22.294     7.609
    62   5 B        3.841     0.028    22.207     7.595
    63   5 B        2.886     0.106    19.637     7.396
    64   5 B        3.788     0.066    21.517     7.481
    65   5 B        5.251     0.107    20.859     7.359
    66   5 B        4.722     0.055    21.753     7.515
    67   5 B        3.802     0.010    22.537     7.654
    68   5 B        3.813     0.077    21.341     7.448
    69   5 B        2.911     0.049    20.562     7.567
    70   1 H        0.939    -0.109     5.873     3.789
    71   1 H        1.578     0.040     2.435     2.436
    72   1 H        0.936    -0.147     7.508     4.284
    73   1 H        0.929    -0.161     8.291     4.503
    74   1 H        0.935    -0.123     6.430     3.965
    75   1 H        0.935    -0.125     6.517     3.991
    76   1 H        0.939    -0.105     5.749     3.749
    77   1 H        0.936    -0.137     7.066     4.156
    78   1 H        0.939    -0.093     5.318     3.605
    79   1 H        0.934    -0.153     7.819     4.372
    80   1 H        0.939    -0.087     5.133     3.542
    81   1 H        0.940    -0.136     6.987     4.132
    82   1 H        0.939    -0.110     5.931     3.807
    83   1 H        0.938    -0.114     6.069     3.852
    84   1 H        0.940    -0.141     7.220     4.201

 Mol. C6AA /au·bohr⁶  :     107592.744918
 Mol. C8AA /au·bohr⁸  :    3323454.296005
 Mol. α(0) /au        :        527.376077


Wiberg/Mayer (AO) data.
largest (>0.10) Wiberg bond orders for each atom

 ---------------------------------------------------------------------------
     #   Z sym  total        # sym  WBO       # sym  WBO       # sym  WBO
 ---------------------------------------------------------------------------
     1   8 O    2.096 --     2 C    1.072    18 H    0.869
     2   6 C    3.899 --    17 C    1.356     3 C    1.341     1 O    1.072
     3   6 C    3.983 --     4 C    1.492     2 C    1.341    19 H    0.967
     4   6 C    3.960 --     3 C    1.492     5 C    1.326    20 H    0.969
     5   6 C    3.972 --     4 C    1.326    16 C    1.325     6 C    1.163
     6   6 C    3.913 --     7 C    1.639     5 C    1.163    21 H    0.960
     7   6 C    3.923 --     6 C    1.639     8 C    1.161    22 H    0.957
     8   6 C    3.956 --    15 C    1.342     9 C    1.320     7 C    1.161
     9   6 C    3.942 --    10 C    1.408     8 C    1.320    23 H    0.962
    10   6 C    3.930 --     9 C    1.408    12 C    1.349    11 O    1.060
    11   8 O    2.102 --    10 C    1.060    24 H    0.886
    12   6 C    3.923 --    13 C    1.359    10 C    1.349    25 H    0.965
    13   6 C    3.930 --    15 C    1.394    12 C    1.359    14 O    1.063
    14   8 O    2.106 --    13 C    1.063    26 H    0.881
    15   6 C    3.945 --    13 C    1.394     8 C    1.342    27 H    0.963
    16   6 C    3.955 --    17 C    1.475     5 C    1.325    28 H    0.964
    17   6 C    3.985 --    16 C    1.475     2 C    1.356    29 H    0.963
    18   1 H    0.904 --     1 O    0.869
    19   1 H    0.997 --     3 C    0.967
    20   1 H    0.999 --     4 C    0.969
    21   1 H    0.999 --     6 C    0.960
    22   1 H    0.998 --     7 C    0.957
    23   1 H    0.999 --     9 C    0.962
    24   1 H    0.907 --    11 O    0.886
    25   1 H    0.998 --    12 C    0.965
    26   1 H    0.905 --    14 O    0.881
    27   1 H    0.997 --    15 C    0.963
    28   1 H    0.998 --    16 C    0.964
    29   1 H    0.998 --    17 C    0.963
    30   5 B    3.546 --    70 H    0.952    33 B    0.927    31 B    0.863
                            71 H    0.527
    31   5 B    3.552 --    30 B    0.863    32 B    0.751    33 B    0.617
                            35 B    0.546    71 H    0.437    34 B    0.132
    32   5 B    3.571 --    34 B    1.119    72 H    0.950    31 B    0.751
                            35 B    0.442
    33   5 B    3.564 --    30 B    0.927    40 B    0.841    41 B    0.808
                            31 B    0.617    43 B    0.110
    34   5 B    3.391 --    32 B    1.119    42 B    0.811    38 B    0.629
                            35 B    0.427    31 B    0.132
    35   5 B    3.603 --    36 B    1.083    38 B    0.788    31 B    0.546
                            32 B    0.442    34 B    0.427
    36   5 B    3.425 --    35 B    1.083    37 B    1.004    73 H    0.902
                            38 B    0.145
    37   5 B    3.255 --    39 B    1.015    36 B    1.004    74 H    0.935
                            47 B    0.114
    38   5 B    3.676 --    35 B    0.788    46 B    0.751    45 B    0.704
                            34 B    0.629    42 B    0.377    36 B    0.145
    39   5 B    3.399 --    37 B    1.015    47 B    1.000    75 H    0.926
                            46 B    0.174
    40   5 B    3.628 --    76 H    0.929    41 B    0.851    33 B    0.841
                            43 B    0.785
    41   5 B    3.619 --    43 B    0.872    40 B    0.851    42 B    0.811
                            33 B    0.808
    42   5 B    3.637 --    44 B    0.815    41 B    0.811    34 B    0.811
                            45 B    0.435    38 B    0.377
    43   5 B    3.573 --    41 B    0.872    40 B    0.785    50 B    0.780
                            51 B    0.692    33 B    0.110
    44   5 B    3.587 --    42 B    0.815    52 B    0.691    45 B    0.659
                            55 B    0.555    48 B    0.481
    45   5 B    3.596 --    48 B    0.900    38 B    0.704    44 B    0.659
                            46 B    0.606    42 B    0.435
    46   5 B    3.536 --    47 B    0.974    38 B    0.751    48 B    0.687
                            45 B    0.606    39 B    0.174
    47   5 B    3.450 --    39 B    1.000    46 B    0.974    49 B    0.939
                            57 B    0.174    37 B    0.114
    48   5 B    3.639 --    45 B    0.900    56 B    0.751    46 B    0.687
                            44 B    0.481    55 B    0.445
    49   5 B    3.415 --    57 B    1.150    77 H    0.953    47 B    0.939
                            59 B    0.126
    50   5 B    3.580 --    78 H    0.922    51 B    0.838    53 B    0.815
                            43 B    0.780
    51   5 B    3.607 --    52 B    0.996    50 B    0.838    53 B    0.748
                            43 B    0.692
    52   5 B    3.619 --    51 B    0.996    54 B    0.875    44 B    0.691
                            55 B    0.612
    53   5 B    3.590 --    50 B    0.815    60 B    0.810    61 B    0.797
                            51 B    0.748    63 B    0.156
    54   5 B    3.667 --    52 B    0.875    62 B    0.712    55 B    0.688
                            65 B    0.626    58 B    0.406
    55   5 B    3.663 --    54 B    0.688    52 B    0.612    58 B    0.585
                            44 B    0.555    56 B    0.531    48 B    0.445
    56   5 B    3.515 --    57 B    0.985    58 B    0.755    48 B    0.751
                            55 B    0.531    59 B    0.194
    57   5 B    3.408 --    49 B    1.150    56 B    0.985    59 B    0.763
                            47 B    0.174
    58   5 B    3.622 --    56 B    0.755    66 B    0.640    55 B    0.585
                            67 B    0.482    54 B    0.406    65 B    0.274
                            59 B    0.259
    59   5 B    3.496 --    67 B    0.989    79 H    0.939    57 B    0.763
                            58 B    0.259    56 B    0.194    49 B    0.126
    60   5 B    3.591 --    63 B    0.972    80 H    0.910    53 B    0.810
                            61 B    0.759
    61   5 B    3.610 --    63 B    0.978    62 B    0.895    53 B    0.797
                            60 B    0.759
    62   5 B    3.606 --    61 B    0.895    64 B    0.849    54 B    0.712
                            65 B    0.675    63 B    0.170
    63   5 B    3.421 --    61 B    0.978    60 B    0.972    81 H    0.970
                            62 B    0.170    53 B    0.156
    64   5 B    3.515 --    82 H    0.951    62 B    0.849    65 B    0.758
                            68 B    0.725
    65   5 B    3.644 --    64 B    0.758    68 B    0.730    62 B    0.675
                            54 B    0.626    66 B    0.431    58 B    0.274
    66   5 B    3.629 --    69 B    0.951    68 B    0.741    67 B    0.707
                            58 B    0.640    65 B    0.431
    67   5 B    3.579 --    69 B    1.162    59 B    0.989    66 B    0.707
                            58 B    0.482
    68   5 B    3.560 --    83 H    0.954    66 B    0.741    65 B    0.730
                            64 B    0.725    69 B    0.205
    69   5 B    3.517 --    67 B    1.162    84 H    0.968    66 B    0.951
                            68 B    0.205
    70   1 H    0.982 --    30 B    0.952
    71   1 H    0.992 --    30 B    0.527    31 B    0.437
    72   1 H    0.976 --    32 B    0.950
    73   1 H    0.971 --    36 B    0.902
    74   1 H    0.983 --    37 B    0.935
    75   1 H    0.981 --    39 B    0.926
    76   1 H    0.977 --    40 B    0.929
    77   1 H    0.978 --    49 B    0.953
    78   1 H    0.979 --    50 B    0.922
    79   1 H    0.975 --    59 B    0.939
    80   1 H    0.980 --    60 B    0.910
    81   1 H    0.981 --    63 B    0.970
    82   1 H    0.984 --    64 B    0.951
    83   1 H    0.983 --    68 B    0.954
    84   1 H    0.979 --    69 B    0.968
 ---------------------------------------------------------------------------

Topologies differ in total number of bonds
Writing topology from bond orders to xtbtopo.mol

molecular dipole:
                 x           y           z       tot (Debye)
 q only:        0.715      -0.393      -1.500
   full:        0.242      -0.771      -0.537       2.465
molecular quadrupole (traceless):
                xx          xy          yy          xz          yz          zz
 q only:      -18.952       2.838      12.027       7.038      17.009       6.925
  q+dip:        6.670       0.510       4.740       9.420      16.443     -11.410
   full:       -5.876      -1.831      -1.712       7.789      17.778       7.589

           -------------------------------------------------
          |                Geometry Summary                 |
           -------------------------------------------------

      molecular mass/u    :      675.8040396
   center of mass at/Å    :        0.0712382       0.0216099       2.4770273
  moments of inertia/u·Å² :        0.5557088E+04   0.1006353E+05   0.1086443E+05
rotational constants/cm⁻¹ :        0.3033537E-02   0.1675121E-02   0.1551635E-02

 * 106 selected distances

     #   Z          #   Z                                           value/Å
     1   8 O        2   6 C                                       1.3596246
     2   6 C        3   6 C                                       1.3940680
     3   6 C        4   6 C                                       1.3751073
     4   6 C        5   6 C                                       1.4043692
     6   6 C        7   6 C                                       1.3561410
     8   6 C        9   6 C                                       1.4058636
     9   6 C       10   6 C                                       1.3815879
    10   6 C       11   8 O                                       1.3645640
    10   6 C       12   6 C                                       1.3924729
    12   6 C       13   6 C                                       1.3905992
    13   6 C       14   8 O                                       1.3615895
     8   6 C       15   6 C                                       1.3990485
    13   6 C       15   6 C                                       1.3834754
     5   6 C       16   6 C                                       1.4037034
     2   6 C       17   6 C                                       1.3910683
    16   6 C       17   6 C                                       1.3776274
     1   8 O       18   1 H                                       0.9671544
     3   6 C       19   1 H                                       1.0772872
     4   6 C       20   1 H                                       1.0801100
     6   6 C       21   1 H                                       1.0803649
     7   6 C       22   1 H                                       1.0797095
     9   6 C       23   1 H                                       1.0811174
    11   8 O       24   1 H                                       0.9636498
    12   6 C       25   1 H                                       1.0782327
    14   8 O       26   1 H                                       0.9633847 (min)
    15   6 C       27   1 H                                       1.0753394
    16   6 C       28   1 H                                       1.0770544
    17   6 C       29   1 H                                       1.0800137
    30   5 B       31   5 B                                       1.5972827
    31   5 B       32   5 B                                       1.6659570
    30   5 B       33   5 B                                       1.6071880
    32   5 B       34   5 B                                       1.5610399
    35   5 B       36   5 B                                       1.6025230
    36   5 B       37   5 B                                       1.6455212
    34   5 B       38   5 B                                       1.6565143
    35   5 B       38   5 B                                       1.6349714
    37   5 B       39   5 B                                       1.6303269
    33   5 B       40   5 B                                       1.6687731
    33   5 B       41   5 B                                       1.6300557
    40   5 B       41   5 B                                       1.5867880
    34   5 B       42   5 B                                       1.6507855
    41   5 B       42   5 B                                       1.6426486
    40   5 B       43   5 B                                       1.7007198
    41   5 B       43   5 B                                       1.6125585
    42   5 B       44   5 B                                       1.6323352
    38   5 B       45   5 B                                       1.6253263
    44   5 B       45   5 B                                       1.6466155
    38   5 B       46   5 B                                       1.6544200
    45   5 B       46   5 B                                       1.6604306
    39   5 B       47   5 B                                       1.6028900
    46   5 B       47   5 B                                       1.5852680
    45   5 B       48   5 B                                       1.5757105
    46   5 B       48   5 B                                       1.6972516
    47   5 B       49   5 B                                       1.6374494
    43   5 B       50   5 B                                       1.6762194
    43   5 B       51   5 B                                       1.6908255
    50   5 B       51   5 B                                       1.5963858
    44   5 B       52   5 B                                       1.6547723
    51   5 B       52   5 B                                       1.5959712
    50   5 B       53   5 B                                       1.6653023
    51   5 B       53   5 B                                       1.6497400
    52   5 B       54   5 B                                       1.6217958
    44   5 B       55   5 B                                       1.6779447
    48   5 B       55   5 B                                       1.7856159 (max)
    52   5 B       55   5 B                                       1.6666060
    54   5 B       55   5 B                                       1.6333959
    48   5 B       56   5 B                                       1.6614971
    55   5 B       56   5 B                                       1.6997100
    49   5 B       57   5 B                                       1.5762181
    56   5 B       57   5 B                                       1.6030682
    55   5 B       58   5 B                                       1.6606783
    56   5 B       58   5 B                                       1.6827288
    57   5 B       59   5 B                                       1.6767008
    53   5 B       60   5 B                                       1.6637927
    53   5 B       61   5 B                                       1.6469191
    60   5 B       61   5 B                                       1.6338867
    54   5 B       62   5 B                                       1.6766329
    61   5 B       62   5 B                                       1.6250653
    60   5 B       63   5 B                                       1.6122763
    61   5 B       63   5 B                                       1.5745639
    62   5 B       64   5 B                                       1.6732662
    54   5 B       65   5 B                                       1.6649842
    62   5 B       65   5 B                                       1.6610770
    64   5 B       65   5 B                                       1.6267759
    58   5 B       66   5 B                                       1.6865266
    59   5 B       67   5 B                                       1.6067491
    66   5 B       67   5 B                                       1.6718309
    65   5 B       68   5 B                                       1.6295454
    66   5 B       68   5 B                                       1.6602999
    66   5 B       69   5 B                                       1.5948302
    67   5 B       69   5 B                                       1.5486110
    30   5 B       70   1 H                                       1.1693283
    30   5 B       71   1 H                                       1.2891868
    32   5 B       72   1 H                                       1.1791101
    36   5 B       73   1 H                                       1.1950236
    37   5 B       74   1 H                                       1.1804862
    39   5 B       75   1 H                                       1.1811024
    40   5 B       76   1 H                                       1.1706475
    49   5 B       77   1 H                                       1.1781113
    50   5 B       78   1 H                                       1.1708864
    59   5 B       79   1 H                                       1.1845836
    60   5 B       80   1 H                                       1.1694356
    63   5 B       81   1 H                                       1.1653932
    64   5 B       82   1 H                                       1.1702138
    68   5 B       83   1 H                                       1.1729154
    69   5 B       84   1 H                                       1.1671836

 * 6 distinct bonds (by element types)

   Z      Z             #   av. dist./Å        max./Å        min./Å
   1 H    5 B          15     1.1829072     1.2891868     1.1653932
   5 B    5 B          63     1.6403835     1.7856159     1.5486110
   1 H    6 C           9     1.0788032     1.0811174     1.0753394
   6 C    6 C          13     1.3888563     1.4058636     1.3561410
   1 H    8 O           3     0.9647296     0.9671544     0.9633847
   6 C    8 O           3     1.3619260     1.3645640     1.3596246


optimized geometry written to: xtbopt.xyz


           -------------------------------------------------
          | TOTAL ENERGY             -104.500497504287 Eh   |
          | GRADIENT NORM               0.000680597359 Eh/α |
          | HOMO-LUMO GAP               0.069166996987 eV   |
           -------------------------------------------------

------------------------------------------------------------------------
 * finished run on 2026/09/01 at 20:34:55.945     
------------------------------------------------------------------------
 total:
 * wall-time:     0 d,  0 h,  0 min, 17.457 sec
 *  cpu-time:     0 d,  0 h,  3 min, 17.062 sec
 * ratio c/w:    11.288 speedup
 SCF:
 * wall-time:     0 d,  0 h,  0 min,  0.384 sec
 *  cpu-time:     0 d,  0 h,  0 min,  4.203 sec
 * ratio c/w:    10.946 speedup
 ANC optimizer:
 * wall-time:     0 d,  0 h,  0 min, 17.028 sec
 *  cpu-time:     0 d,  0 h,  3 min, 12.438 sec
 * ratio c/w:    11.301 speedup

