89
 energy: -115.959468905157 gnorm: 0.012103446334 xtb: 6.7.1pre (5071a88)
O           -0.26279641562291        6.12033959339114        5.35706097677097
C           -0.28524181469256        4.75874699830737        5.48067545958639
C           -1.50565503080787        4.10385112488442        5.33586525023835
C           -1.56586124288954        2.73299260430831        5.42756782852287
C           -0.41567539015237        1.95985455242189        5.66531427510777
C           -0.53820427170574        0.52960279373291        5.74290299326458
C            0.46581009195861       -0.36782793742283        5.88099713952474
C            0.30925246083195       -1.78624992353236        6.03380168923008
C            1.42635959630344       -2.56593913545795        6.38206097965038
C            1.30257131649599       -3.92178496724857        6.60169868962267
O            2.37095920626476       -4.69377009565379        6.96845444546280
C            0.07019340230119       -4.55172956069212        6.46059974378599
C           -1.03320723356012       -3.79911441522675        6.08201504716986
O           -2.25967625397152       -4.37556172805893        5.91019557505740
C           -0.92268992388092       -2.43855194215722        5.87127743713770
C            0.79456160977516        2.64489853171070        5.83954019504695
C            0.85809554521301        4.02171714429493        5.75411648111743
H            0.62885412072672        6.44593235645837        5.50711936826590
H           -2.38685928878506        4.69215864017539        5.14480872653105
H           -2.51138493921136        2.23009547029187        5.30754018756374
H           -1.54963104975597        0.16585704345247        5.73798023543776
H            1.48334775353850       -0.01619023647610        5.89288308450006
H            2.38792633059579       -2.08530165755204        6.50721430330696
H            3.14919566535777       -4.13136854689546        7.05136160862897
H           -0.00686934256344       -5.61052783019186        6.64702285022015
H           -2.19219451876189       -5.32021926106514        6.07888981800703
H           -1.80235799097694       -1.89559495405596        5.58210014168183
H            1.68772464326243        2.09493169444918        6.07501900483954
H            1.79925133845382        4.53041170636911        5.90457954009731
B           -6.24146660623134       -2.90451470380377       -0.29935206090488
B           -3.82260648658006       -3.47373400023509        1.04862541775367
B           -1.06405760497053       -4.19705258904675        2.28863302860396
B            1.67687353418173       -4.23956083431152        1.66452984805491
B            2.93659558150435       -3.67421861394390        0.90366960431229
B            5.81161316354012       -3.81268171517303       -0.28107219429923
B           -4.66076281315435       -2.35554963168860       -0.25874779157134
B           -2.60832103056654       -2.23416695378057        1.13195489223876
B           -1.27131322683222       -2.42824709476352        2.13113419610365
B            0.27524906364866       -3.14714097203789        1.64769425717884
B            3.07978959546886       -2.09696422071167        0.36011170409321
B            5.14023578653340       -2.52780673562913       -0.97364821361352
B           -4.23859069532095       -1.05920324409460       -1.15396612666808
B           -3.12617264798676       -1.28269692658092        0.02740208355127
B           -0.84960899388623       -0.94217760640944        2.50482330842360
B            0.42399310220010       -1.50750024588650        1.30323365928734
B            4.16233971029445       -1.22179805229392       -0.34632831201070
B            6.72242955044731       -2.43670839551613       -0.72961998816921
B           -4.76846155926567       -0.64116127528024       -2.68990833300156
B           -3.08759993204226        0.15233651620019       -0.64389542756732
B           -1.06013602564300        0.59831380036524        2.56416542075519
B            0.00008400577477       -0.02298989510726        1.34763326144788
B            4.78532304199308        0.28029758665489       -0.34950818635197
B            5.73466049516147       -1.01784382253729       -0.99126722870606
B           -5.49278779691335        0.87732182422431       -2.82162072773822
B           -2.75150273187768        1.60271202732570       -0.34263482420575
B           -1.31978185665117        2.11167291883434        2.42801783558157
B            0.17350129155183        1.54105675177054        1.54322208051802
B            4.19067885532436        1.64283679389491        0.32023051732962
B            6.11804270461624        0.48486888369896       -1.53338334489699
B           -5.54741563376853        1.79271775053898       -1.40704611643594
B           -3.25664213379277        2.95098914471702        0.13484901309909
B           -1.72627766292652        3.60460345039470        2.13021783749952
B           -0.07630679953639        3.16063598478889        1.81130054700090
B            2.93224958446174        2.26188171504045        1.05687171396079
B            5.62125805955660        1.74509824603654       -0.63307736872850
B           -6.46856357816796        2.89034547093045       -0.87294309401704
B           -4.42840754807372        3.92457692375709        0.73842224139989
B           -1.78851937749080        5.18479342921777        1.60575053068587
B            1.15247165463436        4.39241320528765        1.78501024852178
B            2.55692594986406        3.91382343345569        1.29656408290766
B            5.22028105181343        3.05924003821123        0.03102941876769
B           -5.24256002710856       -3.69189903609129        0.49406433895384
B           -2.48897874406976       -3.67496979773296        1.86059665777245
B            0.35510686159123       -4.74731789747453        2.21402425032510
B            1.70687664910617       -2.40821611996880        1.11512913537212
B            4.26644960453386       -3.44352321725444        0.13815541439381
B           -4.97442521705228        2.87962648771909       -0.25781416682783
B           -3.02610759490272        4.33581118500580        1.23083641093161
B           -0.31045424629815        4.88728451587801        1.87902240750863
B            1.44825162113533        2.53842233159964        1.47763018086990
B            3.99760960247642        3.61812936572652        0.75998095057301
B           -4.43014090920882        0.58457469716970       -1.64679799825297
H           -7.23111596465666       -2.56030514517322       -0.82892169964553
H           -4.69719475347119       -1.37470345911384       -3.60929981138505
H           -5.97860915804971        1.27274110531607       -3.81707049004550
H           -7.43226416274712        3.53689984426466       -0.73225738620392
H            6.25252601896261       -4.90276842186248       -0.31708940898449
H            7.88558236583203       -2.41229436591398       -0.88777389591838
H            6.74435763929425        0.64202749883075       -2.52504437500669
