60
 energy: -61.505934770113 gnorm: 0.000571515083 xtb: 6.7.1 (edcfbbe)
B           -6.50988120098192        2.19068844641020        0.79029078432280
B           -6.25242439025855        0.60768107368553        1.37758173735003
B           -5.17787943335411        3.27488396245353        0.92288654587325
B           -4.94071640792517        1.60443233671446        1.04037565879498
B           -4.69175682874333       -0.06314198258165        1.25555813868581
B           -5.74943857926173       -2.69102181984364        2.01681469025470
B           -5.51783089358912       -4.38599367230154        1.98276584055298
B           -4.44552954586818       -1.69009073382080        1.56203081469121
B           -4.19434721485174       -3.32752197884249        1.94479960211472
B           -3.93720690270472       -4.93806429022940        2.38709801267047
B           -3.60775953707559        2.64756354556051        0.83519164471749
B           -3.36455584703853        0.96462339029452        1.02881672934456
B           -2.29688083235534        3.61467487886332        0.37269111473359
B           -2.04410888899290        2.00012818518804        0.80451959093679
B           -1.79037069690313        0.36703800872102        1.19584127659198
B           -2.87033492343329       -2.31017758969103        1.61728229918134
B           -2.61222139637619       -3.95945961748560        1.99161438895779
B           -1.54329577393342       -1.26891745650784        1.49041804718813
B           -1.30080847311752       -2.94363224425958        1.64898820549987
B           -1.06231557829442       -4.61287806618953        1.76811482974813
B           -0.71781263989180        3.04073693248866        0.60066002287407
B           -0.46713605321780        1.37848894274150        0.89876261459684
B            0.61560053320959        4.08247484026747        0.54640410339839
B            0.85770062551439        2.41949085195978        0.70660014178582
B            1.10071198842594        0.74805155839235        0.88144141660436
B            0.02707394138930       -1.89845649305379        1.47744332807986
B            0.27354438000604       -3.57493288792510        1.69413291430582
B            1.34741129873902       -0.88900511564066        1.16993165323826
B            1.59828054596048       -2.53478548336690        1.49157134194486
B            1.84838709584497       -4.16664548859881        1.84711053118126
B            2.17050405604900        3.43286110819241        0.34647273641971
B            2.42871992970302        1.78410301146333        0.72523556927288
B            3.49407275224914        4.41441724544422       -0.03593884792665
B            3.74959286421282        2.79866391420074        0.38221506620028
B            4.00051440950821        1.15865179646984        0.75329724984852
B            2.92265911035273       -1.49278314728959        1.30280232263025
B            3.16379709063203       -3.18303769303983        1.44850860035777
B            4.24637318126687       -0.47130747670904        1.04327523787131
B            4.49370890854086       -2.14088807222072        1.24528508773711
B            4.73119310512517       -3.80980237386379        1.36207848424922
B            5.07662426957241        3.85973114240654        0.36613799626062
B            5.30699355269565        2.16363267660629        0.30966154225318
B            5.80648974776982       -1.14687577144311        0.89140255915217
B            6.06701241710623       -2.72564563342245        1.49966670665575
H           -7.53619307736588        2.56917524170788        0.36464882819797
H           -7.11297812737277        0.05798975844556        1.94812789751991
H           -5.38617257620293        4.41978668488207        1.08744908846288
H           -6.74485380720717       -2.25194688902320        2.44653717447595
H           -6.37611083341962       -5.15589554739779        1.76464290009766
H           -3.81493821094161       -5.96404759346967        2.94694030573752
H           -2.48166622781830        4.68042053306109       -0.08879323344482
H           -0.92092227116048       -5.77641590858561        1.67330225502695
H            0.47114600390550        5.24605553283773        0.63720958819801
H            2.03257894012392       -5.27035500164863        2.20960736556432
H            3.37406383350655        5.44647961910270       -0.58525401824667
H            4.94153226351274       -4.95241291127782        1.18556942465264
H            5.93127094278354        4.62930116926481        0.59852393712822
H            6.29908806846055        1.72774502254985       -0.13111887619531
H            6.65407850742463       -0.60821803354600        0.29146363510511
H            7.08871226606640       -3.09900486710055        1.94018951651739
