39
 energy: -54.835386800768 gnorm: 0.000458473295 xtb: 6.7.1 (edcfbbe)
C           -6.68543910310281        1.38368514558320        0.57125693052868
C           -5.32552875294268        0.83409348911440        0.29729532733892
C           -5.18068270251190       -0.28463307826784       -0.53337589913395
C           -3.95001776034970       -0.83354970148543       -0.82172986359527
C           -2.81516734159591       -0.24901114276319       -0.26570434297095
C           -2.95545509797958        0.87556868488802        0.55349051398319
C           -4.19430834393703        1.41935005891262        0.84522145563054
S           -1.38876087236166        1.42580035677410        1.08710910534594
C           -0.61240212691969        0.15488125191875        0.19939770510671
C            0.80785076894392        0.06730352843556        0.17577961625130
C            1.54517988217987        0.59518633641163        1.25678804308844
C            2.90882985219234        0.55355339577393        1.28842913539033
C            3.65437672633693        0.00638512678796        0.21566761291337
N            4.99725450309895       -0.04812194643779        0.24415357799181
C            5.74433341022788       -0.52786555642061       -0.89650765646459
C            5.73413588246760        0.40104597691506        1.40342970649916
C            2.91395547380858       -0.46672189353060       -0.89387957417066
C            1.54665173543003       -0.44704884792969       -0.90915682627506
N           -1.49661462270074       -0.64126731145025       -0.41887428386421
C           -1.17336851466996       -1.89960235094402       -1.04723828424396
H           -7.15030382168653        1.71321398363743       -0.35683652413874
H           -6.64046110570362        2.22503124131602        1.25614508575411
H           -7.32383024991294        0.61392274645067        1.00150169157554
H           -6.06570674961455       -0.72806825504482       -0.96274387653988
H           -3.87558232291995       -1.68766314790438       -1.47464858959327
H           -4.27018386132102        2.28516204950720        1.48312573239205
H            1.01105526776608        1.01788510374443        2.09484008993854
H            3.41344745212279        0.96002335550643        2.14752901283792
H            6.80782226349432       -0.40859381318813       -0.71114428679519
H            5.54596518653519       -1.58699325793790       -1.07998281051200
H            5.49301504730106        0.04044849001224       -1.79472414146677
H            5.66836085713166        1.48619215618815        1.51953446623114
H            5.35726933794040       -0.07560155799445        2.30991427914432
H            6.78120986659968        0.13243606970053        1.29530290746728
H            3.42544616187606       -0.84873674466929       -1.76068260517493
H            1.04155661247560       -0.77117499194421       -1.80447605913659
H           -0.21212279934341       -2.25797824934927       -0.68461380059567
H           -1.14183165742784       -1.79940504525888       -2.13373101550184
H           -1.93994847092770       -2.62913167506450       -0.78592479523400
