130
Congo Red/beta12_supported GFN2 opt
N       2.60850921     -8.09139116      7.96892094
C       1.36247969     -8.07141601      7.40840496
C       0.69311975     -6.83006754      7.35292425
N       1.34026156     -5.71800253      7.78063189
N       0.60102001     -4.65583499      7.87609951
C       1.00292355     -3.42107717      7.60918664
C       0.10704232     -2.36818780      7.92366783
C       0.21150124     -1.16213852      7.29852618
C       1.22389076     -0.90404591      6.34979113
C       1.16517678      0.28501649      5.53316596
C      -0.09108361      0.83291012      5.21010099
C      -0.20287734      1.94417542      4.42671134
C       0.94370654      2.59654745      3.92584537
N       0.68928498      3.71105421      3.22264206
N       1.65895052      4.38233885      2.65466367
C       1.23158232      5.52966005      2.04866636
C      -0.12081976      5.94410499      2.05950077
C      -0.52799763      7.03274780      1.36204400
S      -2.26344351      7.40202576      1.40183743
O      -2.70486743      7.60422771     -0.03913042
O      -2.45050239      8.64854503      2.08749513
O      -2.92480380      6.25116958      1.98670970
C       0.38793493      7.84317906      0.66001755
C      -0.02120843      9.00968050     -0.00637444
C       0.88719830      9.78111361     -0.68193754
C       2.23927758      9.41350519     -0.70936675
C       2.66707578      8.28750420     -0.06009897
C       1.76363302      7.46419600      0.64544918
C       2.17389323      6.28695569      1.32686583
N       3.47529192      5.86314987      1.34847736
C       2.20769006      2.04716185      4.23893499
C       2.30553874      0.91783580      5.00891896
C       2.21961947     -1.88192275      6.18644894
C       2.12402138     -3.10240773      6.79842065
C      -0.57165141     -6.75384024      6.71630910
C      -1.12464904     -7.84037094      6.12680860
S      -2.61542723     -7.65413183      5.18129038
O      -2.31298160     -7.75672914      3.77707131
O      -3.68086326     -8.45315568      5.69724766
O      -3.02480495     -6.11386828      5.44068611
C      -0.49126416     -9.10084808      6.15602731
C      -1.06557317    -10.22641543      5.54535813
C      -0.43990843    -11.44469337      5.59444033
C       0.78987410    -11.57511803      6.25410116
C       1.37802074    -10.49275689      6.84884191
C       0.76642915     -9.21935552      6.82339284
H       2.85740672     -7.23551461      8.43996031
H       2.97677353     -8.95060755      8.33505127
H      -0.68052446     -2.56263162      8.63516297
H      -0.48905770     -0.37785131      7.54394765
H      -0.98355140      0.34701738      5.57449183
H      -1.16346289      2.36345228      4.17586380
H      -0.83817888      5.35444029      2.60585411
H      -3.93506484      5.07883074      0.52143021
H      -1.06270138      9.28139304      0.04382042
H       0.56985995     10.67928595     -1.18965590
H       2.94782787     10.03261301     -1.24035580
H       3.71802843      8.03899062     -0.07291993
H       4.07272322      6.11188111      0.58021542
H       3.57114445      4.92858356      1.71799716
H       3.09066399      2.55602960      3.88179188
H       3.28186651      0.52990224      5.26153205
H       3.04375427     -1.69084532      5.51419960
H       2.85390507     -3.87688311      6.61856239
H      -1.06100180     -5.79394571      6.70944571
H      -2.61370874     -5.54800756      4.77756611
H      -2.01372761    -10.10216617      5.04710185
H      -0.88938217    -12.30837675      5.12870444
H       1.27479614    -12.53989954      6.28899413
H       2.33144661    -10.61835512      7.34093440
B      -2.79959349      6.54765219     -1.15739116
B      -3.92749940      5.31424945     -0.74637545
B      -1.20157450      5.99281586     -1.55441114
B      -2.28621377      4.91646214     -0.84531126
B      -3.35525676      3.93943839      0.06698447
B      -6.07870153      3.25952872      0.88759556
B      -7.19717932      2.03971507      1.32585096
B      -4.44499449      2.82465987      0.69739115
B      -5.52599957      1.78971645      1.49673311
B      -6.59687677      0.76216508      2.30315445
B      -0.62614503      4.58736296     -0.81821056
B      -1.68651636      3.62546788      0.12568300
B       1.02315432      4.22452739     -0.84172832
B      -0.05565930      3.18198045     -0.06542445
B      -1.13343246      2.15238315      0.74479599
B      -3.87650018      1.39222597      1.39610724
B      -4.96584034      0.32477146      2.15521885
B      -2.21665884      1.07558234      1.45117760
B      -3.31526721     -0.03891667      2.10396398
B      -4.41595900     -1.18278534      2.68803900
B       1.61589245      2.89323361      0.03254488
B       0.50838207      1.74675066      0.63559027
B       3.26892659      2.55385699      0.05712744
B       2.17496626      1.43854478      0.69882853
B       1.07015198      0.29385309      1.29210326
B      -1.65741183     -0.39458983      2.07827109
B      -2.75132570     -1.47710853      2.80358765
B      -0.01530663     -0.78893944      1.98681258
B      -1.09093424     -1.81173221      2.81367201
B      -2.16150268     -2.83016161      3.63342293
B       3.82439883      1.05961717      0.62160550
B       2.73974091      0.01485552      1.42226123
B       5.46093676      0.64690231      0.51598631
B       4.38926036     -0.37796778      1.32814707
B       3.30171538     -1.43811441      2.08298213
B       0.56392065     -2.17167480      2.77774530
B      -0.54040664     -3.28781940      3.43824474
B       2.21888295     -2.52055171      2.77189365
B       1.11715075     -3.65527767      3.38879956
B       0.01076605     -4.81157234      3.93889650
B       6.05834395     -0.63967273      1.48276881
B       4.94045279     -1.86818263      1.89864695
B       2.74994952     -4.06450461      3.26804291
B       1.69500629     -5.02129022      4.20916345
H      -3.18230754      7.15308079     -2.10423811
H      -4.96948187      5.32024431     -1.28224789
H      -0.60378663      6.58981481     -2.36127451
H      -6.42602240      4.37229724      0.84550646
H      -8.31623611      2.05753653      0.99241402
H      -7.29603351      0.27727550      3.10558312
H       1.73878295      4.81221025     -1.55944383
H      -5.18109537     -2.00444966      3.01734948
H       4.04278558      3.35268803     -0.31275223
H      -2.86338519     -3.44677896      4.34074223
H       6.16730038      1.14854377     -0.27197033
H      -0.65884713     -5.76975799      3.91332772
H       7.17500285     -0.67197251      1.82773471
H       5.30633797     -2.97299723      1.97408991
H       3.74088227     -4.52808618      2.86613534
H       2.06680559     -5.84547085      4.94513114
