130
 energy: -190.743958574707 gnorm: 0.000880577034 xtb: 6.7.1 (edcfbbe)
N           -7.30434962433804       -3.27512764185877        6.52824351901974
C           -7.83191368539248       -2.04394305900097        6.25317621850661
C           -6.94142559777240       -0.95250111427899        6.21538486513380
N           -5.62322882313101       -1.20302804335342        6.43916659676984
N           -4.85520502835132       -0.15024079557013        6.35222215209192
C           -3.52548073107153       -0.29872630668262        6.26603663704065
C           -2.77304627218570        0.89433330883016        6.20413998362342
C           -1.44606709482137        0.87091041512557        5.88713956829862
C           -0.77173782222791       -0.33657640615059        5.61545893368379
C            0.58969166299237       -0.32884313813746        5.13631339986668
C            1.10166219624088        0.80604663254965        4.47677617134860
C            2.37002978356959        0.83006152899989        3.97530369685685
C            3.22560075159504       -0.28563708454057        4.10429182470184
N            4.44758989090820       -0.13644558309105        3.57014926301270
N            5.31499082616718       -1.12329877657218        3.66208231530768
C            6.54040555220403       -0.81546848806434        3.16146463274997
C            6.84142957442791        0.44663563121162        2.59440162862788
C            8.05513443149630        0.69177670691656        2.04470838893810
S            8.34413653170511        2.24852131799398        1.25937155503821
O            8.56137123953587        2.07043497315876       -0.15028444388513
O            9.30218326960673        3.02037381876424        1.98975601020569
O            6.92664441233900        2.97950149932676        1.40692862253776
C            9.08183187588664       -0.27325720914540        2.05247151592957
C           10.34249449879797       -0.00972179986566        1.49436347667341
C           11.33055549116324       -0.95848160940000        1.52392514170112
C           11.08999603098463       -2.20431384702027        2.12079146350344
C            9.86935208021375       -2.48999003440804        2.66813008000569
C            8.82075212190226       -1.54395831001723        2.64940777642177
C            7.53380784663568       -1.81551446129013        3.17984501661928
N            7.20793299101640       -3.01246315671040        3.75984483107211
C            2.72460630899924       -1.42339252368062        4.77731633611761
C            1.44718904132147       -1.43724059577975        5.26883820352285
C           -1.49971537691108       -1.52918489425733        5.78463272995378
C           -2.83099281450279       -1.51939918643579        6.10162224727933
C           -7.43213107214076        0.33134274937370        5.87612566429290
C           -8.72774457728398        0.51019958129905        5.52233996187690
S           -9.25386477694027        2.09139850035864        4.90967032085939
O           -9.58593808261518        1.97889466880167        3.51414071627731
O          -10.20646833515277        2.70596891711959        5.78040897709500
O           -7.90599695757485        2.97287772762511        4.98115236572742
C           -9.65379031353055       -0.55415279488407        5.53732125865871
C          -10.99975719853629       -0.36236535082061        5.18741647308354
C          -11.88667090390466       -1.40626830446794        5.22414596580891
C          -11.45364584599392       -2.68213372523166        5.60984279129239
C          -10.14657677191714       -2.89852779894499        5.95139361731487
C           -9.20117653060276       -1.84999997993387        5.92924183375303
H           -6.35109098552305       -3.22548810281529        6.85641657500037
H           -7.89493186055846       -3.98911048826019        6.91586687363943
H           -3.28335439341261        1.82405140930368        6.40421134613020
H           -0.89637958114802        1.79927245366149        5.87041263865821
H            0.46729944702054        1.66555593360063        4.33647920733427
H            2.75657664006914        1.69954436925807        3.46967621915628
H            6.06584293745960        1.19286521164577        2.61013649418309
H            6.41475541852437        2.89694352071051        0.56368449991372
H           10.50383213933591        0.95913178557647        1.04946796945687
H           12.29914992444700       -0.75218004528579        1.09483102561566
H           11.87967924127666       -2.94108718915465        2.14855459502042
H            9.71140082969992       -3.45071448728059        3.13580080475060
H            7.69234090457673       -3.84325464407388        3.47075338170694
H            6.22154773579897       -3.09174816615280        3.95810281733497
H            3.37900962610169       -2.27199084202018        4.90449049805808
H            1.10401449987777       -2.31103929667403        5.80301896250894
H           -1.00793746115292       -2.47791005226841        5.62381657127428
H           -3.39013365237599       -2.43839191909387        6.19274343700050
H           -6.73322070211321        1.14991020368016        5.90753892178415
H           -7.44140109337466        2.90782204791320        4.13305965091991
H          -11.30971264315108        0.62874350387534        4.89698082871384
H          -12.92149423583225       -1.25271768688479        4.95844672917306
H          -12.16071102102472       -3.49868968521457        5.63525014698828
H           -9.83536051586798       -3.89298744840815        6.23632694755848
B           -5.91348579352264        3.08412305047154        2.48456721332347
B           -5.53018942149979        1.49342095109636        2.97402812032190
B           -4.59223003235187        4.16251778128465        2.26134085105245
B           -4.32406236591890        2.49719451010744        2.36419921749591
B           -4.02592380039316        0.83771505646803        2.54678606477930
B           -4.99697218741477       -1.86456885271828        3.13322775267780
B           -4.59051946538067       -3.43820749985919        3.69945599294916
B           -3.73719028707901       -0.80809108035110        2.71320916936540
B           -3.43394486579373       -2.46216742486934        2.92640698030940
B           -3.15053351250217       -4.12074666821425        3.06522298814653
B           -3.10389708015009        3.51849502752745        1.76311645066559
B           -2.80070079329560        1.85649531995921        1.97291732313436
B           -1.92545970669053        4.49704255611803        1.04753263433653
B           -1.57473667941753        2.88337761432721        1.42006900932681
B           -1.25405745898261        1.24060834593094        1.68485049759828
B           -2.16746817193182       -1.41258193906623        2.48837573725981
B           -1.87927540429630       -3.08638218901959        2.63529710774765
B           -0.95752035885558       -0.40521913623202        1.87625534176878
B           -0.64031354184133       -2.04937295410507        2.13192047840779
B           -0.31650153844589       -3.68274825563059        2.41102143803911
B           -0.34691282555095        3.90925397173262        0.85803162969406
B           -0.04074596158878        2.24945806289088        1.07267665319539
B            0.92297978380041        4.94609496384406        0.44048464493163
B            1.19748052554622        3.28286321110476        0.55503354491185
B            1.46721148245018        1.60843599123897        0.65312634656767
B            0.55734015647491       -1.04354136030472        1.46933164859668
B            0.91905616610278       -2.66477181039186        1.86999404479139
B            1.77414813952895       -0.03161556134597        0.87880069122859
B            2.12315930368420       -1.65437068982580        1.23913300909960
B            2.47037978511529       -3.26940552310759        1.59603648405384
B            2.40111271108659        4.29635838869891       -0.07379265850501
B            2.73008311606284        2.64895420035935        0.20936359218453
B            3.59027862303989        5.27917393090708       -0.76841345163716
B            3.93692263269363        3.66152659115491       -0.42077005967370
B            4.26468250334914        2.02247111835548       -0.12697696434444
B            3.34993082042996       -0.62830272321701        0.67918723186719
B            3.63607092729106       -2.30195358856923        0.83337026513427
B            4.57058542505733        0.38732480369006        0.09711599862888
B            4.85770237692372       -1.27895662227175        0.24701758853530
B            5.12597012590745       -2.94458970549736        0.35234835999004
B            5.20356288188186        4.70659280484261       -0.83814853016771
B            5.41827053545587        3.00940912633117       -0.90964692908923
B            6.04019570167228       -0.29060589259303       -0.44416645382478
B            6.43499117863116       -1.87474616213107        0.06630363774425
H           -6.99352399023683        3.41680726072248        2.17895586710165
H           -6.26906162277507        0.86723282953036        3.61904398105994
H           -4.72226418548005        5.30354956332312        2.48552113900024
H           -6.11634681586256       -1.62714987285292        2.90143213911326
H           -5.28494937975400       -4.02219673830845        4.43295012779691
H           -3.11041058806597       -5.26885810712953        2.83482488457532
H           -2.18060617780100        5.59738719011754        0.73803769796087
H           -0.09853335897949       -4.82054108514173        2.58755065086874
H            0.78450795244177        6.10752863644864        0.49229133725780
H            2.75637706770065       -4.34510358810029        1.96033616394711
H            3.32646330979439        6.30748624681150       -1.26064718723881
H            5.25413687370378       -4.08733484856147        0.12837610698700
H            6.09084213277323        5.46372647501594       -0.87121027843824
H            6.17062252579475        2.55948315666054       -1.67935253813262
H            6.68040828937940        0.20481695026418       -1.28099671359994
H            7.54067894662853       -2.23840213117390        0.15746586293753
