130
 energy: -190.735071675444 gnorm: 0.000716462622 xtb: 6.7.1 (edcfbbe)
N            7.47521981544896        2.79607403944099        3.30898866427336
C            8.09811642408211        1.84105462185902        4.05210218156577
C            7.30505469582796        0.76109382237644        4.50219403081342
N            5.96927009234970        0.85902102193922        4.29352426894306
N            5.26538893394588       -0.21031297527882        4.55778767361417
C            3.92679704848068       -0.10086759991880        4.55265894763239
C            3.18532330473486       -1.29844375902553        4.63171711826652
C            1.82044901478796       -1.28259455532716        4.66030370894444
C            1.08279681003610       -0.07969468249075        4.61824315496839
C           -0.35951526397031       -0.08006047933421        4.60280272344285
C           -1.08494893495545       -1.26120305235082        4.34346011941671
C           -2.44745537828746       -1.27381413243210        4.28821472287793
C           -3.20194369047326       -0.09856490763692        4.49516269640602
N           -4.52826103082834       -0.24061919887419        4.36949956674938
N           -5.32775654623294        0.77456784137064        4.61823216016878
C           -6.64018638988531        0.48319971344604        4.40631948578226
C           -7.06804591429921       -0.76997433956394        3.90429283688199
C           -8.37081254009356       -0.99692530005613        3.61029613000834
S           -8.82703446699390       -2.56199218680915        2.92263313111780
O           -9.14028923190175       -2.42992396244055        1.52515739649959
O           -9.77524443409281       -3.23491975667321        3.75579388924166
O           -7.45212373332214       -3.38695586102405        3.00629721209936
C           -9.35584003958042       -0.00753161273122        3.79870975723983
C          -10.69887228585283       -0.23103659695028        3.45590850718126
C          -11.64256609864172        0.74069100513289        3.66077184680142
C          -11.27278943267375        1.97043313405781        4.22383209397282
C           -9.97001447447258        2.21879826051562        4.55906020085405
C           -8.96345145542550        1.25015088935499        4.35054273337127
C           -7.59581399867346        1.49074533946017        4.64228278318030
N           -7.14838742730794        2.66536023647078        5.18703664799534
C           -2.48775641392551        1.08631936249266        4.78823703871190
C           -1.12094908069380        1.08532653047786        4.83481873690950
C            1.83329405161884        1.11336811729936        4.58708322105223
C            3.19981436342701        1.11163928308553        4.55132768554708
C            7.92122414784096       -0.31678279534519        5.18138799149305
C            9.25602112666053       -0.30639297329315        5.42274496666275
S           10.02007663186662       -1.67013855605698        6.26203101898288
O           10.95523995692180       -2.34369972103683        5.40102012247865
O           10.45612656126040       -1.29230480639069        7.56889398871625
O            8.78327947235565       -2.71098720170384        6.44644121586450
C           10.08055310975335        0.76917337448984        5.02976275565587
C           11.45502801069412        0.78857898094912        5.31610119532815
C           12.23647203274346        1.84327164705298        4.92338867253441
C           11.66804537009047        2.91679558302642        4.22414943026764
C           10.33183637092693        2.92472813351258        3.93207149311330
C            9.49056829673358        1.86100573613558        4.32573451202594
H            6.46944510303341        2.70440184346503        3.28102820655855
H            7.88019966415019        3.70810890613306        3.20864431269011
H            3.73079302920050       -2.22889068610632        4.67915497175145
H            1.30432955685529       -2.22453581775148        4.75611245420642
H           -0.55871434515229       -2.18541789891019        4.17242269133453
H           -2.99013140604669       -2.18555065302487        4.09650500154898
H           -6.31694847025178       -1.52948265918119        3.77606711738594
H           -7.00326599441389       -3.40239145643865        2.13562812606562
H          -10.95813731293855       -1.18853391746833        3.03315649102630
H          -12.67402732802123        0.56544721995764        3.39555014403806
H          -12.02686875605755        2.72551369664882        4.39253356822260
H           -9.71097012563916        3.17007731345763        5.00038574152697
H           -7.66633911206474        3.50969760898044        5.02141803831786
H           -6.14134953269995        2.73015389524710        5.19515449086964
H           -3.04902646574135        1.98812882874765        4.98183645384585
H           -0.62025171775349        2.00724786544128        5.08930412753463
H            1.32177357263088        2.06374690436654        4.58669898859877
H            3.75875892547732        2.03508067815407        4.54380222105298
H            7.29202110523525       -1.12692805528066        5.51061096266291
H            8.87343238983552       -3.39583502997362        5.78231266750609
H           11.87271675642198       -0.04732696605686        5.85394445775146
H           13.29175488413162        1.85326886404916        5.14932714897715
H           12.29366670139559        3.74198871887299        3.91631207881291
H            9.91758453222898        3.76109827680222        3.38820436263882
B           -6.89759031564065        1.58436022606794        1.40574805200721
B           -6.51292922424648       -0.03316711498133        1.00758741269601
B           -5.66244309740888        2.75090797080290        1.19764748622006
B           -5.28480916959222        1.10328517170532        1.21977682798601
B           -4.90062279012704       -0.54985858397125        1.19416623087383
B           -5.74442107260401       -3.32627211195361        0.76502154619973
B           -5.36983396963122       -4.98371731132545        0.99218902016094
B           -4.52086282350946       -2.18178849629225        1.09155200905968
B           -4.13822024284590       -3.82618541983902        0.92427904508536
B           -3.75323294225101       -5.45609042759902        0.69105741423859
B           -4.04507962090299        2.26160113589961        1.32801684581321
B           -3.66211790856610        0.60220614973969        1.27542902296776
B           -2.81239392897907        3.38495096032612        1.62521711394468
B           -2.42978711650712        1.75713070067481        1.38087943677900
B           -2.04551481351652        0.12283157934393        1.11322212195815
B           -2.89999183504605       -2.67141956731570        1.05782650791110
B           -2.51247089852742       -4.32317871983856        0.90569837199334
B           -1.66461883167883       -1.51394455772427        1.00646822803748
B           -1.28301329663583       -3.16971878952337        1.05022159061998
B           -0.90255518978773       -4.81629741213789        1.08392613719437
B           -1.19418064019454        2.90923958663713        1.52567186145349
B           -0.80849622078927        1.27022801377288        1.23144044588434
B            0.04245105825699        4.05696549232942        1.57484153336068
B            0.42494592267285        2.42033104360075        1.41206045425750
B            0.80810785869854        0.77621376903869        1.27147753883228
B           -0.04625195385373       -2.00862933502339        1.06970442463985
B            0.33818476478470       -3.66532372125815        1.00899975356828
B            1.18848290420995       -0.86199640665778        1.20290413120791
B            1.57235210379911       -2.50730202967916        1.07580057645258
B            1.95433534577403       -4.13717922846712        0.82823186494097
B            1.65811805972047        3.58175690657560        1.43738001404583
B            2.04465322894812        1.92170604144876        1.41527584063386
B            2.89872523575411        4.73043421992431        1.39677485829716
B            3.28125340849699        3.08618710547095        1.38123360985733
B            3.66298317746994        1.43811228239111        1.27050239558507
B            2.80717517566133       -1.34935169227157        1.14534733416628
B            3.19028500762851       -3.00651153344607        1.07161063780091
B            4.04258516937087       -0.19698054402570        1.22674108709116
B            4.42763674390756       -1.84860929994631        1.19023282270811
B            4.80497683505796       -3.49596923442923        1.23486061015212
B            4.51171136513268        4.21961106043135        1.69206074360410
B            4.89278448858062        2.60815435707869        1.22047599821766
B            5.65978621265135       -0.70757665150941        1.34347681193471
B            6.04156445138789       -2.32947223113109        0.96802223474400
H           -7.97163800933493        1.89385938524610        1.74299553520376
H           -7.31909966851729       -0.67856368355962        0.46948005457797
H           -5.94333838781185        3.84254639024352        0.87851551664880
H           -6.68403208572537       -3.02460149062569        0.13787817597734
H           -6.16251016437150       -5.78468818395686        1.29718837617983
H           -3.53943098889715       -6.53015269068352        0.27927916350578
H           -3.08499048275406        4.48055367536683        1.93820957957812
H           -0.65287805391982       -5.94852746230057        1.24768147268772
H           -0.21940200716259        5.19605527500857        1.66298702384736
H            2.21764321815638       -5.25365701435722        0.58989120201302
H            2.69865499423880        5.84123061095987        1.08171315915688
H            5.09058815014647       -4.57987650129137        1.57215086309856
H            5.30029122535144        4.94984341161177        2.15506821077797
H            5.91807102659445        2.39482306918440        0.70331676376439
H            6.49763068582716        0.00829761465108        1.71843471372706
H            7.06639695897908       -2.64153888007986        0.50152430363937
