130
 energy: -190.786607850564 gnorm: 0.000853915877 xtb: 6.7.1 (edcfbbe)
N            2.60850920531214       -8.09139116337852        7.96892094153915
C            1.36247968967682       -8.07141601077437        7.40840495710599
C            0.69311975330136       -6.83006753824660        7.35292424563599
N            1.34026156214107       -5.71800253172606        7.78063188745461
N            0.60102001398082       -4.65583498818113        7.87609950562745
C            1.00292355435861       -3.42107717467847        7.60918663840362
C            0.10704232187379       -2.36818779804231        7.92366782786543
C            0.21150123573164       -1.16213852092019        7.29852617527315
C            1.22389075721214       -0.90404590921356        6.34979112634841
C            1.16517678089925        0.28501649152966        5.53316596474705
C           -0.09108361429925        0.83291012377330        5.21010099138482
C           -0.20287734088252        1.94417542347352        4.42671133866133
C            0.94370654142803        2.59654744695590        3.92584537016930
N            0.68928497704995        3.71105421318311        3.22264206106094
N            1.65895052239939        4.38233884776584        2.65466367104189
C            1.23158232361143        5.52966004756610        2.04866636120760
C           -0.12081975817019        5.94410498651218        2.05950077244922
C           -0.52799762683877        7.03274779639688        1.36204399942553
S           -2.26344351172511        7.40202575527931        1.40183743317758
O           -2.70486743076350        7.60422770554375       -0.03913041865664
O           -2.45050238948317        8.64854502547675        2.08749512736451
O           -2.92480379813028        6.25116958168081        1.98670969654544
C            0.38793493060536        7.84317905815684        0.66001754754583
C           -0.02120842744011        9.00968050068823       -0.00637443711056
C            0.88719830453194        9.78111360523694       -0.68193754413580
C            2.23927757690653        9.41350518777269       -0.70936674564667
C            2.66707578148291        8.28750419760266       -0.06009896765863
C            1.76363302362000        7.46419600352471        0.64544917505175
C            2.17389323343346        6.28695568713284        1.32686583126356
N            3.47529192314580        5.86314987305919        1.34847735967047
C            2.20769005768079        2.04716184668404        4.23893498776020
C            2.30553873992496        0.91783580064656        5.00891895718355
C            2.21961947392531       -1.88192275388627        6.18644894362353
C            2.12402137734084       -3.10240773383517        6.79842064699512
C           -0.57165141373410       -6.75384023573538        6.71630910451119
C           -1.12464904127009       -7.84037093556387        6.12680860423750
S           -2.61542723385647       -7.65413183132623        5.18129037583542
O           -2.31298159955916       -7.75672913827959        3.77707131155008
O           -3.68086326017274       -8.45315568158196        5.69724765756069
O           -3.02480494843802       -6.11386827800290        5.44068610628156
C           -0.49126415603337       -9.10084808221096        6.15602730943330
C           -1.06557317015014      -10.22641543160093        5.54535812548712
C           -0.43990843056495      -11.44469336753110        5.59444032999374
C            0.78987410406194      -11.57511803001305        6.25410115576655
C            1.37802073698085      -10.49275689318739        6.84884190648507
C            0.76642915332566       -9.21935551512178        6.82339284153673
H            2.85740672496123       -7.23551461031105        8.43996031383277
H            2.97677353345078       -8.95060755372753        8.33505126939678
H           -0.68052445792410       -2.56263161895416        8.63516297361807
H           -0.48905770454727       -0.37785130659467        7.54394764946894
H           -0.98355139623997        0.34701738368608        5.57449182773396
H           -1.16346289037088        2.36345227978110        4.17586380212395
H           -0.83817888435276        5.35444029380036        2.60585410938047
H           -3.93506484086826        5.07883073862006        0.52143021308020
H           -1.06270137703206        9.28139303601450        0.04382041693153
H            0.56985994536363       10.67928595212855       -1.18965590159510
H            2.94782787214445       10.03261300811653       -1.24035579572858
H            3.71802842806380        8.03899062172737       -0.07291993249739
H            4.07272321772063        6.11188110747601        0.58021541567507
H            3.57114444503081        4.92858355661608        1.71799715871550
H            3.09066399059982        2.55602959607105        3.88179187800076
H            3.28186650617925        0.52990224400966        5.26153205349483
H            3.04375426861197       -1.69084531933161        5.51419960319385
H            2.85390507019010       -3.87688310683634        6.61856238921263
H           -1.06100179588537       -5.79394571331281        6.70944570869799
H           -2.61370873537499       -5.54800756332045        4.77756611207184
H           -2.01372761205760      -10.10216617424563        5.04710184610743
H           -0.88938217013640      -12.30837674911525        5.12870443764424
H            1.27479614229632      -12.53989954256147        6.28899412916156
H            2.33144660520106      -10.61835512175049        7.34093440188884
B           -2.79959349340984        6.54765219462975       -1.15739115541666
B           -3.92749940048217        5.31424945194552       -0.74637545003778
B           -1.20157449936956        5.99281585659306       -1.55441114143441
B           -2.28621377162274        4.91646213729480       -0.84531125922436
B           -3.35525676471441        3.93943839202168        0.06698447487456
B           -6.07870152713029        3.25952872123217        0.88759555583388
B           -7.19717932091296        2.03971506877716        1.32585095732021
B           -4.44499449022582        2.82465987177138        0.69739114957947
B           -5.52599956845433        1.78971644820241        1.49673310532150
B           -6.59687676886796        0.76216507618272        2.30315445117579
B           -0.62614502605655        4.58736296214455       -0.81821056212667
B           -1.68651636381721        3.62546788398976        0.12568300048549
B            1.02315432388467        4.22452739069442       -0.84172832104297
B           -0.05565930176233        3.18198045248711       -0.06542444596217
B           -1.13343245879092        2.15238315090646        0.74479599055438
B           -3.87650018052481        1.39222597395319        1.39610723881798
B           -4.96584033519081        0.32477146256092        2.15521885288626
B           -2.21665884294617        1.07558234323181        1.45117759777401
B           -3.31526721251259       -0.03891667028270        2.10396398132311
B           -4.41595899874431       -1.18278533984300        2.68803900228747
B            1.61589244628387        2.89323360988327        0.03254488488658
B            0.50838207395246        1.74675065733514        0.63559026581608
B            3.26892659106498        2.55385699092750        0.05712744182583
B            2.17496625924553        1.43854478424739        0.69882853452398
B            1.07015197536552        0.29385309191766        1.29210325914285
B           -1.65741183089756       -0.39458983165082        2.07827109224012
B           -2.75132570198564       -1.47710852831495        2.80358765298520
B           -0.01530663458326       -0.78893943587665        1.98681257943615
B           -1.09093424221151       -1.81173220730149        2.81367201448240
B           -2.16150267524857       -2.83016161292941        3.63342293200925
B            3.82439883411271        1.05961716882028        0.62160549723130
B            2.73974090975956        0.01485551643208        1.42226122875822
B            5.46093675820535        0.64690231066640        0.51598631266640
B            4.38926036490825       -0.37796778269038        1.32814707388476
B            3.30171537516763       -1.43811440866993        2.08298213292167
B            0.56392065234457       -2.17167479680699        2.77774529891872
B           -0.54040664252685       -3.28781939643625        3.43824474030968
B            2.21888294564536       -2.52055171297231        2.77189365222575
B            1.11715074737984       -3.65527766575977        3.38879956314655
B            0.01076605175767       -4.81157234131005        3.93889650288624
B            6.05834394990778       -0.63967272936145        1.48276881151978
B            4.94045278631096       -1.86818263009311        1.89864694932425
B            2.74994951700401       -4.06450461172174        3.26804291277920
B            1.69500629496252       -5.02129021673517        4.20916344687526
H           -3.18230754381463        7.15308078880143       -2.10423810932181
H           -4.96948186874892        5.32024430514861       -1.28224788929963
H           -0.60378662661178        6.58981480624559       -2.36127451078620
H           -6.42602239560284        4.37229723586859        0.84550646248807
H           -8.31623611058574        2.05753653029579        0.99241402094451
H           -7.29603351205274        0.27727550001089        3.10558311736090
H            1.73878295481567        4.81221025077022       -1.55944382900208
H           -5.18109537148545       -2.00444965862208        3.01734948196580
H            4.04278558037418        3.35268803456166       -0.31275223234324
H           -2.86338519221905       -3.44677896130685        4.34074223205433
H            6.16730037623228        1.14854376892859       -0.27197032900166
H           -0.65884713422986       -5.76975799310406        3.91332772214413
H            7.17500285033117       -0.67197250595964        1.82773470877165
H            5.30633797141784       -2.97299723234504        1.97408990908316
H            3.74088226652027       -4.52808618412861        2.86613534045432
H            2.06680559104962       -5.84547084512201        4.94513114372721
