38
Tideglusib GFN2 opt
O      -1.89461071     -2.48543410     -1.68135840
C      -0.74815800     -2.59271352     -1.35379160
S       0.47757384     -3.61269802     -2.19268147
C       1.75523574     -3.13511043     -1.02842449
O       2.90329294     -3.48125147     -1.07470825
N       1.19796142     -2.33560684     -0.08977207
C       2.00987428     -1.47740722      0.75550567
C       1.94201789     -0.04481615      0.29099517
C       2.28994975      0.26795896     -1.01741175
C       2.18425525      1.56824503     -1.47577926
C       1.73180152      2.56658747     -0.62947728
C       1.39290368      2.26233436      0.67730962
C       1.49415934      0.96066526      1.13572914
N      -0.13882729     -2.00292657     -0.30136915
C      -0.84781205     -1.27693394      0.69371570
C      -0.98923618     -1.82500663      1.94305123
C      -1.66040869     -1.11772298      2.94897630
C      -2.17779984      0.11993871      2.68817017
C      -2.04825086      0.70724857      1.41235757
C      -2.56099838      1.99124366      1.13356178
C      -2.40760038      2.55170625     -0.10272309
C      -1.73757035      1.85230935     -1.11751609
C      -1.23307686      0.60406696     -0.88474543
C      -1.37294307      0.00086925      0.38119382
H       1.67578706     -1.56560165      1.79301209
H       3.02687824     -1.87186262      0.67129091
H       2.64757821     -0.51132920     -1.67595235
H       2.45534458      1.80143255     -2.49445443
H       1.64553916      3.58099398     -0.98834741
H       1.03996505      3.03764625      1.34031774
H       1.22005053      0.72406833      2.15396161
H      -0.58707435     -2.80628391      2.15009259
H      -1.76611531     -1.56501705      3.92555779
H      -2.69621820      0.66956795      3.46008846
H      -3.07787167      2.52238136      1.91971418
H      -2.80124063      3.53610145     -0.30778770
H      -1.62260752      2.30835267     -2.08902849
H      -0.72174812      0.07400394     -1.67272304
