60
carrier @complex
B      -6.10263040      3.11152410      0.38042007
B      -5.95556731      1.42309519      0.17027152
B      -4.72316383      4.06306209      0.02449340
B      -4.57720047      2.39084403      0.22011988
B      -4.42623788      0.70602612      0.35095829
B      -5.65682706     -1.95211252      0.31664813
B      -5.50898394     -3.60956189      0.71637301
B      -4.27877457     -0.96356111      0.43041137
B      -4.13139443     -2.65294507      0.46880849
B      -3.98132255     -4.33574851      0.44150840
B      -3.18619853      3.36774781      0.16707321
B      -3.03861272      1.67586743      0.29535993
B      -1.80407425      4.33444244      0.32716868
B      -1.65662992      2.65089266      0.25972342
B      -1.50748570      0.96024876      0.22293999
B      -2.74247364     -1.67369059      0.50247191
B      -2.59058011     -3.37252941      0.48605996
B      -1.35950304     -0.71405418      0.32017817
B      -1.21086605     -2.39183604      0.52876005
B      -1.06288650     -4.06357123      0.72247630
B      -0.27041246      3.62612850      0.20321305
B      -0.12092049      1.93063369      0.23190725
B       1.11406979      4.57909317      0.00857736
B       1.26322692      2.90599466      0.19523891
B       1.41163049      1.22159936      0.29567373
B       0.17526933     -1.42448461      0.35007252
B       0.32488545     -3.10538533      0.62187665
B       1.55955806     -0.45362268      0.36312462
B       1.70872474     -2.13571790      0.49976134
B       1.85709193     -3.80922858      0.67448044
B       2.64590302      3.88405963      0.19441991
B       2.79732424      2.18717488      0.20370026
B       4.03307452      4.84849933      0.30288883
B       4.18347657      3.16679881      0.27423660
B       4.33097781      1.47634513      0.28138035
B       3.09360653     -1.16065495      0.45474437
B       3.24116990     -2.85813800      0.46701588
B       4.47803782     -0.19565688      0.30713946
B       4.62861221     -1.88354084      0.36789460
B       4.77483511     -3.56493253      0.38407409
B       5.56404973      4.12575202      0.02619539
B       5.71143758      2.46368152      0.40417877
B       6.00860963     -0.92519523      0.21590938
B       6.15817510     -2.58323437      0.63021803
H      -7.09393226      3.62540974      0.74569176
H      -6.88187870      0.81020324     -0.20008446
H      -4.86879357      5.17193403     -0.33885141
H      -6.67269078     -1.56010037     -0.11475676
H      -6.40951648     -4.23930213      1.13544185
H      -3.92869372     -5.47702952      0.16256269
H      -1.91448964      5.48877399      0.52586487
H      -0.97418755     -5.20036010      1.00941037
H       1.01302174      5.73158783     -0.20520496
H       1.96765729     -4.96874611      0.83888960
H       3.98170359      5.98061520      0.61764687
H       4.91608998     -4.69583158      0.09042295
H       6.45832931      4.77548195     -0.36906826
H       6.70538291      2.06991781      0.88916924
H       6.93250600     -0.36381645     -0.23936557
H       7.16293560     -3.04298336      1.03164532
