60
 energy: -61.505853215122 gnorm: 0.000667077507 xtb: 6.7.1 (edcfbbe)
B           -6.10063637797560        3.11228168738541        0.41000762601737
B           -5.95410794030176        1.42595932688819        0.15760092546904
B           -4.72346533396613        4.05852868373934       -0.00586424751227
B           -4.57796950096914        2.39062929914744        0.22060160636524
B           -4.42627140079902        0.70456175287284        0.37111554536362
B           -5.65437894828431       -1.95637048699360        0.29527362877200
B           -5.50690610466401       -3.60789091733147        0.73887336205252
B           -4.27923131870866       -0.96082036273424        0.44562370871880
B           -4.13173257429900       -2.65350002772128        0.45827258927825
B           -3.98189291918381       -4.33458481699409        0.39896736567273
B           -3.18525939388941        3.37117035013248        0.16315553797368
B           -3.03805716211304        1.67438641968665        0.32079651703332
B           -1.80383801575890        4.33404776908456        0.36060014178835
B           -1.65666917658830        2.65166864385545        0.27703846995428
B           -1.50759154454576        0.95969116197570        0.23673125404986
B           -2.74231319575205       -1.67055245493514        0.51475363751781
B           -2.58866121236506       -3.37643689241608        0.47434548871886
B           -1.35965780970680       -0.71282996699978        0.32259668947544
B           -1.21057750782270       -2.39068493026673        0.54793954267213
B           -1.06328068703173       -4.05918066434711        0.76442743089052
B           -0.27069709002321        3.62948641857994        0.20314375289416
B           -0.12075145095944        1.92852584029941        0.23989125330464
B            1.11428887477062        4.57461779458713       -0.03551738959971
B            1.26348446954080        2.90495836001811        0.17332005785814
B            1.41195677693451        1.22129807320373        0.31563085871244
B            0.17505966294466       -1.42265511466694        0.33914909768654
B            0.32539591464358       -3.10617050667446        0.65120016907872
B            1.55977547244992       -0.45136694564844        0.38007189838797
B            1.70906423864747       -2.13470556834370        0.51816597238516
B            1.85793666623327       -3.80572397035068        0.70763489361834
B            2.64444351851074        3.88820060432951        0.20623926451974
B            2.79743862406442        2.18569448791263        0.22654817679957
B            4.03365130830125        4.84759279526954        0.34150868744706
B            4.18413994619952        3.16802518424500        0.30226396056633
B            4.33162386620967        1.47530243046177        0.30803408389585
B            3.09339468894417       -1.15764429272422        0.46319837383997
B            3.24025614791284       -2.86285151365199        0.43441708933798
B            4.47836939439653       -0.19287721861902        0.31041200592127
B            4.62875265544223       -1.88426067494680        0.33560176382923
B            4.77454258256859       -3.56395102610457        0.32225830727969
B            5.56243065610637        4.12444759645497        0.01557493579077
B            5.70906545538692        2.46813645200044        0.44536549231863
B            6.00608577290354       -0.92951367834362        0.17218278945943
B            6.15673461689216       -2.58242438700193        0.63507415422939
H           -7.07999155692095        3.63129697954620        0.79538383552084
H           -6.86598326615410        0.82184502548709       -0.25661736471725
H           -4.88070458437058        5.15047328401698       -0.41112137052108
H           -6.65314372739740       -1.57923124732867       -0.18408467156853
H           -6.39094884920364       -4.23460418228040        1.18931659509728
H           -3.94450358258964       -5.46184089853057        0.06805362443794
H           -1.91482356598503        5.48372301223542        0.58164957244296
H           -0.98147933001753       -5.18540920756626        1.09419970672959
H            1.01635309663233        5.71012179655239       -0.32627359729835
H            1.97403683604705       -4.95573459771461        0.92748958807909
H            3.99087962296797        5.97307865176747        0.67812813524499
H            4.93049609247572       -4.67783009684180       -0.02156521590192
H            6.44360031701087        4.76550215497282       -0.41848897028542
H            6.69138971761576        2.07962191918678        0.95244190110197
H            6.91179733721431       -0.38761198240191       -0.33844470460853
H            7.14352514837877       -3.03975227541529        1.07526653641363
