39
 energy: -55.985012225296 gnorm: 0.000534900520 xtb: 6.7.1 (edcfbbe)
C           -5.27885900066346        1.73120632663301        0.07493662195803
N           -5.08583288441600        0.31675873971695       -0.13805113206183
C           -6.19637014947782       -0.54416896730517        0.19495092536331
C           -3.80393226235727       -0.20136796155539       -0.06562243605872
C           -3.56868909616405       -1.57950022898703       -0.04517739976058
C           -2.28237475686155       -2.08363769824725       -0.03053861932435
C           -1.16526587437682       -1.25542189146094       -0.03437838044301
C           -1.39522072335489        0.11886798713511       -0.04758588536990
C           -2.67839491603535        0.63138493235960       -0.05611368706425
S           -0.07108494792417        1.30390835168356       -0.05428752943300
C            1.37387485842127        0.27314192446222        0.03252892131721
C            2.59128651538977        0.92488432952433        0.08326580129312
C            3.80071133132185        0.22224706681008        0.14340413553055
N            5.01586955513522        0.87979193669091        0.24334875052412
C            5.05414520673750        2.30517870620307        0.01842184551941
C            6.21983492565055        0.14671534877464       -0.07255159082737
C            3.71973465881572       -1.17354529473681        0.14168166129708
C            2.49832540292031       -1.81743369718208        0.09294649524051
C            1.29756621953166       -1.11820825942616        0.03520234563383
N            0.10164502040691       -1.80854559358502       -0.02769387111687
H           -6.33370410613631        1.96930117666313       -0.04667553964275
H           -4.96108812796912        2.05697314534820        1.07407322029515
H           -4.72263463734389        2.29931124103683       -0.67146515972852
H           -6.10458358653147       -0.97961943371190        1.19815987806871
H           -7.11983429703508        0.02907001197437        0.15254163813869
H           -6.27505082460757       -1.35493724537551       -0.53163453201250
H           -4.38544732304117       -2.28120961940075       -0.04346881157497
H           -2.13430258806108       -3.15480180438144       -0.01544449336786
H           -2.77457228926701        1.70385774193765       -0.05703987025475
H            2.56831677045712        2.00132100052311        0.06904079319299
H            4.41966343169213        2.81305005045921        0.74549257693766
H            6.07244236928075        2.66124263191971        0.16194797663871
H            4.72635343538715        2.58478823631981       -0.99145717142540
H            6.37946352822792       -0.64843132159281        0.65782647355014
H            6.18929220677277       -0.29872253577699       -1.07520567787793
H            7.07317256465317        0.81927245446950       -0.02107235078915
H            4.60851652389239       -1.78008982659828        0.18236863765992
H            2.46989347963881       -2.89850863316212        0.09402702657137
H            0.15713439729046       -2.81412331815950       -0.00579642659679
