31
 energy: -61.644180223138 gnorm: 0.000492311043 xtb: 6.7.1 (edcfbbe)
O            2.24839440277678       -2.82248328142528       -0.86619984995899
C            1.70208984121448       -1.76716569674562       -0.51840648404534
C            0.26913633967113       -1.61007901432775       -0.43221511509626
C           -0.29733017689131       -0.44021041722066       -0.04731893101284
C           -1.74272425863829       -0.21019056578456        0.03670732402398
C           -2.23714046828148        1.09067474430404       -0.03050696877751
C           -3.59762699017313        1.32775230974232        0.02830002090391
C           -4.48441331748885        0.27454882804562        0.16378981559888
O           -5.84270434510787        0.43664316809264        0.23002230753043
C           -3.99898197626461       -1.04077123178579        0.24619955431665
O           -4.85520976728510       -2.07913819204876        0.39250383752782
C           -2.63717485869767       -1.27101914579472        0.18064462448255
O            0.43078844672537        0.64785328495595        0.27408045679771
C            1.78383692977418        0.59407531411342        0.21712998500066
C            2.48046180464414        1.74426397295954        0.55538532867643
C            3.86963067735308        1.73368649476607        0.50786819409159
O            4.52098197311157        2.87028381288707        0.84214040061019
C            4.55853320887991        0.58667444913869        0.12650057052366
C            3.87061004413020       -0.57021533519586       -0.21215183202211
O            4.54408205538656       -1.65871661522760       -0.57477801611521
C            2.45584229274631       -0.57390086630665       -0.16725228169794
H           -0.33818025152818       -2.45477807089674       -0.70783598957189
H           -1.55378479650545        1.91689779219313       -0.14000113676879
H           -3.97542709751420        2.33901846953378       -0.03273561484473
H           -6.06181561955197        1.37255763251761        0.16698564567796
H           -5.75605808333346       -1.72753399054519        0.41929164052599
H           -2.29494691008306       -2.28841967383399        0.26600500310535
H            1.95642124293622        2.63585442817300        0.85268089588492
H            5.47469833507875        2.73614167076605        0.77114799655630
H            5.63780284545610        0.57574719183797        0.08769044582387
H            3.87020845746041       -2.36805147688912       -0.77483059774674
