31
RDKit ETKDG+MMFF
O       2.22061653     -2.69087852     -1.09212124
C       1.68311519     -1.67355875     -0.66821098
C       0.22102479     -1.54532388     -0.59282536
C      -0.30879941     -0.40766076     -0.11932000
C      -1.76950993     -0.20997610     -0.02793433
C      -2.33230375      1.03283510     -0.37729918
C      -3.71211470      1.25403599     -0.29198935
C      -4.53370644      0.22756109      0.15121875
O      -5.88797034      0.37784753      0.25795239
C      -3.98813493     -1.00172735      0.50794454
O      -4.80229499     -2.00577146      0.94938725
C      -2.61991612     -1.22911466      0.42671494
O       0.43763858      0.68431428      0.29844065
C       1.80663740      0.60003613      0.24939538
C       2.52785751      1.71000275      0.68816079
C       3.91957123      1.67898469      0.65800491
O       4.58637202      2.78507722      1.09548823
C       4.60396096      0.55746702      0.19655647
C       3.87803093     -0.54811068     -0.24052652
O       4.59989163     -1.62312062     -0.68497950
C       2.47933075     -0.52815170     -0.21426083
H      -0.36145874     -2.38918183     -0.93952128
H      -1.69355955      1.84242784     -0.72715650
H      -4.11398995      2.22221265     -0.57247901
H      -6.11593960      1.28239759     -0.01812031
H      -5.70158017     -1.62141353      0.92659918
H      -2.23279023     -2.19708320      0.73241525
H       2.01208366      2.59382363      1.05282111
H       5.54263474      2.62216263      1.02745155
H       5.68857208      0.52496376      0.16932250
H       3.96673083     -2.32507687     -0.96028827
