      -----------------------------------------------------------      
     |                   =====================                   |     
     |                           x T B                           |     
     |                   =====================                   |     
     |                         S. Grimme                         |     
     |          Mulliken Center for Theoretical Chemistry        |     
     |                    University of Bonn                     |     
      -----------------------------------------------------------      

   * xtb version 6.7.1pre (5071a88) compiled by 'Marcel@Raven' on 2024-07-23

   xtb is free software: you can redistribute it and/or modify it under
   the terms of the GNU Lesser General Public License as published by
   the Free Software Foundation, either version 3 of the License, or
   (at your option) any later version.
   
   xtb is distributed in the hope that it will be useful,
   but WITHOUT ANY WARRANTY; without even the implied warranty of
   MERCHANTABILITY or FITNESS FOR A PARTICULAR PURPOSE.  See the
   GNU Lesser General Public License for more details.
   
   Cite this work as:
   * C. Bannwarth, E. Caldeweyher, S. Ehlert, A. Hansen, P. Pracht,
     J. Seibert, S. Spicher, S. Grimme, WIREs Comput. Mol. Sci., 2020, 11,
     e01493. DOI: 10.1002/wcms.1493
   
   for GFN2-xTB:
   * C. Bannwarth, S. Ehlert and S. Grimme., J. Chem. Theory Comput., 2019,
     15, 1652-1671. DOI: 10.1021/acs.jctc.8b01176
   for GFN1-xTB:
   * S. Grimme, C. Bannwarth, P. Shushkov, J. Chem. Theory Comput., 2017,
     13, 1989-2009. DOI: 10.1021/acs.jctc.7b00118
   for GFN0-xTB:
   * P. Pracht, E. Caldeweyher, S. Ehlert, S. Grimme, ChemRxiv, 2019, preprint.
     DOI: 10.26434/chemrxiv.8326202.v1
   for GFN-FF:
   * S. Spicher and S. Grimme, Angew. Chem. Int. Ed., 2020, 59, 15665-15673.
     DOI: 10.1002/anie.202004239
   
   for ALPB and GBSA implicit solvation:
   * S. Ehlert, M. Stahn, S. Spicher, S. Grimme, J. Chem. Theory Comput.,
     2021, 17, 4250-4261. DOI: 10.1021/acs.jctc.1c00471
   
   for ddCOSMO and CPCM-X implicit solvation:
   * M. Stahn, S. Ehlert, S. Grimme, J. Phys. Chem. A,
     2023, XX, XXXX-XXXX. DOI: 10.1021/acs.jpca.3c04382
   
   for DFT-D4:
   * E. Caldeweyher, C. Bannwarth and S. Grimme, J. Chem. Phys., 2017,
     147, 034112. DOI: 10.1063/1.4993215
   * E. Caldeweyher, S. Ehlert, A. Hansen, H. Neugebauer, S. Spicher,
     C. Bannwarth and S. Grimme, J. Chem. Phys., 2019, 150, 154122.
     DOI: 10.1063/1.5090222
   * E. Caldeweyher, J.-M. Mewes, S. Ehlert and S. Grimme, Phys. Chem. Chem. Phys.
     2020, 22, 8499-8512. DOI: 10.1039/D0CP00502A
   
   for sTDA-xTB:
   * S. Grimme and C. Bannwarth, J. Chem. Phys., 2016, 145, 054103.
     DOI: 10.1063/1.4959605
   
   in the mass-spec context:
   * V. Asgeirsson, C. Bauer and S. Grimme, Chem. Sci., 2017, 8, 4879.
     DOI: 10.1039/c7sc00601b
   * J. Koopman and S. Grimme, ACS Omega 2019, 4, 12, 15120-15133.
     DOI: 10.1021/acsomega.9b02011
   
   for metadynamics refer to:
   * S. Grimme, J. Chem. Theory Comput., 2019, 155, 2847-2862
     DOI: 10.1021/acs.jctc.9b00143
   
   for SPH calculations refer to:
   * S. Spicher and S. Grimme, J. Chem. Theory Comput., 2021, 17, 1701-1714
     DOI: 10.1021/acs.jctc.0c01306
   
   for ONIOM refer to:
   * C. Plett, A. Katbashev, S. Ehlert, S. Grimme, M. Bursch,
     Phys. Chem. Chem. Phys., 2023, 25, 17860-17868. DOI: 10.1039/D3CP02178E
   
   for DIPRO refer to:
   * J. Kohn, N. Gildemeister, S. Grimme, D. Fazzi, A. Hansen,
     J. Chem. Phys., 2023, just accepted.
   
   for PTB refer to:
   * S. Grimme, M. Mueller, A. Hansen, J. Chem. Phys., 2023, 158, 124111.
     DOI: 10.1063/5.0137838
   
   with help from (in alphabetical order)
   P. Atkinson, C. Bannwarth, F. Bohle, G. Brandenburg, E. Caldeweyher
   M. Checinski, S. Dohm, S. Ehlert, S. Ehrlich, I. Gerasimov, C. Hölzer
   A. Katbashev, J. Kohn, J. Koopman, C. Lavigne, S. Lehtola, F. März, M. Müller,
   F. Musil, H. Neugebauer, J. Pisarek, C. Plett, P. Pracht, F. Pultar,
   J. Seibert, P. Shushkov, S. Spicher, M. Stahn, M. Steiner, T. Strunk,
   J. Stückrath, T. Rose, and J. Unsleber
   
 * started run on 2026/09/01 at 20:28:49.068     
   ID    Z sym.   atoms
    1    7 N      1, 9
    2    6 C      2-8, 10-15
    3    1 H      16-29, 70-84
    4    5 B      30-69

           -------------------------------------------------
          |                Calculation Setup                |
           -------------------------------------------------

          program call               : "c:\Users\Andre\Proyectos doctorado\nano-qsar-ai-papers\kras-pancreatic-gC3N4-ai\tools\xtb\xtb-6.7.1\bin\xtb.exe" "c:\Users\Andre\Proyectos doctorado\borophene-alzheimer-tau-ai\calculations\tau\Tacrine\Tacrine_B40H15_clean_complex.xyz" --gfn 2 --sp --chrg 0 --uhf 0 --iterations 500 --norestart
          coordinate file            : c:\Users\Andre\Proyectos doctorado\borophene-alzheimer-tau-ai\calculations\tau\Tacrine\Tacrine_B40H15_clean_complex.xyz
          omp threads                :                    16


molecular fragmentation (1/2 indicates fragments):
111111111111111111111111111112222222222222222222222222222222222222222222
222222222222
# atoms in fragment 1/2:    29    55
 fragment masses (1/2) :      198.26      447.56
CMA distance (Bohr)    :  14.835
constraining FC (au)   :  0.0500

           -------------------------------------------------
          |                 G F N 2 - x T B                 |
           -------------------------------------------------

        Reference                      10.1021/acs.jctc.8b01176
      * Hamiltonian:
        H0-scaling (s, p, d)           1.850000    2.230000    2.230000
        zeta-weighting                 0.500000
      * Dispersion:
        s8                             2.700000
        a1                             0.520000
        a2                             5.000000
        s9                             5.000000
      * Repulsion:
        kExp                           1.500000    1.000000
        rExp                           1.000000
      * Coulomb:
        alpha                          2.000000
        third order                    shell-resolved
        anisotropic                    true
        a3                             3.000000
        a5                             4.000000
        cn-shift                       1.200000
        cn-exp                         4.000000
        max-rad                        5.000000


          ...................................................
          :                      SETUP                      :
          :.................................................:
          :  # basis functions                 249          :
          :  # atomic orbitals                 249          :
          :  # shells                          139          :
          :  # electrons                       211          :
          :  max. iterations                   500          :
          :  Hamiltonian                  GFN2-xTB          :
          :  restarted?                      false          :
          :  GBSA solvation                  false          :
          :  PC potential                    false          :
          :  electronic temp.          300.0000000     K    :
          :  accuracy                    1.0000000          :
          :  -> integral cutoff          0.2500000E+02      :
          :  -> integral neglect         0.1000000E-07      :
          :  -> SCF convergence          0.1000000E-05 Eh   :
          :  -> wf. convergence          0.1000000E-03 e    :
          :  Broyden damping             0.4000000          :
          :  net charge                          0          :
          :  unpaired electrons                  0          :
          ...................................................

 iter      E             dE          RMSdq      gap      omega  full diag
   1    -97.4289282 -0.974289E+02  0.138E+01    0.39       0.0  T
   2    -93.6850411  0.374389E+01  0.996E+00    0.20       1.0  T
   3      2.2528984  0.959379E+02  0.148E+01    0.06       1.0  T
   4      1.6527780 -0.600120E+00  0.162E+01    0.01       1.0  T
   5    -92.6519224 -0.943047E+02  0.560E+00    0.08       1.0  T
   6    -72.7298050  0.199221E+02  0.795E+00    0.13       1.0  T
   7    -97.6669706 -0.249372E+02  0.268E+00    0.59       1.0  T
   8    -97.6939670 -0.269964E-01  0.234E+00    0.06       1.0  T
   9    -98.0804349 -0.386468E+00  0.189E+00    0.55       1.0  T
  10    -98.2819142 -0.201479E+00  0.151E+00    0.42       1.0  T
  11    -98.3532811 -0.713669E-01  0.111E+00    0.47       1.0  T
  12    -98.4043987 -0.511175E-01  0.802E-01    0.44       1.0  T
  13    -98.4472503 -0.428516E-01  0.505E-01    0.44       1.0  T
  14    -98.4558576 -0.860730E-02  0.414E-01    0.46       1.0  T
  15    -98.4589779 -0.312034E-02  0.358E-01    0.45       1.0  T
  16    -98.4669462 -0.796824E-02  0.232E-01    0.47       1.0  T
  17    -98.4697042 -0.275802E-02  0.163E-01    0.45       1.0  T
  18    -98.4723538 -0.264957E-02  0.136E-01    0.38       1.0  T
  19    -98.4736797 -0.132589E-02  0.112E-01    0.23       1.0  T
  20    -98.4748203 -0.114064E-02  0.174E-01    0.06       1.0  T
  21    -98.4762575 -0.143717E-02  0.955E-02    0.11       1.0  T
  22    -98.3758695  0.100388E+00  0.769E-01    0.14       1.0  T
  23    -98.3900692 -0.141997E-01  0.711E-01    0.11       1.0  T
  24    -98.4735106 -0.834415E-01  0.153E-01    0.05       1.0  T
  25    -98.4751065 -0.159587E-02  0.104E-01    0.06       1.0  T
  26    -98.4754665 -0.359987E-03  0.921E-02    0.06       1.0  T
  27    -98.4765583 -0.109175E-02  0.506E-02    0.08       1.0  T
  28    -98.4765468  0.114147E-04  0.471E-02    0.13       1.0  T
  29    -98.4765737 -0.268599E-04  0.441E-02    0.13       1.0  T
  30    -98.4767323 -0.158583E-03  0.327E-02    0.12       1.0  T
  31    -98.4768713 -0.139054E-03  0.168E-02    0.11       1.0  T
  32    -98.4769028 -0.314935E-04  0.943E-03    0.11       1.2  T
  33    -98.4769137 -0.108282E-04  0.483E-03    0.10       2.3  T
  34    -98.4769166 -0.290492E-05  0.219E-03    0.10       5.0  T
  35    -98.4769168 -0.216494E-06  0.163E-03    0.10       6.7  T
  36    -98.4769168 -0.202776E-07  0.139E-03    0.10       7.9  T
  37    -98.4769170 -0.175167E-06  0.632E-04    0.10      17.3  T
  38    -98.4769170 -0.130490E-07  0.404E-04    0.10      27.0  T

   *** convergence criteria satisfied after 38 iterations ***

         #    Occupation            Energy/Eh            Energy/eV
      -------------------------------------------------------------
         1        2.0000           -0.6422613             -17.4768
       ...           ...                  ...                  ...
       100        2.0000           -0.2937843              -7.9943
       101        2.0000           -0.2874992              -7.8233
       102        2.0000           -0.2846395              -7.7454
       103        2.0000           -0.2814627              -7.6590
       104        2.0000           -0.2764837              -7.5235
       105        1.9991           -0.2732252              -7.4348
       106        0.8789           -0.2598088              -7.0698 (HOMO)
       107        0.1219           -0.2560573              -6.9677 (LUMO)
       108        0.0000           -0.2440811              -6.6418
       109                         -0.2265878              -6.1658
       110                         -0.2199275              -5.9845
       111                         -0.2131544              -5.8002
       ...                                ...                  ...
       249                          1.0691504              29.0931
      -------------------------------------------------------------
                  HL-Gap            0.0037515 Eh            0.1021 eV
             Fermi-level           -0.2622219 Eh           -7.1354 eV

 SCC (total)                   0 d,  0 h,  0 min,  0.419 sec
 SCC setup                      ...        0 min,  0.000 sec (  0.000%)
 Dispersion                     ...        0 min,  0.002 sec (  0.477%)
 classical contributions        ...        0 min,  0.000 sec (  0.000%)
 integral evaluation            ...        0 min,  0.005 sec (  1.193%)
 iterations                     ...        0 min,  0.396 sec ( 94.511%)
 molecular gradient             ...        0 min,  0.014 sec (  3.341%)
 printout                       ...        0 min,  0.002 sec (  0.477%)

         :::::::::::::::::::::::::::::::::::::::::::::::::::::
         ::                     SUMMARY                     ::
         :::::::::::::::::::::::::::::::::::::::::::::::::::::
         :: total energy             -97.026291798794 Eh    ::
         :: gradient norm              0.076239105942 Eh/a0 ::
         :: HOMO-LUMO gap              0.102084055392 eV    ::
         ::.................................................::
         :: SCC energy               -98.474325955330 Eh    ::
         :: -> isotropic ES            0.230181538254 Eh    ::
         :: -> anisotropic ES          0.014231468143 Eh    ::
         :: -> anisotropic XC          0.011751600961 Eh    ::
         :: -> dispersion             -0.101354952911 Eh    ::
         :: repulsion energy           1.448034156536 Eh    ::
         :: add. restraining           0.000000000000 Eh    ::
         :: total charge               0.000000000129 e     ::
         :::::::::::::::::::::::::::::::::::::::::::::::::::::

           -------------------------------------------------
          |                Property Printout                |
           -------------------------------------------------

    * Orbital Energies and Occupations

         #    Occupation            Energy/Eh            Energy/eV
      -------------------------------------------------------------
         1        2.0000           -0.6422613             -17.4768
       ...           ...                  ...                  ...
        94        2.0000           -0.3104789              -8.4486
        95        2.0000           -0.3068173              -8.3489
        96        2.0000           -0.3049864              -8.2991
        97        2.0000           -0.3040561              -8.2738
        98        2.0000           -0.2983853              -8.1195
        99        2.0000           -0.2968571              -8.0779
       100        2.0000           -0.2937843              -7.9943
       101        2.0000           -0.2874992              -7.8233
       102        2.0000           -0.2846395              -7.7454
       103        2.0000           -0.2814627              -7.6590
       104        2.0000           -0.2764837              -7.5235
       105        1.9991           -0.2732252              -7.4348
       106        0.8789           -0.2598088              -7.0698 (HOMO)
       107        0.1219           -0.2560573              -6.9677 (LUMO)
       108        0.0000           -0.2440811              -6.6418
       109                         -0.2265878              -6.1658
       110                         -0.2199275              -5.9845
       111                         -0.2131544              -5.8002
       112                         -0.2099426              -5.7128
       113                         -0.2020245              -5.4974
       114                         -0.1963042              -5.3417
       115                         -0.1912384              -5.2039
       116                         -0.1829220              -4.9776
       117                         -0.1828849              -4.9766
       ...                                ...                  ...
       249                          1.0691504              29.0931
      -------------------------------------------------------------
                  HL-Gap            0.0037515 Eh            0.1021 eV
             Fermi-level           -0.2622219 Eh           -7.1354 eV

     #   Z          covCN         q      C6AA      α(0)
     1   7 N        2.634    -0.326    28.386     7.913
     2   6 C        2.904     0.061    26.631     8.462
     3   6 C        2.977    -0.027    28.672     8.783
     4   6 C        2.916    -0.048    29.189     8.859
     5   6 C        2.909    -0.040    28.988     8.829
     6   6 C        2.912    -0.037    28.929     8.820
     7   6 C        2.930    -0.049    29.215     8.864
     8   6 C        2.949     0.090    26.007     8.364
     9   7 N        1.850    -0.285    28.233     7.875
    10   6 C        2.932     0.086    26.083     8.376
    11   6 C        2.959    -0.025    28.614     8.774
    12   6 C        3.806    -0.062    21.693     6.630
    13   6 C        3.804    -0.057    21.598     6.616
    14   6 C        3.804    -0.059    21.634     6.622
    15   6 C        3.810    -0.069    21.818     6.649
    16   1 H        0.860     0.149     1.410     1.860
    17   1 H        0.860     0.151     1.394     1.850
    18   1 H        0.925     0.016     2.800     2.617
    19   1 H        0.925     0.023     2.690     2.565
    20   1 H        0.925     0.026     2.646     2.544
    21   1 H        0.925     0.043     2.413     2.429
    22   1 H        0.924     0.049     2.331     2.388
    23   1 H        0.924     0.038     2.470     2.458
    24   1 H        0.924     0.027     2.625     2.534
    25   1 H        0.924     0.032     2.554     2.499
    26   1 H        0.924     0.035     2.522     2.484
    27   1 H        0.924     0.030     2.588     2.516
    28   1 H        0.924     0.051     2.304     2.374
    29   1 H        0.924     0.056     2.250     2.346
    30   5 B        3.729     0.064    21.479     7.488
    31   5 B        4.543     0.068    21.518     7.474
    32   5 B        3.764     0.030    22.129     7.590
    33   5 B        3.812     0.039    22.000     7.562
    34   5 B        3.866     0.058    21.677     7.503
    35   5 B        4.607     0.024    22.296     7.608
    36   5 B        2.881     0.052    20.526     7.562
    37   5 B        2.866     0.087    19.954     7.457
    38   5 B        4.657     0.032    22.153     7.584
    39   5 B        2.924     0.071    20.196     7.499
    40   5 B        3.820     0.054    21.741     7.517
    41   5 B        3.871     0.022    22.332     7.616
    42   5 B        4.530    -0.004    22.823     7.697
    43   5 B        3.833     0.045    21.904     7.544
    44   5 B        4.711     0.060    21.665     7.500
    45   5 B        4.714     0.047    21.889     7.538
    46   5 B        3.891     0.047    21.874     7.537
    47   5 B        2.930     0.023    20.994     7.645
    48   5 B        4.652     0.019    22.401     7.626
    49   5 B        2.877     0.057    20.446     7.548
    50   5 B        3.828     0.063    21.581     7.488
    51   5 B        3.859     0.021    22.338     7.617
    52   5 B        3.858    -0.008    22.879     7.709
    53   5 B        3.841     0.049    21.839     7.532
    54   5 B        4.594     0.025    22.277     7.605
    55   5 B        5.681     0.105    20.884     7.363
    56   5 B        4.131     0.014    22.479     7.639
    57   5 B        2.924     0.032    20.854     7.620
    58   5 B        5.586     0.061    21.632     7.494
    59   5 B        3.637     0.066    21.106     7.489
    60   5 B        3.826     0.043    21.933     7.549
    61   5 B        3.877     0.030    22.180     7.590
    62   5 B        3.870     0.019    22.388     7.625
    63   5 B        2.915     0.087    19.936     7.451
    64   5 B        3.773     0.074    21.362     7.456
    65   5 B        5.329     0.099    20.995     7.383
    66   5 B        4.732     0.045    21.926     7.545
    67   5 B        3.808     0.013    22.471     7.643
    68   5 B        3.784     0.077    21.328     7.448
    69   5 B        2.896     0.051    20.526     7.561
    70   1 H        0.938    -0.124     6.465     3.975
    71   1 H        1.528     0.029     2.583     2.509
    72   1 H        0.935    -0.149     7.633     4.320
    73   1 H        0.931    -0.139     7.148     4.180
    74   1 H        0.935    -0.124     6.493     3.984
    75   1 H        0.934    -0.121     6.361     3.943
    76   1 H        0.938    -0.110     5.935     3.809
    77   1 H        0.936    -0.138     7.092     4.164
    78   1 H        0.938    -0.095     5.393     3.631
    79   1 H        0.933    -0.154     7.875     4.388
    80   1 H        0.938    -0.104     5.683     3.727
    81   1 H        0.940    -0.139     7.151     4.181
    82   1 H        0.939    -0.115     6.095     3.860
    83   1 H        0.938    -0.116     6.156     3.879
    84   1 H        0.940    -0.144     7.374     4.245

 Mol. C6AA /au·bohr⁶  :     103428.677480
 Mol. C8AA /au·bohr⁸  :    3182464.406138
 Mol. α(0) /au        :        514.594673


Wiberg/Mayer (AO) data.
largest (>0.10) Wiberg bond orders for each atom

 ---------------------------------------------------------------------------
     #   Z sym  total        # sym  WBO       # sym  WBO       # sym  WBO
 ---------------------------------------------------------------------------
     1   7 N    3.076 --     2 C    1.066    16 H    0.955    17 H    0.943
     2   6 C    3.926 --    11 C    1.409     3 C    1.253     1 N    1.066
     3   6 C    3.988 --     4 C    1.299     2 C    1.253     8 C    1.219
     4   6 C    3.955 --     5 C    1.497     3 C    1.299    18 H    0.965
                             7 C    0.118
     5   6 C    3.976 --     4 C    1.497     6 C    1.376    19 H    0.971
     6   6 C    3.975 --     7 C    1.495     5 C    1.376    20 H    0.971
     7   6 C    3.957 --     6 C    1.495     8 C    1.296    21 H    0.969
                             4 C    0.118
     8   6 C    3.983 --     9 N    1.303     7 C    1.296     3 C    1.219
     9   7 N    3.003 --    10 C    1.432     8 C    1.303
    10   6 C    3.957 --     9 N    1.432    11 C    1.334    15 C    1.010
    11   6 C    3.973 --     2 C    1.409    10 C    1.334    12 C    1.010
    12   6 C    3.996 --    11 C    1.010    13 C    1.007    22 H    0.967
                            23 H    0.960
    13   6 C    3.998 --    14 C    1.010    12 C    1.007    25 H    0.978
                            24 H    0.978
    14   6 C    3.997 --    13 C    1.010    15 C    1.007    26 H    0.978
                            27 H    0.977
    15   6 C    3.995 --    10 C    1.010    14 C    1.007    29 H    0.966
                            28 H    0.954
    16   1 H    0.977 --     1 N    0.955
    17   1 H    0.975 --     1 N    0.943
    18   1 H    1.000 --     4 C    0.965
    19   1 H    0.999 --     5 C    0.971
    20   1 H    0.998 --     6 C    0.971
    21   1 H    0.998 --     7 C    0.969
    22   1 H    0.997 --    12 C    0.967
    23   1 H    0.997 --    12 C    0.960
    24   1 H    0.999 --    13 C    0.978
    25   1 H    0.999 --    13 C    0.978
    26   1 H    0.999 --    14 C    0.978
    27   1 H    0.998 --    14 C    0.977
    28   1 H    0.995 --    15 C    0.954
    29   1 H    0.996 --    15 C    0.966
    30   5 B    3.574 --    70 H    0.951    33 B    0.922    31 B    0.875
                            71 H    0.537
    31   5 B    3.539 --    30 B    0.875    32 B    0.754    33 B    0.608
                            35 B    0.546    71 H    0.426    34 B    0.133
    32   5 B    3.577 --    34 B    1.121    72 H    0.948    31 B    0.754
                            35 B    0.455
    33   5 B    3.563 --    30 B    0.922    40 B    0.843    41 B    0.812
                            31 B    0.608    43 B    0.107
    34   5 B    3.392 --    32 B    1.121    42 B    0.803    38 B    0.634
                            35 B    0.432    31 B    0.133
    35   5 B    3.600 --    36 B    1.082    38 B    0.763    31 B    0.546
                            32 B    0.455    34 B    0.432
    36   5 B    3.432 --    35 B    1.082    37 B    0.995    73 H    0.912
                            38 B    0.156
    37   5 B    3.250 --    39 B    1.017    36 B    0.995    74 H    0.939
                            47 B    0.108
    38   5 B    3.680 --    46 B    0.780    35 B    0.763    45 B    0.700
                            34 B    0.634    42 B    0.374    36 B    0.156
    39   5 B    3.409 --    37 B    1.017    47 B    0.986    75 H    0.924
                            46 B    0.192
    40   5 B    3.630 --    76 H    0.928    41 B    0.845    33 B    0.843
                            43 B    0.792
    41   5 B    3.614 --    43 B    0.857    40 B    0.845    42 B    0.813
                            33 B    0.812
    42   5 B    3.643 --    44 B    0.835    41 B    0.813    34 B    0.803
                            45 B    0.435    38 B    0.374
    43   5 B    3.587 --    41 B    0.857    40 B    0.792    50 B    0.780
                            51 B    0.720    33 B    0.107
    44   5 B    3.588 --    42 B    0.835    52 B    0.682    45 B    0.635
                            55 B    0.569    48 B    0.459
    45   5 B    3.601 --    48 B    0.951    38 B    0.700    44 B    0.635
                            46 B    0.594    42 B    0.435
    46   5 B    3.550 --    47 B    0.969    38 B    0.780    48 B    0.666
                            45 B    0.594    39 B    0.192
    47   5 B    3.448 --    39 B    0.986    46 B    0.969    49 B    0.961
                            57 B    0.181    37 B    0.108
    48   5 B    3.642 --    45 B    0.951    56 B    0.774    46 B    0.666
                            44 B    0.459    55 B    0.437
    49   5 B    3.416 --    57 B    1.139    47 B    0.961    77 H    0.952
                            59 B    0.113
    50   5 B    3.572 --    78 H    0.921    53 B    0.844    51 B    0.796
                            43 B    0.780
    51   5 B    3.596 --    52 B    1.011    50 B    0.796    43 B    0.720
                            53 B    0.703
    52   5 B    3.633 --    51 B    1.011    54 B    0.892    44 B    0.682
                            55 B    0.607
    53   5 B    3.590 --    50 B    0.844    61 B    0.841    60 B    0.756
                            51 B    0.703    63 B    0.143
    54   5 B    3.668 --    52 B    0.892    62 B    0.701    55 B    0.683
                            65 B    0.615    58 B    0.392
    55   5 B    3.670 --    54 B    0.683    52 B    0.607    58 B    0.586
                            44 B    0.569    56 B    0.523    48 B    0.437
    56   5 B    3.525 --    57 B    0.966    48 B    0.774    58 B    0.774
                            55 B    0.523    59 B    0.196
    57   5 B    3.405 --    49 B    1.139    56 B    0.966    59 B    0.780
                            47 B    0.181
    58   5 B    3.634 --    56 B    0.774    66 B    0.617    55 B    0.586
                            67 B    0.486    54 B    0.392    65 B    0.292
                            59 B    0.267
    59   5 B    3.506 --    67 B    0.972    79 H    0.939    57 B    0.780
                            58 B    0.267    56 B    0.196    49 B    0.113
    60   5 B    3.608 --    63 B    1.027    80 H    0.919    53 B    0.756
                            61 B    0.753
    61   5 B    3.601 --    63 B    0.928    62 B    0.893    53 B    0.841
                            60 B    0.753
    62   5 B    3.617 --    61 B    0.893    64 B    0.862    54 B    0.701
                            65 B    0.632    63 B    0.231
    63   5 B    3.464 --    60 B    1.027    81 H    0.971    61 B    0.928
                            62 B    0.231    53 B    0.143
    64   5 B    3.513 --    82 H    0.953    62 B    0.862    65 B    0.766
                            68 B    0.688
    65   5 B    3.653 --    64 B    0.766    68 B    0.764    62 B    0.632
                            54 B    0.615    66 B    0.440    58 B    0.292
    66   5 B    3.635 --    69 B    0.952    68 B    0.763    67 B    0.706
                            58 B    0.617    65 B    0.440
    67   5 B    3.571 --    69 B    1.167    59 B    0.972    66 B    0.706
                            58 B    0.486
    68   5 B    3.558 --    83 H    0.953    65 B    0.764    66 B    0.763
                            64 B    0.688    69 B    0.187
    69   5 B    3.512 --    67 B    1.167    84 H    0.968    66 B    0.952
                            68 B    0.187
    70   1 H    0.979 --    30 B    0.951
    71   1 H    0.995 --    30 B    0.537    31 B    0.426
    72   1 H    0.976 --    32 B    0.948
    73   1 H    0.977 --    36 B    0.912
    74   1 H    0.982 --    37 B    0.939
    75   1 H    0.981 --    39 B    0.924
    76   1 H    0.977 --    40 B    0.928
    77   1 H    0.978 --    49 B    0.952
    78   1 H    0.979 --    50 B    0.921
    79   1 H    0.975 --    59 B    0.939
    80   1 H    0.979 --    60 B    0.919
    81   1 H    0.980 --    63 B    0.971
    82   1 H    0.983 --    64 B    0.953
    83   1 H    0.982 --    68 B    0.953
    84   1 H    0.978 --    69 B    0.968
 ---------------------------------------------------------------------------

Topologies differ in total number of bonds
Writing topology from bond orders to xtbtopo.mol

molecular dipole:
                 x           y           z       tot (Debye)
 q only:        0.311      -1.445      -2.220
   full:        0.185      -2.460      -1.478       7.310
molecular quadrupole (traceless):
                xx          xy          yy          xz          yz          zz
 q only:       -6.982       3.639      10.826      -7.732      -1.623      -3.844
  q+dip:       22.223       7.522       3.216      -1.048     -11.571     -25.440
   full:       11.346       3.449      -1.500      -2.071     -10.514      -9.847


           -------------------------------------------------
          | TOTAL ENERGY              -97.026291798794 Eh   |
          | GRADIENT NORM               0.076239105942 Eh/α |
          | HOMO-LUMO GAP               0.102084055392 eV   |
           -------------------------------------------------

------------------------------------------------------------------------
 * finished run on 2026/09/01 at 20:28:49.530     
------------------------------------------------------------------------
 total:
 * wall-time:     0 d,  0 h,  0 min,  0.461 sec
 *  cpu-time:     0 d,  0 h,  0 min,  4.938 sec
 * ratio c/w:    10.710 speedup
 SCF:
 * wall-time:     0 d,  0 h,  0 min,  0.420 sec
 *  cpu-time:     0 d,  0 h,  0 min,  4.422 sec
 * ratio c/w:    10.528 speedup

