      -----------------------------------------------------------      
     |                   =====================                   |     
     |                           x T B                           |     
     |                   =====================                   |     
     |                         S. Grimme                         |     
     |          Mulliken Center for Theoretical Chemistry        |     
     |                    University of Bonn                     |     
      -----------------------------------------------------------      

   * xtb version 6.7.1pre (5071a88) compiled by 'Marcel@Raven' on 2024-07-23

   xtb is free software: you can redistribute it and/or modify it under
   the terms of the GNU Lesser General Public License as published by
   the Free Software Foundation, either version 3 of the License, or
   (at your option) any later version.
   
   xtb is distributed in the hope that it will be useful,
   but WITHOUT ANY WARRANTY; without even the implied warranty of
   MERCHANTABILITY or FITNESS FOR A PARTICULAR PURPOSE.  See the
   GNU Lesser General Public License for more details.
   
   Cite this work as:
   * C. Bannwarth, E. Caldeweyher, S. Ehlert, A. Hansen, P. Pracht,
     J. Seibert, S. Spicher, S. Grimme, WIREs Comput. Mol. Sci., 2020, 11,
     e01493. DOI: 10.1002/wcms.1493
   
   for GFN2-xTB:
   * C. Bannwarth, S. Ehlert and S. Grimme., J. Chem. Theory Comput., 2019,
     15, 1652-1671. DOI: 10.1021/acs.jctc.8b01176
   for GFN1-xTB:
   * S. Grimme, C. Bannwarth, P. Shushkov, J. Chem. Theory Comput., 2017,
     13, 1989-2009. DOI: 10.1021/acs.jctc.7b00118
   for GFN0-xTB:
   * P. Pracht, E. Caldeweyher, S. Ehlert, S. Grimme, ChemRxiv, 2019, preprint.
     DOI: 10.26434/chemrxiv.8326202.v1
   for GFN-FF:
   * S. Spicher and S. Grimme, Angew. Chem. Int. Ed., 2020, 59, 15665-15673.
     DOI: 10.1002/anie.202004239
   
   for ALPB and GBSA implicit solvation:
   * S. Ehlert, M. Stahn, S. Spicher, S. Grimme, J. Chem. Theory Comput.,
     2021, 17, 4250-4261. DOI: 10.1021/acs.jctc.1c00471
   
   for ddCOSMO and CPCM-X implicit solvation:
   * M. Stahn, S. Ehlert, S. Grimme, J. Phys. Chem. A,
     2023, XX, XXXX-XXXX. DOI: 10.1021/acs.jpca.3c04382
   
   for DFT-D4:
   * E. Caldeweyher, C. Bannwarth and S. Grimme, J. Chem. Phys., 2017,
     147, 034112. DOI: 10.1063/1.4993215
   * E. Caldeweyher, S. Ehlert, A. Hansen, H. Neugebauer, S. Spicher,
     C. Bannwarth and S. Grimme, J. Chem. Phys., 2019, 150, 154122.
     DOI: 10.1063/1.5090222
   * E. Caldeweyher, J.-M. Mewes, S. Ehlert and S. Grimme, Phys. Chem. Chem. Phys.
     2020, 22, 8499-8512. DOI: 10.1039/D0CP00502A
   
   for sTDA-xTB:
   * S. Grimme and C. Bannwarth, J. Chem. Phys., 2016, 145, 054103.
     DOI: 10.1063/1.4959605
   
   in the mass-spec context:
   * V. Asgeirsson, C. Bauer and S. Grimme, Chem. Sci., 2017, 8, 4879.
     DOI: 10.1039/c7sc00601b
   * J. Koopman and S. Grimme, ACS Omega 2019, 4, 12, 15120-15133.
     DOI: 10.1021/acsomega.9b02011
   
   for metadynamics refer to:
   * S. Grimme, J. Chem. Theory Comput., 2019, 155, 2847-2862
     DOI: 10.1021/acs.jctc.9b00143
   
   for SPH calculations refer to:
   * S. Spicher and S. Grimme, J. Chem. Theory Comput., 2021, 17, 1701-1714
     DOI: 10.1021/acs.jctc.0c01306
   
   for ONIOM refer to:
   * C. Plett, A. Katbashev, S. Ehlert, S. Grimme, M. Bursch,
     Phys. Chem. Chem. Phys., 2023, 25, 17860-17868. DOI: 10.1039/D3CP02178E
   
   for DIPRO refer to:
   * J. Kohn, N. Gildemeister, S. Grimme, D. Fazzi, A. Hansen,
     J. Chem. Phys., 2023, just accepted.
   
   for PTB refer to:
   * S. Grimme, M. Mueller, A. Hansen, J. Chem. Phys., 2023, 158, 124111.
     DOI: 10.1063/5.0137838
   
   with help from (in alphabetical order)
   P. Atkinson, C. Bannwarth, F. Bohle, G. Brandenburg, E. Caldeweyher
   M. Checinski, S. Dohm, S. Ehlert, S. Ehrlich, I. Gerasimov, C. Hölzer
   A. Katbashev, J. Kohn, J. Koopman, C. Lavigne, S. Lehtola, F. März, M. Müller,
   F. Musil, H. Neugebauer, J. Pisarek, C. Plett, P. Pracht, F. Pultar,
   J. Seibert, P. Shushkov, S. Spicher, M. Stahn, M. Steiner, T. Strunk,
   J. Stückrath, T. Rose, and J. Unsleber
   
 * started run on 2026/08/31 at 22:04:55.155     
   ID    Z sym.   atoms
    1    7 N      1, 9
    2    6 C      2-8, 10-15
    3    1 H      16-29, 83-89
    4    5 B      30-82

           -------------------------------------------------
          |                Calculation Setup                |
           -------------------------------------------------

          program call               : "c:\Users\Andre\Proyectos doctorado\kras-pancreatic-gC3N4-ai\tools\xtb\xtb-6.7.1\bin\xtb.exe" "c:\Users\Andre\Proyectos doctorado\borophene-alzheimer-tau-ai\calculations\tau\Tacrine\Tacrine_B48H12_clean_complex.xyz" --gfn 2 --sp --chrg 0 --uhf 0 --etemp 300 --iterations 500 --norestart
          coordinate file            : c:\Users\Andre\Proyectos doctorado\borophene-alzheimer-tau-ai\calculations\tau\Tacrine\Tacrine_B48H12_clean_complex.xyz
          omp threads                :                    16


molecular fragmentation (1/2 indicates fragments):
111111111111111111111111111112222222222222222222222222222222222222222222
22222222222222222
# atoms in fragment 1/2:    29    60
 fragment masses (1/2) :      198.26      580.04
CMA distance (Bohr)    :  12.927
constraining FC (au)   :  0.0500

           -------------------------------------------------
          |                 G F N 2 - x T B                 |
           -------------------------------------------------

        Reference                      10.1021/acs.jctc.8b01176
      * Hamiltonian:
        H0-scaling (s, p, d)           1.850000    2.230000    2.230000
        zeta-weighting                 0.500000
      * Dispersion:
        s8                             2.700000
        a1                             0.520000
        a2                             5.000000
        s9                             5.000000
      * Repulsion:
        kExp                           1.500000    1.000000
        rExp                           1.000000
      * Coulomb:
        alpha                          2.000000
        third order                    shell-resolved
        anisotropic                    true
        a3                             3.000000
        a5                             4.000000
        cn-shift                       1.200000
        cn-exp                         4.000000
        max-rad                        5.000000


          ...................................................
          :                      SETUP                      :
          :.................................................:
          :  # basis functions                 293          :
          :  # atomic orbitals                 293          :
          :  # shells                          157          :
          :  # electrons                       242          :
          :  max. iterations                   500          :
          :  Hamiltonian                  GFN2-xTB          :
          :  restarted?                      false          :
          :  GBSA solvation                  false          :
          :  PC potential                    false          :
          :  electronic temp.          300.0000000     K    :
          :  accuracy                    1.0000000          :
          :  -> integral cutoff          0.2500000E+02      :
          :  -> integral neglect         0.1000000E-07      :
          :  -> SCF convergence          0.1000000E-05 Eh   :
          :  -> wf. convergence          0.1000000E-03 e    :
          :  Broyden damping             0.4000000          :
          :  net charge                          0          :
          :  unpaired electrons                  0          :
          ...................................................

 iter      E             dE          RMSdq      gap      omega  full diag
   1   -109.3107626 -0.109311E+03  0.158E+01    0.04       0.0  T
   2   -100.1860951  0.912467E+01  0.111E+01    0.24       1.0  T
   3    105.3997768  0.205586E+03  0.198E+01    0.05       1.0  T
   4     51.3756701 -0.540241E+02  0.173E+01    0.04       1.0  T
   5    -84.8178043 -0.136193E+03  0.901E+00    0.21       1.0  T
   6    -26.5801779  0.582376E+02  0.119E+01    0.24       1.0  T
   7    -98.0020364 -0.714219E+02  0.609E+00    0.16       1.0  T
   8   -104.2968314 -0.629479E+01  0.498E+00    0.12       1.0  T
   9   -109.4462484 -0.514942E+01  0.337E+00    0.23       1.0  T
  10   -109.6333275 -0.187079E+00  0.281E+00    0.37       1.0  T
  11   -110.0375847 -0.404257E+00  0.257E+00    0.35       1.0  T
  12   -110.0494049 -0.118201E-01  0.237E+00    0.41       1.0  T
  13   -110.0579523 -0.854744E-02  0.199E+00    0.39       1.0  T
  14   -110.0934277 -0.354754E-01  0.148E+00    0.40       1.0  T
  15   -110.0399728  0.534549E-01  0.116E+00    0.19       1.0  T
  16   -110.1484558 -0.108483E+00  0.992E-01    0.07       1.0  T
  17   -110.1795612 -0.311054E-01  0.772E-01    0.19       1.0  T
  18   -109.8032689  0.376292E+00  0.152E+00    0.17       1.0  T
  19   -109.7859333  0.173356E-01  0.155E+00    0.18       1.0  T
  20   -110.0872291 -0.301296E+00  0.941E-01    0.01       1.0  T
  21   -110.2279446 -0.140715E+00  0.549E-01    0.21       1.0  T
  22   -110.2303592 -0.241461E-02  0.491E-01    0.25       1.0  T
  23   -110.2341109 -0.375163E-02  0.437E-01    0.36       1.0  T
  24   -110.2341467 -0.358645E-04  0.356E-01    0.46       1.0  T
  25   -110.2353812 -0.123445E-02  0.326E-01    0.46       1.0  T
  26   -110.2357975 -0.416337E-03  0.321E-01    0.46       1.0  T
  27   -110.2356143  0.183204E-03  0.309E-01    0.47       1.0  T
  28   -110.2370588 -0.144449E-02  0.278E-01    0.40       1.0  T
  29   -110.2376369 -0.578089E-03  0.258E-01    0.36       1.0  T
  30   -110.2379532 -0.316350E-03  0.246E-01    0.34       1.0  T
  31   -110.2381962 -0.242969E-03  0.237E-01    0.32       1.0  T
  32   -110.2384938 -0.297635E-03  0.225E-01    0.29       1.0  T
  33   -110.2395434 -0.104957E-02  0.204E-01    0.24       1.0  T
  34   -110.2429683 -0.342485E-02  0.146E-01    0.16       1.0  T
  35   -110.2430907 -0.122449E-03  0.144E-01    0.16       1.0  T
  36   -110.2430367  0.540266E-04  0.145E-01    0.16       1.0  T
  37   -110.2468987 -0.386202E-02  0.510E-02    0.09       1.0  T
  38   -110.2460382  0.860466E-03  0.766E-02    0.12       1.0  T
  39   -110.2455847  0.453560E-03  0.940E-02    0.08       1.0  T
  40   -110.2467687 -0.118402E-02  0.507E-02    0.09       1.0  T
  41   -110.2469474 -0.178753E-03  0.396E-02    0.09       1.0  T
  42   -110.2472279 -0.280481E-03  0.118E-02    0.10       1.0  T
  43   -110.2472543 -0.263460E-04  0.369E-03    0.10       2.9  T
  44   -110.2472520  0.229883E-05  0.504E-03    0.10       2.1  T
  45   -110.2472535 -0.148006E-05  0.324E-03    0.10       3.3  T
  46   -110.2472552 -0.179214E-05  0.986E-04    0.10      10.8  T
  47   -110.2472553 -0.240181E-07  0.668E-04    0.10      15.9  T
  48   -110.2472552  0.843561E-07  0.839E-04    0.10      12.6  T

   *** convergence criteria satisfied after 48 iterations ***

         #    Occupation            Energy/Eh            Energy/eV
      -------------------------------------------------------------
         1        2.0000           -0.6258495             -17.0302
       ...           ...                  ...                  ...
       115        2.0000           -0.2666861              -7.2569
       116        2.0000           -0.2614583              -7.1146
       117        2.0000           -0.2611187              -7.1054
       118        2.0000           -0.2567769              -6.9873
       119        1.9999           -0.2524929              -6.8707
       120        1.9997           -0.2507528              -6.8233
       121        1.7420           -0.2442711              -6.6470 (HOMO)
       122        0.2584           -0.2406436              -6.5482 (LUMO)
       123        0.0000           -0.2273917              -6.1876
       124                         -0.2241861              -6.1004
       125                         -0.2203830              -5.9969
       126                         -0.2108780              -5.7383
       ...                                ...                  ...
       293                          1.1949524              32.5163
      -------------------------------------------------------------
                  HL-Gap            0.0036274 Eh            0.0987 eV
             Fermi-level           -0.2424566 Eh           -6.5976 eV

 SCC (total)                   0 d,  0 h,  0 min,  1.019 sec
 SCC setup                      ...        0 min,  0.002 sec (  0.196%)
 Dispersion                     ...        0 min,  0.005 sec (  0.491%)
 classical contributions        ...        0 min,  0.002 sec (  0.196%)
 integral evaluation            ...        0 min,  0.014 sec (  1.374%)
 iterations                     ...        0 min,  0.975 sec ( 95.682%)
 molecular gradient             ...        0 min,  0.020 sec (  1.963%)
 printout                       ...        0 min,  0.001 sec (  0.098%)

         :::::::::::::::::::::::::::::::::::::::::::::::::::::
         ::                     SUMMARY                     ::
         :::::::::::::::::::::::::::::::::::::::::::::::::::::
         :: total energy            -108.502457877723 Eh    ::
         :: gradient norm              0.067028864696 Eh/a0 ::
         :: HOMO-LUMO gap              0.098707153627 eV    ::
         ::.................................................::
         :: SCC energy              -110.243591349665 Eh    ::
         :: -> isotropic ES            0.268107682854 Eh    ::
         :: -> anisotropic ES          0.008780542058 Eh    ::
         :: -> anisotropic XC         -0.025578298289 Eh    ::
         :: -> dispersion             -0.109798224304 Eh    ::
         :: repulsion energy           1.741133471943 Eh    ::
         :: add. restraining           0.000000000000 Eh    ::
         :: total charge               0.000000000118 e     ::
         :::::::::::::::::::::::::::::::::::::::::::::::::::::

           -------------------------------------------------
          |                Property Printout                |
           -------------------------------------------------

    * Orbital Energies and Occupations

         #    Occupation            Energy/Eh            Energy/eV
      -------------------------------------------------------------
         1        2.0000           -0.6258495             -17.0302
       ...           ...                  ...                  ...
       109        2.0000           -0.2819816              -7.6731
       110        2.0000           -0.2804186              -7.6306
       111        2.0000           -0.2757749              -7.5042
       112        2.0000           -0.2729493              -7.4273
       113        2.0000           -0.2719763              -7.4009
       114        2.0000           -0.2683097              -7.3011
       115        2.0000           -0.2666861              -7.2569
       116        2.0000           -0.2614583              -7.1146
       117        2.0000           -0.2611187              -7.1054
       118        2.0000           -0.2567769              -6.9873
       119        1.9999           -0.2524929              -6.8707
       120        1.9997           -0.2507528              -6.8233
       121        1.7420           -0.2442711              -6.6470 (HOMO)
       122        0.2584           -0.2406436              -6.5482 (LUMO)
       123        0.0000           -0.2273917              -6.1876
       124                         -0.2241861              -6.1004
       125                         -0.2203830              -5.9969
       126                         -0.2108780              -5.7383
       127                         -0.2094887              -5.7005
       128                         -0.2065698              -5.6210
       129                         -0.1988818              -5.4118
       130                         -0.1954057              -5.3173
       131                         -0.1950001              -5.3062
       132                         -0.1895745              -5.1586
       ...                                ...                  ...
       293                          1.1949524              32.5163
      -------------------------------------------------------------
                  HL-Gap            0.0036274 Eh            0.0987 eV
             Fermi-level           -0.2424566 Eh           -6.5976 eV

     #   Z          covCN         q      C6AA      α(0)
     1   7 N        2.634    -0.333    28.574     7.939
     2   6 C        2.904     0.051    26.844     8.495
     3   6 C        2.977    -0.030    28.751     8.795
     4   6 C        2.916    -0.057    29.422     8.895
     5   6 C        2.909    -0.047    29.161     8.855
     6   6 C        2.912    -0.044    29.104     8.846
     7   6 C        2.930    -0.059    29.464     8.902
     8   6 C        2.949     0.086    26.084     8.377
     9   7 N        1.850    -0.299    28.611     7.928
    10   6 C        2.932     0.079    26.234     8.400
    11   6 C        2.959    -0.029    28.726     8.791
    12   6 C        3.806    -0.070    21.839     6.653
    13   6 C        3.804    -0.060    21.661     6.626
    14   6 C        3.804    -0.068    21.806     6.648
    15   6 C        3.810    -0.073    21.888     6.659
    16   1 H        0.860     0.145     1.436     1.877
    17   1 H        0.860     0.153     1.378     1.839
    18   1 H        0.925     0.010     2.892     2.659
    19   1 H        0.925     0.014     2.827     2.629
    20   1 H        0.925     0.017     2.783     2.609
    21   1 H        0.925     0.034     2.532     2.489
    22   1 H        0.924     0.049     2.339     2.392
    23   1 H        0.924     0.046     2.367     2.406
    24   1 H        0.924     0.026     2.638     2.540
    25   1 H        0.924     0.031     2.570     2.507
    26   1 H        0.924     0.043     2.404     2.425
    27   1 H        0.924     0.027     2.627     2.534
    28   1 H        0.924     0.048     2.350     2.398
    29   1 H        0.924     0.052     2.294     2.369
    30   5 B        2.872     0.039    20.739     7.602
    31   5 B        3.645     0.023    21.902     7.620
    32   5 B        3.704     0.005    22.478     7.671
    33   5 B        3.599    -0.001    22.042     7.701
    34   5 B        3.804     0.009    22.543     7.655
    35   5 B        3.812     0.036    22.069     7.574
    36   5 B        4.425     0.058    21.692     7.504
    37   5 B        3.843     0.023    22.300     7.611
    38   5 B        5.059     0.046    21.906     7.541
    39   5 B        5.523     0.102    20.945     7.374
    40   5 B        3.792     0.000    22.703     7.684
    41   5 B        4.799     0.085    21.231     7.424
    42   5 B        4.746     0.060    21.657     7.498
    43   5 B        3.691     0.010    22.354     7.658
    44   5 B        3.741     0.010    22.475     7.655
    45   5 B        4.170    -0.018    23.088     7.742
    46   5 B        3.938     0.008    22.595     7.659
    47   5 B        3.779     0.073    21.392     7.460
    48   5 B        3.808     0.063    21.574     7.488
    49   5 B        3.812    -0.012    22.941     7.722
    50   5 B        3.702    -0.008    22.724     7.714
    51   5 B        3.825     0.013    22.481     7.643
    52   5 B        4.691     0.053    21.785     7.520
    53   5 B        4.735     0.043    21.962     7.551
    54   5 B        3.813     0.073    21.411     7.460
    55   5 B        2.071    -0.002    43.085    13.730
    56   5 B        3.706     0.003    22.516     7.677
    57   5 B        4.547     0.019    22.386     7.623
    58   5 B        4.200     0.032    22.164     7.586
    59   5 B        3.748     0.071    21.384     7.465
    60   5 B        3.840    -0.007    22.868     7.708
    61   5 B        3.769     0.016    22.394     7.635
    62   5 B        4.530     0.064    21.582     7.485
    63   5 B        5.624     0.098    21.001     7.384
    64   5 B        3.805     0.020    22.355     7.623
    65   5 B        3.825     0.011    22.530     7.651
    66   5 B        2.886     0.067    20.267     7.514
    67   5 B        2.918     0.038    20.744     7.600
    68   5 B        2.913     0.015    21.139     7.672
    69   5 B        3.630     0.009    22.062     7.666
    70   5 B        3.792     0.002    22.667     7.678
    71   5 B        2.860    -0.006    21.540     7.749
    72   5 B        2.920    -0.039    22.101     7.845
    73   5 B        3.825     0.012    22.507     7.647
    74   5 B        2.901    -0.037    22.069     7.840
    75   5 B        4.532     0.039    22.030     7.563
    76   5 B        3.896     0.032    22.143     7.583
    77   5 B        3.818     0.013    22.478     7.643
    78   5 B        3.778    -0.039    23.448     7.811
    79   5 B        3.628    -0.022    22.625     7.764
    80   5 B        4.556     0.023    22.326     7.613
    81   5 B        3.280     0.017    21.076     7.656
    82   5 B        4.869     0.086    21.208     7.420
    83   1 H        0.937    -0.180     9.435     4.802
    84   1 H        0.935    -0.149     7.611     4.313
    85   1 H        0.936    -0.144     7.384     4.249
    86   1 H        0.939    -0.158     8.116     4.454
    87   1 H        0.936    -0.145     7.420     4.259
    88   1 H        0.937    -0.148     7.584     4.306
    89   1 H        0.934    -0.146     7.492     4.280

 Mol. C6AA /au·bohr⁶  :     135712.226083
 Mol. C8AA /au·bohr⁸  :    4535626.893988
 Mol. α(0) /au        :        594.708175


Wiberg/Mayer (AO) data.
largest (>0.10) Wiberg bond orders for each atom

 ---------------------------------------------------------------------------
     #   Z sym  total        # sym  WBO       # sym  WBO       # sym  WBO
 ---------------------------------------------------------------------------
     1   7 N    3.065 --     2 C    1.060    16 H    0.956    17 H    0.943
     2   6 C    3.878 --    11 C    1.390     3 C    1.254     1 N    1.060
     3   6 C    3.988 --     4 C    1.298     2 C    1.254     8 C    1.219
     4   6 C    3.916 --     5 C    1.478     3 C    1.298    18 H    0.965
                             7 C    0.104
     5   6 C    3.963 --     4 C    1.478     6 C    1.386    19 H    0.972
     6   6 C    3.959 --     7 C    1.475     5 C    1.386    20 H    0.972
     7   6 C    3.920 --     6 C    1.475     8 C    1.298    21 H    0.969
                             4 C    0.104
     8   6 C    3.983 --     9 N    1.300     7 C    1.298     3 C    1.219
     9   7 N    2.960 --    10 C    1.411     8 C    1.300
    10   6 C    3.934 --     9 N    1.411    11 C    1.348    15 C    1.008
    11   6 C    3.960 --     2 C    1.390    10 C    1.348    12 C    1.010
    12   6 C    3.996 --    11 C    1.010    13 C    1.007    22 H    0.967
                            23 H    0.960
    13   6 C    3.998 --    14 C    1.010    12 C    1.007    25 H    0.978
                            24 H    0.978
    14   6 C    3.997 --    13 C    1.010    15 C    1.007    27 H    0.978
                            26 H    0.977
    15   6 C    3.995 --    10 C    1.008    14 C    1.007    29 H    0.968
                            28 H    0.956
    16   1 H    0.978 --     1 N    0.956
    17   1 H    0.971 --     1 N    0.943
    18   1 H    1.000 --     4 C    0.965
    19   1 H    0.999 --     5 C    0.972
    20   1 H    0.999 --     6 C    0.972
    21   1 H    0.998 --     7 C    0.969
    22   1 H    0.997 --    12 C    0.967
    23   1 H    0.996 --    12 C    0.960
    24   1 H    0.999 --    13 C    0.978
    25   1 H    0.999 --    13 C    0.978
    26   1 H    0.998 --    14 C    0.977
    27   1 H    0.999 --    14 C    0.978
    28   1 H    0.994 --    15 C    0.956
    29   1 H    0.996 --    15 C    0.968
    30   5 B    3.490 --    72 B    1.434    83 H    0.957    36 B    0.839
    31   5 B    3.505 --    72 B    1.123    73 B    0.991    37 B    0.558
                            36 B    0.508
    32   5 B    3.509 --    74 B    1.278    73 B    1.015    39 B    0.485
                            38 B    0.448
    33   5 B    3.475 --    74 B    1.292    34 B    1.017    39 B    0.561
                            75 B    0.358
    34   5 B    3.533 --    76 B    1.096    33 B    1.017    40 B    0.684
                            75 B    0.483
    35   5 B    3.597 --    87 H    0.940    76 B    0.857    47 B    0.811
                            41 B    0.800
    36   5 B    3.618 --    30 B    0.839    42 B    0.835    72 B    0.791
                            31 B    0.508    43 B    0.389
    37   5 B    3.573 --    43 B    1.109    73 B    0.772    38 B    0.688
                            31 B    0.558
    38   5 B    3.591 --    44 B    0.971    37 B    0.688    39 B    0.520
                            73 B    0.503    32 B    0.448    45 B    0.233
    39   5 B    3.598 --    45 B    0.627    75 B    0.618    74 B    0.591
                            33 B    0.561    38 B    0.520    32 B    0.485
    40   5 B    3.596 --    46 B    1.105    75 B    0.920    34 B    0.684
                            76 B    0.507
    41   5 B    3.596 --    47 B    0.845    35 B    0.800    53 B    0.686
                            76 B    0.592    46 B    0.517
    42   5 B    3.620 --    36 B    0.835    48 B    0.754    43 B    0.691
                            49 B    0.558    82 B    0.495
    43   5 B    3.552 --    37 B    1.109    49 B    0.932    42 B    0.691
                            36 B    0.389
    44   5 B    3.445 --    50 B    1.107    38 B    0.971    51 B    0.590
                            45 B    0.417
    45   5 B    3.605 --    51 B    1.115    75 B    0.911    39 B    0.627
                            44 B    0.417    38 B    0.233
    46   5 B    3.550 --    40 B    1.105    52 B    0.831    53 B    0.608
                            41 B    0.517    76 B    0.181
    47   5 B    3.514 --    88 H    0.952    41 B    0.845    35 B    0.811
                            53 B    0.679
    48   5 B    3.529 --    84 H    0.939    54 B    0.833    42 B    0.754
                            82 B    0.730
    49   5 B    3.626 --    55 B    1.268    43 B    0.932    42 B    0.558
                            82 B    0.544
    50   5 B    3.479 --    56 B    1.160    44 B    1.107    51 B    0.556
                            57 B    0.392
    51   5 B    3.567 --    45 B    1.115    57 B    0.970    44 B    0.590
                            50 B    0.556
    52   5 B    3.581 --    58 B    0.865    46 B    0.831    65 B    0.560
                            53 B    0.541    59 B    0.499
    53   5 B    3.607 --    59 B    0.869    41 B    0.686    47 B    0.679
                            46 B    0.608    52 B    0.541
    54   5 B    3.573 --    85 H    0.941    48 B    0.833    82 B    0.774
                            60 B    0.724
    55   5 B    3.415 --    61 B    1.330    49 B    1.268    82 B    0.205
                            77 B    0.158
    56   5 B    3.426 --    50 B    1.160    62 B    1.015    63 B    0.509
                            57 B    0.456
    57   5 B    3.581 --    51 B    0.970    80 B    0.784    63 B    0.658
                            56 B    0.456    50 B    0.392
    58   5 B    3.561 --    64 B    1.006    52 B    0.865    65 B    0.632
                            71 B    0.539    81 B    0.319
    59   5 B    3.415 --    89 H    0.924    65 B    0.892    53 B    0.869
                            52 B    0.499
    60   5 B    3.608 --    66 B    1.233    54 B    0.724    77 B    0.714
                            82 B    0.690
    61   5 B    3.573 --    55 B    1.330    67 B    0.687    77 B    0.605
                            78 B    0.576
    62   5 B    3.513 --    56 B    1.015    68 B    0.646    78 B    0.577
                            63 B    0.538    79 B    0.451
    63   5 B    3.612 --    57 B    0.658    80 B    0.632    62 B    0.538
                            69 B    0.524    56 B    0.509    79 B    0.505
    64   5 B    3.542 --    80 B    1.027    58 B    1.006    70 B    0.629
                            81 B    0.524
    65   5 B    3.506 --    71 B    1.232    59 B    0.892    58 B    0.632
                            52 B    0.560
    66   5 B    3.466 --    60 B    1.233    86 H    0.956    77 B    0.854
                            67 B    0.144
    67   5 B    3.404 --    78 B    1.165    77 B    1.106    61 B    0.687
                            66 B    0.144
    68   5 B    3.349 --    79 B    1.211    78 B    1.133    62 B    0.646
    69   5 B    3.386 --    79 B    1.130    70 B    1.081    63 B    0.524
                            80 B    0.390
    70   5 B    3.488 --    69 B    1.081    81 B    1.064    64 B    0.629
                            80 B    0.492
    71   5 B    3.339 --    81 B    1.266    65 B    1.232    58 B    0.539
    72   5 B    3.530 --    30 B    1.434    31 B    1.123    36 B    0.791
    73   5 B    3.531 --    32 B    1.015    31 B    0.991    37 B    0.772
                            38 B    0.503
    74   5 B    3.450 --    33 B    1.292    32 B    1.278    39 B    0.591
    75   5 B    3.561 --    40 B    0.920    45 B    0.911    39 B    0.618
                            34 B    0.483    33 B    0.358
    76   5 B    3.483 --    34 B    1.096    35 B    0.857    41 B    0.592
                            40 B    0.507    46 B    0.181
    77   5 B    3.633 --    67 B    1.106    66 B    0.854    60 B    0.714
                            61 B    0.605    55 B    0.158
    78   5 B    3.623 --    67 B    1.165    68 B    1.133    62 B    0.577
                            61 B    0.576
    79   5 B    3.504 --    68 B    1.211    69 B    1.130    63 B    0.505
                            62 B    0.451
    80   5 B    3.597 --    64 B    1.027    57 B    0.784    63 B    0.632
                            70 B    0.492    69 B    0.390
    81   5 B    3.390 --    71 B    1.266    70 B    1.064    64 B    0.524
                            58 B    0.319
    82   5 B    3.627 --    54 B    0.774    48 B    0.730    60 B    0.690
                            49 B    0.544    42 B    0.495    55 B    0.205
    83   1 H    0.966 --    30 B    0.957
    84   1 H    0.972 --    48 B    0.939
    85   1 H    0.974 --    54 B    0.941
    86   1 H    0.971 --    66 B    0.956
    87   1 H    0.968 --    35 B    0.940
    88   1 H    0.974 --    47 B    0.952
    89   1 H    0.972 --    59 B    0.924
 ---------------------------------------------------------------------------

Topologies differ in total number of bonds
Writing topology from bond orders to xtbtopo.mol

molecular dipole:
                 x           y           z       tot (Debye)
 q only:        1.139       0.548      -1.111
   full:        1.668      -0.013      -2.429       7.490
molecular quadrupole (traceless):
                xx          xy          yy          xz          yz          zz
 q only:      -50.786      16.406      69.223     -34.640     -10.732     -18.437
  q+dip:       -9.599      -8.512      36.633     -23.232      -5.044     -27.034
   full:      -23.333      -3.686      25.654     -19.264      -4.362      -2.321


           -------------------------------------------------
          | TOTAL ENERGY             -108.502457877723 Eh   |
          | GRADIENT NORM               0.067028864696 Eh/α |
          | HOMO-LUMO GAP               0.098707153627 eV   |
           -------------------------------------------------

------------------------------------------------------------------------
 * finished run on 2026/08/31 at 22:04:56.271     
------------------------------------------------------------------------
 total:
 * wall-time:     0 d,  0 h,  0 min,  1.114 sec
 *  cpu-time:     0 d,  0 h,  0 min,  8.891 sec
 * ratio c/w:     7.981 speedup
 SCF:
 * wall-time:     0 d,  0 h,  0 min,  1.021 sec
 *  cpu-time:     0 d,  0 h,  0 min,  8.703 sec
 * ratio c/w:     8.524 speedup

normal termination of xtb
