84
Drug@beta12-B40H15 clean complex
N      0.442501     -2.563863      7.735666
C      0.445791     -1.150637      7.883297
C      1.658111     -0.409820      7.885820
C      2.953243     -0.988852      7.880621
C      4.102836     -0.198781      7.900331
C      3.981617      1.181882      7.922724
C      2.711913      1.761166      7.917564
C      1.552977      0.996384      7.893489
N      0.379226      1.641276      7.862764
C     -0.764273      0.920426      7.798730
C     -0.784925     -0.474195      7.804789
C     -2.083666     -1.236713      7.688928
C     -3.325539     -0.392982      7.973910
C     -3.237367      0.946111      7.256806
C     -2.034818      1.730284      7.770153
H      1.253923     -3.002401      8.157988
H      0.397348     -2.807521      6.747636
H      3.082399     -2.066525      7.862428
H      5.085912     -0.662245      7.899685
H      4.866204      1.812659      7.939745
H      2.621357      2.845218      7.926495
H     -2.086850     -2.086804      8.381515
H     -2.151136     -1.636619      6.669137
H     -4.221734     -0.936808      7.654894
H     -3.420412     -0.224649      9.054308
H     -3.146882      0.781779      6.175674
H     -4.153243      1.524720      7.420524
H     -2.233989      2.078345      8.791329
H     -1.890522      2.619167      7.144879
B     -4.780602     -2.604513      0.317266
B     -4.569465     -1.356683     -0.648004
B     -4.463861     -0.247381     -1.882945
B     -3.396531     -2.661979     -0.502827
B     -3.038009      0.177607     -1.404773
B     -4.390872      0.342644     -0.192397
B     -5.031012      1.403078      0.819222
B     -4.620094      2.986388      0.997562
B     -2.808851      0.512803      0.199513
B     -3.218551      3.227540      1.793236
B     -2.161133     -3.775821     -0.584343
B     -1.876928     -2.248084     -0.933414
B     -1.697164     -0.613334     -0.835751
B     -0.584443     -3.218984     -0.835049
B     -0.219751     -0.148448     -0.311803
B     -1.394985      0.035818      0.852087
B     -1.775686      1.662110      0.759224
B     -1.897502      3.236989      0.882584
B     -0.215292      1.037200      1.069695
B     -0.752118      4.348002      0.558417
B      0.826501     -4.112870     -0.740049
B      0.925144     -2.505404     -0.749723
B      1.214364     -0.948979     -0.586972
B      2.200665     -3.402586     -0.168167
B      2.622046     -0.195651     -0.292977
B      1.234081      0.551562      0.142600
B      1.124844      2.000923      1.042986
B      0.536600      3.437229      0.618007
B      2.458015      1.672646      0.087495
B      1.213646      3.017073     -0.852963
B      3.220244     -3.850820      1.104428
B      3.624046     -2.653486      0.063737
B      4.025027     -1.121930     -0.236552
B      4.417376     -2.835474      1.420329
B      5.363640     -0.241898     -0.689778
B      4.104119      0.531009     -0.013477
B      4.018093      2.321775     -0.033810
B      2.821838      3.096833     -0.912930
B      5.422007      1.458254     -0.185288
B      4.296118      3.550090     -1.013979
H     -5.168734     -3.094856      1.310677
H     -5.716063     -2.076392     -0.393509
H     -5.264034     -0.120717     -2.741690
H     -5.771097      1.007443      1.664604
H     -5.364514      3.843125      0.672044
H     -3.234300      3.224974      2.975674
H     -2.359297     -4.926237     -0.473225
H     -0.896482      5.475480      0.244253
H      0.822346     -5.249794     -1.023329
H      0.553695      2.694294     -1.783686
H      2.970323     -4.817556      1.717250
H      5.263074     -2.512454      2.156542
H      6.384778     -0.646686     -1.095590
H      6.503197      1.838169      0.065012
H      5.138890      4.252414     -1.415442
