90
Drug@B48H12 complex
O     -1.853548     -2.453119      5.460011
C     -1.397577     -1.575813      4.735050
C      0.048780     -1.337695      4.630117
C      0.490520     -0.365663      3.818769
C      1.929330     -0.070940      3.678263
C      2.875175     -1.095617      3.517853
C      4.232442     -0.795150      3.376888
C      4.650758      0.529072      3.390124
O      5.983741      0.774963      3.249929
C      3.733609      1.562689      3.538551
C      2.375460      1.260729      3.678706
O     -0.333257      0.459264      3.068116
C     -1.690848      0.262503      3.132326
C     -2.488183      1.100366      2.350143
C     -3.871881      0.944032      2.380652
O     -4.690823      1.738160      1.633525
C     -4.466828     -0.030804      3.177198
C     -3.666726     -0.863718      3.954376
O     -4.304892     -1.803887      4.717169
C     -2.276362     -0.717845      3.931942
H      0.692643     -1.965176      5.232750
H      2.568682     -2.138762      3.487630
H      4.959584     -1.592968      3.252767
H      6.129220      1.734797      3.279010
H      4.050414      2.600760      3.547502
H      1.665474      2.077048      3.796485
H     -2.020931      1.859027      1.730348
H     -4.152258      2.361433      1.118661
H     -5.547491     -0.141829      3.192019
H     -3.624228     -2.315854      5.209526
B     -7.500000     -4.500000      0.000000
B     -4.500000     -4.500000      0.000000
B     -1.500000     -4.500000      0.000000
B      1.500000     -4.500000      0.000000
B      4.500000     -4.500000      0.000000
B      7.500000     -4.500000      0.000000
B     -7.500000     -3.000000      0.000000
B     -4.500000     -3.000000      0.000000
B     -1.500000     -3.000000      0.000000
B      1.500000     -3.000000      0.000000
B      4.500000     -3.000000      0.000000
B      7.500000     -3.000000      0.000000
B     -7.500000     -1.500000      0.000000
B     -4.500000     -1.500000      0.000000
B     -1.500000     -1.500000      0.000000
B      1.500000     -1.500000      0.000000
B      4.500000     -1.500000      0.000000
B      7.500000     -1.500000      0.000000
B     -7.500000      0.000000      0.000000
B     -4.500000      0.000000      0.000000
B     -1.500000      0.000000      0.000000
B      1.500000      0.000000      0.000000
B      4.500000      0.000000      0.000000
B      7.500000      0.000000      0.000000
B     -7.500000      1.500000      0.000000
B     -4.500000      1.500000      0.000000
B     -1.500000      1.500000      0.000000
B      1.500000      1.500000      0.000000
B      4.500000      1.500000      0.000000
B      7.500000      1.500000      0.000000
B     -7.500000      3.000000      0.000000
B     -4.500000      3.000000      0.000000
B     -1.500000      3.000000      0.000000
B      1.500000      3.000000      0.000000
B      4.500000      3.000000      0.000000
B      7.500000      3.000000      0.000000
B     -7.500000      4.500000      0.000000
B     -4.500000      4.500000      0.000000
B     -1.500000      4.500000      0.000000
B      1.500000      4.500000      0.000000
B      4.500000      4.500000      0.000000
B      7.500000      4.500000      0.000000
B     -6.000000     -3.750000      0.000000
B     -3.000000     -3.750000      0.000000
B      0.000000     -3.750000      0.000000
B      3.000000     -3.750000      0.000000
B      6.000000     -3.750000      0.000000
B     -6.000000      3.750000      0.000000
B     -3.000000      3.750000      0.000000
B      0.000000      3.750000      0.000000
B      3.000000      3.750000      0.000000
B      6.000000      3.750000      0.000000
B     -6.000000      0.000000      0.000000
H     -8.600000     -4.500000      0.000000
H     -8.600000     -1.500000      0.000000
H     -8.600000      1.500000      0.000000
H     -8.600000      4.500000      0.000000
H      8.600000     -4.500000      0.000000
H      8.600000     -1.500000      0.000000
H      8.600000      1.500000      0.000000
