85
Drug@beta12-B40H15 clean complex
O     -1.853548     -2.453119     10.517024
C     -1.397577     -1.575813      9.792063
C      0.048780     -1.337695      9.687130
C      0.490520     -0.365663      8.875782
C      1.929330     -0.070940      8.735276
C      2.875175     -1.095617      8.574866
C      4.232442     -0.795150      8.433901
C      4.650758      0.529072      8.447137
O      5.983741      0.774963      8.306942
C      3.733609      1.562689      8.595564
C      2.375460      1.260729      8.735719
O     -0.333257      0.459264      8.125129
C     -1.690848      0.262503      8.189339
C     -2.488183      1.100366      7.407156
C     -3.871881      0.944032      7.437665
O     -4.690823      1.738160      6.690538
C     -4.466828     -0.030804      8.234211
C     -3.666726     -0.863718      9.011389
O     -4.304892     -1.803887      9.774182
C     -2.276362     -0.717845      8.988955
H      0.692643     -1.965176     10.289763
H      2.568682     -2.138762      8.544643
H      4.959584     -1.592968      8.309780
H      6.129220      1.734797      8.336023
H      4.050414      2.600760      8.604515
H      1.665474      2.077048      8.853498
H     -2.020931      1.859027      6.787361
H     -4.152258      2.361433      6.175674
H     -5.547491     -0.141829      8.249032
H     -3.624228     -2.315854     10.266539
B     -4.780602     -2.604513      0.317266
B     -4.569465     -1.356683     -0.648004
B     -4.463861     -0.247381     -1.882945
B     -3.396531     -2.661979     -0.502827
B     -3.038009      0.177607     -1.404773
B     -4.390872      0.342644     -0.192397
B     -5.031012      1.403078      0.819222
B     -4.620094      2.986388      0.997562
B     -2.808851      0.512803      0.199513
B     -3.218551      3.227540      1.793236
B     -2.161133     -3.775821     -0.584343
B     -1.876928     -2.248084     -0.933414
B     -1.697164     -0.613334     -0.835751
B     -0.584443     -3.218984     -0.835049
B     -0.219751     -0.148448     -0.311803
B     -1.394985      0.035818      0.852087
B     -1.775686      1.662110      0.759224
B     -1.897502      3.236989      0.882584
B     -0.215292      1.037200      1.069695
B     -0.752118      4.348002      0.558417
B      0.826501     -4.112870     -0.740049
B      0.925144     -2.505404     -0.749723
B      1.214364     -0.948979     -0.586972
B      2.200665     -3.402586     -0.168167
B      2.622046     -0.195651     -0.292977
B      1.234081      0.551562      0.142600
B      1.124844      2.000923      1.042986
B      0.536600      3.437229      0.618007
B      2.458015      1.672646      0.087495
B      1.213646      3.017073     -0.852963
B      3.220244     -3.850820      1.104428
B      3.624046     -2.653486      0.063737
B      4.025027     -1.121930     -0.236552
B      4.417376     -2.835474      1.420329
B      5.363640     -0.241898     -0.689778
B      4.104119      0.531009     -0.013477
B      4.018093      2.321775     -0.033810
B      2.821838      3.096833     -0.912930
B      5.422007      1.458254     -0.185288
B      4.296118      3.550090     -1.013979
H     -5.168734     -3.094856      1.310677
H     -5.716063     -2.076392     -0.393509
H     -5.264034     -0.120717     -2.741690
H     -5.771097      1.007443      1.664604
H     -5.364514      3.843125      0.672044
H     -3.234300      3.224974      2.975674
H     -2.359297     -4.926237     -0.473225
H     -0.896482      5.475480      0.244253
H      0.822346     -5.249794     -1.023329
H      0.553695      2.694294     -1.783686
H      2.970323     -4.817556      1.717250
H      5.263074     -2.512454      2.156542
H      6.384778     -0.646686     -1.095590
H      6.503197      1.838169      0.065012
H      5.138890      4.252414     -1.415442
