      -----------------------------------------------------------      
     |                   =====================                   |     
     |                           x T B                           |     
     |                   =====================                   |     
     |                         S. Grimme                         |     
     |          Mulliken Center for Theoretical Chemistry        |     
     |                    University of Bonn                     |     
      -----------------------------------------------------------      

   * xtb version 6.7.1pre (5071a88) compiled by 'Marcel@Raven' on 2024-07-23

   xtb is free software: you can redistribute it and/or modify it under
   the terms of the GNU Lesser General Public License as published by
   the Free Software Foundation, either version 3 of the License, or
   (at your option) any later version.
   
   xtb is distributed in the hope that it will be useful,
   but WITHOUT ANY WARRANTY; without even the implied warranty of
   MERCHANTABILITY or FITNESS FOR A PARTICULAR PURPOSE.  See the
   GNU Lesser General Public License for more details.
   
   Cite this work as:
   * C. Bannwarth, E. Caldeweyher, S. Ehlert, A. Hansen, P. Pracht,
     J. Seibert, S. Spicher, S. Grimme, WIREs Comput. Mol. Sci., 2020, 11,
     e01493. DOI: 10.1002/wcms.1493
   
   for GFN2-xTB:
   * C. Bannwarth, S. Ehlert and S. Grimme., J. Chem. Theory Comput., 2019,
     15, 1652-1671. DOI: 10.1021/acs.jctc.8b01176
   for GFN1-xTB:
   * S. Grimme, C. Bannwarth, P. Shushkov, J. Chem. Theory Comput., 2017,
     13, 1989-2009. DOI: 10.1021/acs.jctc.7b00118
   for GFN0-xTB:
   * P. Pracht, E. Caldeweyher, S. Ehlert, S. Grimme, ChemRxiv, 2019, preprint.
     DOI: 10.26434/chemrxiv.8326202.v1
   for GFN-FF:
   * S. Spicher and S. Grimme, Angew. Chem. Int. Ed., 2020, 59, 15665-15673.
     DOI: 10.1002/anie.202004239
   
   for ALPB and GBSA implicit solvation:
   * S. Ehlert, M. Stahn, S. Spicher, S. Grimme, J. Chem. Theory Comput.,
     2021, 17, 4250-4261. DOI: 10.1021/acs.jctc.1c00471
   
   for ddCOSMO and CPCM-X implicit solvation:
   * M. Stahn, S. Ehlert, S. Grimme, J. Phys. Chem. A,
     2023, XX, XXXX-XXXX. DOI: 10.1021/acs.jpca.3c04382
   
   for DFT-D4:
   * E. Caldeweyher, C. Bannwarth and S. Grimme, J. Chem. Phys., 2017,
     147, 034112. DOI: 10.1063/1.4993215
   * E. Caldeweyher, S. Ehlert, A. Hansen, H. Neugebauer, S. Spicher,
     C. Bannwarth and S. Grimme, J. Chem. Phys., 2019, 150, 154122.
     DOI: 10.1063/1.5090222
   * E. Caldeweyher, J.-M. Mewes, S. Ehlert and S. Grimme, Phys. Chem. Chem. Phys.
     2020, 22, 8499-8512. DOI: 10.1039/D0CP00502A
   
   for sTDA-xTB:
   * S. Grimme and C. Bannwarth, J. Chem. Phys., 2016, 145, 054103.
     DOI: 10.1063/1.4959605
   
   in the mass-spec context:
   * V. Asgeirsson, C. Bauer and S. Grimme, Chem. Sci., 2017, 8, 4879.
     DOI: 10.1039/c7sc00601b
   * J. Koopman and S. Grimme, ACS Omega 2019, 4, 12, 15120-15133.
     DOI: 10.1021/acsomega.9b02011
   
   for metadynamics refer to:
   * S. Grimme, J. Chem. Theory Comput., 2019, 155, 2847-2862
     DOI: 10.1021/acs.jctc.9b00143
   
   for SPH calculations refer to:
   * S. Spicher and S. Grimme, J. Chem. Theory Comput., 2021, 17, 1701-1714
     DOI: 10.1021/acs.jctc.0c01306
   
   for ONIOM refer to:
   * C. Plett, A. Katbashev, S. Ehlert, S. Grimme, M. Bursch,
     Phys. Chem. Chem. Phys., 2023, 25, 17860-17868. DOI: 10.1039/D3CP02178E
   
   for DIPRO refer to:
   * J. Kohn, N. Gildemeister, S. Grimme, D. Fazzi, A. Hansen,
     J. Chem. Phys., 2023, just accepted.
   
   for PTB refer to:
   * S. Grimme, M. Mueller, A. Hansen, J. Chem. Phys., 2023, 158, 124111.
     DOI: 10.1063/5.0137838
   
   with help from (in alphabetical order)
   P. Atkinson, C. Bannwarth, F. Bohle, G. Brandenburg, E. Caldeweyher
   M. Checinski, S. Dohm, S. Ehlert, S. Ehrlich, I. Gerasimov, C. Hölzer
   A. Katbashev, J. Kohn, J. Koopman, C. Lavigne, S. Lehtola, F. März, M. Müller,
   F. Musil, H. Neugebauer, J. Pisarek, C. Plett, P. Pracht, F. Pultar,
   J. Seibert, P. Shushkov, S. Spicher, M. Stahn, M. Steiner, T. Strunk,
   J. Stückrath, T. Rose, and J. Unsleber
   
 * started run on 2026/08/31 at 21:15:33.092     
   ID    Z sym.   atoms
    1    8 O      1, 9, 12, 16, 19
    2    6 C      2-8, 10, 11, 13-15, 17, 18, 20
    3    1 H      21-30, 84-90
    4    5 B      31-83

           -------------------------------------------------
          |                Calculation Setup                |
           -------------------------------------------------

          program call               : "c:\Users\Andre\Proyectos doctorado\kras-pancreatic-gC3N4-ai\tools\xtb\xtb-6.7.1\bin\xtb.exe" "c:\Users\Andre\Proyectos doctorado\borophene-alzheimer-tau-ai\calculations\tau\Apigenin\Apigenin_B48H12_phys_complex.xyz" --gfn 2 --sp --chrg 0 --uhf 0 --etemp 300 --iterations 500 --norestart
          coordinate file            : c:\Users\Andre\Proyectos doctorado\borophene-alzheimer-tau-ai\calculations\tau\Apigenin\Apigenin_B48H12_phys_complex.xyz
          omp threads                :                    16


molecular fragmentation (1/2 indicates fragments):
111111111111111111111111111111222222222222222222222222222222222222222222
222222222222222222
# atoms in fragment 1/2:    30    60
 fragment masses (1/2) :      270.24      580.04
CMA distance (Bohr)    :  10.267
constraining FC (au)   :  0.0500

           -------------------------------------------------
          |                 G F N 2 - x T B                 |
           -------------------------------------------------

        Reference                      10.1021/acs.jctc.8b01176
      * Hamiltonian:
        H0-scaling (s, p, d)           1.850000    2.230000    2.230000
        zeta-weighting                 0.500000
      * Dispersion:
        s8                             2.700000
        a1                             0.520000
        a2                             5.000000
        s9                             5.000000
      * Repulsion:
        kExp                           1.500000    1.000000
        rExp                           1.000000
      * Coulomb:
        alpha                          2.000000
        third order                    shell-resolved
        anisotropic                    true
        a3                             3.000000
        a5                             4.000000
        cn-shift                       1.200000
        cn-exp                         4.000000
        max-rad                        5.000000


          ...................................................
          :                      SETUP                      :
          :.................................................:
          :  # basis functions                 309          :
          :  # atomic orbitals                 309          :
          :  # shells                          163          :
          :  # electrons                       266          :
          :  max. iterations                   500          :
          :  Hamiltonian                  GFN2-xTB          :
          :  restarted?                      false          :
          :  GBSA solvation                  false          :
          :  PC potential                    false          :
          :  electronic temp.          300.0000000     K    :
          :  accuracy                    1.0000000          :
          :  -> integral cutoff          0.2500000E+02      :
          :  -> integral neglect         0.1000000E-07      :
          :  -> SCF convergence          0.1000000E-05 Eh   :
          :  -> wf. convergence          0.1000000E-03 e    :
          :  Broyden damping             0.4000000          :
          :  net charge                          0          :
          :  unpaired electrons                  0          :
          ...................................................

 iter      E             dE          RMSdq      gap      omega  full diag
   1   -126.1161303 -0.126116E+03  0.159E+01    0.33       0.0  T
   2   -116.7755206  0.934061E+01  0.110E+01    0.15       1.0  T
   3    121.9031959  0.238679E+03  0.210E+01    0.09       1.0  T
   4     91.2087071 -0.306945E+02  0.186E+01    0.12       1.0  T
   5    -83.5324600 -0.174741E+03  0.100E+01    0.08       1.0  T
   6    -57.1806566  0.263518E+02  0.139E+01    0.04       1.0  T
   7   -121.5304474 -0.643498E+02  0.568E+00    0.04       1.0  T
   8   -112.3734711  0.915698E+01  0.675E+00    0.10       1.0  T
   9   -126.0560859 -0.136826E+02  0.354E+00    0.44       1.0  T
  10   -126.6506046 -0.594519E+00  0.308E+00    0.39       1.0  T
  11   -126.8647185 -0.214114E+00  0.271E+00    0.45       1.0  T
  12   -126.8423309  0.223876E-01  0.258E+00    0.43       1.0  T
  13   -126.8466880 -0.435712E-02  0.214E+00    0.42       1.0  T
  14   -126.6180281  0.228660E+00  0.174E+00    0.16       1.0  T
  15   -126.9532192 -0.335191E+00  0.119E+00    0.21       1.0  T
  16   -126.2565999  0.696619E+00  0.178E+00    0.04       1.0  T
  17   -126.5991115 -0.342512E+00  0.146E+00    0.19       1.0  T
  18   -126.6170617 -0.179502E-01  0.141E+00    0.18       1.0  T
  19   -126.6893565 -0.722948E-01  0.121E+00    0.15       1.0  T
  20   -127.0348584 -0.345502E+00  0.695E-01    0.24       1.0  T
  21   -127.0476520 -0.127936E-01  0.690E-01    0.23       1.0  T
  22   -127.0490721 -0.142015E-02  0.667E-01    0.21       1.0  T
  23   -127.0514779 -0.240575E-02  0.647E-01    0.21       1.0  T
  24   -127.0561684 -0.469055E-02  0.590E-01    0.18       1.0  T
  25   -127.0681280 -0.119596E-01  0.416E-01    0.09       1.0  T
  26   -127.0435173  0.246107E-01  0.414E-01    0.02       1.0  T
  27   -127.0548131 -0.112958E-01  0.354E-01    0.04       1.0  T
  28   -127.0239590  0.308541E-01  0.486E-01    0.01       1.0  T
  29   -127.0700939 -0.461349E-01  0.156E-01    0.09       1.0  T
  30   -127.0693779  0.715954E-03  0.175E-01    0.07       1.0  T
  31   -127.0708380 -0.146010E-02  0.144E-01    0.08       1.0  T
  32   -127.0707750  0.630680E-04  0.118E-01    0.11       1.0  T
  33   -127.0704801  0.294891E-03  0.118E-01    0.12       1.0  T
  34   -127.0706264 -0.146281E-03  0.114E-01    0.12       1.0  T
  35   -127.0719961 -0.136979E-02  0.872E-02    0.11       1.0  T
  36   -127.0733111 -0.131497E-02  0.519E-02    0.10       1.0  T
  37   -127.0736961 -0.384990E-03  0.357E-02    0.09       1.0  T
  38   -127.0737243 -0.282121E-04  0.333E-02    0.09       1.0  T
  39   -127.0739315 -0.207168E-03  0.198E-02    0.08       1.0  T
  40   -127.0739440 -0.125558E-04  0.182E-02    0.08       1.0  T
  41   -127.0739378  0.627574E-05  0.186E-02    0.08       1.0  T
  42   -127.0739666 -0.288203E-04  0.123E-02    0.08       1.0  T
  43   -127.0739731 -0.647094E-05  0.914E-03    0.08       1.2  T
  44   -127.0739762 -0.318332E-05  0.725E-03    0.08       1.5  T
  45   -127.0739780 -0.176883E-05  0.591E-03    0.08       1.8  T
  46   -127.0739793 -0.125605E-05  0.435E-03    0.08       2.4  T
  47   -127.0739801 -0.801806E-06  0.287E-03    0.08       3.7  T
  48   -127.0739806 -0.495702E-06  0.163E-03    0.08       6.5  T
  49   -127.0739806 -0.447940E-07  0.107E-03    0.08       9.9  T
  50   -127.0739805  0.881822E-07  0.110E-03    0.08       9.6  T
  51   -127.0739807 -0.147913E-06  0.744E-04    0.08      14.2  T
  52   -127.0739808 -0.820747E-07  0.469E-04    0.08      22.5  T

   *** convergence criteria satisfied after 52 iterations ***

         #    Occupation            Energy/Eh            Energy/eV
      -------------------------------------------------------------
         1        2.0000           -0.7083295             -19.2746
       ...           ...                  ...                  ...
       127        2.0000           -0.2724706              -7.4143
       128        2.0000           -0.2680048              -7.2928
       129        2.0000           -0.2675312              -7.2799
       130        2.0000           -0.2629362              -7.1549
       131        1.9999           -0.2584441              -7.0326
       132        1.9996           -0.2574232              -7.0048
       133        1.6584           -0.2507151              -6.8223 (HOMO)
       134        0.3421           -0.2477148              -6.7407 (LUMO)
       135        0.0000           -0.2346381              -6.3848
       136                         -0.2306077              -6.2752
       137                         -0.2270757              -6.1790
       138                         -0.2267035              -6.1689
       ...                                ...                  ...
       309                          1.1867553              32.2933
      -------------------------------------------------------------
                  HL-Gap            0.0030002 Eh            0.0816 eV
             Fermi-level           -0.2492142 Eh           -6.7815 eV

 SCC (total)                   0 d,  0 h,  0 min,  0.993 sec
 SCC setup                      ...        0 min,  0.001 sec (  0.101%)
 Dispersion                     ...        0 min,  0.001 sec (  0.101%)
 classical contributions        ...        0 min,  0.000 sec (  0.000%)
 integral evaluation            ...        0 min,  0.007 sec (  0.705%)
 iterations                     ...        0 min,  0.963 sec ( 96.979%)
 molecular gradient             ...        0 min,  0.018 sec (  1.813%)
 printout                       ...        0 min,  0.002 sec (  0.201%)

         :::::::::::::::::::::::::::::::::::::::::::::::::::::
         ::                     SUMMARY                     ::
         :::::::::::::::::::::::::::::::::::::::::::::::::::::
         :: total energy            -125.235524139802 Eh    ::
         :: gradient norm              0.087290010350 Eh/a0 ::
         :: HOMO-LUMO gap              0.081640428515 eV    ::
         ::.................................................::
         :: SCC energy              -127.068868736404 Eh    ::
         :: -> isotropic ES            0.335146008923 Eh    ::
         :: -> anisotropic ES          0.001711904494 Eh    ::
         :: -> anisotropic XC         -0.045016337554 Eh    ::
         :: -> dispersion             -0.122359473480 Eh    ::
         :: repulsion energy           1.833344596602 Eh    ::
         :: add. restraining           0.000000000000 Eh    ::
         :: total charge               0.000000000161 e     ::
         :::::::::::::::::::::::::::::::::::::::::::::::::::::

           -------------------------------------------------
          |                Property Printout                |
           -------------------------------------------------

    * Orbital Energies and Occupations

         #    Occupation            Energy/Eh            Energy/eV
      -------------------------------------------------------------
         1        2.0000           -0.7083295             -19.2746
       ...           ...                  ...                  ...
       121        2.0000           -0.2880045              -7.8370
       122        2.0000           -0.2866306              -7.7996
       123        2.0000           -0.2820159              -7.6740
       124        2.0000           -0.2789971              -7.5919
       125        2.0000           -0.2787918              -7.5863
       126        2.0000           -0.2750566              -7.4847
       127        2.0000           -0.2724706              -7.4143
       128        2.0000           -0.2680048              -7.2928
       129        2.0000           -0.2675312              -7.2799
       130        2.0000           -0.2629362              -7.1549
       131        1.9999           -0.2584441              -7.0326
       132        1.9996           -0.2574232              -7.0048
       133        1.6584           -0.2507151              -6.8223 (HOMO)
       134        0.3421           -0.2477148              -6.7407 (LUMO)
       135        0.0000           -0.2346381              -6.3848
       136                         -0.2306077              -6.2752
       137                         -0.2270757              -6.1790
       138                         -0.2267035              -6.1689
       139                         -0.2175736              -5.9205
       140                         -0.2162956              -5.8857
       141                         -0.2162326              -5.8840
       142                         -0.2131614              -5.8004
       143                         -0.2062320              -5.6119
       144                         -0.2020284              -5.4975
       ...                                ...                  ...
       309                          1.1867553              32.2933
      -------------------------------------------------------------
                  HL-Gap            0.0030002 Eh            0.0816 eV
             Fermi-level           -0.2492142 Eh           -6.7815 eV

     #   Z          covCN         q      C6AA      α(0)
     1   8 O        0.858    -0.478    23.297     6.471
     2   6 C        2.836     0.206    23.633     7.967
     3   6 C        2.897    -0.112    30.832     9.104
     4   6 C        2.854     0.115    25.465     8.271
     5   6 C        2.967    -0.016    28.399     8.741
     6   6 C        2.917    -0.048    29.198     8.861
     7   6 C        2.911    -0.063    29.559     8.915
     8   6 C        2.843     0.136    25.033     8.200
     9   8 O        1.659    -0.404    20.921     6.175
    10   6 C        2.909    -0.082    30.038     8.987
    11   6 C        2.918    -0.044    29.087     8.844
    12   8 O        1.707    -0.233    17.867     5.707
    13   6 C        2.873     0.127    25.210     8.231
    14   6 C        2.912    -0.162    32.191     9.304
    15   6 C        2.845     0.134    25.070     8.206
    16   8 O        1.659    -0.409    21.021     6.189
    17   6 C        2.913    -0.099    30.496     9.055
    18   6 C        2.846     0.147    24.797     8.161
    19   8 O        1.657    -0.404    20.935     6.177
    20   6 C        2.971    -0.088    30.194     9.013
    21   1 H        0.925     0.055     2.256     2.349
    22   1 H        0.925     0.047     2.354     2.399
    23   1 H        0.925     0.053     2.286     2.364
    24   1 H        0.804     0.299     0.723     1.336
    25   1 H        0.925     0.029     2.600     2.522
    26   1 H        0.925     0.044     2.394     2.420
    27   1 H        0.925     0.104     1.747     2.067
    28   1 H        0.804     0.323     0.656     1.272
    29   1 H        0.925     0.070     2.086     2.259
    30   1 H        0.802     0.343     0.605     1.221
    31   5 B        2.872     0.044    20.654     7.586
    32   5 B        3.645     0.029    21.791     7.600
    33   5 B        3.704     0.014    22.321     7.644
    34   5 B        3.599     0.003    21.966     7.688
    35   5 B        3.804     0.013    22.469     7.643
    36   5 B        3.812     0.038    22.032     7.567
    37   5 B        4.425     0.060    21.652     7.497
    38   5 B        3.843     0.026    22.255     7.603
    39   5 B        5.059     0.050    21.839     7.530
    40   5 B        5.523     0.103    20.919     7.369
    41   5 B        3.792     0.002    22.679     7.680
    42   5 B        4.799     0.085    21.218     7.422
    43   5 B        4.746     0.062    21.627     7.493
    44   5 B        3.691     0.013    22.298     7.648
    45   5 B        3.741     0.020    22.285     7.623
    46   5 B        4.170    -0.016    23.044     7.735
    47   5 B        3.938     0.010    22.562     7.654
    48   5 B        3.779     0.075    21.360     7.455
    49   5 B        3.808     0.065    21.544     7.483
    50   5 B        3.812    -0.011    22.919     7.718
    51   5 B        3.702     0.006    22.451     7.668
    52   5 B        3.825     0.012    22.508     7.648
    53   5 B        4.691     0.054    21.759     7.516
    54   5 B        4.735     0.045    21.928     7.545
    55   5 B        3.813     0.074    21.386     7.455
    56   5 B        2.071    -0.002    43.099    13.732
    57   5 B        3.706    -0.001    22.597     7.690
    58   5 B        4.547     0.022    22.336     7.615
    59   5 B        4.200     0.032    22.149     7.583
    60   5 B        3.748     0.072    21.370     7.463
    61   5 B        3.840    -0.004    22.814     7.699
    62   5 B        3.769     0.015    22.423     7.640
    63   5 B        4.530     0.054    21.765     7.517
    64   5 B        5.624     0.098    21.003     7.384
    65   5 B        3.805     0.021    22.325     7.618
    66   5 B        3.825     0.013    22.488     7.644
    67   5 B        2.886     0.072    20.186     7.499
    68   5 B        2.918     0.036    20.784     7.607
    69   5 B        2.913     0.016    21.124     7.670
    70   5 B        3.630     0.007    22.104     7.673
    71   5 B        3.792     0.002    22.672     7.679
    72   5 B        2.860    -0.006    21.539     7.748
    73   5 B        2.920    -0.029    21.934     7.815
    74   5 B        3.825     0.020    22.349     7.620
    75   5 B        2.901    -0.027    21.894     7.809
    76   5 B        4.532     0.043    21.960     7.551
    77   5 B        3.896     0.036    22.078     7.572
    78   5 B        3.818     0.016    22.427     7.634
    79   5 B        3.778    -0.045    23.556     7.829
    80   5 B        3.628    -0.023    22.641     7.767
    81   5 B        4.556     0.023    22.326     7.613
    82   5 B        3.280     0.016    21.093     7.659
    83   5 B        4.869     0.087    21.183     7.416
    84   1 H        0.937    -0.173     8.956     4.679
    85   1 H        0.935    -0.144     7.381     4.248
    86   1 H        0.936    -0.139     7.155     4.182
    87   1 H        0.939    -0.152     7.773     4.359
    88   1 H        0.936    -0.140     7.170     4.187
    89   1 H        0.937    -0.143     7.353     4.240
    90   1 H        0.934    -0.143     7.314     4.229

 Mol. C6AA /au·bohr⁶  :     147323.520848
 Mol. C8AA /au·bohr⁸  :    4914888.607197
 Mol. α(0) /au        :        620.126197


Wiberg/Mayer (AO) data.
largest (>0.10) Wiberg bond orders for each atom

 ---------------------------------------------------------------------------
     #   Z sym  total        # sym  WBO       # sym  WBO       # sym  WBO
 ---------------------------------------------------------------------------
     1   8 O    1.916 --     2 C    1.590
     2   6 C    3.875 --     1 O    1.590     3 C    1.125    20 C    1.080
     3   6 C    3.932 --     4 C    1.598     2 C    1.125    21 H    0.964
     4   6 C    3.816 --     3 C    1.598     5 C    1.058    12 O    1.037
     5   6 C    3.949 --    11 C    1.363     6 C    1.357     4 C    1.058
     6   6 C    3.956 --     7 C    1.468     5 C    1.357    22 H    0.969
                            10 C    0.100
     7   6 C    3.983 --     6 C    1.468     8 C    1.357    23 H    0.968
                            11 C    0.103
     8   6 C    3.890 --    10 C    1.364     7 C    1.357     9 O    1.059
     9   8 O    2.095 --     8 C    1.059    24 H    0.889
    10   6 C    3.981 --    11 C    1.458     8 C    1.364    25 H    0.966
                             6 C    0.100
    11   6 C    3.956 --    10 C    1.458     5 C    1.363    26 H    0.970
                             7 C    0.103
    12   8 O    2.321 --    13 C    1.049     4 C    1.037
    13   6 C    3.921 --    14 C    1.366    20 C    1.317    12 O    1.049
    14   6 C    3.939 --    13 C    1.366    15 C    1.357    27 H    0.890
    15   6 C    3.920 --    17 C    1.367    14 C    1.357    16 O    1.075
    16   8 O    2.100 --    15 C    1.075    28 H    0.869
    17   6 C    3.971 --    18 C    1.383    15 C    1.367    29 H    0.964
    18   6 C    3.918 --    17 C    1.383    20 C    1.281    19 O    1.117
    19   8 O    2.128 --    18 C    1.117    30 H    0.814
    20   6 C    3.976 --    13 C    1.317    18 C    1.281     2 C    1.080
    21   1 H    0.996 --     3 C    0.964
    22   1 H    0.998 --     6 C    0.969
    23   1 H    0.997 --     7 C    0.968
    24   1 H    0.910 --     9 O    0.889
    25   1 H    0.998 --    10 C    0.966
    26   1 H    0.998 --    11 C    0.970
    27   1 H    0.988 --    14 C    0.890
    28   1 H    0.895 --    16 O    0.869
    29   1 H    0.994 --    17 C    0.964
    30   1 H    0.882 --    19 O    0.814
    31   5 B    3.477 --    73 B    1.426    84 H    0.959    37 B    0.835
    32   5 B    3.500 --    73 B    1.123    74 B    0.986    38 B    0.556
                            37 B    0.509
    33   5 B    3.500 --    75 B    1.272    74 B    1.013    40 B    0.486
                            39 B    0.448
    34   5 B    3.473 --    75 B    1.288    35 B    1.016    40 B    0.562
                            76 B    0.359
    35   5 B    3.529 --    77 B    1.093    34 B    1.016    41 B    0.682
                            76 B    0.485
    36   5 B    3.594 --    88 H    0.941    77 B    0.854    48 B    0.810
                            42 B    0.800
    37   5 B    3.611 --    43 B    0.835    31 B    0.835    73 B    0.787
                            32 B    0.509    44 B    0.390
    38   5 B    3.564 --    44 B    1.105    74 B    0.768    39 B    0.693
                            32 B    0.556
    39   5 B    3.590 --    45 B    0.965    38 B    0.693    40 B    0.520
                            74 B    0.504    33 B    0.448    46 B    0.233
    40   5 B    3.596 --    46 B    0.623    76 B    0.618    75 B    0.592
                            34 B    0.562    39 B    0.520    33 B    0.486
    41   5 B    3.595 --    47 B    1.106    76 B    0.920    35 B    0.682
                            77 B    0.507
    42   5 B    3.596 --    48 B    0.844    36 B    0.800    54 B    0.686
                            77 B    0.594    47 B    0.516
    43   5 B    3.620 --    37 B    0.835    49 B    0.754    44 B    0.693
                            50 B    0.556    83 B    0.495
    44   5 B    3.549 --    38 B    1.105    50 B    0.930    43 B    0.693
                            37 B    0.390
    45   5 B    3.437 --    51 B    1.100    39 B    0.965    52 B    0.587
                            46 B    0.421
    46   5 B    3.599 --    52 B    1.119    76 B    0.904    40 B    0.623
                            45 B    0.421    39 B    0.233
    47   5 B    3.549 --    41 B    1.106    53 B    0.831    54 B    0.607
                            42 B    0.516    77 B    0.181
    48   5 B    3.511 --    89 H    0.953    42 B    0.844    36 B    0.810
                            54 B    0.677
    49   5 B    3.524 --    85 H    0.940    55 B    0.828    43 B    0.754
                            83 B    0.728
    50   5 B    3.624 --    56 B    1.267    44 B    0.930    43 B    0.556
                            83 B    0.544
    51   5 B    3.484 --    57 B    1.127    45 B    1.100    52 B    0.550
                            58 B    0.392
    52   5 B    3.563 --    46 B    1.119    58 B    0.967    45 B    0.587
                            51 B    0.550
    53   5 B    3.579 --    59 B    0.863    47 B    0.831    66 B    0.561
                            54 B    0.541    60 B    0.500
    54   5 B    3.604 --    60 B    0.870    42 B    0.686    48 B    0.677
                            47 B    0.607    53 B    0.541
    55   5 B    3.571 --    86 H    0.942    49 B    0.828    83 B    0.773
                            61 B    0.726
    56   5 B    3.413 --    62 B    1.331    50 B    1.267    83 B    0.204
                            78 B    0.157
    57   5 B    3.455 --    51 B    1.127    63 B    1.008    64 B    0.514
                            58 B    0.452
    58   5 B    3.576 --    52 B    0.967    81 B    0.784    64 B    0.656
                            57 B    0.452    51 B    0.392
    59   5 B    3.560 --    65 B    1.007    53 B    0.863    66 B    0.633
                            72 B    0.541    82 B    0.320
    60   5 B    3.414 --    90 H    0.925    66 B    0.889    54 B    0.870
                            53 B    0.500
    61   5 B    3.604 --    67 B    1.227    55 B    0.726    78 B    0.710
                            83 B    0.692
    62   5 B    3.574 --    56 B    1.331    68 B    0.689    78 B    0.607
                            79 B    0.574
    63   5 B    3.525 --    57 B    1.008    69 B    0.649    79 B    0.579
                            64 B    0.537    80 B    0.450
    64   5 B    3.612 --    58 B    0.656    81 B    0.627    63 B    0.537
                            70 B    0.524    57 B    0.514    80 B    0.506
    65   5 B    3.541 --    81 B    1.024    59 B    1.007    71 B    0.629
                            82 B    0.524
    66   5 B    3.502 --    72 B    1.230    60 B    0.889    59 B    0.633
                            53 B    0.561
    67   5 B    3.456 --    61 B    1.227    87 H    0.958    78 B    0.846
                            68 B    0.145
    68   5 B    3.410 --    79 B    1.164    78 B    1.109    62 B    0.689
                            67 B    0.145
    69   5 B    3.349 --    80 B    1.207    79 B    1.136    63 B    0.649
    70   5 B    3.388 --    80 B    1.132    71 B    1.080    64 B    0.524
                            81 B    0.393
    71   5 B    3.487 --    70 B    1.080    82 B    1.060    65 B    0.629
                            81 B    0.496
    72   5 B    3.338 --    82 B    1.267    66 B    1.230    59 B    0.541
    73   5 B    3.518 --    31 B    1.426    32 B    1.123    37 B    0.787
    74   5 B    3.520 --    33 B    1.013    32 B    0.986    38 B    0.768
                            39 B    0.504
    75   5 B    3.440 --    34 B    1.288    33 B    1.272    40 B    0.592
    76   5 B    3.556 --    41 B    0.920    46 B    0.904    40 B    0.618
                            35 B    0.485    34 B    0.359
    77   5 B    3.481 --    35 B    1.093    36 B    0.854    42 B    0.594
                            41 B    0.507    47 B    0.181
    78   5 B    3.625 --    68 B    1.109    67 B    0.846    61 B    0.710
                            62 B    0.607    56 B    0.157
    79   5 B    3.625 --    68 B    1.164    69 B    1.136    63 B    0.579
                            62 B    0.574
    80   5 B    3.502 --    69 B    1.207    70 B    1.132    64 B    0.506
                            63 B    0.450
    81   5 B    3.592 --    65 B    1.024    58 B    0.784    64 B    0.627
                            71 B    0.496    70 B    0.393
    82   5 B    3.385 --    72 B    1.267    71 B    1.060    65 B    0.524
                            59 B    0.320
    83   5 B    3.625 --    55 B    0.773    49 B    0.728    61 B    0.692
                            50 B    0.544    43 B    0.495    56 B    0.204
    84   1 H    0.968 --    31 B    0.959
    85   1 H    0.973 --    49 B    0.940
    86   1 H    0.975 --    55 B    0.942
    87   1 H    0.973 --    67 B    0.958
    88   1 H    0.969 --    36 B    0.941
    89   1 H    0.975 --    48 B    0.953
    90   1 H    0.973 --    60 B    0.925
 ---------------------------------------------------------------------------

Topologies differ in total number of bonds
Writing topology from bond orders to xtbtopo.mol

molecular dipole:
                 x           y           z       tot (Debye)
 q only:        3.320       2.400      -2.896
   full:        3.802       2.325      -3.785      14.862
molecular quadrupole (traceless):
                xx          xy          yy          xz          yz          zz
 q only:      -46.773      14.933      84.067      18.013      32.618     -37.294
  q+dip:      -17.455      -4.606      56.411      28.920      46.899     -38.956
   full:      -31.894       0.162      45.770      32.770      49.321     -13.877


           -------------------------------------------------
          | TOTAL ENERGY             -125.235524139802 Eh   |
          | GRADIENT NORM               0.087290010350 Eh/α |
          | HOMO-LUMO GAP               0.081640428515 eV   |
           -------------------------------------------------

------------------------------------------------------------------------
 * finished run on 2026/08/31 at 21:15:34.131     
------------------------------------------------------------------------
 total:
 * wall-time:     0 d,  0 h,  0 min,  1.038 sec
 *  cpu-time:     0 d,  0 h,  0 min,  9.344 sec
 * ratio c/w:     9.002 speedup
 SCF:
 * wall-time:     0 d,  0 h,  0 min,  0.994 sec
 *  cpu-time:     0 d,  0 h,  0 min,  8.984 sec
 * ratio c/w:     9.039 speedup

normal termination of xtb
