      -----------------------------------------------------------      
     |                   =====================                   |     
     |                           x T B                           |     
     |                   =====================                   |     
     |                         S. Grimme                         |     
     |          Mulliken Center for Theoretical Chemistry        |     
     |                    University of Bonn                     |     
      -----------------------------------------------------------      

   * xtb version 6.7.1pre (5071a88) compiled by 'Marcel@Raven' on 2024-07-23

   xtb is free software: you can redistribute it and/or modify it under
   the terms of the GNU Lesser General Public License as published by
   the Free Software Foundation, either version 3 of the License, or
   (at your option) any later version.
   
   xtb is distributed in the hope that it will be useful,
   but WITHOUT ANY WARRANTY; without even the implied warranty of
   MERCHANTABILITY or FITNESS FOR A PARTICULAR PURPOSE.  See the
   GNU Lesser General Public License for more details.
   
   Cite this work as:
   * C. Bannwarth, E. Caldeweyher, S. Ehlert, A. Hansen, P. Pracht,
     J. Seibert, S. Spicher, S. Grimme, WIREs Comput. Mol. Sci., 2020, 11,
     e01493. DOI: 10.1002/wcms.1493
   
   for GFN2-xTB:
   * C. Bannwarth, S. Ehlert and S. Grimme., J. Chem. Theory Comput., 2019,
     15, 1652-1671. DOI: 10.1021/acs.jctc.8b01176
   for GFN1-xTB:
   * S. Grimme, C. Bannwarth, P. Shushkov, J. Chem. Theory Comput., 2017,
     13, 1989-2009. DOI: 10.1021/acs.jctc.7b00118
   for GFN0-xTB:
   * P. Pracht, E. Caldeweyher, S. Ehlert, S. Grimme, ChemRxiv, 2019, preprint.
     DOI: 10.26434/chemrxiv.8326202.v1
   for GFN-FF:
   * S. Spicher and S. Grimme, Angew. Chem. Int. Ed., 2020, 59, 15665-15673.
     DOI: 10.1002/anie.202004239
   
   for ALPB and GBSA implicit solvation:
   * S. Ehlert, M. Stahn, S. Spicher, S. Grimme, J. Chem. Theory Comput.,
     2021, 17, 4250-4261. DOI: 10.1021/acs.jctc.1c00471
   
   for ddCOSMO and CPCM-X implicit solvation:
   * M. Stahn, S. Ehlert, S. Grimme, J. Phys. Chem. A,
     2023, XX, XXXX-XXXX. DOI: 10.1021/acs.jpca.3c04382
   
   for DFT-D4:
   * E. Caldeweyher, C. Bannwarth and S. Grimme, J. Chem. Phys., 2017,
     147, 034112. DOI: 10.1063/1.4993215
   * E. Caldeweyher, S. Ehlert, A. Hansen, H. Neugebauer, S. Spicher,
     C. Bannwarth and S. Grimme, J. Chem. Phys., 2019, 150, 154122.
     DOI: 10.1063/1.5090222
   * E. Caldeweyher, J.-M. Mewes, S. Ehlert and S. Grimme, Phys. Chem. Chem. Phys.
     2020, 22, 8499-8512. DOI: 10.1039/D0CP00502A
   
   for sTDA-xTB:
   * S. Grimme and C. Bannwarth, J. Chem. Phys., 2016, 145, 054103.
     DOI: 10.1063/1.4959605
   
   in the mass-spec context:
   * V. Asgeirsson, C. Bauer and S. Grimme, Chem. Sci., 2017, 8, 4879.
     DOI: 10.1039/c7sc00601b
   * J. Koopman and S. Grimme, ACS Omega 2019, 4, 12, 15120-15133.
     DOI: 10.1021/acsomega.9b02011
   
   for metadynamics refer to:
   * S. Grimme, J. Chem. Theory Comput., 2019, 155, 2847-2862
     DOI: 10.1021/acs.jctc.9b00143
   
   for SPH calculations refer to:
   * S. Spicher and S. Grimme, J. Chem. Theory Comput., 2021, 17, 1701-1714
     DOI: 10.1021/acs.jctc.0c01306
   
   for ONIOM refer to:
   * C. Plett, A. Katbashev, S. Ehlert, S. Grimme, M. Bursch,
     Phys. Chem. Chem. Phys., 2023, 25, 17860-17868. DOI: 10.1039/D3CP02178E
   
   for DIPRO refer to:
   * J. Kohn, N. Gildemeister, S. Grimme, D. Fazzi, A. Hansen,
     J. Chem. Phys., 2023, just accepted.
   
   for PTB refer to:
   * S. Grimme, M. Mueller, A. Hansen, J. Chem. Phys., 2023, 158, 124111.
     DOI: 10.1063/5.0137838
   
   with help from (in alphabetical order)
   P. Atkinson, C. Bannwarth, F. Bohle, G. Brandenburg, E. Caldeweyher
   M. Checinski, S. Dohm, S. Ehlert, S. Ehrlich, I. Gerasimov, C. Hölzer
   A. Katbashev, J. Kohn, J. Koopman, C. Lavigne, S. Lehtola, F. März, M. Müller,
   F. Musil, H. Neugebauer, J. Pisarek, C. Plett, P. Pracht, F. Pultar,
   J. Seibert, P. Shushkov, S. Spicher, M. Stahn, M. Steiner, T. Strunk,
   J. Stückrath, T. Rose, and J. Unsleber
   
 * started run on 2026/09/01 at 20:28:43.416     
   ID    Z sym.   atoms
    1    8 O      1, 9, 12, 16, 19
    2    6 C      2-8, 10, 11, 13-15, 17, 18, 20
    3    1 H      21-30, 71-85
    4    5 B      31-70

           -------------------------------------------------
          |                Calculation Setup                |
           -------------------------------------------------

          program call               : "c:\Users\Andre\Proyectos doctorado\nano-qsar-ai-papers\kras-pancreatic-gC3N4-ai\tools\xtb\xtb-6.7.1\bin\xtb.exe" "c:\Users\Andre\Proyectos doctorado\borophene-alzheimer-tau-ai\calculations\tau\Apigenin\Apigenin_B40H15_clean_complex.xyz" --gfn 2 --sp --chrg 0 --uhf 0 --iterations 500 --norestart
          coordinate file            : c:\Users\Andre\Proyectos doctorado\borophene-alzheimer-tau-ai\calculations\tau\Apigenin\Apigenin_B40H15_clean_complex.xyz
          omp threads                :                    16


molecular fragmentation (1/2 indicates fragments):
111111111111111111111111111111222222222222222222222222222222222222222222
2222222222222
# atoms in fragment 1/2:    30    55
 fragment masses (1/2) :      270.24      447.56
CMA distance (Bohr)    :  16.391
constraining FC (au)   :  0.0500

           -------------------------------------------------
          |                 G F N 2 - x T B                 |
           -------------------------------------------------

        Reference                      10.1021/acs.jctc.8b01176
      * Hamiltonian:
        H0-scaling (s, p, d)           1.850000    2.230000    2.230000
        zeta-weighting                 0.500000
      * Dispersion:
        s8                             2.700000
        a1                             0.520000
        a2                             5.000000
        s9                             5.000000
      * Repulsion:
        kExp                           1.500000    1.000000
        rExp                           1.000000
      * Coulomb:
        alpha                          2.000000
        third order                    shell-resolved
        anisotropic                    true
        a3                             3.000000
        a5                             4.000000
        cn-shift                       1.200000
        cn-exp                         4.000000
        max-rad                        5.000000


          ...................................................
          :                      SETUP                      :
          :.................................................:
          :  # basis functions                 265          :
          :  # atomic orbitals                 265          :
          :  # shells                          145          :
          :  # electrons                       235          :
          :  max. iterations                   500          :
          :  Hamiltonian                  GFN2-xTB          :
          :  restarted?                      false          :
          :  GBSA solvation                  false          :
          :  PC potential                    false          :
          :  electronic temp.          300.0000000     K    :
          :  accuracy                    1.0000000          :
          :  -> integral cutoff          0.2500000E+02      :
          :  -> integral neglect         0.1000000E-07      :
          :  -> SCF convergence          0.1000000E-05 Eh   :
          :  -> wf. convergence          0.1000000E-03 e    :
          :  Broyden damping             0.4000000          :
          :  net charge                          0          :
          :  unpaired electrons                  0          :
          ...................................................

 iter      E             dE          RMSdq      gap      omega  full diag
   1   -114.5862652 -0.114586E+03  0.140E+01    0.03       0.0  T
   2   -113.5010041  0.108526E+01  0.917E+00    0.45       1.0  T
   3    -63.1268937  0.503741E+02  0.135E+01    0.01       1.0  T
   4    -62.0594264  0.106747E+01  0.113E+01    0.18       1.0  T
   5   -102.9151453 -0.408557E+02  0.614E+00    0.08       1.0  T
   6   -110.4792870 -0.756414E+01  0.443E+00    0.13       1.0  T
   7   -114.1982383 -0.371895E+01  0.278E+00    0.51       1.0  T
   8   -115.0685501 -0.870312E+00  0.181E+00    0.22       1.0  T
   9   -115.2429233 -0.174373E+00  0.152E+00    0.55       1.0  T
  10   -115.2141982  0.287251E-01  0.133E+00    0.30       1.0  T
  11   -115.2042364  0.996179E-02  0.108E+00    0.48       1.0  T
  12   -115.2607424 -0.565060E-01  0.638E-01    0.11       1.0  T
  13   -115.2902180 -0.294757E-01  0.476E-01    0.10       1.0  T
  14   -115.2943104 -0.409231E-02  0.438E-01    0.08       1.0  T
  15   -115.2961710 -0.186067E-02  0.389E-01    0.12       1.0  T
  16   -115.2125908  0.835802E-01  0.728E-01    0.14       1.0  T
  17   -115.2483656 -0.357748E-01  0.586E-01    0.06       1.0  T
  18   -115.2975060 -0.491404E-01  0.268E-01    0.03       1.0  T
  19   -115.3020213 -0.451532E-02  0.152E-01    0.06       1.0  T
  20   -115.3010728  0.948516E-03  0.137E-01    0.05       1.0  T
  21   -115.3004416  0.631246E-03  0.130E-01    0.04       1.0  T
  22   -115.3026343 -0.219278E-02  0.687E-02    0.06       1.0  T
  23   -115.3029977 -0.363350E-03  0.465E-02    0.07       1.0  T
  24   -115.3031097 -0.111989E-03  0.325E-02    0.07       1.0  T
  25   -115.3031219 -0.122494E-04  0.199E-02    0.08       1.0  T
  26   -115.3031271 -0.520354E-05  0.139E-02    0.08       1.0  T
  27   -115.3031569 -0.297617E-04  0.504E-03    0.08       2.2  T
  28   -115.3031584 -0.148727E-05  0.445E-03    0.08       2.4  T
  29   -115.3031592 -0.839120E-06  0.317E-03    0.08       3.4  T
  30   -115.3031587  0.561785E-06  0.289E-03    0.08       3.8  T
  31   -115.3031595 -0.837458E-06  0.215E-03    0.08       5.0  T
  32   -115.3031599 -0.403804E-06  0.173E-03    0.08       6.3  T
  33   -115.3031604 -0.478096E-06  0.907E-04    0.08      12.0  T
  34   -115.3031605 -0.134484E-06  0.400E-04    0.07      27.1  T

   *** convergence criteria satisfied after 34 iterations ***

         #    Occupation            Energy/Eh            Energy/eV
      -------------------------------------------------------------
         1        2.0000           -0.7287839             -19.8312
       ...           ...                  ...                  ...
       112        2.0000           -0.3003980              -8.1742
       113        2.0000           -0.2943692              -8.0102
       114        2.0000           -0.2916159              -7.9353
       115        2.0000           -0.2881910              -7.8421
       116        2.0000           -0.2832108              -7.7066
       117        1.9992           -0.2801489              -7.6232
       118        0.8105           -0.2664819              -7.2513 (HOMO)
       119        0.1903           -0.2637297              -7.1765 (LUMO)
       120        0.0000           -0.2510723              -6.8320
       121                         -0.2346832              -6.3861
       122                         -0.2335218              -6.3545
       123                         -0.2329608              -6.3392
       ...                                ...                  ...
       265                          1.0623149              28.9071
      -------------------------------------------------------------
                  HL-Gap            0.0027522 Eh            0.0749 eV
             Fermi-level           -0.2692141 Eh           -7.3257 eV

 SCC (total)                   0 d,  0 h,  0 min,  0.495 sec
 SCC setup                      ...        0 min,  0.001 sec (  0.202%)
 Dispersion                     ...        0 min,  0.002 sec (  0.404%)
 classical contributions        ...        0 min,  0.000 sec (  0.000%)
 integral evaluation            ...        0 min,  0.008 sec (  1.616%)
 iterations                     ...        0 min,  0.468 sec ( 94.545%)
 molecular gradient             ...        0 min,  0.014 sec (  2.828%)
 printout                       ...        0 min,  0.002 sec (  0.404%)

         :::::::::::::::::::::::::::::::::::::::::::::::::::::
         ::                     SUMMARY                     ::
         :::::::::::::::::::::::::::::::::::::::::::::::::::::
         :: total energy            -113.761181621594 Eh    ::
         :: gradient norm              0.076343927900 Eh/a0 ::
         :: HOMO-LUMO gap              0.074890978840 eV    ::
         ::.................................................::
         :: SCC energy              -115.301411185598 Eh    ::
         :: -> isotropic ES            0.305676850145 Eh    ::
         :: -> anisotropic ES          0.008271011661 Eh    ::
         :: -> anisotropic XC         -0.007582743285 Eh    ::
         :: -> dispersion             -0.104363680871 Eh    ::
         :: repulsion energy           1.540229564004 Eh    ::
         :: add. restraining           0.000000000000 Eh    ::
         :: total charge              -0.000000000184 e     ::
         :::::::::::::::::::::::::::::::::::::::::::::::::::::

           -------------------------------------------------
          |                Property Printout                |
           -------------------------------------------------

    * Orbital Energies and Occupations

         #    Occupation            Energy/Eh            Energy/eV
      -------------------------------------------------------------
         1        2.0000           -0.7287839             -19.8312
       ...           ...                  ...                  ...
       106        2.0000           -0.3172987              -8.6341
       107        2.0000           -0.3136457              -8.5347
       108        2.0000           -0.3118357              -8.4855
       109        2.0000           -0.3108261              -8.4580
       110        2.0000           -0.3054725              -8.3123
       111        2.0000           -0.3036274              -8.2621
       112        2.0000           -0.3003980              -8.1742
       113        2.0000           -0.2943692              -8.0102
       114        2.0000           -0.2916159              -7.9353
       115        2.0000           -0.2881910              -7.8421
       116        2.0000           -0.2832108              -7.7066
       117        1.9992           -0.2801489              -7.6232
       118        0.8105           -0.2664819              -7.2513 (HOMO)
       119        0.1903           -0.2637297              -7.1765 (LUMO)
       120        0.0000           -0.2510723              -6.8320
       121                         -0.2346832              -6.3861
       122                         -0.2335218              -6.3545
       123                         -0.2329608              -6.3392
       124                         -0.2266868              -6.1685
       125                         -0.2200552              -5.9880
       126                         -0.2158296              -5.8730
       127                         -0.2086721              -5.6783
       128                         -0.2031543              -5.5281
       129                         -0.1983216              -5.3966
       ...                                ...                  ...
       265                          1.0623149              28.9071
      -------------------------------------------------------------
                  HL-Gap            0.0027522 Eh            0.0749 eV
             Fermi-level           -0.2692141 Eh           -7.3257 eV

     #   Z          covCN         q      C6AA      α(0)
     1   8 O        0.858    -0.460    22.907     6.417
     2   6 C        2.836     0.215    23.461     7.938
     3   6 C        2.897    -0.102    30.570     9.065
     4   6 C        2.854     0.132    25.102     8.212
     5   6 C        2.967    -0.009    28.228     8.715
     6   6 C        2.917    -0.037    28.917     8.818
     7   6 C        2.911    -0.054    29.341     8.882
     8   6 C        2.843     0.146    24.829     8.166
     9   8 O        1.659    -0.393    20.704     6.143
    10   6 C        2.909    -0.073    29.819     8.954
    11   6 C        2.918    -0.032    28.796     8.800
    12   8 O        1.707    -0.226    17.752     5.689
    13   6 C        2.873     0.135    25.054     8.205
    14   6 C        2.912    -0.115    30.926     9.119
    15   6 C        2.845     0.146    24.817     8.164
    16   8 O        1.659    -0.382    20.510     6.114
    17   6 C        2.913    -0.089    30.230     9.016
    18   6 C        2.846     0.155    24.629     8.133
    19   8 O        1.657    -0.392    20.702     6.142
    20   6 C        2.971    -0.082    30.047     8.991
    21   1 H        0.925     0.063     2.165     2.301
    22   1 H        0.925     0.046     2.365     2.405
    23   1 H        0.925     0.057     2.231     2.336
    24   1 H        0.804     0.301     0.718     1.331
    25   1 H        0.925     0.033     2.544     2.494
    26   1 H        0.925     0.046     2.369     2.407
    27   1 H        0.925     0.048     2.349     2.397
    28   1 H        0.804     0.309     0.695     1.310
    29   1 H        0.925     0.077     2.007     2.216
    30   1 H        0.802     0.345     0.601     1.217
    31   5 B        3.729     0.066    21.445     7.482
    32   5 B        4.543     0.069    21.507     7.472
    33   5 B        3.764     0.032    22.108     7.587
    34   5 B        3.812     0.042    21.951     7.553
    35   5 B        3.866     0.059    21.664     7.501
    36   5 B        4.607     0.026    22.269     7.604
    37   5 B        2.881     0.052    20.517     7.561
    38   5 B        2.866     0.087    19.946     7.456
    39   5 B        4.657     0.033    22.143     7.582
    40   5 B        2.924     0.072    20.185     7.497
    41   5 B        3.820     0.056    21.716     7.512
    42   5 B        3.871     0.023    22.318     7.613
    43   5 B        4.530    -0.003    22.806     7.695
    44   5 B        3.833     0.047    21.865     7.537
    45   5 B        4.711     0.060    21.656     7.498
    46   5 B        4.714     0.049    21.859     7.533
    47   5 B        3.891     0.047    21.881     7.538
    48   5 B        2.930     0.023    21.006     7.647
    49   5 B        4.652     0.018    22.411     7.628
    50   5 B        2.877     0.056    20.460     7.550
    51   5 B        3.828     0.065    21.547     7.482
    52   5 B        3.859     0.023    22.311     7.612
    53   5 B        3.858    -0.007    22.867     7.707
    54   5 B        3.841     0.051    21.806     7.527
    55   5 B        4.594     0.026    22.272     7.604
    56   5 B        5.681     0.106    20.874     7.361
    57   5 B        4.131     0.012    22.513     7.645
    58   5 B        2.924     0.031    20.869     7.623
    59   5 B        5.586     0.062    21.630     7.494
    60   5 B        3.637     0.066    21.102     7.489
    61   5 B        3.826     0.045    21.899     7.543
    62   5 B        3.877     0.031    22.166     7.587
    63   5 B        3.870     0.020    22.366     7.622
    64   5 B        2.915     0.090    19.890     7.442
    65   5 B        3.773     0.075    21.350     7.454
    66   5 B        5.329     0.099    20.993     7.383
    67   5 B        4.732     0.044    21.937     7.547
    68   5 B        3.808     0.014    22.457     7.640
    69   5 B        3.784     0.077    21.319     7.447
    70   5 B        2.896     0.052    20.518     7.560
    71   1 H        0.938    -0.117     6.201     3.893
    72   1 H        1.528     0.033     2.528     2.482
    73   1 H        0.935    -0.146     7.472     4.274
    74   1 H        0.931    -0.133     6.880     4.101
    75   1 H        0.935    -0.122     6.377     3.948
    76   1 H        0.934    -0.129     6.696     4.046
    77   1 H        0.938    -0.106     5.766     3.754
    78   1 H        0.936    -0.137     7.046     4.150
    79   1 H        0.938    -0.091     5.266     3.588
    80   1 H        0.933    -0.153     7.817     4.372
    81   1 H        0.938    -0.098     5.477     3.659
    82   1 H        0.940    -0.135     6.961     4.125
    83   1 H        0.939    -0.112     6.009     3.832
    84   1 H        0.938    -0.114     6.092     3.859
    85   1 H        0.940    -0.142     7.302     4.225

 Mol. C6AA /au·bohr⁶  :     113684.399590
 Mol. C8AA /au·bohr⁸  :    3502800.461018
 Mol. α(0) /au        :        540.218659


Wiberg/Mayer (AO) data.
largest (>0.10) Wiberg bond orders for each atom

 ---------------------------------------------------------------------------
     #   Z sym  total        # sym  WBO       # sym  WBO       # sym  WBO
 ---------------------------------------------------------------------------
     1   8 O    1.958 --     2 C    1.615
     2   6 C    3.902 --     1 O    1.615     3 C    1.114    20 C    1.082
     3   6 C    3.957 --     4 C    1.627     2 C    1.114    21 H    0.963
     4   6 C    3.860 --     3 C    1.627     5 C    1.048    12 O    1.046
     5   6 C    3.973 --    11 C    1.376     6 C    1.370     4 C    1.048
     6   6 C    3.973 --     7 C    1.465     5 C    1.370    22 H    0.969
                            10 C    0.102
     7   6 C    3.985 --     6 C    1.465     8 C    1.360    23 H    0.967
                            11 C    0.105
     8   6 C    3.918 --    10 C    1.368     7 C    1.360     9 O    1.071
     9   8 O    2.113 --     8 C    1.071    24 H    0.888
    10   6 C    3.985 --    11 C    1.454     8 C    1.368    25 H    0.966
                             6 C    0.102
    11   6 C    3.971 --    10 C    1.454     5 C    1.376    26 H    0.970
                             7 C    0.105
    12   8 O    2.345 --    13 C    1.056     4 C    1.046
    13   6 C    3.926 --    14 C    1.371    20 C    1.315    12 O    1.056
    14   6 C    3.962 --    13 C    1.371    15 C    1.363    27 H    0.964
    15   6 C    3.930 --    17 C    1.365    14 C    1.363    16 O    1.084
    16   8 O    2.124 --    15 C    1.084    28 H    0.884
    17   6 C    3.974 --    18 C    1.385    15 C    1.365    29 H    0.963
    18   6 C    3.934 --    17 C    1.385    20 C    1.278    19 O    1.128
    19   8 O    2.146 --    18 C    1.128    30 H    0.813
    20   6 C    3.977 --    13 C    1.315    18 C    1.278     2 C    1.082
    21   1 H    0.996 --     3 C    0.963
    22   1 H    0.998 --     6 C    0.969
    23   1 H    0.996 --     7 C    0.967
    24   1 H    0.909 --     9 O    0.888
    25   1 H    0.998 --    10 C    0.966
    26   1 H    0.998 --    11 C    0.970
    27   1 H    0.997 --    14 C    0.964
    28   1 H    0.904 --    16 O    0.884
    29   1 H    0.993 --    17 C    0.963
    30   1 H    0.881 --    19 O    0.813
    31   5 B    3.569 --    71 H    0.952    34 B    0.916    32 B    0.877
                            72 H    0.537
    32   5 B    3.538 --    31 B    0.877    33 B    0.753    34 B    0.607
                            36 B    0.545    72 H    0.426    35 B    0.133
    33   5 B    3.574 --    35 B    1.120    73 H    0.949    32 B    0.753
                            36 B    0.453
    34   5 B    3.558 --    31 B    0.916    41 B    0.842    42 B    0.814
                            32 B    0.607    44 B    0.109
    35   5 B    3.391 --    33 B    1.120    43 B    0.803    39 B    0.633
                            36 B    0.432    32 B    0.133
    36   5 B    3.597 --    37 B    1.080    39 B    0.764    32 B    0.545
                            33 B    0.453    35 B    0.432
    37   5 B    3.429 --    36 B    1.080    38 B    0.994    74 H    0.912
                            39 B    0.156    40 B    0.100
    38   5 B    3.248 --    40 B    1.016    37 B    0.994    75 H    0.939
                            48 B    0.107
    39   5 B    3.678 --    47 B    0.779    36 B    0.764    46 B    0.700
                            35 B    0.633    43 B    0.374    37 B    0.156
    40   5 B    3.411 --    38 B    1.016    48 B    0.987    76 H    0.925
                            47 B    0.192    37 B    0.100
    41   5 B    3.628 --    77 H    0.927    42 B    0.843    34 B    0.842
                            44 B    0.793
    42   5 B    3.610 --    44 B    0.860    41 B    0.843    34 B    0.814
                            43 B    0.809
    43   5 B    3.640 --    45 B    0.836    42 B    0.809    35 B    0.803
                            46 B    0.436    39 B    0.374
    44   5 B    3.582 --    42 B    0.860    41 B    0.793    51 B    0.777
                            52 B    0.718    34 B    0.109
    45   5 B    3.587 --    43 B    0.836    53 B    0.682    46 B    0.635
                            56 B    0.569    49 B    0.458
    46   5 B    3.601 --    49 B    0.950    39 B    0.700    45 B    0.635
                            47 B    0.595    43 B    0.436
    47   5 B    3.550 --    48 B    0.969    39 B    0.779    49 B    0.666
                            46 B    0.595    40 B    0.192
    48   5 B    3.449 --    40 B    0.987    47 B    0.969    50 B    0.961
                            58 B    0.181    38 B    0.107
    49   5 B    3.640 --    46 B    0.950    57 B    0.775    47 B    0.666
                            45 B    0.458    56 B    0.437
    50   5 B    3.416 --    58 B    1.139    48 B    0.961    78 H    0.952
                            60 B    0.113
    51   5 B    3.567 --    79 H    0.921    54 B    0.841    52 B    0.797
                            44 B    0.777
    52   5 B    3.591 --    53 B    1.010    51 B    0.797    44 B    0.718
                            54 B    0.702
    53   5 B    3.632 --    52 B    1.010    55 B    0.893    45 B    0.682
                            56 B    0.607
    54   5 B    3.587 --    62 B    0.842    51 B    0.841    61 B    0.757
                            52 B    0.702    64 B    0.145
    55   5 B    3.668 --    53 B    0.893    63 B    0.701    56 B    0.683
                            66 B    0.615    59 B    0.391
    56   5 B    3.669 --    55 B    0.683    53 B    0.607    59 B    0.586
                            45 B    0.569    57 B    0.522    49 B    0.437
    57   5 B    3.525 --    58 B    0.967    49 B    0.775    59 B    0.774
                            56 B    0.522    60 B    0.197
    58   5 B    3.405 --    50 B    1.139    57 B    0.967    60 B    0.780
                            48 B    0.181
    59   5 B    3.633 --    57 B    0.774    67 B    0.617    56 B    0.586
                            68 B    0.486    55 B    0.391    66 B    0.291
                            60 B    0.267
    60   5 B    3.505 --    68 B    0.972    80 H    0.939    58 B    0.780
                            59 B    0.267    57 B    0.197    50 B    0.113
    61   5 B    3.603 --    64 B    1.021    81 H    0.919    54 B    0.757
                            62 B    0.752
    62   5 B    3.600 --    64 B    0.928    63 B    0.891    54 B    0.842
                            61 B    0.752
    63   5 B    3.614 --    62 B    0.891    65 B    0.862    55 B    0.701
                            66 B    0.633    64 B    0.230
    64   5 B    3.458 --    61 B    1.021    82 H    0.972    62 B    0.928
                            63 B    0.230    54 B    0.145
    65   5 B    3.511 --    83 H    0.953    63 B    0.862    66 B    0.765
                            69 B    0.687
    66   5 B    3.652 --    65 B    0.765    69 B    0.764    63 B    0.633
                            55 B    0.615    67 B    0.440    59 B    0.291
    67   5 B    3.635 --    70 B    0.952    69 B    0.763    68 B    0.706
                            59 B    0.617    66 B    0.440
    68   5 B    3.570 --    70 B    1.166    60 B    0.972    67 B    0.706
                            59 B    0.486
    69   5 B    3.556 --    84 H    0.953    66 B    0.764    67 B    0.763
                            65 B    0.687    70 B    0.187
    70   5 B    3.511 --    68 B    1.166    85 H    0.969    67 B    0.952
                            69 B    0.187
    71   1 H    0.981 --    31 B    0.952
    72   1 H    0.995 --    31 B    0.537    32 B    0.426
    73   1 H    0.977 --    33 B    0.949
    74   1 H    0.979 --    37 B    0.912
    75   1 H    0.983 --    38 B    0.939
    76   1 H    0.980 --    40 B    0.925
    77   1 H    0.977 --    41 B    0.927
    78   1 H    0.978 --    50 B    0.952
    79   1 H    0.980 --    51 B    0.921
    80   1 H    0.975 --    60 B    0.939
    81   1 H    0.980 --    61 B    0.919
    82   1 H    0.981 --    64 B    0.972
    83   1 H    0.984 --    65 B    0.953
    84   1 H    0.983 --    69 B    0.953
    85   1 H    0.979 --    70 B    0.969
 ---------------------------------------------------------------------------

Topologies differ in total number of bonds
Writing topology from bond orders to xtbtopo.mol

molecular dipole:
                 x           y           z       tot (Debye)
 q only:        2.269       0.449      -4.346
   full:        2.197       0.141      -3.569      10.659
molecular quadrupole (traceless):
                xx          xy          yy          xz          yz          zz
 q only:       12.756       3.844      41.145      48.492      52.173     -53.901
  q+dip:       30.548      11.714      41.151      58.755      58.184     -71.699
   full:       19.161       7.620      36.983      57.955      61.099     -56.144


           -------------------------------------------------
          | TOTAL ENERGY             -113.761181621594 Eh   |
          | GRADIENT NORM               0.076343927900 Eh/α |
          | HOMO-LUMO GAP               0.074890978840 eV   |
           -------------------------------------------------

------------------------------------------------------------------------
 * finished run on 2026/09/01 at 20:28:43.964     
------------------------------------------------------------------------
 total:
 * wall-time:     0 d,  0 h,  0 min,  0.546 sec
 *  cpu-time:     0 d,  0 h,  0 min,  5.203 sec
 * ratio c/w:     9.530 speedup
 SCF:
 * wall-time:     0 d,  0 h,  0 min,  0.495 sec
 *  cpu-time:     0 d,  0 h,  0 min,  4.812 sec
 * ratio c/w:     9.722 speedup

