90
Drug@B48H12 non-overlapping complex
O     -1.853548     -2.453119      7.541350
C     -1.397577     -1.575813      6.816389
C      0.048780     -1.337695      6.711456
C      0.490520     -0.365663      5.900108
C      1.929330     -0.070940      5.759602
C      2.875175     -1.095617      5.599192
C      4.232442     -0.795150      5.458227
C      4.650758      0.529072      5.471463
O      5.983741      0.774963      5.331268
C      3.733609      1.562689      5.619890
C      2.375460      1.260729      5.760045
O     -0.333257      0.459264      5.149455
C     -1.690848      0.262503      5.213665
C     -2.488183      1.100366      4.431482
C     -3.871881      0.944032      4.461991
O     -4.690823      1.738160      3.714864
C     -4.466828     -0.030804      5.258537
C     -3.666726     -0.863718      6.035715
O     -4.304892     -1.803887      6.798508
C     -2.276362     -0.717845      6.013281
H      0.692643     -1.965176      7.314089
H      2.568682     -2.138762      5.568969
H      4.959584     -1.592968      5.334106
H      6.129220      1.734797      5.360349
H      4.050414      2.600760      5.628841
H      1.665474      2.077048      5.877824
H     -2.020931      1.859027      3.811687
H     -4.152258      2.361433      3.200000
H     -5.547491     -0.141829      5.273358
H     -3.624228     -2.315854      7.290865
B     -6.351142     -2.854456     -0.339557
B     -3.863246     -3.427578      0.871248
B     -1.055185     -4.165135      1.979350
B      1.685312     -4.231770      1.354949
B      2.970257     -3.692274      0.621871
B      5.907588     -3.848572     -0.380027
B     -4.761208     -2.330720     -0.407809
B     -2.619857     -2.211059      0.844160
B     -1.232659     -2.391074      1.779162
B      0.281426     -3.144602      1.258585
B      3.128005     -2.135340      0.033717
B      5.282428     -2.580677     -1.142740
B     -4.382652     -1.054498     -1.346132
B     -3.192369     -1.268483     -0.239841
B     -0.766749     -0.915069      2.147107
B      0.434070     -1.509850      0.882523
B      4.260331     -1.271884     -0.605716
B      6.845204     -2.475577     -0.806482
B     -5.007204     -0.643659     -2.849649
B     -3.195209      0.154301     -0.925672
B     -0.946947      0.623306      2.210385
B      0.001581     -0.020442      0.908402
B      4.875444      0.224219     -0.547589
B      5.878568     -1.066378     -1.130575
B     -5.767164      0.853536     -2.917565
B     -2.897102      1.628167     -0.708344
B     -1.239865      2.133184      2.088909
B      0.188320      1.549872      1.054031
B      4.258123      1.584106      0.064663
B      6.307532      0.439704     -1.625845
B     -5.734132      1.755409     -1.493813
B     -3.346886      2.973961     -0.174554
B     -1.664632      3.616005      1.797280
B     -0.058970      3.164039      1.323482
B      2.965632      2.258875      0.684366
B      5.791920      1.672515     -0.698507
B     -6.638907      2.799988     -0.842193
B     -4.474576      3.887338      0.587924
B     -1.777076      5.175247      1.215356
B      1.175393      4.406638      1.328978
B      2.593810      3.922874      0.879575
B      5.350926      2.985997     -0.054101
B     -5.318955     -3.634817      0.416463
B     -2.487709     -3.632854      1.605545
B      0.359579     -4.721327      1.906320
B      1.721498     -2.416215      0.734504
B      4.338705     -3.479950     -0.072929
B     -5.095331      2.847233     -0.373491
B     -3.034495      4.318735      0.932612
B     -0.286930      4.895064      1.442591
B      1.461620      2.548192      0.992407
B      4.078380      3.619763      0.510634
B     -4.595730      0.591276     -1.841534
H     -7.368369     -2.502749     -0.810293
H     -4.959065     -1.376034     -3.773890
H     -6.324579      1.260780     -3.871541
H     -7.613398      3.401728     -0.597572
H      6.361232     -4.935383     -0.360239
H      8.016260     -2.468237     -0.906140
H      6.939156      0.614609     -2.612760
