33
RDKit ETKDG+MMFF
O      -2.22791222     -2.40165066      1.76004138
C      -1.74370716     -1.45622360      1.14145914
C      -0.28592053     -1.39325360      0.88722380
O       0.48114050     -2.44176151      1.36179375
C       0.20232303     -0.34163250      0.20350132
C       1.63602870     -0.18256511     -0.12715264
C       2.64206256     -0.38109683      0.83866122
C       3.98125570     -0.20496768      0.49773634
O       4.99038117     -0.39718048      1.40055951
C       4.33087061      0.17867193     -0.79002909
O       5.64368993      0.35676109     -1.13255368
C       3.34798332      0.38704759     -1.74554140
O       3.69304145      0.76609355     -3.01050317
C       2.00688753      0.21284762     -1.42601453
O      -0.58373820      0.69444165     -0.28759854
C      -1.93623038      0.66729605     -0.06248072
C      -2.68518602      1.73062268     -0.56504088
C      -4.06315371      1.75372615     -0.36613843
O      -4.75747623      2.81157292     -0.87361741
C      -4.70652803      0.73157523      0.32682116
C      -3.95314271     -0.32815499      0.82622947
O      -4.63539045     -1.30548097      1.49905685
C      -2.56842444     -0.35994193      0.63162632
H      -0.15836563     -3.06717329      1.76418465
H       2.36985316     -0.67060086      1.84956880
H       4.59439897     -0.70383228      2.23531527
H       6.13409624      0.15537159     -0.30901394
H       4.67005894      0.82089953     -2.99245008
H       1.25702274      0.38197577     -2.19476861
H      -2.20111824      2.53744142     -1.10893573
H      -5.70131967      2.69723786     -0.66996785
H      -5.78029027      0.74234242      0.48588490
H      -3.99319067     -1.99040874      1.79056819
