102
Rosmarinic Acid/beta12_supported GFN2 opt
O      -1.38695062      0.33108597      3.53241006
C      -0.75937645     -0.55165795      4.10621667
C       0.64559455     -0.64823168      4.26097526
C       1.45666016      0.41874612      3.95767794
C       2.87501692      0.46736854      4.03312791
C       3.67733712     -0.67433730      4.20863896
C       5.05217779     -0.58131972      4.23335672
C       5.67846220      0.64640747      4.08804885
O       7.05059512      0.80102244      4.07737785
C       4.90255367      1.80299019      3.92461613
O       5.51123048      3.01466063      3.77146347
C       3.53052480      1.70744838      3.89399665
O      -1.41416633     -1.63754373      4.67937110
C      -2.81998831     -1.60159582      4.62741683
C      -3.44862663     -0.77299800      5.77374721
C      -3.80833197      0.59516689      5.27051184
C      -4.97323693      0.75758287      4.53468832
C      -5.25468391      1.96363178      3.91794510
C      -4.35441926      3.01030741      4.00497164
O      -4.52609880      4.20512459      3.34273286
C      -3.19852132      2.87198467      4.78243887
O      -2.32474840      3.90854426      4.87986896
C      -2.94363398      1.67008940      5.42124336
C      -3.35009505     -3.02057412      4.60412381
O      -4.46147422     -3.34186943      4.94429783
O      -2.47364435     -3.88792863      4.09875132
H       1.02375029     -1.56843746      4.67209650
H       0.94971745      1.33000598      3.67928792
H       3.21291491     -1.63944375      4.32053458
H       5.65660752     -1.46998648      4.35822337
H       7.45737722     -0.06870523      4.02344238
H       6.46257544      2.85095720      3.73735988
H       2.95648498      2.61164374      3.77521924
H      -3.11583079     -1.13793108      3.66629872
H      -2.72905817     -0.71808236      6.59085305
H      -4.34110024     -1.29861503      6.11659136
H      -5.65678868     -0.07014167      4.42647141
H      -6.15985768      2.08286928      3.34343205
H      -5.07373707      4.05655344      2.55268155
H      -2.66484341      4.61829746      4.31622080
H      -2.03450463      1.57763382      5.99191960
H      -2.86605460     -4.77164563      4.01205576
B      -5.88156846      2.44152876      0.75095019
B      -5.70228006      0.74921545      0.61105485
B      -4.52026900      3.40696364      0.38523337
B      -4.34262776      1.74561822      0.64306633
B      -4.15954416      0.07193059      0.85133989
B      -5.34108947     -2.60808449      0.92322990
B      -5.15995482     -4.24758387      1.37070676
B      -3.98062376     -1.59030004      0.99601262
B      -3.80209566     -3.27570341      1.07962002
B      -3.62036795     -4.95530015      1.11824903
B      -2.97003656      2.74660868      0.55687200
B      -2.79058615      1.06391803      0.75081460
B      -1.60553704      3.74395185      0.68244155
B      -1.42725304      2.06319516      0.68378675
B      -1.24682482      0.37230061      0.66822934
B      -2.43127087     -2.27441270      1.02508011
B      -2.24773802     -3.96454687      1.12976796
B      -1.06721358     -1.29665392      0.80110007
B      -0.88663304     -2.95898408      1.11062998
B      -0.70584350     -4.61646093      1.38780045
B      -0.05970271      3.05927707      0.56235949
B       0.12144740      1.37027488      0.66418034
B       1.30541631      4.02693583      0.30077213
B       1.48687896      2.36841421      0.57740709
B       1.66738408      0.69414509      0.76629867
B       0.48073773     -1.96710351      0.95686356
B       0.66251440     -3.64840614      1.14815174
B       1.84686576     -0.97345348      0.90241196
B       2.02775343     -2.65412393      1.01598040
B       2.20652967     -4.33494688      1.04612505
B       2.85074715      3.37127828      0.53712809
B       3.03390458      1.67701199      0.58648729
B       4.22133183      4.36115992      0.55529292
B       4.40213643      2.67900029      0.54589151
B       4.58018497      0.99110077      0.60265433
B       3.39328950     -1.66093002      0.87404480
B       3.57307925     -3.33592783      1.14367783
B       4.75931399     -0.67085074      0.75477352
B       4.94285325     -2.33974555      1.01322087
B       5.12083030     -3.99392522      1.31894328
B       5.76209102      3.65415045      0.27628064
B       5.94435258      2.01030748      0.68982219
B       6.30558215     -1.34505562      1.01390156
B       6.48385930     -3.03685737      0.90257001
H      -6.90602777      2.94776346      1.02825995
H      -6.60044659      0.10606416      0.23070816
H      -4.68045838      4.49771329     -0.02279312
H      -6.34855652     -2.24918183      0.45321612
H      -6.03716413     -4.88873558      1.80692819
H      -3.54643271     -6.10791222      0.90441250
H      -1.73519810      4.89641681      0.85989317
H      -0.59301192     -5.73353582      1.73058767
H       1.18660615      5.14191193     -0.04566555
H       2.33360239     -5.49311793      0.90205721
H       4.15689260      5.50970906      0.77859525
H       5.29382779     -5.06991262      1.75479736
H       6.62823621      4.30215398     -0.17453455
H       6.96541273      1.63054641      1.10973125
H       7.20658717     -0.69004514      1.36818655
H       7.48629865     -3.55784588      0.58786515
