102
 energy: -140.818521464737 gnorm: 0.000947448709 xtb: 6.7.1 (edcfbbe)
O           -1.38695061742474        0.33108596559822        3.53241006427583
C           -0.75937645323801       -0.55165795050116        4.10621667312724
C            0.64559455297112       -0.64823167514819        4.26097526403775
C            1.45666016277436        0.41874612279396        3.95767793893815
C            2.87501691670523        0.46736854192843        4.03312790818002
C            3.67733712220347       -0.67433730288198        4.20863896311754
C            5.05217779146475       -0.58131971878640        4.23335671895143
C            5.67846220039808        0.64640746802218        4.08804885284707
O            7.05059512332572        0.80102243796809        4.07737785130798
C            4.90255366756829        1.80299018857464        3.92461612684415
O            5.51123047879384        3.01466063480710        3.77146346606646
C            3.53052479903832        1.70744837917952        3.89399665292084
O           -1.41416632999025       -1.63754372595768        4.67937110462487
C           -2.81998831245257       -1.60159582286624        4.62741682828742
C           -3.44862663414495       -0.77299799538457        5.77374720820913
C           -3.80833197197253        0.59516689085037        5.27051183560363
C           -4.97323692984819        0.75758286763566        4.53468832309266
C           -5.25468391147769        1.96363178207455        3.91794510032785
C           -4.35441926078576        3.01030740818012        4.00497164327976
O           -4.52609879998809        4.20512458985360        3.34273286343037
C           -3.19852132073103        2.87198466838947        4.78243887207309
O           -2.32474839550063        3.90854426399563        4.87986895966284
C           -2.94363397920876        1.67008940236089        5.42124335598581
C           -3.35009504528898       -3.02057412476840        4.60412380735205
O           -4.46147422265931       -3.34186942786264        4.94429783007212
O           -2.47364434915498       -3.88792863147680        4.09875131636090
H            1.02375029386193       -1.56843745598115        4.67209650479176
H            0.94971744557364        1.33000597954827        3.67928792018235
H            3.21291490569226       -1.63944374920839        4.32053458464198
H            5.65660751597578       -1.46998648411091        4.35822336682078
H            7.45737721908622       -0.06870523056101        4.02344237740742
H            6.46257543725652        2.85095720102709        3.73735987856894
H            2.95648498302113        2.61164374204023        3.77521923832448
H           -3.11583078615630       -1.13793107945708        3.66629872332443
H           -2.72905816908853       -0.71808236182953        6.59085305189683
H           -4.34110024194018       -1.29861502659410        6.11659136471899
H           -5.65678868418144       -0.07014167024219        4.42647141057767
H           -6.15985767569462        2.08286928168824        3.34343204620761
H           -5.07373707171950        4.05655343579800        2.55268154951096
H           -2.66484340706779        4.61829746467213        4.31622080410757
H           -2.03450462889341        1.57763382262720        5.99191960484990
H           -2.86605459755179       -4.77164563135820        4.01205575639799
B           -5.88156845560402        2.44152876027776        0.75095018904631
B           -5.70228006374589        0.74921545296602        0.61105484788005
B           -4.52026899869340        3.40696363941092        0.38523336641046
B           -4.34262775773036        1.74561821620626        0.64306632977378
B           -4.15954415859856        0.07193058949832        0.85133989103699
B           -5.34108947045199       -2.60808448944021        0.92322989534386
B           -5.15995481648825       -4.24758386593844        1.37070675785187
B           -3.98062375542215       -1.59030003932267        0.99601262251905
B           -3.80209565987032       -3.27570340576081        1.07962001746302
B           -3.62036795020376       -4.95530014600242        1.11824903111391
B           -2.97003656184905        2.74660867504435        0.55687199570510
B           -2.79058614540743        1.06391802566574        0.75081460029308
B           -1.60553703515096        3.74395184560823        0.68244154756467
B           -1.42725303518450        2.06319516306303        0.68378674961346
B           -1.24682481664010        0.37230061465675        0.66822934067865
B           -2.43127086926335       -2.27441269935378        1.02508010786970
B           -2.24773802417959       -3.96454686959717        1.12976795778484
B           -1.06721357829738       -1.29665391796998        0.80110006624047
B           -0.88663304259388       -2.95898408052549        1.11062998180847
B           -0.70584349866001       -4.61646093345613        1.38780044703563
B           -0.05970270703529        3.05927707158665        0.56235949115926
B            0.12144739990189        1.37027488385682        0.66418033951747
B            1.30541631066487        4.02693583292478        0.30077212769163
B            1.48687895872621        2.36841420951863        0.57740709246493
B            1.66738407693153        0.69414509142380        0.76629866645313
B            0.48073772939220       -1.96710351228589        0.95686356291020
B            0.66251439854938       -3.64840614122899        1.14815173812816
B            1.84686575503263       -0.97345347638079        0.90241195876477
B            2.02775342760825       -2.65412393016338        1.01598039646702
B            2.20652966683087       -4.33494687703600        1.04612504632642
B            2.85074714864993        3.37127828031409        0.53712809256968
B            3.03390457894460        1.67701198526198        0.58648728617076
B            4.22133183173554        4.36115991770028        0.55529292082388
B            4.40213643346248        2.67900029309852        0.54589151160832
B            4.58018496946324        0.99110077131687        0.60265433360996
B            3.39328949684196       -1.66093001630771        0.87404479933505
B            3.57307924586377       -3.33592782530383        1.14367783228537
B            4.75931398553336       -0.67085074227465        0.75477352064289
B            4.94285325113216       -2.33974555292290        1.01322086650182
B            5.12083030209958       -3.99392522070904        1.31894328265901
B            5.76209102290580        3.65415044913249        0.27628064197645
B            5.94435257611018        2.01030747904172        0.68982219333002
B            6.30558215497335       -1.34505561832694        1.01390156133926
B            6.48385929790554       -3.03685737255644        0.90257001281928
H           -6.90602776818220        2.94776346301079        1.02825995178404
H           -6.60044658876528        0.10606416243931        0.23070816305898
H           -4.68045837754239        4.49771329375325       -0.02279311999254
H           -6.34855651930086       -2.24918182988768        0.45321612302816
H           -6.03716412711091       -4.88873557789475        1.80692819203766
H           -3.54643271275362       -6.10791222267220        0.90441250339471
H           -1.73519809771556        4.89641680762559        0.85989316794493
H           -0.59301191958374       -5.73353581979388        1.73058766540762
H            1.18660614991162        5.14191192842764       -0.04566554641619
H            2.33360239315332       -5.49311793276998        0.90205720718102
H            4.15689260453345        5.50970906341330        0.77859524738789
H            5.29382779096837       -5.06991262260085        1.75479736047667
H            6.62823621452925        4.30215397640725       -0.17453455174843
H            6.96541273454700        1.63054640771138        1.10973125215055
H            7.20658717284270       -0.69004513995766        1.36818655425022
H            7.48629865312258       -3.55784587670991        0.58786515027752
