102
 energy: -140.817645256544 gnorm: 0.000763215832 xtb: 6.7.1 (edcfbbe)
O            0.92851340316854       -0.46564921949455        3.56969247801369
C            0.31420593057173        0.47394815308660        4.06355144381559
C           -1.08765655288979        0.60262662725463        4.21582808032009
C           -1.92070635022122       -0.47208325506888        4.02096331531109
C           -3.34130102445909       -0.46951361504007        4.08359749787078
C           -4.10403292667521        0.71156441090009        4.09202066432628
C           -5.48099007365102        0.66880165736595        4.11747326021564
C           -6.14745172427290       -0.54569932076617        4.12832494454599
O           -7.52495010955948       -0.65238468791025        4.13193668831359
C           -5.41179303289925       -1.73998661600007        4.12515647743679
O           -6.06055635404335       -2.93978811068307        4.12138225283321
C           -4.03667930522668       -1.69510839020282        4.10486954594370
O            0.98358525261126        1.60288051764789        4.52328116421269
C            2.38362076812704        1.58308769287389        4.39819231279718
C            3.09591050755658        0.95316278691641        5.62207506969837
C            3.51242327712373       -0.45323497000642        5.30075676227293
C            4.71650565259072       -0.67218548270937        4.64742066140768
C            5.06299162373992       -1.94043813423883        4.21494221709575
C            4.18904515371942       -2.99654780565160        4.40079799217183
O            4.43274964369010       -4.26556994593772        3.92809365966435
C            2.98514541928262       -2.79254103200050        5.08653065150333
O            2.13340447274187       -3.83331854279632        5.27688169180080
C            2.66557896626850       -1.52557890772922        5.54506037990954
C            2.87782335297254        2.98887645150255        4.13001819407243
O            4.03286515382927        3.33102839642270        4.21619163461096
O            1.91258921415111        3.81310129981547        3.72636926923005
H           -1.45037337063529        1.56633848460812        4.52914790334053
H           -1.43885333963074       -1.42377307643524        3.85431095970111
H           -3.60704618269133        1.66633959043116        4.07323530744755
H           -6.05435537490298        1.58608297354815        4.11670422849798
H           -7.89952348174201        0.22681162836606        4.02378978095894
H           -7.00686048046233       -2.75183440580092        4.07618904451523
H           -3.49436420220274       -2.62660922988411        4.11007548594291
H            2.63936860525668        0.97780930230392        3.50880345801296
H            2.40655264985194        0.97920926214254        6.46614837311364
H            3.97182232224048        1.55994078591521        5.85479825082770
H            5.38248603926530        0.15563901082367        4.46159468429592
H            6.00167391522918       -2.10574470180735        3.70916348048508
H            5.03509170146919       -4.21401609711180        3.16655147449945
H            2.51615613815753       -4.59980127980282        4.82630553400951
H            1.72613607332333       -1.38853184477615        6.05372087436446
H            2.27490273480177        4.67228917900075        3.45298730722837
B           -5.93720033152089        3.55571864572403        0.45405508107878
B           -5.91661844646896        1.88142034327689        0.77929838626609
B           -4.49542698613467        4.42842592511921        0.77018997366553
B           -4.47041028541770        2.73997252035782        0.68057290689367
B           -4.44128601866111        1.04226755652579        0.63059133575997
B           -5.86625563556091       -1.50753555583414        0.85382683518526
B           -5.83505756254125       -3.19944551849821        0.65585130090934
B           -4.41583035556365       -0.63544817399259        0.67450704385861
B           -4.39448494181400       -2.32691639554980        0.82402500725931
B           -4.37019373987936       -4.00457140781965        1.04369563569709
B           -3.01215902159610        3.61507398321111        0.70044985561114
B           -2.98744954445558        1.91055980548722        0.65177024223974
B           -1.56145130524181        4.46493390566952        0.49680460435296
B           -1.53867058552983        2.78442247107501        0.68206265339404
B           -1.51383976607986        1.09356658409505        0.79093121750779
B           -2.93720299753563       -1.45632343744344        0.77025126835182
B           -2.91133701095450       -3.15342711914786        0.93113135948397
B           -1.48896202495418       -0.58777562958580        0.85569603331140
B           -1.46310866573387       -2.28253931288414        0.86047811722964
B           -1.43502257970765       -3.97180148743012        0.79275029110836
B           -0.08504952234488        3.65804896479217        0.69740653328512
B           -0.05918566632853        1.95682723973252        0.72982888583254
B            1.36382796563771        4.51937437974559        0.83207167145450
B            1.39147658231574        2.83017700156320        0.75219849077963
B            1.41806663282350        1.13341893937648        0.68201359697260
B           -0.00922627287955       -1.40982702652527        0.85643803589149
B            0.01526982671523       -3.10807576196993        0.95908099435201
B            1.44301632872714       -0.54820959100135        0.75776931809921
B            1.46643888798576       -2.23433822632302        0.97015684937013
B            1.48841310934515       -3.91174043425548        1.17815320379774
B            2.84210658178919        3.70219374887959        0.68591129318339
B            2.86866582045054        2.00275780179291        0.79988927653378
B            4.29787814551492        4.55376152248440        0.57020918210856
B            4.32342202136868        2.87365348990615        0.75610463238328
B            4.34558171213046        1.18156664366170        0.87921657500108
B            2.91827510151534       -1.36232276166111        0.95211144926001
B            2.94224469301189       -3.06590207380286        0.95501953723830
B            4.37028468660203       -0.49498388332959        0.94676601183169
B            4.39866034951673       -2.19162589599638        0.93874930301869
B            4.42289475811458       -3.88104911232870        0.88755372157775
B            5.76755976677091        3.74561480257794        0.92933375257170
B            5.79718546524432        2.05358072940691        0.69459053737008
B            5.84738955430276       -1.33513806436298        0.81398256300550
B            5.86847309762576       -3.00601448481746        1.16511166046658
H           -6.88448016991148        4.11800193854713        0.05213948346722
H           -6.87794333171916        1.35931295795856        1.19026299121991
H           -4.56683901592018        5.56152637800409        1.06768909339470
H           -6.85967032141124       -0.98217138536321        1.16824431378928
H           -6.75402925653926       -3.81439038658711        0.26780610633585
H           -4.40958916303732       -5.12129191742810        1.39525571831992
H           -1.57994429372050        5.60353222729448        0.21104431854484
H           -1.41609683619213       -5.12344854723906        0.56820495618754
H            1.35270045199836        5.67908345092532        1.02537246339573
H            1.51235836697585       -5.04454227117259        1.48214783519498
H            4.33261289569869        5.67045548586286        0.20908043121910
H            4.48677626710765       -5.02353489139874        0.62002125742033
H            6.69862586913690        4.35836822828161        1.28628208763843
H            6.76549820456560        1.54633358455320        0.28259594249862
H            6.80194091759457       -0.82553329003875        0.37341603159620
H            6.83272352901422       -3.56362678095770        1.54307033864647
