102
 energy: -140.817266392236 gnorm: 0.001127378958 xtb: 6.7.1 (edcfbbe)
O            0.19909768684456       -1.43629603031540        3.56741747920811
C            0.98681414287646       -0.76009235569181        4.22181990713647
C            0.98716553095731        0.65031691898281        4.35806968044942
C           -0.09446267551575        1.37741508187022        3.92520577922057
C           -0.25702141229415        2.78966089789738        3.95044016494285
C            0.80041289537318        3.68942580808764        4.17861126366805
C            0.59591776344179        5.05149085937401        4.13142963048071
C           -0.66200940446103        5.56849887959250        3.86094354184136
O           -0.92270821814034        6.92390475290901        3.77544531538159
C           -1.73920769490161        4.69483143347135        3.65385615910980
O           -2.98369157446463        5.18821981569123        3.39453489723536
C           -1.53226160164146        3.33505080213867        3.69635228425420
O            2.03827804594846       -1.35855106440112        4.90108139937364
C            2.08172928189394       -2.76554703667648        4.83882776479355
C            1.24421790431683       -3.43780543218039        5.94607869813716
C           -0.19134334786418       -3.49415106024269        5.50526530275924
C           -0.57801296506931       -4.43631579938871        4.56290427602847
C           -1.84459657931816       -4.40256335205413        4.00715380770925
C           -2.73655439484302       -3.41520752143513        4.38288885081722
O           -3.98860586395796       -3.28081397116564        3.82537567751256
C           -2.37330784656842       -2.48639234978789        5.36478988317244
O           -3.25703360708805       -1.52377616700609        5.74549745615429
C           -1.10804957359363       -2.53985963130070        5.92381856492291
C            3.52685686114714       -3.22105330242258        4.84228559922463
O            3.92513977581032       -4.25820568091254        5.30619582256483
O            4.32107397981048       -2.37056276532779        4.19001964063892
H            1.83438973136585        1.09385448403639        4.85198518992457
H           -0.92806421621448        0.79855818100759        3.55611238622610
H            1.78821574099272        3.30987069661363        4.38106743347375
H            1.42104419618713        5.73146433751461        4.29711559987125
H           -0.09525112006155        7.40287456828554        3.87657384805130
H           -2.90671848616546        6.14897736707346        3.34189124543970
H           -2.37537647053950        2.68135272159659        3.54665676375483
H            1.66258563440351       -3.07957483016933        3.86320209670103
H            1.35310095003954       -2.86059078933410        6.86453408975657
H            1.64724167323027       -4.43913501238131        6.10308665274762
H            0.12429564827930       -5.18785587672245        4.23778274810971
H           -2.13022290222294       -5.12695909394873        3.26024421841737
H           -4.03547867478449       -3.80217256463835        3.00204770231803
H           -4.05431766722320       -1.64388685302889        5.21141357519954
H           -0.83894697010666       -1.79012168095937        6.65037625452260
H            5.22319190535397       -2.72212683769573        4.10546982884244
B           -5.79302571976287        3.39480461210308        0.01469938005783
B           -5.78295863911612        1.73117386599065        0.41215250589926
B           -4.37232297912391        4.28334975656085        0.36715755719285
B           -4.33664035670554        2.59427731022914        0.34570045129513
B           -4.29914338318945        0.89738064311866        0.35920955220245
B           -5.72131184868273       -1.65489032760050        0.57587977341262
B           -5.67321656078969       -3.35056982782625        0.40081671436279
B           -4.26818525675535       -0.77882359169826        0.43900760460647
B           -4.24495819525012       -2.46751701224805        0.60670508120453
B           -4.22209330712307       -4.14207629235023        0.84921122426672
B           -2.88357043514426        3.47665887760393        0.39335279201538
B           -2.85081482092712        1.77342440654607        0.41869034346616
B           -1.42670571139681        4.32866779937379        0.23821216130071
B           -1.40667956749555        2.65368998950162        0.46315483441560
B           -1.38212314255216        0.96742981134953        0.64318394668271
B           -2.78942815744011       -1.59100367787702        0.58657979788054
B           -2.76287693086956       -3.28571548192010        0.77421380535217
B           -1.35083161248415       -0.71377265010768        0.71691001921095
B           -1.31680978836419       -2.40769500213370        0.75041900233785
B           -1.27677556371736       -4.09723859458040        0.70704731206585
B            0.03781980454164        3.53737644313651        0.56296180633656
B            0.06864745289666        1.83874383794218        0.65454380552738
B            1.47076754970343        4.41071735155017        0.78267457196359
B            1.51014031136714        2.72166215057271        0.75935529081373
B            1.55024030903536        1.02420508872179        0.70857332263236
B            0.13113602287292       -1.52679993331653        0.80770295429402
B            0.15993557493577       -3.22418719188902        0.92220604742038
B            1.58218340825600       -0.65750522225906        0.77454143671516
B            1.60501559966979       -2.34286164780063        0.97957802010262
B            1.62321525179909       -4.01655832959221        1.23312817325338
B            2.95784831950228        3.60138692016817        0.75878820996845
B            2.98595583831536        1.90440470918922        0.91123653842028
B            4.41390801285087        4.45997917579018        0.70738921777743
B            4.43725284951533        2.78301487214728        0.92308112587571
B            4.46183490239700        1.09254422029744        1.06500961088612
B            3.04903334817462       -1.46072991433980        1.05546749423369
B            3.08214288364168       -3.16373486096057        1.08435077416022
B            4.49298081794487       -0.58360554372684        1.14142919503140
B            4.53123193113345       -2.28013994404181        1.15396331615920
B            4.56828257959798       -3.96935394628165        1.11934367609047
B            5.86462773943501        3.66568395905545        1.16221676351318
B            5.91710718383748        1.97115314356024        0.94863034386324
B            5.97867862730339       -1.41530356612118        1.12413572353915
B            5.98669174925401       -3.08033395926283        1.50850437125202
H           -6.71647176466556        3.92714630063879       -0.47183106843642
H           -6.75743680464223        1.22820542046571        0.81350977456319
H           -4.46066723676710        5.42648985860589        0.60612470820090
H           -6.72002075638391       -1.13892091665770        0.89061940875200
H           -6.58081662780719       -3.97663250245099        0.00236468745814
H           -4.26801507090157       -5.26892399127238        1.18888961973822
H           -1.43276833609105        5.44865523292859       -0.11214283779766
H           -1.24503430308868       -5.25240850271539        0.49618596159110
H            1.43885038802347        5.57347087822356        0.93741834185483
H            1.63807198228640       -5.14780320860945        1.54591584896882
H            4.46385008971003        5.57049690472726        0.33076210911230
H            4.66694978012130       -5.10258211360492        0.83178988705102
H            6.76625116203871        4.28428916482444        1.58421513571313
H            6.91182244355815        1.46332050681408        0.60536006725305
H            6.95860347311912       -0.90831852029681        0.73966362895068
H            6.90309938923907       -3.62394745511203        2.00034464794761
