32
Quercetin GFN2 opt
O       1.65234896      2.17860337      2.19650686
C       1.36581430      1.33645298      1.31985539
C      -0.03309690      1.05807530      1.04223296
O      -0.89538213      1.77854222      1.80120489
C      -0.40037380      0.13466663      0.10177941
C      -1.76180562     -0.24595200     -0.25808027
C      -1.97979546     -1.35999732     -1.07190264
C      -3.25784734     -1.73718823     -1.42820474
C      -4.35608826     -1.01263693     -0.98680613
O      -5.60865631     -1.38052182     -1.33817538
C      -4.14344632      0.10858586     -0.16950040
O      -5.26158173      0.79243536      0.23915904
C      -2.86678705      0.48448349      0.18862785
O       0.54554587     -0.54021269     -0.60210761
C       1.85917404     -0.32567385     -0.40638895
C       2.75674363     -1.05145691     -1.17794244
C       4.12012085     -0.85238248     -1.00142203
O       4.96512449     -1.57241591     -1.76981493
C       4.59584734      0.06138004     -0.06123551
C       3.71331597      0.79171336      0.71603609
O       4.17120632      1.66370385      1.61333535
C       2.32010821      0.60005463      0.54309465
H      -0.31232531      2.31571588      2.38074914
H      -1.13778460     -1.93428765     -1.42093601
H      -3.43033362     -2.59843749     -2.05268929
H      -6.22908693     -0.75616299     -0.93554434
H      -4.99481270      1.53017155      0.79870028
H      -2.72480534      1.35046001      0.81380889
H       2.40426629     -1.75960443     -1.90724721
H       5.88022247     -1.34858142     -1.55765930
H       5.65611220      0.21365531      0.07495481
H       3.38805847      2.07681226      2.05925250
