91
Drug@B48H12 non-overlapping complex
O      1.884520     -1.742309      7.954286
C      1.501614     -1.092863      6.990681
C      0.052890     -0.961743      6.751120
C     -0.387463     -0.247851      5.707365
C     -1.828060     -0.077079      5.432360
C     -2.320574      1.178590      5.027398
C     -3.679320      1.369429      4.749542
C     -4.549910      0.295867      4.871407
O     -5.887220      0.414798      4.614773
C     -4.073357     -0.951898      5.261751
O     -4.935716     -2.005440      5.372975
C     -2.726451     -1.149456      5.539465
O      0.441163      0.409862      4.816671
C      1.799812      0.307026      4.985902
C      2.583986      0.974829      4.043534
C      3.968233      0.922602      4.141980
O      4.693362      1.589807      3.200000
C      4.585093      0.213241      5.167731
C      3.795284     -0.454173      6.110205
O      4.413899     -1.146746      7.111643
C      2.395647     -0.411580      6.025978
H     -0.596216     -1.457476      7.461937
H     -1.642469      2.025147      4.931680
H     -4.026966      2.350799      4.443906
H     -6.065369      1.335126      4.354979
H     -5.808415     -1.635397      5.131895
H     -2.391334     -2.142805      5.824919
H      2.116835      1.531490      3.235745
H      5.641196      1.466879      3.374254
H      5.667134      0.179087      5.235279
H      5.378171     -1.087764      7.031140
B     -6.351142     -2.854456     -0.339557
B     -3.863246     -3.427578      0.871248
B     -1.055185     -4.165135      1.979350
B      1.685312     -4.231770      1.354949
B      2.970257     -3.692274      0.621871
B      5.907588     -3.848572     -0.380027
B     -4.761208     -2.330720     -0.407809
B     -2.619857     -2.211059      0.844160
B     -1.232659     -2.391074      1.779162
B      0.281426     -3.144602      1.258585
B      3.128005     -2.135340      0.033717
B      5.282428     -2.580677     -1.142740
B     -4.382652     -1.054498     -1.346132
B     -3.192369     -1.268483     -0.239841
B     -0.766749     -0.915069      2.147107
B      0.434070     -1.509850      0.882523
B      4.260331     -1.271884     -0.605716
B      6.845204     -2.475577     -0.806482
B     -5.007204     -0.643659     -2.849649
B     -3.195209      0.154301     -0.925672
B     -0.946947      0.623306      2.210385
B      0.001581     -0.020442      0.908402
B      4.875444      0.224219     -0.547589
B      5.878568     -1.066378     -1.130575
B     -5.767164      0.853536     -2.917565
B     -2.897102      1.628167     -0.708344
B     -1.239865      2.133184      2.088909
B      0.188320      1.549872      1.054031
B      4.258123      1.584106      0.064663
B      6.307532      0.439704     -1.625845
B     -5.734132      1.755409     -1.493813
B     -3.346886      2.973961     -0.174554
B     -1.664632      3.616005      1.797280
B     -0.058970      3.164039      1.323482
B      2.965632      2.258875      0.684366
B      5.791920      1.672515     -0.698507
B     -6.638907      2.799988     -0.842193
B     -4.474576      3.887338      0.587924
B     -1.777076      5.175247      1.215356
B      1.175393      4.406638      1.328978
B      2.593810      3.922874      0.879575
B      5.350926      2.985997     -0.054101
B     -5.318955     -3.634817      0.416463
B     -2.487709     -3.632854      1.605545
B      0.359579     -4.721327      1.906320
B      1.721498     -2.416215      0.734504
B      4.338705     -3.479950     -0.072929
B     -5.095331      2.847233     -0.373491
B     -3.034495      4.318735      0.932612
B     -0.286930      4.895064      1.442591
B      1.461620      2.548192      0.992407
B      4.078380      3.619763      0.510634
B     -4.595730      0.591276     -1.841534
H     -7.368369     -2.502749     -0.810293
H     -4.959065     -1.376034     -3.773890
H     -6.324579      1.260780     -3.871541
H     -7.613398      3.401728     -0.597572
H      6.361232     -4.935383     -0.360239
H      8.016260     -2.468237     -0.906140
H      6.939156      0.614609     -2.612760
