      -----------------------------------------------------------      
     |                   =====================                   |     
     |                           x T B                           |     
     |                   =====================                   |     
     |                         S. Grimme                         |     
     |          Mulliken Center for Theoretical Chemistry        |     
     |                    University of Bonn                     |     
      -----------------------------------------------------------      

   * xtb version 6.7.1pre (5071a88) compiled by 'Marcel@Raven' on 2024-07-23

   xtb is free software: you can redistribute it and/or modify it under
   the terms of the GNU Lesser General Public License as published by
   the Free Software Foundation, either version 3 of the License, or
   (at your option) any later version.
   
   xtb is distributed in the hope that it will be useful,
   but WITHOUT ANY WARRANTY; without even the implied warranty of
   MERCHANTABILITY or FITNESS FOR A PARTICULAR PURPOSE.  See the
   GNU Lesser General Public License for more details.
   
   Cite this work as:
   * C. Bannwarth, E. Caldeweyher, S. Ehlert, A. Hansen, P. Pracht,
     J. Seibert, S. Spicher, S. Grimme, WIREs Comput. Mol. Sci., 2020, 11,
     e01493. DOI: 10.1002/wcms.1493
   
   for GFN2-xTB:
   * C. Bannwarth, S. Ehlert and S. Grimme., J. Chem. Theory Comput., 2019,
     15, 1652-1671. DOI: 10.1021/acs.jctc.8b01176
   for GFN1-xTB:
   * S. Grimme, C. Bannwarth, P. Shushkov, J. Chem. Theory Comput., 2017,
     13, 1989-2009. DOI: 10.1021/acs.jctc.7b00118
   for GFN0-xTB:
   * P. Pracht, E. Caldeweyher, S. Ehlert, S. Grimme, ChemRxiv, 2019, preprint.
     DOI: 10.26434/chemrxiv.8326202.v1
   for GFN-FF:
   * S. Spicher and S. Grimme, Angew. Chem. Int. Ed., 2020, 59, 15665-15673.
     DOI: 10.1002/anie.202004239
   
   for ALPB and GBSA implicit solvation:
   * S. Ehlert, M. Stahn, S. Spicher, S. Grimme, J. Chem. Theory Comput.,
     2021, 17, 4250-4261. DOI: 10.1021/acs.jctc.1c00471
   
   for ddCOSMO and CPCM-X implicit solvation:
   * M. Stahn, S. Ehlert, S. Grimme, J. Phys. Chem. A,
     2023, XX, XXXX-XXXX. DOI: 10.1021/acs.jpca.3c04382
   
   for DFT-D4:
   * E. Caldeweyher, C. Bannwarth and S. Grimme, J. Chem. Phys., 2017,
     147, 034112. DOI: 10.1063/1.4993215
   * E. Caldeweyher, S. Ehlert, A. Hansen, H. Neugebauer, S. Spicher,
     C. Bannwarth and S. Grimme, J. Chem. Phys., 2019, 150, 154122.
     DOI: 10.1063/1.5090222
   * E. Caldeweyher, J.-M. Mewes, S. Ehlert and S. Grimme, Phys. Chem. Chem. Phys.
     2020, 22, 8499-8512. DOI: 10.1039/D0CP00502A
   
   for sTDA-xTB:
   * S. Grimme and C. Bannwarth, J. Chem. Phys., 2016, 145, 054103.
     DOI: 10.1063/1.4959605
   
   in the mass-spec context:
   * V. Asgeirsson, C. Bauer and S. Grimme, Chem. Sci., 2017, 8, 4879.
     DOI: 10.1039/c7sc00601b
   * J. Koopman and S. Grimme, ACS Omega 2019, 4, 12, 15120-15133.
     DOI: 10.1021/acsomega.9b02011
   
   for metadynamics refer to:
   * S. Grimme, J. Chem. Theory Comput., 2019, 155, 2847-2862
     DOI: 10.1021/acs.jctc.9b00143
   
   for SPH calculations refer to:
   * S. Spicher and S. Grimme, J. Chem. Theory Comput., 2021, 17, 1701-1714
     DOI: 10.1021/acs.jctc.0c01306
   
   for ONIOM refer to:
   * C. Plett, A. Katbashev, S. Ehlert, S. Grimme, M. Bursch,
     Phys. Chem. Chem. Phys., 2023, 25, 17860-17868. DOI: 10.1039/D3CP02178E
   
   for DIPRO refer to:
   * J. Kohn, N. Gildemeister, S. Grimme, D. Fazzi, A. Hansen,
     J. Chem. Phys., 2023, just accepted.
   
   for PTB refer to:
   * S. Grimme, M. Mueller, A. Hansen, J. Chem. Phys., 2023, 158, 124111.
     DOI: 10.1063/5.0137838
   
   with help from (in alphabetical order)
   P. Atkinson, C. Bannwarth, F. Bohle, G. Brandenburg, E. Caldeweyher
   M. Checinski, S. Dohm, S. Ehlert, S. Ehrlich, I. Gerasimov, C. Hölzer
   A. Katbashev, J. Kohn, J. Koopman, C. Lavigne, S. Lehtola, F. März, M. Müller,
   F. Musil, H. Neugebauer, J. Pisarek, C. Plett, P. Pracht, F. Pultar,
   J. Seibert, P. Shushkov, S. Spicher, M. Stahn, M. Steiner, T. Strunk,
   J. Stückrath, T. Rose, and J. Unsleber
   
 * started run on 2026/08/31 at 20:23:34.500     
   ID    Z sym.   atoms
    1    8 O      1, 9, 11, 13, 17, 20
    2    6 C      2-8, 10, 12, 14-16, 18, 19, 21
    3    1 H      22-31, 85-91
    4    5 B      32-84

           -------------------------------------------------
          |                Calculation Setup                |
           -------------------------------------------------

          program call               : "c:\Users\Andre\Proyectos doctorado\kras-pancreatic-gC3N4-ai\tools\xtb\xtb-6.7.1\bin\xtb.exe" "c:\Users\Andre\Proyectos doctorado\borophene-alzheimer-tau-ai\calculations\tau\Luteolin\Luteolin_B48H12_complex.xyz" --gfn 2 --sp --chrg 0 --uhf 0 --iterations 500 --norestart
          coordinate file            : c:\Users\Andre\Proyectos doctorado\borophene-alzheimer-tau-ai\calculations\tau\Luteolin\Luteolin_B48H12_complex.xyz
          omp threads                :                    16


molecular fragmentation (1/2 indicates fragments):
111111111111111111111111111111111111111111111111111111111111111111111111
1111111111111221111
# atoms in fragment 1/2:    89     2
 fragment masses (1/2) :      864.26        2.02
CMA distance (Bohr)    :  16.334
constraining FC (au)   :  0.0500

           -------------------------------------------------
          |                 G F N 2 - x T B                 |
           -------------------------------------------------

        Reference                      10.1021/acs.jctc.8b01176
      * Hamiltonian:
        H0-scaling (s, p, d)           1.850000    2.230000    2.230000
        zeta-weighting                 0.500000
      * Dispersion:
        s8                             2.700000
        a1                             0.520000
        a2                             5.000000
        s9                             5.000000
      * Repulsion:
        kExp                           1.500000    1.000000
        rExp                           1.000000
      * Coulomb:
        alpha                          2.000000
        third order                    shell-resolved
        anisotropic                    true
        a3                             3.000000
        a5                             4.000000
        cn-shift                       1.200000
        cn-exp                         4.000000
        max-rad                        5.000000


          ...................................................
          :                      SETUP                      :
          :.................................................:
          :  # basis functions                 313          :
          :  # atomic orbitals                 313          :
          :  # shells                          165          :
          :  # electrons                       272          :
          :  max. iterations                   500          :
          :  Hamiltonian                  GFN2-xTB          :
          :  restarted?                      false          :
          :  GBSA solvation                  false          :
          :  PC potential                    false          :
          :  electronic temp.          300.0000000     K    :
          :  accuracy                    1.0000000          :
          :  -> integral cutoff          0.2500000E+02      :
          :  -> integral neglect         0.1000000E-07      :
          :  -> SCF convergence          0.1000000E-05 Eh   :
          :  -> wf. convergence          0.1000000E-03 e    :
          :  Broyden damping             0.4000000          :
          :  net charge                          0          :
          :  unpaired electrons                  0          :
          ...................................................

 iter      E             dE          RMSdq      gap      omega  full diag
   1   -127.6885721 -0.127689E+03  0.179E+01    0.23       0.0  T
   2    -30.4990456  0.971895E+02  0.159E+01    0.16       1.0  T
   3    436.6700553  0.467169E+03  0.285E+01    0.08       1.0  T
   4     66.6052973 -0.370065E+03  0.179E+01    0.11       1.0  T
   5    124.9128093  0.583075E+02  0.200E+01    0.05       1.0  T
   6    -64.4530121 -0.189366E+03  0.128E+01    0.17       1.0  T
   7    -21.7105755  0.427424E+02  0.124E+01    0.12       1.0  T
   8    -47.2712865 -0.255607E+02  0.130E+01    0.09       1.0  T
   9   -112.6214090 -0.653501E+02  0.834E+00    0.04       1.0  T
  10   -107.2303396  0.539107E+01  0.863E+00    0.11       1.0  T
  11   -121.4952725 -0.142649E+02  0.808E+00    0.12       1.0  T
  12   -127.9370856 -0.644181E+01  0.673E+00    0.05       1.0  T
  13   -129.1344770 -0.119739E+01  0.612E+00    0.09       1.0  T
  14   -128.2913615  0.843115E+00  0.629E+00    0.13       1.0  T
  15   -128.3262881 -0.349266E-01  0.570E+00    0.10       1.0  T
  16   -128.4936487 -0.167361E+00  0.560E+00    0.05       1.0  T
  17   -128.0077728  0.485876E+00  0.561E+00    0.16       1.0  T
  18   -127.9898694  0.179034E-01  0.550E+00    0.16       1.0  T
  19   -128.4657298 -0.475860E+00  0.433E+00    0.09       1.0  T
  20   -129.4551254 -0.989396E+00  0.347E+00    0.11       1.0  T
  21   -129.5172860 -0.621606E-01  0.329E+00    0.05       1.0  T
  22   -129.5807373 -0.634513E-01  0.317E+00    0.13       1.0  T
  23   -129.6715282 -0.907909E-01  0.309E+00    0.10       1.0  T
  24   -129.6667958  0.473236E-02  0.309E+00    0.04       1.0  T
  25   -129.7174320 -0.506362E-01  0.301E+00    0.03       1.0  T
  26   -129.5848698  0.132562E+00  0.288E+00    0.03       1.0  T
  27   -129.9580535 -0.373184E+00  0.241E+00    0.05       1.0  T
  28   -129.9916323 -0.335788E-01  0.206E+00    0.06       1.0  T
  29   -130.1031950 -0.111563E+00  0.175E+00    0.07       1.0  T
  30   -130.1650096 -0.618146E-01  0.158E+00    0.06       1.0  T
  31   -130.2181507 -0.531411E-01  0.144E+00    0.07       1.0  T
  32   -130.2387662 -0.206155E-01  0.141E+00    0.07       1.0  T
  33   -130.2348757  0.389051E-02  0.138E+00    0.06       1.0  T
  34   -130.2909215 -0.560458E-01  0.124E+00    0.05       1.0  T
  35   -130.3257593 -0.348378E-01  0.105E+00    0.07       1.0  T
  36   -130.3342525 -0.849326E-02  0.111E+00    0.04       1.0  T
  37   -130.3335941  0.658397E-03  0.111E+00    0.04       1.0  T
  38   -130.3339057 -0.311626E-03  0.110E+00    0.04       1.0  T
  39   -130.3323217  0.158401E-02  0.111E+00    0.03       1.0  T
  40   -130.3245866  0.773518E-02  0.115E+00    0.03       1.0  T
  41   -130.3038584  0.207282E-01  0.109E+00    0.01       1.0  T
  42   -130.3298470 -0.259886E-01  0.924E-01    0.02       1.0  T
  43   -130.3343217 -0.447469E-02  0.788E-01    0.01       1.0  T
  44   -130.3458706 -0.115489E-01  0.673E-01    0.02       1.0  T
  45   -130.3617268 -0.158562E-01  0.544E-01    0.03       1.0  T
  46   -130.3732378 -0.115110E-01  0.443E-01    0.04       1.0  T
  47   -130.3851918 -0.119540E-01  0.383E-01    0.06       1.0  T
  48   -130.3932902 -0.809844E-02  0.336E-01    0.08       1.0  T
  49   -130.3938245 -0.534312E-03  0.330E-01    0.08       1.0  T
  50   -130.3948348 -0.101031E-02  0.308E-01    0.08       1.0  T
  51   -130.3954775 -0.642675E-03  0.286E-01    0.09       1.0  T
  52   -130.3957666 -0.289107E-03  0.270E-01    0.09       1.0  T
  53   -130.3971691 -0.140244E-02  0.245E-01    0.09       1.0  T
  54   -130.3981437 -0.974657E-03  0.222E-01    0.10       1.0  T
  55   -130.3992250 -0.108131E-02  0.191E-01    0.10       1.0  T
  56   -130.4007026 -0.147756E-02  0.127E-01    0.09       1.0  T
  57   -130.4010969 -0.394308E-03  0.105E-01    0.09       1.0  T
  58   -130.4012425 -0.145583E-03  0.918E-02    0.09       1.0  T
  59   -130.4013773 -0.134842E-03  0.629E-02    0.09       1.0  T
  60   -130.4015701 -0.192758E-03  0.305E-02    0.09       1.0  T
  61   -130.4015684  0.173682E-05  0.238E-02    0.09       1.0  T
  62   -130.4015488  0.195218E-04  0.229E-02    0.09       1.0  T
  63   -130.4015921 -0.432737E-04  0.183E-02    0.09       1.0  T
  64   -130.4016117 -0.195499E-04  0.194E-02    0.09       1.0  T
  65   -130.4016361 -0.244462E-04  0.137E-02    0.09       1.0  T
  66   -130.4016525 -0.163853E-04  0.712E-03    0.09       1.5  T
  67   -130.4016533 -0.854091E-06  0.604E-03    0.09       1.7  T
  68   -130.4016553 -0.191536E-05  0.452E-03    0.09       2.3  T
  69   -130.4016562 -0.936044E-06  0.347E-03    0.09       3.0  T
  70   -130.4016563 -0.111704E-06  0.347E-03    0.09       3.0  T
  71   -130.4016569 -0.567865E-06  0.269E-03    0.09       3.9  T
  72   -130.4016572 -0.360722E-06  0.219E-03    0.09       4.8  T
  73   -130.4016574 -0.132319E-06  0.175E-03    0.09       6.0  T
  74   -130.4016575 -0.103944E-06  0.179E-03    0.09       5.8  T
  75   -130.4016576 -0.133940E-06  0.144E-03    0.09       7.3  T
  76   -130.4016576 -0.436076E-07  0.106E-03    0.09       9.9  T
  77   -130.4016577 -0.597554E-07  0.661E-04    0.09      15.9  T
  78   -130.4016577 -0.258706E-07  0.473E-04    0.09      22.2  T

   *** convergence criteria satisfied after 78 iterations ***

         #    Occupation            Energy/Eh            Energy/eV
      -------------------------------------------------------------
         1        2.0000           -0.7054497             -19.1963
       ...           ...                  ...                  ...
       130        2.0000           -0.2336303              -6.3574
       131        2.0000           -0.2271741              -6.1817
       132        2.0000           -0.2240350              -6.0963
       133        1.9999           -0.2216047              -6.0302
       134        1.9998           -0.2204377              -5.9984
       135        1.9929           -0.2170472              -5.9062
       136        1.5759           -0.2129374              -5.7943 (HOMO)
       137        0.2066           -0.2096375              -5.7045 (LUMO)
       138        0.1421           -0.2092481              -5.6939
       139        0.0826           -0.2087024              -5.6791
       140        0.0001           -0.2026140              -5.5134
       141        0.0001           -0.2018605              -5.4929
       ...           ...                  ...                  ...
       313                          1.6401124              44.6297
      -------------------------------------------------------------
                  HL-Gap            0.0032998 Eh            0.0898 eV
             Fermi-level           -0.2116904 Eh           -5.7604 eV

 SCC (total)                   0 d,  0 h,  0 min,  1.161 sec
 SCC setup                      ...        0 min,  0.001 sec (  0.086%)
 Dispersion                     ...        0 min,  0.002 sec (  0.172%)
 classical contributions        ...        0 min,  0.000 sec (  0.000%)
 integral evaluation            ...        0 min,  0.007 sec (  0.603%)
 iterations                     ...        0 min,  1.132 sec ( 97.502%)
 molecular gradient             ...        0 min,  0.018 sec (  1.550%)
 printout                       ...        0 min,  0.001 sec (  0.086%)

         :::::::::::::::::::::::::::::::::::::::::::::::::::::
         ::                     SUMMARY                     ::
         :::::::::::::::::::::::::::::::::::::::::::::::::::::
         :: total energy            -128.229115402325 Eh    ::
         :: gradient norm              0.460937002979 Eh/a0 ::
         :: HOMO-LUMO gap              0.089792719468 eV    ::
         ::.................................................::
         :: SCC energy              -130.396700162764 Eh    ::
         :: -> isotropic ES            0.470032509177 Eh    ::
         :: -> anisotropic ES          0.005178710587 Eh    ::
         :: -> anisotropic XC         -0.076267871354 Eh    ::
         :: -> dispersion             -0.145126624247 Eh    ::
         :: repulsion energy           2.167584760439 Eh    ::
         :: add. restraining           0.000000000000 Eh    ::
         :: total charge              -0.000000000155 e     ::
         :::::::::::::::::::::::::::::::::::::::::::::::::::::

           -------------------------------------------------
          |                Property Printout                |
           -------------------------------------------------

    * Orbital Energies and Occupations

         #    Occupation            Energy/Eh            Energy/eV
      -------------------------------------------------------------
         1        2.0000           -0.7054497             -19.1963
       ...           ...                  ...                  ...
       124        2.0000           -0.2499970              -6.8028
       125        2.0000           -0.2485534              -6.7635
       126        2.0000           -0.2476579              -6.7391
       127        2.0000           -0.2463912              -6.7046
       128        2.0000           -0.2378714              -6.4728
       129        2.0000           -0.2358905              -6.4189
       130        2.0000           -0.2336303              -6.3574
       131        2.0000           -0.2271741              -6.1817
       132        2.0000           -0.2240350              -6.0963
       133        1.9999           -0.2216047              -6.0302
       134        1.9998           -0.2204377              -5.9984
       135        1.9929           -0.2170472              -5.9062
       136        1.5759           -0.2129374              -5.7943 (HOMO)
       137        0.2066           -0.2096375              -5.7045 (LUMO)
       138        0.1421           -0.2092481              -5.6939
       139        0.0826           -0.2087024              -5.6791
       140        0.0001           -0.2026140              -5.5134
       141        0.0001           -0.2018605              -5.4929
       142        0.0000           -0.1985367              -5.4025
       143        0.0000           -0.1962406              -5.3400
       144                         -0.1949825              -5.3057
       145                         -0.1921460              -5.2286
       146                         -0.1876973              -5.1075
       147                         -0.1856358              -5.0514
       ...                                ...                  ...
       313                          1.6401124              44.6297
      -------------------------------------------------------------
                  HL-Gap            0.0032998 Eh            0.0898 eV
             Fermi-level           -0.2116904 Eh           -5.7604 eV

     #   Z          covCN         q      C6AA      α(0)
     1   8 O        0.858    -0.461    22.929     6.420
     2   6 C        2.831     0.202    23.716     7.980
     3   6 C        2.897    -0.117    30.967     9.124
     4   6 C        2.853     0.109    25.578     8.289
     5   6 C        2.968    -0.017    28.440     8.747
     6   6 C        2.918    -0.061    29.519     8.910
     7   6 C        2.909    -0.096    30.411     9.043
     8   6 C        2.843     0.092    25.939     8.347
     9   8 O        1.658    -0.434    21.521     6.263
    10   6 C        2.843     0.114    25.479     8.272
    11   8 O        1.658    -0.413    21.107     6.202
    12   6 C        2.915    -0.077    29.917     8.969
    13   8 O        1.707    -0.226    17.743     5.687
    14   6 C        2.874     0.121    25.334     8.251
    15   6 C        2.916    -0.165    32.295     9.319
    16   6 C        2.854     0.076    26.299     8.405
    17   8 O        2.673    -0.149    16.521     5.490
    18   6 C        2.910    -0.144    31.712     9.234
    19   6 C        2.844     0.131    25.126     8.215
    20   8 O        1.659    -0.380    20.466     6.107
    21   6 C        2.965    -0.077    29.907     8.970
    22   1 H        0.925     0.049     2.330     2.387
    23   1 H        0.925     0.051     2.310     2.377
    24   1 H        0.925     0.049     2.337     2.391
    25   1 H        0.804     0.316     0.675     1.290
    26   1 H        0.804     0.323     0.657     1.273
    27   1 H        0.925     0.058     2.222     2.331
    28   1 H        1.118     0.169     1.266     1.757
    29   1 H        0.804     0.337     0.620     1.237
    30   1 H        0.925     0.014     2.826     2.629
    31   1 H        0.804     0.288     0.758     1.367
    32   5 B        2.887    -0.004    21.483     7.736
    33   5 B        2.890     0.029    20.915     7.633
    34   5 B        2.890     0.032    20.862     7.623
    35   5 B        2.890     0.028    20.933     7.636
    36   5 B        2.890     0.035    20.803     7.613
    37   5 B        2.887     0.012    21.203     7.685
    38   5 B        2.916     0.008    21.263     7.695
    39   5 B        3.868    -0.009    22.896     7.711
    40   5 B        3.868     0.007    22.614     7.664
    41   5 B        3.868     0.008    22.593     7.660
    42   5 B        3.868     0.002    22.692     7.677
    43   5 B        2.916     0.053    20.496     7.555
    44   5 B        3.266    -0.012    21.596     7.750
    45   5 B        2.314     0.070    30.773    10.808
    46   5 B        1.958     0.027    43.151    13.814
    47   5 B        1.958     0.022    43.327    13.842
    48   5 B        1.958     0.001    44.084    13.963
    49   5 B        2.911    -0.072    22.740     7.958
    50   5 B        2.939    -0.001    21.416     7.721
    51   5 B        2.936    -0.094    23.149     8.028
    52   5 B        1.958    -0.054    46.127    14.283
    53   5 B        1.958    -0.049    45.950    14.255
    54   5 B        2.012    -0.026    44.683    14.032
    55   5 B        1.960    -0.005    44.303    13.997
    56   5 B        3.266    -0.019    21.724     7.773
    57   5 B        2.314     0.063    30.957    10.840
    58   5 B        1.958     0.026    43.200    13.822
    59   5 B        2.154     0.032    39.997    13.087
    60   5 B        2.752     0.057    20.558     7.588
    61   5 B        2.911    -0.076    22.803     7.969
    62   5 B        2.916     0.001    21.388     7.717
    63   5 B        3.868    -0.017    23.054     7.738
    64   5 B        3.868     0.005    22.643     7.669
    65   5 B        3.868    -0.004    22.804     7.696
    66   5 B        4.045     0.031    22.175     7.588
    67   5 B        2.914    -0.027    21.892     7.808
    68   5 B        2.887    -0.010    21.594     7.756
    69   5 B        2.890     0.018    21.092     7.665
    70   5 B        2.890     0.025    20.978     7.644
    71   5 B        2.890     0.024    20.994     7.647
    72   5 B        2.890    -0.008    21.558     7.749
    73   5 B        1.934    -0.011    44.642    14.058
    74   5 B        3.822     0.046    21.892     7.542
    75   5 B        3.822     0.041    21.971     7.556
    76   5 B        3.822     0.044    21.922     7.548
    77   5 B        3.822     0.042    21.960     7.554
    78   5 B        3.822     0.045    21.910     7.546
    79   5 B        3.822     0.035    22.082     7.575
    80   5 B        3.822     0.035    22.083     7.575
    81   5 B        3.822     0.037    22.042     7.568
    82   5 B        3.822     0.017    22.412     7.631
    83   5 B        3.822     0.008    22.582     7.660
    84   5 B        3.381     0.121    19.393     7.341
    85   1 H        0.954    -0.080     4.914     3.465
    86   1 H        0.956     0.012     2.859     2.643
    87   1 H        0.956     0.009     2.899     2.661
    88   1 H        0.954    -0.086     5.088     3.526
    89   1 H        0.954    -0.081     4.925     3.469
    90   1 H        0.956    -0.009     3.219     2.804
    91   1 H        0.956    -0.031     3.659     2.990

 Mol. C6AA /au·bohr⁶  :     159330.427879
 Mol. C8AA /au·bohr⁸  :    5403389.411446
 Mol. α(0) /au        :        682.092669


Wiberg/Mayer (AO) data.
largest (>0.10) Wiberg bond orders for each atom

 ---------------------------------------------------------------------------
     #   Z sym  total        # sym  WBO       # sym  WBO       # sym  WBO
 ---------------------------------------------------------------------------
     1   8 O    1.874 --     2 C    1.632
     2   6 C    3.875 --     1 O    1.632     3 C    1.110    21 C    1.059
     3   6 C    3.931 --     4 C    1.604     2 C    1.110    22 H    0.965
     4   6 C    3.842 --     3 C    1.604     5 C    1.065    13 O    1.031
     5   6 C    3.944 --     6 C    1.353    12 C    1.351     4 C    1.065
     6   6 C    3.957 --     7 C    1.442     5 C    1.353    23 H    0.969
     7   6 C    3.976 --     6 C    1.442     8 C    1.377    24 H    0.959
     8   6 C    3.888 --     7 C    1.377    10 C    1.298     9 O    1.034
     9   8 O    2.066 --     8 C    1.034    25 H    0.870
    10   6 C    3.935 --    12 C    1.410     8 C    1.298    11 O    1.060
    11   8 O    2.092 --    10 C    1.060    26 H    0.871
    12   6 C    3.945 --    10 C    1.410     5 C    1.351    27 H    0.965
    13   8 O    2.334 --    14 C    1.061     4 C    1.031
    14   6 C    3.922 --    15 C    1.346    21 C    1.316    13 O    1.061
    15   6 C    3.899 --    14 C    1.346    16 C    1.328    28 H    0.802
    16   6 C    3.874 --    18 C    1.353    15 C    1.328    17 O    0.963
    17   8 O    2.604 --    16 C    0.963    29 H    0.805    60 B    0.571
    18   6 C    3.948 --    19 C    1.371    16 C    1.353    30 H    0.962
    19   6 C    3.882 --    18 C    1.371    21 C    1.278    20 O    1.070
    20   8 O    2.111 --    19 C    1.070    31 H    0.895
    21   6 C    3.962 --    14 C    1.316    19 C    1.278     2 C    1.059
    22   1 H    0.997 --     3 C    0.965
    23   1 H    0.997 --     6 C    0.969
    24   1 H    0.997 --     7 C    0.959
    25   1 H    0.900 --     9 O    0.870
    26   1 H    0.895 --    11 O    0.871
    27   1 H    0.997 --    12 C    0.965
    28   1 H    0.971 --    15 C    0.802    59 B    0.107
    29   1 H    0.882 --    17 O    0.805
    30   1 H    0.998 --    18 C    0.962
    31   1 H    0.916 --    20 O    0.895
    32   5 B    3.264 --    38 B    1.083    74 B    0.948    85 H    0.866
                            33 B    0.110    44 B    0.107
    33   5 B    3.409 --    75 B    0.992    74 B    0.974    39 B    0.933
                            34 B    0.142    32 B    0.110
    34   5 B    3.508 --    76 B    1.024    75 B    0.985    40 B    0.928
                            35 B    0.164    33 B    0.142
    35   5 B    3.472 --    77 B    1.012    76 B    0.981    41 B    0.913
                            34 B    0.164    36 B    0.131
    36   5 B    3.442 --    77 B    0.993    78 B    0.957    42 B    0.894
                            37 B    0.192    35 B    0.131
    37   5 B    3.461 --    78 B    1.109    43 B    0.996    89 H    0.863
                            36 B    0.192    49 B    0.101
    38   5 B    3.414 --    44 B    1.184    32 B    1.083    74 B    0.729
                            86 H    0.109
    39   5 B    3.657 --    45 B    1.164    33 B    0.933    75 B    0.681
                            74 B    0.676
    40   5 B    3.630 --    46 B    1.152    34 B    0.928    76 B    0.665
                            75 B    0.657
    41   5 B    3.633 --    47 B    1.156    35 B    0.913    77 B    0.662
                            76 B    0.662
    42   5 B    3.640 --    48 B    1.199    36 B    0.894    77 B    0.659
                            78 B    0.635
    43   5 B    3.475 --    49 B    1.239    37 B    0.996    78 B    0.702
                            90 H    0.162    55 B    0.108
    44   5 B    3.584 --    38 B    1.184    50 B    0.968    86 H    0.693
                            84 B    0.375    32 B    0.107
    45   5 B    3.361 --    51 B    1.267    39 B    1.164    84 B    0.366
                            57 B    0.177
    46   5 B    3.274 --    52 B    1.447    40 B    1.152    58 B    0.243
    47   5 B    3.321 --    53 B    1.447    41 B    1.156    59 B    0.176
    48   5 B    3.286 --    54 B    1.422    42 B    1.199    60 B    0.104
    49   5 B    3.584 --    55 B    1.290    43 B    1.239    90 H    0.658
                            61 B    0.118    37 B    0.101
    50   5 B    3.586 --    84 B    1.003    56 B    0.969    44 B    0.968
                            87 H    0.145    86 H    0.144
    51   5 B    3.658 --    57 B    1.273    45 B    1.267    84 B    0.901
    52   5 B    3.373 --    58 B    1.452    46 B    1.447    53 B    0.133
    53   5 B    3.442 --    47 B    1.447    59 B    1.360    52 B    0.133
    54   5 B    3.175 --    48 B    1.422    60 B    1.271
    55   5 B    3.402 --    61 B    1.358    49 B    1.290    91 H    0.160
                            90 H    0.133    43 B    0.108
    56   5 B    3.587 --    62 B    1.186    50 B    0.969    87 H    0.693
                            84 B    0.375    68 B    0.105
    57   5 B    3.368 --    51 B    1.273    63 B    1.165    84 B    0.368
                            45 B    0.177
    58   5 B    3.277 --    52 B    1.452    64 B    1.151    46 B    0.243
    59   5 B    3.318 --    53 B    1.360    65 B    1.122    47 B    0.176
                            28 H    0.107
    60   5 B    3.238 --    54 B    1.271    66 B    0.980    17 O    0.571
                            48 B    0.104
    61   5 B    3.504 --    55 B    1.358    67 B    1.047    91 H    0.697
                            49 B    0.118
    62   5 B    3.427 --    56 B    1.186    68 B    1.090    79 B    0.732
                            87 H    0.107
    63   5 B    3.666 --    57 B    1.165    69 B    0.936    79 B    0.680
                            80 B    0.678
    64   5 B    3.636 --    58 B    1.151    70 B    0.937    80 B    0.661
                            81 B    0.658
    65   5 B    3.658 --    59 B    1.122    71 B    0.956    81 B    0.682
                            82 B    0.643
    66   5 B    3.626 --    60 B    0.980    72 B    0.960    82 B    0.734
                            83 B    0.669
    67   5 B    3.640 --    73 B    1.610    61 B    1.047    83 B    0.688
    68   5 B    3.260 --    62 B    1.090    79 B    0.944    88 H    0.866
                            56 B    0.105    69 B    0.103
    69   5 B    3.410 --    80 B    0.990    79 B    0.978    63 B    0.936
                            70 B    0.138    68 B    0.103
    70   5 B    3.500 --    81 B    1.019    80 B    0.987    64 B    0.937
                            71 B    0.162    69 B    0.138
    71   5 B    3.500 --    82 B    1.002    81 B    0.974    65 B    0.956
                            70 B    0.162    72 B    0.133
    72   5 B    3.544 --    83 B    0.989    82 B    0.986    66 B    0.960
                            73 B    0.189    71 B    0.133
    73   5 B    3.154 --    67 B    1.610    83 B    1.125    72 B    0.189
    74   5 B    3.591 --    33 B    0.974    32 B    0.948    38 B    0.729
                            39 B    0.676
    75   5 B    3.596 --    33 B    0.992    34 B    0.985    39 B    0.681
                            40 B    0.657
    76   5 B    3.600 --    34 B    1.024    35 B    0.981    40 B    0.665
                            41 B    0.662
    77   5 B    3.596 --    35 B    1.012    36 B    0.993    41 B    0.662
                            42 B    0.659
    78   5 B    3.616 --    37 B    1.109    36 B    0.957    43 B    0.702
                            42 B    0.635
    79   5 B    3.598 --    69 B    0.978    68 B    0.944    62 B    0.732
                            63 B    0.680
    80   5 B    3.600 --    69 B    0.990    70 B    0.987    63 B    0.678
                            64 B    0.661
    81   5 B    3.604 --    70 B    1.019    71 B    0.974    65 B    0.682
                            64 B    0.658
    82   5 B    3.650 --    71 B    1.002    72 B    0.986    66 B    0.734
                            65 B    0.643
    83   5 B    3.642 --    73 B    1.125    72 B    0.989    67 B    0.688
                            66 B    0.669
    84   5 B    3.601 --    50 B    1.003    51 B    0.901    44 B    0.375
                            56 B    0.375    57 B    0.368    45 B    0.366
    85   1 H    0.979 --    32 B    0.866
    86   1 H    0.992 --    44 B    0.693    50 B    0.144    38 B    0.109
    87   1 H    0.992 --    56 B    0.693    50 B    0.145    62 B    0.107
    88   1 H    0.979 --    68 B    0.866
    89   1 H    0.987 --    37 B    0.863
    90   1 H    0.990 --    49 B    0.658    43 B    0.162    55 B    0.133
    91   1 H    0.975 --    61 B    0.697    55 B    0.160
 ---------------------------------------------------------------------------

Topologies differ in total number of bonds
Writing topology from bond orders to xtbtopo.mol

molecular dipole:
                 x           y           z       tot (Debye)
 q only:       -1.010       1.630      -5.177
   full:       -1.170       1.744      -3.851      11.149
molecular quadrupole (traceless):
                xx          xy          yy          xz          yz          zz
 q only:       -3.725       8.328      57.145      -7.268      32.576     -53.421
  q+dip:       67.557      -0.458      74.606       7.949      38.528    -142.164
   full:       59.537      -0.438      40.621       8.130      40.989    -100.158


           -------------------------------------------------
          | TOTAL ENERGY             -128.229115402325 Eh   |
          | GRADIENT NORM               0.460937002979 Eh/α |
          | HOMO-LUMO GAP               0.089792719468 eV   |
           -------------------------------------------------

------------------------------------------------------------------------
 * finished run on 2026/08/31 at 20:23:35.709     
------------------------------------------------------------------------
 total:
 * wall-time:     0 d,  0 h,  0 min,  1.208 sec
 *  cpu-time:     0 d,  0 h,  0 min, 15.328 sec
 * ratio c/w:    12.689 speedup
 SCF:
 * wall-time:     0 d,  0 h,  0 min,  1.162 sec
 *  cpu-time:     0 d,  0 h,  0 min, 14.859 sec
 * ratio c/w:    12.788 speedup

normal termination of xtb
