      -----------------------------------------------------------      
     |                   =====================                   |     
     |                           x T B                           |     
     |                   =====================                   |     
     |                         S. Grimme                         |     
     |          Mulliken Center for Theoretical Chemistry        |     
     |                    University of Bonn                     |     
      -----------------------------------------------------------      

   * xtb version 6.7.1pre (5071a88) compiled by 'Marcel@Raven' on 2024-07-23

   xtb is free software: you can redistribute it and/or modify it under
   the terms of the GNU Lesser General Public License as published by
   the Free Software Foundation, either version 3 of the License, or
   (at your option) any later version.
   
   xtb is distributed in the hope that it will be useful,
   but WITHOUT ANY WARRANTY; without even the implied warranty of
   MERCHANTABILITY or FITNESS FOR A PARTICULAR PURPOSE.  See the
   GNU Lesser General Public License for more details.
   
   Cite this work as:
   * C. Bannwarth, E. Caldeweyher, S. Ehlert, A. Hansen, P. Pracht,
     J. Seibert, S. Spicher, S. Grimme, WIREs Comput. Mol. Sci., 2020, 11,
     e01493. DOI: 10.1002/wcms.1493
   
   for GFN2-xTB:
   * C. Bannwarth, S. Ehlert and S. Grimme., J. Chem. Theory Comput., 2019,
     15, 1652-1671. DOI: 10.1021/acs.jctc.8b01176
   for GFN1-xTB:
   * S. Grimme, C. Bannwarth, P. Shushkov, J. Chem. Theory Comput., 2017,
     13, 1989-2009. DOI: 10.1021/acs.jctc.7b00118
   for GFN0-xTB:
   * P. Pracht, E. Caldeweyher, S. Ehlert, S. Grimme, ChemRxiv, 2019, preprint.
     DOI: 10.26434/chemrxiv.8326202.v1
   for GFN-FF:
   * S. Spicher and S. Grimme, Angew. Chem. Int. Ed., 2020, 59, 15665-15673.
     DOI: 10.1002/anie.202004239
   
   for ALPB and GBSA implicit solvation:
   * S. Ehlert, M. Stahn, S. Spicher, S. Grimme, J. Chem. Theory Comput.,
     2021, 17, 4250-4261. DOI: 10.1021/acs.jctc.1c00471
   
   for ddCOSMO and CPCM-X implicit solvation:
   * M. Stahn, S. Ehlert, S. Grimme, J. Phys. Chem. A,
     2023, XX, XXXX-XXXX. DOI: 10.1021/acs.jpca.3c04382
   
   for DFT-D4:
   * E. Caldeweyher, C. Bannwarth and S. Grimme, J. Chem. Phys., 2017,
     147, 034112. DOI: 10.1063/1.4993215
   * E. Caldeweyher, S. Ehlert, A. Hansen, H. Neugebauer, S. Spicher,
     C. Bannwarth and S. Grimme, J. Chem. Phys., 2019, 150, 154122.
     DOI: 10.1063/1.5090222
   * E. Caldeweyher, J.-M. Mewes, S. Ehlert and S. Grimme, Phys. Chem. Chem. Phys.
     2020, 22, 8499-8512. DOI: 10.1039/D0CP00502A
   
   for sTDA-xTB:
   * S. Grimme and C. Bannwarth, J. Chem. Phys., 2016, 145, 054103.
     DOI: 10.1063/1.4959605
   
   in the mass-spec context:
   * V. Asgeirsson, C. Bauer and S. Grimme, Chem. Sci., 2017, 8, 4879.
     DOI: 10.1039/c7sc00601b
   * J. Koopman and S. Grimme, ACS Omega 2019, 4, 12, 15120-15133.
     DOI: 10.1021/acsomega.9b02011
   
   for metadynamics refer to:
   * S. Grimme, J. Chem. Theory Comput., 2019, 155, 2847-2862
     DOI: 10.1021/acs.jctc.9b00143
   
   for SPH calculations refer to:
   * S. Spicher and S. Grimme, J. Chem. Theory Comput., 2021, 17, 1701-1714
     DOI: 10.1021/acs.jctc.0c01306
   
   for ONIOM refer to:
   * C. Plett, A. Katbashev, S. Ehlert, S. Grimme, M. Bursch,
     Phys. Chem. Chem. Phys., 2023, 25, 17860-17868. DOI: 10.1039/D3CP02178E
   
   for DIPRO refer to:
   * J. Kohn, N. Gildemeister, S. Grimme, D. Fazzi, A. Hansen,
     J. Chem. Phys., 2023, just accepted.
   
   for PTB refer to:
   * S. Grimme, M. Mueller, A. Hansen, J. Chem. Phys., 2023, 158, 124111.
     DOI: 10.1063/5.0137838
   
   with help from (in alphabetical order)
   P. Atkinson, C. Bannwarth, F. Bohle, G. Brandenburg, E. Caldeweyher
   M. Checinski, S. Dohm, S. Ehlert, S. Ehrlich, I. Gerasimov, C. Hölzer
   A. Katbashev, J. Kohn, J. Koopman, C. Lavigne, S. Lehtola, F. März, M. Müller,
   F. Musil, H. Neugebauer, J. Pisarek, C. Plett, P. Pracht, F. Pultar,
   J. Seibert, P. Shushkov, S. Spicher, M. Stahn, M. Steiner, T. Strunk,
   J. Stückrath, T. Rose, and J. Unsleber
   
 * started run on 2026/09/01 at 20:28:43.998     
   ID    Z sym.   atoms
    1    8 O      1, 9, 11, 13, 17, 20
    2    6 C      2-8, 10, 12, 14-16, 18, 19, 21
    3    1 H      22-31, 72-86
    4    5 B      32-71

           -------------------------------------------------
          |                Calculation Setup                |
           -------------------------------------------------

          program call               : "c:\Users\Andre\Proyectos doctorado\nano-qsar-ai-papers\kras-pancreatic-gC3N4-ai\tools\xtb\xtb-6.7.1\bin\xtb.exe" "c:\Users\Andre\Proyectos doctorado\borophene-alzheimer-tau-ai\calculations\tau\Luteolin\Luteolin_B40H15_clean_complex.xyz" --gfn 2 --sp --chrg 0 --uhf 0 --iterations 500 --norestart
          coordinate file            : c:\Users\Andre\Proyectos doctorado\borophene-alzheimer-tau-ai\calculations\tau\Luteolin\Luteolin_B40H15_clean_complex.xyz
          omp threads                :                    16


molecular fragmentation (1/2 indicates fragments):
111111111111111111111111111111122222222222222222222222222222222222222222
22222222222222
# atoms in fragment 1/2:    31    55
 fragment masses (1/2) :      286.24      447.56
CMA distance (Bohr)    :  15.945
constraining FC (au)   :  0.0500

           -------------------------------------------------
          |                 G F N 2 - x T B                 |
           -------------------------------------------------

        Reference                      10.1021/acs.jctc.8b01176
      * Hamiltonian:
        H0-scaling (s, p, d)           1.850000    2.230000    2.230000
        zeta-weighting                 0.500000
      * Dispersion:
        s8                             2.700000
        a1                             0.520000
        a2                             5.000000
        s9                             5.000000
      * Repulsion:
        kExp                           1.500000    1.000000
        rExp                           1.000000
      * Coulomb:
        alpha                          2.000000
        third order                    shell-resolved
        anisotropic                    true
        a3                             3.000000
        a5                             4.000000
        cn-shift                       1.200000
        cn-exp                         4.000000
        max-rad                        5.000000


          ...................................................
          :                      SETUP                      :
          :.................................................:
          :  # basis functions                 269          :
          :  # atomic orbitals                 269          :
          :  # shells                          147          :
          :  # electrons                       241          :
          :  max. iterations                   500          :
          :  Hamiltonian                  GFN2-xTB          :
          :  restarted?                      false          :
          :  GBSA solvation                  false          :
          :  PC potential                    false          :
          :  electronic temp.          300.0000000     K    :
          :  accuracy                    1.0000000          :
          :  -> integral cutoff          0.2500000E+02      :
          :  -> integral neglect         0.1000000E-07      :
          :  -> SCF convergence          0.1000000E-05 Eh   :
          :  -> wf. convergence          0.1000000E-03 e    :
          :  Broyden damping             0.4000000          :
          :  net charge                          0          :
          :  unpaired electrons                  0          :
          ...................................................

 iter      E             dE          RMSdq      gap      omega  full diag
   1   -118.6242124 -0.118624E+03  0.139E+01    0.01       0.0  T
   2   -117.4743244  0.114989E+01  0.916E+00    0.42       1.0  T
   3    -67.3133722  0.501610E+02  0.135E+01    0.11       1.0  T
   4    -67.7789365 -0.465564E+00  0.111E+01    0.20       1.0  T
   5   -101.8343833 -0.340554E+02  0.711E+00    0.07       1.0  T
   6   -116.0297330 -0.141953E+02  0.397E+00    0.06       1.0  T
   7   -116.8631872 -0.833454E+00  0.336E+00    0.04       1.0  T
   8   -119.1389937 -0.227581E+01  0.195E+00    0.21       1.0  T
   9   -119.3084082 -0.169415E+00  0.162E+00    0.53       1.0  T
  10   -119.2736736  0.347347E-01  0.144E+00    0.29       1.0  T
  11   -119.2412246  0.324490E-01  0.126E+00    0.45       1.0  T
  12   -119.3156099 -0.743853E-01  0.743E-01    0.21       1.0  T
  13   -119.3521524 -0.365425E-01  0.470E-01    0.12       1.0  T
  14   -119.3594096 -0.725716E-02  0.401E-01    0.11       1.0  T
  15   -119.3598878 -0.478286E-03  0.369E-01    0.18       1.0  T
  16   -119.3608917 -0.100382E-02  0.356E-01    0.08       1.0  T
  17   -119.3613523 -0.460613E-03  0.269E-01    0.21       1.0  T
  18   -119.3626376 -0.128536E-02  0.209E-01    0.16       1.0  T
  19   -119.3635705 -0.932831E-03  0.161E-01    0.13       1.0  T
  20   -119.3640830 -0.512571E-03  0.147E-01    0.09       1.0  T
  21   -119.3643539 -0.270896E-03  0.127E-01    0.10       1.0  T
  22   -119.3648985 -0.544589E-03  0.916E-02    0.08       1.0  T
  23   -119.3650003 -0.101795E-03  0.645E-02    0.10       1.0  T
  24   -119.3651721 -0.171787E-03  0.474E-02    0.09       1.0  T
  25   -119.3651834 -0.112515E-04  0.269E-02    0.10       1.0  T
  26   -119.3652347 -0.513206E-04  0.141E-02    0.08       1.0  T
  27   -119.3652642 -0.295444E-04  0.569E-03    0.09       1.9  T
  28   -119.3652660 -0.175667E-05  0.467E-03    0.09       2.3  T
  29   -119.3652683 -0.234515E-05  0.318E-03    0.09       3.4  T
  30   -119.3652702 -0.187743E-05  0.165E-03    0.09       6.5  T
  31   -119.3652703 -0.113063E-06  0.124E-03    0.09       8.7  T
  32   -119.3652706 -0.249989E-06  0.667E-04    0.09      16.2  T
  33   -119.3652707 -0.972376E-07  0.361E-04    0.09      29.9  T

   *** convergence criteria satisfied after 33 iterations ***

         #    Occupation            Energy/Eh            Energy/eV
      -------------------------------------------------------------
         1        2.0000           -0.7262501             -19.7623
       ...           ...                  ...                  ...
       115        2.0000           -0.2961858              -8.0596
       116        2.0000           -0.2901184              -7.8945
       117        2.0000           -0.2872537              -7.8166
       118        2.0000           -0.2841598              -7.7324
       119        2.0000           -0.2790084              -7.5922
       120        1.9992           -0.2757964              -7.5048
       121        0.8482           -0.2622432              -7.1360 (HOMO)
       122        0.1526           -0.2589851              -7.0473 (LUMO)
       123        0.0000           -0.2467208              -6.7136
       124                         -0.2345675              -6.3829
       125                         -0.2292623              -6.2385
       126                         -0.2237519              -6.0886
       ...                                ...                  ...
       269                          1.0666073              29.0239
      -------------------------------------------------------------
                  HL-Gap            0.0032581 Eh            0.0887 eV
             Fermi-level           -0.2648165 Eh           -7.2060 eV

 SCC (total)                   0 d,  0 h,  0 min,  0.364 sec
 SCC setup                      ...        0 min,  0.000 sec (  0.000%)
 Dispersion                     ...        0 min,  0.002 sec (  0.549%)
 classical contributions        ...        0 min,  0.000 sec (  0.000%)
 integral evaluation            ...        0 min,  0.005 sec (  1.374%)
 iterations                     ...        0 min,  0.340 sec ( 93.407%)
 molecular gradient             ...        0 min,  0.013 sec (  3.571%)
 printout                       ...        0 min,  0.004 sec (  1.099%)

         :::::::::::::::::::::::::::::::::::::::::::::::::::::
         ::                     SUMMARY                     ::
         :::::::::::::::::::::::::::::::::::::::::::::::::::::
         :: total energy            -117.816521488477 Eh    ::
         :: gradient norm              0.067371294219 Eh/a0 ::
         :: HOMO-LUMO gap              0.088656599735 eV    ::
         ::.................................................::
         :: SCC energy              -119.363518892705 Eh    ::
         :: -> isotropic ES            0.325297009742 Eh    ::
         :: -> anisotropic ES          0.014125907290 Eh    ::
         :: -> anisotropic XC         -0.011408543430 Eh    ::
         :: -> dispersion             -0.105722668135 Eh    ::
         :: repulsion energy           1.546997404227 Eh    ::
         :: add. restraining           0.000000000000 Eh    ::
         :: total charge               0.000000000001 e     ::
         :::::::::::::::::::::::::::::::::::::::::::::::::::::

           -------------------------------------------------
          |                Property Printout                |
           -------------------------------------------------

    * Orbital Energies and Occupations

         #    Occupation            Energy/Eh            Energy/eV
      -------------------------------------------------------------
         1        2.0000           -0.7262501             -19.7623
       ...           ...                  ...                  ...
       109        2.0000           -0.3131285              -8.5207
       110        2.0000           -0.3095023              -8.4220
       111        2.0000           -0.3076454              -8.3715
       112        2.0000           -0.3067002              -8.3457
       113        2.0000           -0.3011169              -8.1938
       114        2.0000           -0.2994560              -8.1486
       115        2.0000           -0.2961858              -8.0596
       116        2.0000           -0.2901184              -7.8945
       117        2.0000           -0.2872537              -7.8166
       118        2.0000           -0.2841598              -7.7324
       119        2.0000           -0.2790084              -7.5922
       120        1.9992           -0.2757964              -7.5048
       121        0.8482           -0.2622432              -7.1360 (HOMO)
       122        0.1526           -0.2589851              -7.0473 (LUMO)
       123        0.0000           -0.2467208              -6.7136
       124                         -0.2345675              -6.3829
       125                         -0.2292623              -6.2385
       126                         -0.2237519              -6.0886
       127                         -0.2224406              -6.0529
       128                         -0.2194510              -5.9716
       129                         -0.2157823              -5.8717
       130                         -0.2044187              -5.5625
       131                         -0.1988648              -5.4114
       132                         -0.1940177              -5.2795
       ...                                ...                  ...
       269                          1.0666073              29.0239
      -------------------------------------------------------------
                  HL-Gap            0.0032581 Eh            0.0887 eV
             Fermi-level           -0.2648165 Eh           -7.2060 eV

     #   Z          covCN         q      C6AA      α(0)
     1   8 O        0.858    -0.409    21.851     6.267
     2   6 C        2.831     0.221    23.357     7.920
     3   6 C        2.897    -0.100    30.513     9.057
     4   6 C        2.853     0.133    25.080     8.208
     5   6 C        2.968    -0.009    28.230     8.715
     6   6 C        2.918    -0.046    29.139     8.852
     7   6 C        2.909    -0.076    29.893     8.965
     8   6 C        2.843     0.107    25.629     8.297
     9   8 O        1.658    -0.407    20.992     6.185
    10   6 C        2.843     0.127    25.217     8.230
    11   8 O        1.658    -0.390    20.656     6.135
    12   6 C        2.915    -0.063    29.573     8.917
    13   8 O        1.707    -0.219    17.640     5.671
    14   6 C        2.874     0.137    25.018     8.199
    15   6 C        2.913    -0.098    30.477     9.053
    16   6 C        2.844     0.145    24.850     8.170
    17   8 O        1.659    -0.387    20.602     6.127
    18   6 C        2.910    -0.124    31.150     9.152
    19   6 C        2.844     0.155    24.642     8.135
    20   8 O        1.659    -0.354    19.976     6.034
    21   6 C        2.965    -0.062    29.544     8.916
    22   1 H        0.925     0.070     2.087     2.259
    23   1 H        0.925     0.050     2.317     2.381
    24   1 H        0.925     0.040     2.448     2.447
    25   1 H        0.804     0.307     0.699     1.313
    26   1 H        0.804     0.324     0.654     1.271
    27   1 H        0.925     0.066     2.132     2.283
    28   1 H        0.925     0.071     2.070     2.250
    29   1 H        0.804     0.305     0.706     1.320
    30   1 H        0.925     0.032     2.551     2.498
    31   1 H        0.804     0.302     0.715     1.328
    32   5 B        3.729     0.065    21.461     7.485
    33   5 B        4.543     0.068    21.518     7.474
    34   5 B        3.764     0.031    22.126     7.590
    35   5 B        3.812     0.041    21.975     7.557
    36   5 B        3.866     0.059    21.673     7.503
    37   5 B        4.607     0.025    22.289     7.607
    38   5 B        2.881     0.052    20.528     7.563
    39   5 B        2.866     0.086    19.966     7.460
    40   5 B        4.657     0.032    22.148     7.583
    41   5 B        2.924     0.070    20.208     7.501
    42   5 B        3.820     0.055    21.723     7.513
    43   5 B        3.871     0.022    22.326     7.615
    44   5 B        4.530    -0.004    22.815     7.696
    45   5 B        3.833     0.047    21.878     7.539
    46   5 B        4.711     0.060    21.662     7.499
    47   5 B        4.714     0.049    21.855     7.532
    48   5 B        3.891     0.047    21.878     7.537
    49   5 B        2.930     0.023    20.999     7.646
    50   5 B        4.652     0.019    22.393     7.625
    51   5 B        2.877     0.056    20.459     7.550
    52   5 B        3.828     0.065    21.560     7.485
    53   5 B        3.859     0.022    22.321     7.614
    54   5 B        3.858    -0.007    22.869     7.707
    55   5 B        3.841     0.050    21.815     7.528
    56   5 B        4.594     0.026    22.271     7.604
    57   5 B        5.681     0.106    20.873     7.361
    58   5 B        4.131     0.015    22.474     7.638
    59   5 B        2.924     0.031    20.858     7.621
    60   5 B        5.586     0.062    21.623     7.492
    61   5 B        3.637     0.066    21.108     7.490
    62   5 B        3.826     0.045    21.905     7.544
    63   5 B        3.877     0.030    22.177     7.589
    64   5 B        3.870     0.019    22.376     7.623
    65   5 B        2.915     0.089    19.907     7.445
    66   5 B        3.773     0.074    21.365     7.457
    67   5 B        5.329     0.099    20.984     7.381
    68   5 B        4.732     0.045    21.917     7.543
    69   5 B        3.808     0.014    22.467     7.642
    70   5 B        3.784     0.077    21.328     7.448
    71   5 B        2.896     0.051    20.527     7.561
    72   1 H        0.938    -0.121     6.344     3.938
    73   1 H        1.528     0.030     2.564     2.500
    74   1 H        0.935    -0.148     7.575     4.303
    75   1 H        0.931    -0.140     7.176     4.189
    76   1 H        0.935    -0.125     6.507     3.988
    77   1 H        0.934    -0.124     6.482     3.981
    78   1 H        0.938    -0.108     5.840     3.778
    79   1 H        0.936    -0.138     7.086     4.162
    80   1 H        0.938    -0.093     5.320     3.606
    81   1 H        0.933    -0.153     7.852     4.381
    82   1 H        0.938    -0.099     5.535     3.678
    83   1 H        0.940    -0.138     7.089     4.162
    84   1 H        0.939    -0.114     6.070     3.852
    85   1 H        0.938    -0.116     6.141     3.874
    86   1 H        0.940    -0.143     7.348     4.238

 Mol. C6AA /au·bohr⁶  :     116137.744155
 Mol. C8AA /au·bohr⁸  :    3565050.952918
 Mol. α(0) /au        :        545.036323


Wiberg/Mayer (AO) data.
largest (>0.10) Wiberg bond orders for each atom

 ---------------------------------------------------------------------------
     #   Z sym  total        # sym  WBO       # sym  WBO       # sym  WBO
 ---------------------------------------------------------------------------
     1   8 O    1.974 --     2 C    1.698
     2   6 C    3.920 --     1 O    1.698     3 C    1.091    21 C    1.051
     3   6 C    3.959 --     4 C    1.650     2 C    1.091    22 H    0.962
     4   6 C    3.877 --     3 C    1.650     5 C    1.047    13 O    1.041
     5   6 C    3.973 --     6 C    1.380    12 C    1.371     4 C    1.047
     6   6 C    3.973 --     7 C    1.437     5 C    1.380    23 H    0.970
     7   6 C    3.983 --     6 C    1.437     8 C    1.391    24 H    0.966
     8   6 C    3.916 --     7 C    1.391    10 C    1.300     9 O    1.049
     9   8 O    2.092 --     8 C    1.049    25 H    0.883
    10   6 C    3.946 --    12 C    1.400     8 C    1.300    11 O    1.078
    11   8 O    2.119 --    10 C    1.078    26 H    0.872
    12   6 C    3.969 --    10 C    1.400     5 C    1.371    27 H    0.964
    13   8 O    2.355 --    14 C    1.064     4 C    1.041
    14   6 C    3.932 --    15 C    1.367    21 C    1.323    13 O    1.064
    15   6 C    3.962 --    16 C    1.372    14 C    1.367    28 H    0.964
    16   6 C    3.931 --    15 C    1.372    18 C    1.364    17 O    1.077
    17   8 O    2.117 --    16 C    1.077    29 H    0.886
    18   6 C    3.965 --    19 C    1.378    16 C    1.364    30 H    0.961
    19   6 C    3.922 --    18 C    1.378    21 C    1.295    20 O    1.105
    20   8 O    2.163 --    19 C    1.105    31 H    0.887
    21   6 C    3.977 --    14 C    1.323    19 C    1.295     2 C    1.051
    22   1 H    0.995 --     3 C    0.962
    23   1 H    0.997 --     6 C    0.970
    24   1 H    0.998 --     7 C    0.966
    25   1 H    0.905 --     9 O    0.883
    26   1 H    0.895 --    11 O    0.872
    27   1 H    0.996 --    12 C    0.964
    28   1 H    0.994 --    15 C    0.964
    29   1 H    0.906 --    17 O    0.886
    30   1 H    0.998 --    18 C    0.961
    31   1 H    0.908 --    20 O    0.887
    32   5 B    3.572 --    72 H    0.951    35 B    0.919    33 B    0.875
                            73 H    0.538
    33   5 B    3.538 --    32 B    0.875    34 B    0.754    35 B    0.607
                            37 B    0.546    73 H    0.426    36 B    0.133
    34   5 B    3.576 --    36 B    1.120    74 H    0.948    33 B    0.754
                            37 B    0.454
    35   5 B    3.560 --    32 B    0.919    42 B    0.843    43 B    0.813
                            33 B    0.607    45 B    0.109
    36   5 B    3.392 --    34 B    1.120    44 B    0.803    40 B    0.634
                            37 B    0.432    33 B    0.133
    37   5 B    3.599 --    38 B    1.082    40 B    0.763    33 B    0.546
                            34 B    0.454    36 B    0.432
    38   5 B    3.432 --    37 B    1.082    39 B    0.995    75 H    0.912
                            40 B    0.157
    39   5 B    3.250 --    41 B    1.018    38 B    0.995    76 H    0.939
                            49 B    0.107
    40   5 B    3.679 --    48 B    0.779    37 B    0.763    47 B    0.700
                            36 B    0.634    44 B    0.374    38 B    0.157
    41   5 B    3.410 --    39 B    1.018    49 B    0.986    77 H    0.924
                            48 B    0.191
    42   5 B    3.628 --    78 H    0.928    43 B    0.844    35 B    0.843
                            45 B    0.792
    43   5 B    3.612 --    45 B    0.859    42 B    0.844    35 B    0.813
                            44 B    0.811
    44   5 B    3.642 --    46 B    0.835    43 B    0.811    36 B    0.803
                            47 B    0.436    40 B    0.374
    45   5 B    3.584 --    43 B    0.859    42 B    0.792    52 B    0.778
                            53 B    0.719    35 B    0.109
    46   5 B    3.587 --    44 B    0.835    54 B    0.681    47 B    0.635
                            57 B    0.569    50 B    0.459
    47   5 B    3.601 --    50 B    0.950    40 B    0.700    46 B    0.635
                            48 B    0.595    44 B    0.436
    48   5 B    3.550 --    49 B    0.969    40 B    0.779    50 B    0.666
                            47 B    0.595    41 B    0.191
    49   5 B    3.448 --    41 B    0.986    48 B    0.969    51 B    0.962
                            59 B    0.181    39 B    0.107
    50   5 B    3.641 --    47 B    0.950    58 B    0.775    48 B    0.666
                            46 B    0.459    57 B    0.437
    51   5 B    3.417 --    59 B    1.140    49 B    0.962    79 H    0.952
                            61 B    0.113
    52   5 B    3.569 --    80 H    0.921    55 B    0.843    53 B    0.796
                            45 B    0.778
    53   5 B    3.593 --    54 B    1.011    52 B    0.796    45 B    0.719
                            55 B    0.702
    54   5 B    3.633 --    53 B    1.011    56 B    0.893    46 B    0.681
                            57 B    0.607
    55   5 B    3.588 --    52 B    0.843    63 B    0.842    62 B    0.756
                            53 B    0.702    65 B    0.144
    56   5 B    3.668 --    54 B    0.893    64 B    0.701    57 B    0.682
                            67 B    0.615    60 B    0.392
    57   5 B    3.669 --    56 B    0.682    54 B    0.607    60 B    0.586
                            46 B    0.569    58 B    0.523    50 B    0.437
    58   5 B    3.524 --    59 B    0.967    50 B    0.775    60 B    0.773
                            57 B    0.523    61 B    0.196
    59   5 B    3.404 --    51 B    1.140    58 B    0.967    61 B    0.780
                            49 B    0.181
    60   5 B    3.633 --    58 B    0.773    68 B    0.617    57 B    0.586
                            69 B    0.486    56 B    0.392    67 B    0.291
                            61 B    0.267
    61   5 B    3.505 --    69 B    0.972    81 H    0.939    59 B    0.780
                            60 B    0.267    58 B    0.196    51 B    0.113
    62   5 B    3.605 --    65 B    1.023    82 H    0.919    55 B    0.756
                            63 B    0.753
    63   5 B    3.601 --    65 B    0.929    64 B    0.892    55 B    0.842
                            62 B    0.753
    64   5 B    3.616 --    63 B    0.892    66 B    0.862    56 B    0.701
                            67 B    0.632    65 B    0.230
    65   5 B    3.461 --    62 B    1.023    83 H    0.971    63 B    0.929
                            64 B    0.230    55 B    0.144
    66   5 B    3.513 --    84 H    0.953    64 B    0.862    67 B    0.766
                            70 B    0.688
    67   5 B    3.653 --    66 B    0.766    70 B    0.764    64 B    0.632
                            56 B    0.615    68 B    0.440    60 B    0.291
    68   5 B    3.634 --    71 B    0.952    70 B    0.763    69 B    0.706
                            60 B    0.617    67 B    0.440
    69   5 B    3.570 --    71 B    1.167    61 B    0.972    68 B    0.706
                            60 B    0.486
    70   5 B    3.557 --    85 H    0.953    67 B    0.764    68 B    0.763
                            66 B    0.688    71 B    0.187
    71   5 B    3.512 --    69 B    1.167    86 H    0.968    68 B    0.952
                            70 B    0.187
    72   1 H    0.980 --    32 B    0.951
    73   1 H    0.995 --    32 B    0.538    33 B    0.426
    74   1 H    0.976 --    34 B    0.948
    75   1 H    0.977 --    38 B    0.912
    76   1 H    0.982 --    39 B    0.939
    77   1 H    0.981 --    41 B    0.924
    78   1 H    0.977 --    42 B    0.928
    79   1 H    0.978 --    51 B    0.952
    80   1 H    0.980 --    52 B    0.921
    81   1 H    0.975 --    61 B    0.939
    82   1 H    0.980 --    62 B    0.919
    83   1 H    0.980 --    65 B    0.971
    84   1 H    0.984 --    66 B    0.953
    85   1 H    0.982 --    70 B    0.953
    86   1 H    0.978 --    71 B    0.968
 ---------------------------------------------------------------------------

Topologies differ in total number of bonds
Writing topology from bond orders to xtbtopo.mol

molecular dipole:
                 x           y           z       tot (Debye)
 q only:        0.697       0.297      -3.968
   full:        0.502       0.051      -3.268       8.405
molecular quadrupole (traceless):
                xx          xy          yy          xz          yz          zz
 q only:       47.881       1.859      22.911      -3.504      50.000     -70.792
  q+dip:       85.897       3.765      14.204       3.684      58.061    -100.100
   full:       75.098      -0.127      11.339       2.025      61.965     -86.437


           -------------------------------------------------
          | TOTAL ENERGY             -117.816521488477 Eh   |
          | GRADIENT NORM               0.067371294219 Eh/α |
          | HOMO-LUMO GAP               0.088656599735 eV   |
           -------------------------------------------------

------------------------------------------------------------------------
 * finished run on 2026/09/01 at 20:28:44.403     
------------------------------------------------------------------------
 total:
 * wall-time:     0 d,  0 h,  0 min,  0.404 sec
 *  cpu-time:     0 d,  0 h,  0 min,  5.094 sec
 * ratio c/w:    12.608 speedup
 SCF:
 * wall-time:     0 d,  0 h,  0 min,  0.365 sec
 *  cpu-time:     0 d,  0 h,  0 min,  4.656 sec
 * ratio c/w:    12.757 speedup

