91
Drug@B48H12 complex
O      1.884520     -1.742309      6.159459
C      1.501614     -1.092863      5.195854
C      0.052890     -0.961743      4.956293
C     -0.387463     -0.247851      3.912538
C     -1.828060     -0.077079      3.637533
C     -2.320574      1.178590      3.232571
C     -3.679320      1.369429      2.954715
C     -4.549910      0.295867      3.076580
O     -5.887220      0.414798      2.819946
C     -4.073357     -0.951898      3.466924
O     -4.935716     -2.005440      3.578148
C     -2.726451     -1.149456      3.744638
O      0.441163      0.409862      3.021844
C      1.799812      0.307026      3.191075
C      2.583986      0.974829      2.248707
C      3.968233      0.922602      2.347153
O      4.693362      1.589807      1.405173
C      4.585093      0.213241      3.372904
C      3.795284     -0.454173      4.315378
O      4.413899     -1.146746      5.316816
C      2.395647     -0.411580      4.231151
H     -0.596216     -1.457476      5.667110
H     -1.642469      2.025147      3.136853
H     -4.026966      2.350799      2.649079
H     -6.065369      1.335126      2.560152
H     -5.808415     -1.635397      3.337068
H     -2.391334     -2.142805      4.030092
H      2.116835      1.531490      1.440918
H      5.641196      1.466879      1.579427
H      5.667134      0.179087      3.440452
H      5.378171     -1.087764      5.236313
B     -7.500000     -4.500000      0.000000
B     -4.500000     -4.500000      0.000000
B     -1.500000     -4.500000      0.000000
B      1.500000     -4.500000      0.000000
B      4.500000     -4.500000      0.000000
B      7.500000     -4.500000      0.000000
B     -7.500000     -3.000000      0.000000
B     -4.500000     -3.000000      0.000000
B     -1.500000     -3.000000      0.000000
B      1.500000     -3.000000      0.000000
B      4.500000     -3.000000      0.000000
B      7.500000     -3.000000      0.000000
B     -7.500000     -1.500000      0.000000
B     -4.500000     -1.500000      0.000000
B     -1.500000     -1.500000      0.000000
B      1.500000     -1.500000      0.000000
B      4.500000     -1.500000      0.000000
B      7.500000     -1.500000      0.000000
B     -7.500000      0.000000      0.000000
B     -4.500000      0.000000      0.000000
B     -1.500000      0.000000      0.000000
B      1.500000      0.000000      0.000000
B      4.500000      0.000000      0.000000
B      7.500000      0.000000      0.000000
B     -7.500000      1.500000      0.000000
B     -4.500000      1.500000      0.000000
B     -1.500000      1.500000      0.000000
B      1.500000      1.500000      0.000000
B      4.500000      1.500000      0.000000
B      7.500000      1.500000      0.000000
B     -7.500000      3.000000      0.000000
B     -4.500000      3.000000      0.000000
B     -1.500000      3.000000      0.000000
B      1.500000      3.000000      0.000000
B      4.500000      3.000000      0.000000
B      7.500000      3.000000      0.000000
B     -7.500000      4.500000      0.000000
B     -4.500000      4.500000      0.000000
B     -1.500000      4.500000      0.000000
B      1.500000      4.500000      0.000000
B      4.500000      4.500000      0.000000
B      7.500000      4.500000      0.000000
B     -6.000000     -3.750000      0.000000
B     -3.000000     -3.750000      0.000000
B      0.000000     -3.750000      0.000000
B      3.000000     -3.750000      0.000000
B      6.000000     -3.750000      0.000000
B     -6.000000      3.750000      0.000000
B     -3.000000      3.750000      0.000000
B      0.000000      3.750000      0.000000
B      3.000000      3.750000      0.000000
B      6.000000      3.750000      0.000000
B     -6.000000      0.000000      0.000000
H     -8.600000     -4.500000      0.000000
H     -8.600000     -1.500000      0.000000
H     -8.600000      1.500000      0.000000
H     -8.600000      4.500000      0.000000
H      8.600000     -4.500000      0.000000
H      8.600000     -1.500000      0.000000
H      8.600000      1.500000      0.000000
