31
Luteolin - ETKDG+MMFF conformer
O      1.884520     -1.742309      2.659459
C      1.501614     -1.092863      1.695854
C      0.052890     -0.961743      1.456293
C     -0.387463     -0.247851      0.412538
C     -1.828060     -0.077079      0.137533
C     -2.320574      1.178590     -0.267429
C     -3.679320      1.369429     -0.545285
C     -4.549910      0.295867     -0.423420
O     -5.887220      0.414798     -0.680054
C     -4.073357     -0.951898     -0.033076
O     -4.935716     -2.005440      0.078148
C     -2.726451     -1.149456      0.244638
O      0.441163      0.409862     -0.478156
C      1.799812      0.307026     -0.308925
C      2.583986      0.974829     -1.251293
C      3.968233      0.922602     -1.152847
O      4.693362      1.589807     -2.094827
C      4.585093      0.213241     -0.127096
C      3.795284     -0.454173      0.815378
O      4.413899     -1.146746      1.816816
C      2.395647     -0.411580      0.731151
H     -0.596216     -1.457476      2.167110
H     -1.642469      2.025147     -0.363147
H     -4.026966      2.350799     -0.850921
H     -6.065369      1.335126     -0.939848
H     -5.808415     -1.635397     -0.162932
H     -2.391334     -2.142805      0.530092
H      2.116835      1.531490     -2.059082
H      5.641196      1.466879     -1.920573
H      5.667134      0.179087     -0.059548
H      5.378171     -1.087764      1.736313
