      -----------------------------------------------------------      
     |                   =====================                   |     
     |                           x T B                           |     
     |                   =====================                   |     
     |                         S. Grimme                         |     
     |          Mulliken Center for Theoretical Chemistry        |     
     |                    University of Bonn                     |     
      -----------------------------------------------------------      

   * xtb version 6.7.1pre (5071a88) compiled by 'Marcel@Raven' on 2024-07-23

   xtb is free software: you can redistribute it and/or modify it under
   the terms of the GNU Lesser General Public License as published by
   the Free Software Foundation, either version 3 of the License, or
   (at your option) any later version.
   
   xtb is distributed in the hope that it will be useful,
   but WITHOUT ANY WARRANTY; without even the implied warranty of
   MERCHANTABILITY or FITNESS FOR A PARTICULAR PURPOSE.  See the
   GNU Lesser General Public License for more details.
   
   Cite this work as:
   * C. Bannwarth, E. Caldeweyher, S. Ehlert, A. Hansen, P. Pracht,
     J. Seibert, S. Spicher, S. Grimme, WIREs Comput. Mol. Sci., 2020, 11,
     e01493. DOI: 10.1002/wcms.1493
   
   for GFN2-xTB:
   * C. Bannwarth, S. Ehlert and S. Grimme., J. Chem. Theory Comput., 2019,
     15, 1652-1671. DOI: 10.1021/acs.jctc.8b01176
   for GFN1-xTB:
   * S. Grimme, C. Bannwarth, P. Shushkov, J. Chem. Theory Comput., 2017,
     13, 1989-2009. DOI: 10.1021/acs.jctc.7b00118
   for GFN0-xTB:
   * P. Pracht, E. Caldeweyher, S. Ehlert, S. Grimme, ChemRxiv, 2019, preprint.
     DOI: 10.26434/chemrxiv.8326202.v1
   for GFN-FF:
   * S. Spicher and S. Grimme, Angew. Chem. Int. Ed., 2020, 59, 15665-15673.
     DOI: 10.1002/anie.202004239
   
   for ALPB and GBSA implicit solvation:
   * S. Ehlert, M. Stahn, S. Spicher, S. Grimme, J. Chem. Theory Comput.,
     2021, 17, 4250-4261. DOI: 10.1021/acs.jctc.1c00471
   
   for ddCOSMO and CPCM-X implicit solvation:
   * M. Stahn, S. Ehlert, S. Grimme, J. Phys. Chem. A,
     2023, XX, XXXX-XXXX. DOI: 10.1021/acs.jpca.3c04382
   
   for DFT-D4:
   * E. Caldeweyher, C. Bannwarth and S. Grimme, J. Chem. Phys., 2017,
     147, 034112. DOI: 10.1063/1.4993215
   * E. Caldeweyher, S. Ehlert, A. Hansen, H. Neugebauer, S. Spicher,
     C. Bannwarth and S. Grimme, J. Chem. Phys., 2019, 150, 154122.
     DOI: 10.1063/1.5090222
   * E. Caldeweyher, J.-M. Mewes, S. Ehlert and S. Grimme, Phys. Chem. Chem. Phys.
     2020, 22, 8499-8512. DOI: 10.1039/D0CP00502A
   
   for sTDA-xTB:
   * S. Grimme and C. Bannwarth, J. Chem. Phys., 2016, 145, 054103.
     DOI: 10.1063/1.4959605
   
   in the mass-spec context:
   * V. Asgeirsson, C. Bauer and S. Grimme, Chem. Sci., 2017, 8, 4879.
     DOI: 10.1039/c7sc00601b
   * J. Koopman and S. Grimme, ACS Omega 2019, 4, 12, 15120-15133.
     DOI: 10.1021/acsomega.9b02011
   
   for metadynamics refer to:
   * S. Grimme, J. Chem. Theory Comput., 2019, 155, 2847-2862
     DOI: 10.1021/acs.jctc.9b00143
   
   for SPH calculations refer to:
   * S. Spicher and S. Grimme, J. Chem. Theory Comput., 2021, 17, 1701-1714
     DOI: 10.1021/acs.jctc.0c01306
   
   for ONIOM refer to:
   * C. Plett, A. Katbashev, S. Ehlert, S. Grimme, M. Bursch,
     Phys. Chem. Chem. Phys., 2023, 25, 17860-17868. DOI: 10.1039/D3CP02178E
   
   for DIPRO refer to:
   * J. Kohn, N. Gildemeister, S. Grimme, D. Fazzi, A. Hansen,
     J. Chem. Phys., 2023, just accepted.
   
   for PTB refer to:
   * S. Grimme, M. Mueller, A. Hansen, J. Chem. Phys., 2023, 158, 124111.
     DOI: 10.1063/5.0137838
   
   with help from (in alphabetical order)
   P. Atkinson, C. Bannwarth, F. Bohle, G. Brandenburg, E. Caldeweyher
   M. Checinski, S. Dohm, S. Ehlert, S. Ehrlich, I. Gerasimov, C. Hölzer
   A. Katbashev, J. Kohn, J. Koopman, C. Lavigne, S. Lehtola, F. März, M. Müller,
   F. Musil, H. Neugebauer, J. Pisarek, C. Plett, P. Pracht, F. Pultar,
   J. Seibert, P. Shushkov, S. Spicher, M. Stahn, M. Steiner, T. Strunk,
   J. Stückrath, T. Rose, and J. Unsleber
   
 * started run on 2026/08/31 at 21:15:34.165     
   ID    Z sym.   atoms
    1    8 O      1, 9, 11, 13, 17, 20
    2    6 C      2-8, 10, 12, 14-16, 18, 19, 21
    3    1 H      22-31, 85-91
    4    5 B      32-84

           -------------------------------------------------
          |                Calculation Setup                |
           -------------------------------------------------

          program call               : "c:\Users\Andre\Proyectos doctorado\kras-pancreatic-gC3N4-ai\tools\xtb\xtb-6.7.1\bin\xtb.exe" "c:\Users\Andre\Proyectos doctorado\borophene-alzheimer-tau-ai\calculations\tau\Luteolin\Luteolin_B48H12_phys_complex.xyz" --gfn 2 --sp --chrg 0 --uhf 0 --etemp 300 --iterations 500 --norestart
          coordinate file            : c:\Users\Andre\Proyectos doctorado\borophene-alzheimer-tau-ai\calculations\tau\Luteolin\Luteolin_B48H12_phys_complex.xyz
          omp threads                :                    16


molecular fragmentation (1/2 indicates fragments):
111111111111111111111111111111122222222222222222222222222222222222222222
2222222222222222222
# atoms in fragment 1/2:    31    60
 fragment masses (1/2) :      286.24      580.04
CMA distance (Bohr)    :   9.844
constraining FC (au)   :  0.0500

           -------------------------------------------------
          |                 G F N 2 - x T B                 |
           -------------------------------------------------

        Reference                      10.1021/acs.jctc.8b01176
      * Hamiltonian:
        H0-scaling (s, p, d)           1.850000    2.230000    2.230000
        zeta-weighting                 0.500000
      * Dispersion:
        s8                             2.700000
        a1                             0.520000
        a2                             5.000000
        s9                             5.000000
      * Repulsion:
        kExp                           1.500000    1.000000
        rExp                           1.000000
      * Coulomb:
        alpha                          2.000000
        third order                    shell-resolved
        anisotropic                    true
        a3                             3.000000
        a5                             4.000000
        cn-shift                       1.200000
        cn-exp                         4.000000
        max-rad                        5.000000


          ...................................................
          :                      SETUP                      :
          :.................................................:
          :  # basis functions                 313          :
          :  # atomic orbitals                 313          :
          :  # shells                          165          :
          :  # electrons                       272          :
          :  max. iterations                   500          :
          :  Hamiltonian                  GFN2-xTB          :
          :  restarted?                      false          :
          :  GBSA solvation                  false          :
          :  PC potential                    false          :
          :  electronic temp.          300.0000000     K    :
          :  accuracy                    1.0000000          :
          :  -> integral cutoff          0.2500000E+02      :
          :  -> integral neglect         0.1000000E-07      :
          :  -> SCF convergence          0.1000000E-05 Eh   :
          :  -> wf. convergence          0.1000000E-03 e    :
          :  Broyden damping             0.4000000          :
          :  net charge                          0          :
          :  unpaired electrons                  0          :
          ...................................................

 iter      E             dE          RMSdq      gap      omega  full diag
   1   -130.1645247 -0.130165E+03  0.158E+01    0.35       0.0  T
   2   -121.0979375  0.906659E+01  0.109E+01    0.00       1.0  T
   3     83.4444796  0.204542E+03  0.198E+01    0.08       1.0  T
   4     67.8279236 -0.156166E+02  0.180E+01    0.17       1.0  T
   5    -92.7031670 -0.160531E+03  0.970E+00    0.05       1.0  T
   6    -57.0830627  0.356201E+02  0.131E+01    0.10       1.0  T
   7   -125.4545451 -0.683715E+02  0.577E+00    0.06       1.0  T
   8   -115.7512252  0.970332E+01  0.591E+00    0.10       1.0  T
   9   -130.2888818 -0.145377E+02  0.340E+00    0.39       1.0  T
  10   -130.7441774 -0.455296E+00  0.287E+00    0.49       1.0  T
  11   -130.9777310 -0.233554E+00  0.256E+00    0.42       1.0  T
  12   -130.9943056 -0.165746E-01  0.235E+00    0.47       1.0  T
  13   -130.9784512  0.158544E-01  0.200E+00    0.43       1.0  T
  14   -130.9720015  0.644976E-02  0.134E+00    0.28       1.0  T
  15   -130.5234057  0.448596E+00  0.168E+00    0.20       1.0  T
  16   -131.0193158 -0.495910E+00  0.104E+00    0.08       1.0  T
  17   -130.5579847  0.461331E+00  0.152E+00    0.21       1.0  T
  18   -130.9000765 -0.342092E+00  0.107E+00    0.07       1.0  T
  19   -130.9966260 -0.965495E-01  0.856E-01    0.04       1.0  T
  20   -131.1085856 -0.111960E+00  0.601E-01    0.05       1.0  T
  21   -131.0548894  0.536962E-01  0.701E-01    0.04       1.0  T
  22   -131.1367687 -0.818793E-01  0.452E-01    0.07       1.0  T
  23   -131.1441428 -0.737415E-02  0.333E-01    0.07       1.0  T
  24   -131.1431746  0.968247E-03  0.314E-01    0.19       1.0  T
  25   -131.1427236  0.450973E-03  0.304E-01    0.19       1.0  T
  26   -131.1434865 -0.762888E-03  0.290E-01    0.19       1.0  T
  27   -131.1467983 -0.331178E-02  0.225E-01    0.16       1.0  T
  28   -131.1489858 -0.218757E-02  0.167E-01    0.14       1.0  T
  29   -131.1509465 -0.196067E-02  0.126E-01    0.12       1.0  T
  30   -131.1515414 -0.594890E-03  0.105E-01    0.12       1.0  T
  31   -131.1526666 -0.112525E-02  0.685E-02    0.10       1.0  T
  32   -131.1529275 -0.260856E-03  0.558E-02    0.10       1.0  T
  33   -131.1531922 -0.264728E-03  0.379E-02    0.10       1.0  T
  34   -131.1532507 -0.584997E-04  0.321E-02    0.10       1.0  T
  35   -131.1532548 -0.408797E-05  0.298E-02    0.10       1.0  T
  36   -131.1532536  0.120341E-05  0.276E-02    0.10       1.0  T
  37   -131.1533077 -0.540898E-04  0.217E-02    0.10       1.0  T
  38   -131.1533533 -0.456401E-04  0.164E-02    0.10       1.0  T
  39   -131.1533858 -0.324765E-04  0.117E-02    0.10       1.0  T
  40   -131.1533985 -0.127085E-04  0.929E-03    0.10       1.1  T
  41   -131.1534086 -0.101037E-04  0.663E-03    0.09       1.6  T
  42   -131.1534139 -0.527494E-05  0.483E-03    0.09       2.2  T
  43   -131.1534144 -0.537811E-06  0.429E-03    0.09       2.4  T
  44   -131.1534164 -0.196038E-05  0.291E-03    0.09       3.6  T
  45   -131.1534172 -0.822022E-06  0.188E-03    0.09       5.6  T
  46   -131.1534175 -0.323301E-06  0.131E-03    0.09       8.0  T
  47   -131.1534178 -0.243744E-06  0.573E-04    0.09      18.3  T
  48   -131.1534178 -0.383647E-07  0.288E-04    0.09      36.4  T

   *** convergence criteria satisfied after 48 iterations ***

         #    Occupation            Energy/Eh            Energy/eV
      -------------------------------------------------------------
         1        2.0000           -0.7092222             -19.2989
       ...           ...                  ...                  ...
       130        2.0000           -0.2686579              -7.3106
       131        2.0000           -0.2632979              -7.1647
       132        2.0000           -0.2630538              -7.1581
       133        2.0000           -0.2586301              -7.0377
       134        1.9999           -0.2541671              -6.9162
       135        1.9990           -0.2519550              -6.8560
       136        1.7158           -0.2464376              -6.7059 (HOMO)
       137        0.2853           -0.2430256              -6.6131 (LUMO)
       138        0.0000           -0.2294578              -6.2439
       139                         -0.2260731              -6.1518
       140                         -0.2220888              -6.0433
       141                         -0.2216753              -6.0321
       ...                                ...                  ...
       313                          1.1924412              32.4480
      -------------------------------------------------------------
                  HL-Gap            0.0034120 Eh            0.0928 eV
             Fermi-level           -0.2447295 Eh           -6.6594 eV

 SCC (total)                   0 d,  0 h,  0 min,  0.882 sec
 SCC setup                      ...        0 min,  0.001 sec (  0.113%)
 Dispersion                     ...        0 min,  0.002 sec (  0.227%)
 classical contributions        ...        0 min,  0.000 sec (  0.000%)
 integral evaluation            ...        0 min,  0.007 sec (  0.794%)
 iterations                     ...        0 min,  0.850 sec ( 96.372%)
 molecular gradient             ...        0 min,  0.020 sec (  2.268%)
 printout                       ...        0 min,  0.002 sec (  0.227%)

         :::::::::::::::::::::::::::::::::::::::::::::::::::::
         ::                     SUMMARY                     ::
         :::::::::::::::::::::::::::::::::::::::::::::::::::::
         :: total energy            -129.308076860527 Eh    ::
         :: gradient norm              0.072533236398 Eh/a0 ::
         :: HOMO-LUMO gap              0.092845273965 eV    ::
         ::.................................................::
         :: SCC energy              -131.148173641885 Eh    ::
         :: -> isotropic ES            0.354411309854 Eh    ::
         :: -> anisotropic ES          0.008621324707 Eh    ::
         :: -> anisotropic XC         -0.048898574025 Eh    ::
         :: -> dispersion             -0.127726902394 Eh    ::
         :: repulsion energy           1.840096781358 Eh    ::
         :: add. restraining           0.000000000000 Eh    ::
         :: total charge               0.000000000000 e     ::
         :::::::::::::::::::::::::::::::::::::::::::::::::::::

           -------------------------------------------------
          |                Property Printout                |
           -------------------------------------------------

    * Orbital Energies and Occupations

         #    Occupation            Energy/Eh            Energy/eV
      -------------------------------------------------------------
         1        2.0000           -0.7092222             -19.2989
       ...           ...                  ...                  ...
       124        2.0000           -0.2838852              -7.7249
       125        2.0000           -0.2823070              -7.6820
       126        2.0000           -0.2777419              -7.5577
       127        2.0000           -0.2750583              -7.4847
       128        2.0000           -0.2738196              -7.4510
       129        2.0000           -0.2705059              -7.3608
       130        2.0000           -0.2686579              -7.3106
       131        2.0000           -0.2632979              -7.1647
       132        2.0000           -0.2630538              -7.1581
       133        2.0000           -0.2586301              -7.0377
       134        1.9999           -0.2541671              -6.9162
       135        1.9990           -0.2519550              -6.8560
       136        1.7158           -0.2464376              -6.7059 (HOMO)
       137        0.2853           -0.2430256              -6.6131 (LUMO)
       138        0.0000           -0.2294578              -6.2439
       139                         -0.2260731              -6.1518
       140                         -0.2220888              -6.0433
       141                         -0.2216753              -6.0321
       142                         -0.2131071              -5.7989
       143                         -0.2116681              -5.7598
       144                         -0.2101130              -5.7175
       145                         -0.2081202              -5.6632
       146                         -0.2058760              -5.6022
       147                         -0.2008368              -5.4650
       ...                                ...                  ...
       313                          1.1924412              32.4480
      -------------------------------------------------------------
                  HL-Gap            0.0034120 Eh            0.0928 eV
             Fermi-level           -0.2447295 Eh           -6.6594 eV

     #   Z          covCN         q      C6AA      α(0)
     1   8 O        0.858    -0.433    22.341     6.337
     2   6 C        2.831     0.208    23.588     7.959
     3   6 C        2.897    -0.110    30.780     9.096
     4   6 C        2.853     0.116    25.445     8.268
     5   6 C        2.968    -0.014    28.349     8.734
     6   6 C        2.918    -0.059    29.478     8.903
     7   6 C        2.909    -0.090    30.246     9.018
     8   6 C        2.843     0.098    25.830     8.329
     9   8 O        1.658    -0.418    21.201     6.216
    10   6 C        2.843     0.120    25.349     8.251
    11   8 O        1.658    -0.397    20.782     6.154
    12   6 C        2.915    -0.074    29.838     8.957
    13   8 O        1.707    -0.223    17.699     5.680
    14   6 C        2.874     0.126    25.242     8.236
    15   6 C        2.913    -0.131    31.344     9.181
    16   6 C        2.844     0.129    25.168     8.222
    17   8 O        1.659    -0.395    20.745     6.149
    18   6 C        2.910    -0.134    31.414     9.191
    19   6 C        2.844     0.146    24.825     8.166
    20   8 O        1.659    -0.362    20.119     6.055
    21   6 C        2.965    -0.068    29.688     8.937
    22   1 H        0.925     0.065     2.144     2.290
    23   1 H        0.925     0.058     2.226     2.333
    24   1 H        0.925     0.045     2.388     2.417
    25   1 H        0.804     0.307     0.699     1.314
    26   1 H        0.804     0.323     0.655     1.272
    27   1 H        0.925     0.069     2.098     2.265
    28   1 H        0.925     0.092     1.857     2.131
    29   1 H        0.804     0.301     0.718     1.331
    30   1 H        0.925     0.024     2.671     2.556
    31   1 H        0.804     0.297     0.729     1.341
    32   5 B        2.872     0.040    20.723     7.599
    33   5 B        3.645     0.028    21.819     7.605
    34   5 B        3.704     0.012    22.353     7.650
    35   5 B        3.599     0.003    21.965     7.688
    36   5 B        3.804     0.012    22.486     7.646
    37   5 B        3.812     0.036    22.064     7.573
    38   5 B        4.425     0.059    21.683     7.503
    39   5 B        3.843     0.024    22.284     7.608
    40   5 B        5.059     0.050    21.842     7.530
    41   5 B        5.523     0.103    20.922     7.370
    42   5 B        3.792     0.002    22.673     7.679
    43   5 B        4.799     0.085    21.217     7.422
    44   5 B        4.746     0.060    21.651     7.497
    45   5 B        3.691     0.011    22.331     7.654
    46   5 B        3.741     0.023    22.239     7.615
    47   5 B        4.170    -0.015    23.034     7.733
    48   5 B        3.938     0.009    22.568     7.655
    49   5 B        3.779     0.072    21.411     7.464
    50   5 B        3.808     0.064    21.568     7.487
    51   5 B        3.812    -0.011    22.937     7.721
    52   5 B        3.702     0.007    22.434     7.665
    53   5 B        3.825     0.013    22.482     7.643
    54   5 B        4.691     0.055    21.753     7.515
    55   5 B        4.735     0.042    21.971     7.552
    56   5 B        3.813     0.073    21.409     7.459
    57   5 B        2.071    -0.002    43.098    13.732
    58   5 B        3.706     0.005    22.485     7.671
    59   5 B        4.547     0.022    22.343     7.616
    60   5 B        4.200     0.040    22.018     7.561
    61   5 B        3.748     0.071    21.399     7.468
    62   5 B        3.840    -0.007    22.862     7.707
    63   5 B        3.769     0.016    22.396     7.635
    64   5 B        4.530     0.062    21.618     7.492
    65   5 B        5.624     0.098    20.999     7.384
    66   5 B        3.805     0.033    22.117     7.583
    67   5 B        3.825     0.009    22.554     7.655
    68   5 B        2.886     0.066    20.293     7.519
    69   5 B        2.918     0.033    20.828     7.615
    70   5 B        2.913     0.014    21.164     7.677
    71   5 B        3.630     0.009    22.072     7.667
    72   5 B        3.792     0.004    22.640     7.673
    73   5 B        2.860    -0.005    21.521     7.745
    74   5 B        2.920    -0.033    22.006     7.828
    75   5 B        3.825     0.019    22.371     7.624
    76   5 B        2.901    -0.028    21.909     7.811
    77   5 B        4.532     0.043    21.965     7.551
    78   5 B        3.896     0.034    22.119     7.579
    79   5 B        3.818     0.012    22.492     7.645
    80   5 B        3.778    -0.040    23.469     7.814
    81   5 B        3.628    -0.023    22.648     7.768
    82   5 B        4.556     0.025    22.286     7.606
    83   5 B        3.280     0.023    20.985     7.640
    84   5 B        4.869     0.086    21.202     7.419
    85   1 H        0.937    -0.177     9.231     4.750
    86   1 H        0.935    -0.147     7.518     4.287
    87   1 H        0.936    -0.142     7.305     4.226
    88   1 H        0.939    -0.159     8.144     4.462
    89   1 H        0.936    -0.142     7.302     4.225
    90   1 H        0.937    -0.147     7.526     4.289
    91   1 H        0.934    -0.145     7.409     4.256

 Mol. C6AA /au·bohr⁶  :     150135.813601
 Mol. C8AA /au·bohr⁸  :    4988455.971493
 Mol. α(0) /au        :        624.999993


Wiberg/Mayer (AO) data.
largest (>0.10) Wiberg bond orders for each atom

 ---------------------------------------------------------------------------
     #   Z sym  total        # sym  WBO       # sym  WBO       # sym  WBO
 ---------------------------------------------------------------------------
     1   8 O    1.911 --     2 C    1.661
     2   6 C    3.883 --     1 O    1.661     3 C    1.103    21 C    1.050
     3   6 C    3.939 --     4 C    1.623     2 C    1.103    22 H    0.963
     4   6 C    3.829 --     3 C    1.623     5 C    1.057    13 O    1.026
     5   6 C    3.958 --     6 C    1.365    12 C    1.361     4 C    1.057
     6   6 C    3.959 --     7 C    1.436     5 C    1.365    23 H    0.966
     7   6 C    3.977 --     6 C    1.436     8 C    1.388    24 H    0.965
     8   6 C    3.895 --     7 C    1.388    10 C    1.298     9 O    1.040
     9   8 O    2.079 --     8 C    1.040    25 H    0.883
    10   6 C    3.940 --    12 C    1.403     8 C    1.298    11 O    1.072
    11   8 O    2.110 --    10 C    1.072    26 H    0.872
    12   6 C    3.953 --    10 C    1.403     5 C    1.361    27 H    0.964
    13   8 O    2.336 --    14 C    1.065     4 C    1.026
    14   6 C    3.933 --    15 C    1.367    21 C    1.324    13 O    1.065
    15   6 C    3.936 --    14 C    1.367    16 C    1.363    28 H    0.942
    16   6 C    3.914 --    18 C    1.370    15 C    1.363    17 O    1.065
    17   8 O    2.105 --    16 C    1.065    29 H    0.887
    18   6 C    3.960 --    16 C    1.370    19 C    1.370    30 H    0.962
    19   6 C    3.888 --    18 C    1.370    21 C    1.292    20 O    1.094
    20   8 O    2.146 --    19 C    1.094    31 H    0.890
    21   6 C    3.973 --    14 C    1.324    19 C    1.292     2 C    1.050
    22   1 H    0.995 --     3 C    0.963
    23   1 H    0.997 --     6 C    0.966
    24   1 H    0.997 --     7 C    0.965
    25   1 H    0.905 --     9 O    0.883
    26   1 H    0.895 --    11 O    0.872
    27   1 H    0.995 --    12 C    0.964
    28   1 H    0.991 --    15 C    0.942
    29   1 H    0.909 --    17 O    0.887
    30   1 H    0.999 --    18 C    0.962
    31   1 H    0.911 --    20 O    0.890
    32   5 B    3.486 --    74 B    1.431    85 H    0.958    38 B    0.839
    33   5 B    3.501 --    74 B    1.123    75 B    0.987    39 B    0.557
                            38 B    0.508
    34   5 B    3.502 --    76 B    1.274    75 B    1.013    41 B    0.485
                            40 B    0.448
    35   5 B    3.472 --    76 B    1.288    36 B    1.017    41 B    0.562
                            77 B    0.358
    36   5 B    3.530 --    78 B    1.095    35 B    1.017    42 B    0.682
                            77 B    0.483
    37   5 B    3.596 --    89 H    0.941    78 B    0.856    49 B    0.811
                            43 B    0.799
    38   5 B    3.615 --    32 B    0.839    44 B    0.835    74 B    0.788
                            33 B    0.508    45 B    0.390
    39   5 B    3.569 --    45 B    1.108    75 B    0.769    40 B    0.691
                            33 B    0.557
    40   5 B    3.592 --    46 B    0.967    39 B    0.691    41 B    0.520
                            75 B    0.504    34 B    0.448    47 B    0.233
    41   5 B    3.596 --    47 B    0.624    77 B    0.619    76 B    0.590
                            35 B    0.562    40 B    0.520    34 B    0.485
    42   5 B    3.595 --    48 B    1.107    77 B    0.919    36 B    0.682
                            78 B    0.507
    43   5 B    3.595 --    49 B    0.845    37 B    0.799    55 B    0.686
                            78 B    0.593    48 B    0.517
    44   5 B    3.621 --    38 B    0.835    50 B    0.754    45 B    0.693
                            51 B    0.557    84 B    0.495
    45   5 B    3.551 --    39 B    1.108    51 B    0.930    44 B    0.693
                            38 B    0.390
    46   5 B    3.435 --    52 B    1.089    40 B    0.967    53 B    0.590
                            47 B    0.422
    47   5 B    3.599 --    53 B    1.114    77 B    0.907    41 B    0.624
                            46 B    0.422    40 B    0.233
    48   5 B    3.550 --    42 B    1.107    54 B    0.831    55 B    0.608
                            43 B    0.517    78 B    0.181
    49   5 B    3.515 --    90 H    0.952    43 B    0.845    37 B    0.811
                            55 B    0.680
    50   5 B    3.526 --    86 H    0.939    56 B    0.832    44 B    0.754
                            84 B    0.728
    51   5 B    3.625 --    57 B    1.268    45 B    0.930    44 B    0.557
                            84 B    0.545
    52   5 B    3.473 --    58 B    1.151    46 B    1.089    53 B    0.553
                            59 B    0.396
    53   5 B    3.564 --    47 B    1.114    59 B    0.968    46 B    0.590
                            52 B    0.553
    54   5 B    3.579 --    60 B    0.863    48 B    0.831    67 B    0.561
                            55 B    0.542    61 B    0.500
    55   5 B    3.606 --    61 B    0.869    43 B    0.686    49 B    0.680
                            48 B    0.608    54 B    0.542
    56   5 B    3.572 --    87 H    0.942    50 B    0.832    84 B    0.775
                            62 B    0.722
    57   5 B    3.413 --    63 B    1.330    51 B    1.268    84 B    0.204
                            79 B    0.156
    58   5 B    3.431 --    52 B    1.151    64 B    1.017    65 B    0.512
                            59 B    0.456
    59   5 B    3.580 --    53 B    0.968    82 B    0.781    65 B    0.656
                            58 B    0.456    52 B    0.396
    60   5 B    3.555 --    66 B    1.001    54 B    0.863    67 B    0.633
                            73 B    0.540    83 B    0.319
    61   5 B    3.417 --    91 H    0.925    67 B    0.893    55 B    0.869
                            54 B    0.500
    62   5 B    3.608 --    68 B    1.236    56 B    0.722    79 B    0.712
                            84 B    0.690
    63   5 B    3.573 --    57 B    1.330    69 B    0.688    79 B    0.606
                            80 B    0.576
    64   5 B    3.515 --    58 B    1.017    70 B    0.649    80 B    0.577
                            65 B    0.535    81 B    0.451
    65   5 B    3.611 --    59 B    0.656    82 B    0.628    64 B    0.535
                            71 B    0.525    58 B    0.512    81 B    0.506
    66   5 B    3.533 --    82 B    1.017    60 B    1.001    72 B    0.628
                            83 B    0.523
    67   5 B    3.507 --    73 B    1.232    61 B    0.893    60 B    0.633
                            54 B    0.561
    68   5 B    3.468 --    62 B    1.236    88 H    0.956    79 B    0.854
                            69 B    0.142
    69   5 B    3.406 --    80 B    1.167    79 B    1.107    63 B    0.688
                            68 B    0.142
    70   5 B    3.350 --    81 B    1.211    80 B    1.132    64 B    0.649
    71   5 B    3.387 --    81 B    1.129    72 B    1.080    65 B    0.525
                            82 B    0.393
    72   5 B    3.486 --    71 B    1.080    83 B    1.060    66 B    0.628
                            82 B    0.495
    73   5 B    3.339 --    83 B    1.264    67 B    1.232    60 B    0.540
    74   5 B    3.524 --    32 B    1.431    33 B    1.123    38 B    0.788
    75   5 B    3.522 --    34 B    1.013    33 B    0.987    39 B    0.769
                            40 B    0.504
    76   5 B    3.440 --    35 B    1.288    34 B    1.274    41 B    0.590
    77   5 B    3.557 --    42 B    0.919    47 B    0.907    41 B    0.619
                            36 B    0.483    35 B    0.358
    78   5 B    3.483 --    36 B    1.095    37 B    0.856    43 B    0.593
                            42 B    0.507    48 B    0.181
    79   5 B    3.632 --    69 B    1.107    68 B    0.854    62 B    0.712
                            63 B    0.606    57 B    0.156
    80   5 B    3.623 --    69 B    1.167    70 B    1.132    64 B    0.577
                            63 B    0.576
    81   5 B    3.502 --    70 B    1.211    71 B    1.129    65 B    0.506
                            64 B    0.451
    82   5 B    3.593 --    66 B    1.017    59 B    0.781    65 B    0.628
                            72 B    0.495    71 B    0.393
    83   5 B    3.381 --    73 B    1.264    72 B    1.060    66 B    0.523
                            60 B    0.319
    84   5 B    3.626 --    56 B    0.775    50 B    0.728    62 B    0.690
                            51 B    0.545    44 B    0.495    57 B    0.204
    85   1 H    0.967 --    32 B    0.958
    86   1 H    0.972 --    50 B    0.939
    87   1 H    0.974 --    56 B    0.942
    88   1 H    0.971 --    68 B    0.956
    89   1 H    0.969 --    37 B    0.941
    90   1 H    0.974 --    49 B    0.952
    91   1 H    0.972 --    61 B    0.925
 ---------------------------------------------------------------------------

Topologies differ in total number of bonds
Writing topology from bond orders to xtbtopo.mol

molecular dipole:
                 x           y           z       tot (Debye)
 q only:        1.634       2.368      -2.502
   full:        2.127       2.391      -3.567      12.181
molecular quadrupole (traceless):
                xx          xy          yy          xz          yz          zz
 q only:      -15.786      17.307      69.938     -28.158      32.367     -54.153
  q+dip:       32.049      -8.663      33.845     -16.692      49.080     -65.893
   full:       18.311      -3.674      24.498     -13.329      52.437     -42.809


           -------------------------------------------------
          | TOTAL ENERGY             -129.308076860527 Eh   |
          | GRADIENT NORM               0.072533236398 Eh/α |
          | HOMO-LUMO GAP               0.092845273965 eV   |
           -------------------------------------------------

------------------------------------------------------------------------
 * finished run on 2026/08/31 at 21:15:35.095     
------------------------------------------------------------------------
 total:
 * wall-time:     0 d,  0 h,  0 min,  0.928 sec
 *  cpu-time:     0 d,  0 h,  0 min,  8.578 sec
 * ratio c/w:     9.244 speedup
 SCF:
 * wall-time:     0 d,  0 h,  0 min,  0.883 sec
 *  cpu-time:     0 d,  0 h,  0 min,  8.312 sec
 * ratio c/w:     9.414 speedup

normal termination of xtb
