104
Drug@B48H12 non-overlapping complex
N      6.767030     -1.923370      6.447221
C      5.399578     -1.571143      6.360244
C      4.482464     -2.626170      6.383238
C      3.125128     -2.390146      6.200034
C      2.654721     -1.094861      5.956480
N      1.271646     -0.895877      5.749742
N      0.655593     -0.990302      6.834948
C     -0.718716     -0.761641      6.645309
C     -1.503397     -1.591144      5.846958
C     -2.873664     -1.350300      5.703302
C     -3.514274     -0.268437      6.359245
C     -4.897232      0.046334      6.283328
S     -6.010478     -0.912315      5.286281
O     -5.994489     -2.274363      5.768692
O     -7.250008     -0.177458      5.137782
O     -5.362581     -0.894115      3.808573
C     -5.446508      1.130009      6.988153
C     -4.634432      1.963897      7.746509
N     -5.197951      2.965666      8.540445
C     -3.283349      1.640258      7.872215
C     -2.709500      0.558236      7.180300
C     -1.334261      0.297178      7.315563
C      3.571052     -0.018415      5.851964
C      3.137579      1.293378      5.553000
C      4.034638      2.352702      5.427774
C      5.390852      2.124668      5.596712
C      5.846801      0.839410      5.897199
C      4.961086     -0.256400      6.039858
H      7.345627     -1.163644      6.789299
H      7.107350     -2.229892      5.537611
H      4.829244     -3.640097      6.568717
H      2.423180     -3.218520      6.245911
H     -1.048952     -2.435580      5.334660
H     -3.430299     -2.041467      5.073278
H     -6.035327     -0.521397      3.200000
H     -6.516027      1.325713      6.945399
H     -4.552433      3.698963      8.817466
H     -6.078426      3.336536      8.195811
H     -2.659338      2.245977      8.527548
H     -0.716684      0.927804      7.952805
H      2.077776      1.498796      5.409043
H      3.670450      3.349669      5.195048
H      6.098428      2.943590      5.496802
H      6.918100      0.708272      6.018130
B     -6.351142     -2.854456     -0.339557
B     -3.863246     -3.427578      0.871248
B     -1.055185     -4.165135      1.979350
B      1.685312     -4.231770      1.354949
B      2.970257     -3.692274      0.621871
B      5.907588     -3.848572     -0.380027
B     -4.761208     -2.330720     -0.407809
B     -2.619857     -2.211059      0.844160
B     -1.232659     -2.391074      1.779162
B      0.281426     -3.144602      1.258585
B      3.128005     -2.135340      0.033717
B      5.282428     -2.580677     -1.142740
B     -4.382652     -1.054498     -1.346132
B     -3.192369     -1.268483     -0.239841
B     -0.766749     -0.915069      2.147107
B      0.434070     -1.509850      0.882523
B      4.260331     -1.271884     -0.605716
B      6.845204     -2.475577     -0.806482
B     -5.007204     -0.643659     -2.849649
B     -3.195209      0.154301     -0.925672
B     -0.946947      0.623306      2.210385
B      0.001581     -0.020442      0.908402
B      4.875444      0.224219     -0.547589
B      5.878568     -1.066378     -1.130575
B     -5.767164      0.853536     -2.917565
B     -2.897102      1.628167     -0.708344
B     -1.239865      2.133184      2.088909
B      0.188320      1.549872      1.054031
B      4.258123      1.584106      0.064663
B      6.307532      0.439704     -1.625845
B     -5.734132      1.755409     -1.493813
B     -3.346886      2.973961     -0.174554
B     -1.664632      3.616005      1.797280
B     -0.058970      3.164039      1.323482
B      2.965632      2.258875      0.684366
B      5.791920      1.672515     -0.698507
B     -6.638907      2.799988     -0.842193
B     -4.474576      3.887338      0.587924
B     -1.777076      5.175247      1.215356
B      1.175393      4.406638      1.328978
B      2.593810      3.922874      0.879575
B      5.350926      2.985997     -0.054101
B     -5.318955     -3.634817      0.416463
B     -2.487709     -3.632854      1.605545
B      0.359579     -4.721327      1.906320
B      1.721498     -2.416215      0.734504
B      4.338705     -3.479950     -0.072929
B     -5.095331      2.847233     -0.373491
B     -3.034495      4.318735      0.932612
B     -0.286930      4.895064      1.442591
B      1.461620      2.548192      0.992407
B      4.078380      3.619763      0.510634
B     -4.595730      0.591276     -1.841534
H     -7.368369     -2.502749     -0.810293
H     -4.959065     -1.376034     -3.773890
H     -6.324579      1.260780     -3.871541
H     -7.613398      3.401728     -0.597572
H      6.361232     -4.935383     -0.360239
H      8.016260     -2.468237     -0.906140
H      6.939156      0.614609     -2.612760
