44
Congo_Red - ETKDG+MMFF conformer
N      6.767030     -1.923370      0.228728
C      5.399578     -1.571143      0.141751
C      4.482464     -2.626170      0.164745
C      3.125128     -2.390146     -0.018459
C      2.654721     -1.094861     -0.262013
N      1.271646     -0.895877     -0.468751
N      0.655593     -0.990302      0.616455
C     -0.718716     -0.761641      0.426816
C     -1.503397     -1.591144     -0.371535
C     -2.873664     -1.350300     -0.515191
C     -3.514274     -0.268437      0.140752
C     -4.897232      0.046334      0.064835
S     -6.010478     -0.912315     -0.932212
O     -5.994489     -2.274363     -0.449801
O     -7.250008     -0.177458     -1.080711
O     -5.362581     -0.894115     -2.409920
C     -5.446508      1.130009      0.769660
C     -4.634432      1.963897      1.528016
N     -5.197951      2.965666      2.321952
C     -3.283349      1.640258      1.653722
C     -2.709500      0.558236      0.961807
C     -1.334261      0.297178      1.097070
C      3.571052     -0.018415     -0.366529
C      3.137579      1.293378     -0.665493
C      4.034638      2.352702     -0.790719
C      5.390852      2.124668     -0.621781
C      5.846801      0.839410     -0.321294
C      4.961086     -0.256400     -0.178635
H      7.345627     -1.163644      0.570806
H      7.107350     -2.229892     -0.680882
H      4.829244     -3.640097      0.350224
H      2.423180     -3.218520      0.027418
H     -1.048952     -2.435580     -0.883833
H     -3.430299     -2.041467     -1.145215
H     -6.035327     -0.521397     -3.018493
H     -6.516027      1.325713      0.726906
H     -4.552433      3.698963      2.598973
H     -6.078426      3.336536      1.977318
H     -2.659338      2.245977      2.309055
H     -0.716684      0.927804      1.734312
H      2.077776      1.498796     -0.809450
H      3.670450      3.349669     -1.023445
H      6.098428      2.943590     -0.721691
H      6.918100      0.708272     -0.200363
