      -----------------------------------------------------------      
     |                   =====================                   |     
     |                           x T B                           |     
     |                   =====================                   |     
     |                         S. Grimme                         |     
     |          Mulliken Center for Theoretical Chemistry        |     
     |                    University of Bonn                     |     
      -----------------------------------------------------------      

   * xtb version 6.7.1pre (5071a88) compiled by 'Marcel@Raven' on 2024-07-23

   xtb is free software: you can redistribute it and/or modify it under
   the terms of the GNU Lesser General Public License as published by
   the Free Software Foundation, either version 3 of the License, or
   (at your option) any later version.
   
   xtb is distributed in the hope that it will be useful,
   but WITHOUT ANY WARRANTY; without even the implied warranty of
   MERCHANTABILITY or FITNESS FOR A PARTICULAR PURPOSE.  See the
   GNU Lesser General Public License for more details.
   
   Cite this work as:
   * C. Bannwarth, E. Caldeweyher, S. Ehlert, A. Hansen, P. Pracht,
     J. Seibert, S. Spicher, S. Grimme, WIREs Comput. Mol. Sci., 2020, 11,
     e01493. DOI: 10.1002/wcms.1493
   
   for GFN2-xTB:
   * C. Bannwarth, S. Ehlert and S. Grimme., J. Chem. Theory Comput., 2019,
     15, 1652-1671. DOI: 10.1021/acs.jctc.8b01176
   for GFN1-xTB:
   * S. Grimme, C. Bannwarth, P. Shushkov, J. Chem. Theory Comput., 2017,
     13, 1989-2009. DOI: 10.1021/acs.jctc.7b00118
   for GFN0-xTB:
   * P. Pracht, E. Caldeweyher, S. Ehlert, S. Grimme, ChemRxiv, 2019, preprint.
     DOI: 10.26434/chemrxiv.8326202.v1
   for GFN-FF:
   * S. Spicher and S. Grimme, Angew. Chem. Int. Ed., 2020, 59, 15665-15673.
     DOI: 10.1002/anie.202004239
   
   for ALPB and GBSA implicit solvation:
   * S. Ehlert, M. Stahn, S. Spicher, S. Grimme, J. Chem. Theory Comput.,
     2021, 17, 4250-4261. DOI: 10.1021/acs.jctc.1c00471
   
   for ddCOSMO and CPCM-X implicit solvation:
   * M. Stahn, S. Ehlert, S. Grimme, J. Phys. Chem. A,
     2023, XX, XXXX-XXXX. DOI: 10.1021/acs.jpca.3c04382
   
   for DFT-D4:
   * E. Caldeweyher, C. Bannwarth and S. Grimme, J. Chem. Phys., 2017,
     147, 034112. DOI: 10.1063/1.4993215
   * E. Caldeweyher, S. Ehlert, A. Hansen, H. Neugebauer, S. Spicher,
     C. Bannwarth and S. Grimme, J. Chem. Phys., 2019, 150, 154122.
     DOI: 10.1063/1.5090222
   * E. Caldeweyher, J.-M. Mewes, S. Ehlert and S. Grimme, Phys. Chem. Chem. Phys.
     2020, 22, 8499-8512. DOI: 10.1039/D0CP00502A
   
   for sTDA-xTB:
   * S. Grimme and C. Bannwarth, J. Chem. Phys., 2016, 145, 054103.
     DOI: 10.1063/1.4959605
   
   in the mass-spec context:
   * V. Asgeirsson, C. Bauer and S. Grimme, Chem. Sci., 2017, 8, 4879.
     DOI: 10.1039/c7sc00601b
   * J. Koopman and S. Grimme, ACS Omega 2019, 4, 12, 15120-15133.
     DOI: 10.1021/acsomega.9b02011
   
   for metadynamics refer to:
   * S. Grimme, J. Chem. Theory Comput., 2019, 155, 2847-2862
     DOI: 10.1021/acs.jctc.9b00143
   
   for SPH calculations refer to:
   * S. Spicher and S. Grimme, J. Chem. Theory Comput., 2021, 17, 1701-1714
     DOI: 10.1021/acs.jctc.0c01306
   
   for ONIOM refer to:
   * C. Plett, A. Katbashev, S. Ehlert, S. Grimme, M. Bursch,
     Phys. Chem. Chem. Phys., 2023, 25, 17860-17868. DOI: 10.1039/D3CP02178E
   
   for DIPRO refer to:
   * J. Kohn, N. Gildemeister, S. Grimme, D. Fazzi, A. Hansen,
     J. Chem. Phys., 2023, just accepted.
   
   for PTB refer to:
   * S. Grimme, M. Mueller, A. Hansen, J. Chem. Phys., 2023, 158, 124111.
     DOI: 10.1063/5.0137838
   
   with help from (in alphabetical order)
   P. Atkinson, C. Bannwarth, F. Bohle, G. Brandenburg, E. Caldeweyher
   M. Checinski, S. Dohm, S. Ehlert, S. Ehrlich, I. Gerasimov, C. Hölzer
   A. Katbashev, J. Kohn, J. Koopman, C. Lavigne, S. Lehtola, F. März, M. Müller,
   F. Musil, H. Neugebauer, J. Pisarek, C. Plett, P. Pracht, F. Pultar,
   J. Seibert, P. Shushkov, S. Spicher, M. Stahn, M. Steiner, T. Strunk,
   J. Stückrath, T. Rose, and J. Unsleber
   
 * started run on 2026/09/01 at 20:28:36.154     
   ID    Z sym.   atoms
    1    7 N      1, 6, 7, 19
    2    6 C      2-5, 8-12, 17, 18, 20-28
    3   16 S      13
    4    8 O      14-16
    5    1 H      29-44, 85-99
    6    5 B      45-84

           -------------------------------------------------
          |                Calculation Setup                |
           -------------------------------------------------

          program call               : "c:\Users\Andre\Proyectos doctorado\nano-qsar-ai-papers\kras-pancreatic-gC3N4-ai\tools\xtb\xtb-6.7.1\bin\xtb.exe" "c:\Users\Andre\Proyectos doctorado\borophene-alzheimer-tau-ai\calculations\tau\Congo_Red\Congo_Red_B40H15_clean_complex.xyz" --gfn 2 --sp --chrg 0 --uhf 0 --iterations 500 --norestart
          coordinate file            : c:\Users\Andre\Proyectos doctorado\borophene-alzheimer-tau-ai\calculations\tau\Congo_Red\Congo_Red_B40H15_clean_complex.xyz
          omp threads                :                    16


molecular fragmentation (1/2 indicates fragments):
111111111111111111111111111111111111111111112222222222222222222222222222
222222222222222222222222222
# atoms in fragment 1/2:    44    55
 fragment masses (1/2) :      392.43      447.56
CMA distance (Bohr)    :  17.432
constraining FC (au)   :  0.0500

           -------------------------------------------------
          |                 G F N 2 - x T B                 |
           -------------------------------------------------

        Reference                      10.1021/acs.jctc.8b01176
      * Hamiltonian:
        H0-scaling (s, p, d)           1.850000    2.230000    2.230000
        zeta-weighting                 0.500000
      * Dispersion:
        s8                             2.700000
        a1                             0.520000
        a2                             5.000000
        s9                             5.000000
      * Repulsion:
        kExp                           1.500000    1.000000
        rExp                           1.000000
      * Coulomb:
        alpha                          2.000000
        third order                    shell-resolved
        anisotropic                    true
        a3                             3.000000
        a5                             4.000000
        cn-shift                       1.200000
        cn-exp                         4.000000
        max-rad                        5.000000


          ...................................................
          :                      SETUP                      :
          :.................................................:
          :  # basis functions                 309          :
          :  # atomic orbitals                 308          :
          :  # shells                          168          :
          :  # electrons                       275          :
          :  max. iterations                   500          :
          :  Hamiltonian                  GFN2-xTB          :
          :  restarted?                      false          :
          :  GBSA solvation                  false          :
          :  PC potential                    false          :
          :  electronic temp.          300.0000000     K    :
          :  accuracy                    1.0000000          :
          :  -> integral cutoff          0.2500000E+02      :
          :  -> integral neglect         0.1000000E-07      :
          :  -> SCF convergence          0.1000000E-05 Eh   :
          :  -> wf. convergence          0.1000000E-03 e    :
          :  Broyden damping             0.4000000          :
          :  net charge                          0          :
          :  unpaired electrons                  0          :
          ...................................................

 iter      E             dE          RMSdq      gap      omega  full diag
   1   -135.0759878 -0.135076E+03  0.131E+01    0.24       0.0  T
   2   -131.4707590  0.360523E+01  0.918E+00    0.23       1.0  T
   3    100.4270748  0.231898E+03  0.158E+01    0.16       1.0  T
   4    230.1950712  0.129768E+03  0.220E+01    0.13       1.0  T
   5    -45.7531563 -0.275948E+03  0.135E+01    0.04       1.0  T
   6    137.7332412  0.183486E+03  0.174E+01    0.03       1.0  T
   7     21.4990569 -0.116234E+03  0.139E+01    0.03       1.0  T
   8     72.7041882  0.512051E+02  0.147E+01    0.04       1.0  T
   9    -59.6140158 -0.132318E+03  0.101E+01    0.14       1.0  T
  10    -86.2058015 -0.265918E+02  0.785E+00    0.01       1.0  T
  11   -109.9225504 -0.237167E+02  0.627E+00    0.09       1.0  T
  12   -135.7034802 -0.257809E+02  0.313E+00    0.11       1.0  T
  13   -136.0261915 -0.322711E+00  0.278E+00    0.51       1.0  T
  14   -136.0422823 -0.160908E-01  0.249E+00    0.33       1.0  T
  15   -136.0641286 -0.218463E-01  0.231E+00    0.39       1.0  T
  16   -136.0333449  0.307837E-01  0.164E+00    0.45       1.0  T
  17   -135.6784337  0.354911E+00  0.136E+00    0.23       1.0  T
  18   -135.9758229 -0.297389E+00  0.107E+00    0.37       1.0  T
  19   -135.9770556 -0.123264E-02  0.112E+00    0.47       1.0  T
  20   -136.0204773 -0.434217E-01  0.104E+00    0.43       1.0  T
  21   -136.0120563  0.842107E-02  0.941E-01    0.31       1.0  T
  22   -136.0662484 -0.541921E-01  0.760E-01    0.07       1.0  T
  23   -136.0635488  0.269964E-02  0.709E-01    0.12       1.0  T
  24   -136.0536023  0.994651E-02  0.810E-01    0.04       1.0  T
  25   -136.0845315 -0.309293E-01  0.663E-01    0.00       1.0  T
  26   -136.1081185 -0.235869E-01  0.481E-01    0.04       1.0  T
  27   -136.1156314 -0.751294E-02  0.418E-01    0.06       1.0  T
  28   -136.1179107 -0.227931E-02  0.440E-01    0.03       1.0  T
  29   -136.1190163 -0.110564E-02  0.451E-01    0.01       1.0  T
  30   -136.1161023  0.291402E-02  0.460E-01    0.02       1.0  T
  31   -136.1178889 -0.178656E-02  0.429E-01    0.02       1.0  T
  32   -136.1314103 -0.135214E-01  0.297E-01    0.00       1.0  T
  33   -136.1381693 -0.675899E-02  0.208E-01    0.01       1.0  T
  34   -136.1410852 -0.291591E-02  0.155E-01    0.02       1.0  T
  35   -136.1415125 -0.427260E-03  0.138E-01    0.02       1.0  T
  36   -136.1421458 -0.633306E-03  0.117E-01    0.03       1.0  T
  37   -136.1434496 -0.130387E-02  0.687E-02    0.04       1.0  T
  38   -136.1436689 -0.219259E-03  0.537E-02    0.04       1.0  T
  39   -136.1437449 -0.759649E-04  0.474E-02    0.04       1.0  T
  40   -136.1437385  0.639447E-05  0.479E-02    0.04       1.0  T
  41   -136.1438574 -0.118974E-03  0.377E-02    0.04       1.0  T
  42   -136.1440054 -0.147965E-03  0.180E-02    0.04       1.0  T
  43   -136.1440476 -0.422468E-04  0.985E-03    0.04       1.0  T
  44   -136.1440572 -0.951631E-05  0.990E-03    0.04       1.0  T
  45   -136.1440549  0.229979E-05  0.109E-02    0.04       1.0  T
  46   -136.1440586 -0.374757E-05  0.813E-03    0.04       1.2  T
  47   -136.1440599 -0.126125E-05  0.652E-03    0.04       1.5  T
  48   -136.1440599 -0.516975E-07  0.621E-03    0.04       1.6  T
  49   -136.1440600 -0.642234E-07  0.602E-03    0.04       1.7  T
  50   -136.1440603 -0.320434E-06  0.565E-03    0.04       1.8  T
  51   -136.1440612 -0.912773E-06  0.471E-03    0.04       2.1  T
  52   -136.1440618 -0.543713E-06  0.401E-03    0.04       2.5  T
  53   -136.1440622 -0.393126E-06  0.338E-03    0.04       3.0  T
  54   -136.1440625 -0.376174E-06  0.271E-03    0.04       3.7  T
  55   -136.1440632 -0.633789E-06  0.115E-03    0.04       8.7  T
  56   -136.1440632 -0.739151E-07  0.823E-04    0.04      12.2  T
  57   -136.1440633 -0.246628E-07  0.582E-04    0.04      17.3  T

   *** convergence criteria satisfied after 57 iterations ***

         #    Occupation            Energy/Eh            Energy/eV
      -------------------------------------------------------------
         1        2.0000           -0.7631566             -20.7665
       ...           ...                  ...                  ...
       132        2.0000           -0.3070979              -8.3566
       133        2.0000           -0.3005588              -8.1786
       134        2.0000           -0.2975394              -8.0965
       135        2.0000           -0.2943903              -8.0108
       136        2.0000           -0.2895219              -7.8783
       137        1.9989           -0.2862035              -7.7880
       138        0.6924           -0.2730995              -7.4314 (HOMO)
       139        0.3088           -0.2715665              -7.3897 (LUMO)
       140        0.0000           -0.2571125              -6.9964
       141                         -0.2568891              -6.9903
       142                         -0.2452831              -6.6745
       143                         -0.2395827              -6.5194
       ...                                ...                  ...
       308                          1.1714808              31.8776
      -------------------------------------------------------------
                  HL-Gap            0.0015330 Eh            0.0417 eV
             Fermi-level           -0.2760283 Eh           -7.5111 eV

 SCC (total)                   0 d,  0 h,  0 min,  0.842 sec
 SCC setup                      ...        0 min,  0.001 sec (  0.119%)
 Dispersion                     ...        0 min,  0.002 sec (  0.238%)
 classical contributions        ...        0 min,  0.000 sec (  0.000%)
 integral evaluation            ...        0 min,  0.006 sec (  0.713%)
 iterations                     ...        0 min,  0.810 sec ( 96.200%)
 molecular gradient             ...        0 min,  0.019 sec (  2.257%)
 printout                       ...        0 min,  0.004 sec (  0.475%)

         :::::::::::::::::::::::::::::::::::::::::::::::::::::
         ::                     SUMMARY                     ::
         :::::::::::::::::::::::::::::::::::::::::::::::::::::
         :: total energy            -134.250654544135 Eh    ::
         :: gradient norm              0.118647122459 Eh/a0 ::
         :: HOMO-LUMO gap              0.041715201313 eV    ::
         ::.................................................::
         :: SCC energy              -136.142310736533 Eh    ::
         :: -> isotropic ES            0.300618863079 Eh    ::
         :: -> anisotropic ES          0.001359399817 Eh    ::
         :: -> anisotropic XC          0.028251948922 Eh    ::
         :: -> dispersion             -0.126158147404 Eh    ::
         :: repulsion energy           1.891656192398 Eh    ::
         :: add. restraining           0.000000000000 Eh    ::
         :: total charge              -0.000000000000 e     ::
         :::::::::::::::::::::::::::::::::::::::::::::::::::::

           -------------------------------------------------
          |                Property Printout                |
           -------------------------------------------------

    * Orbital Energies and Occupations

         #    Occupation            Energy/Eh            Energy/eV
      -------------------------------------------------------------
         1        2.0000           -0.7631566             -20.7665
       ...           ...                  ...                  ...
       126        2.0000           -0.3199289              -8.7057
       127        2.0000           -0.3196757              -8.6988
       128        2.0000           -0.3180908              -8.6557
       129        2.0000           -0.3170229              -8.6266
       130        2.0000           -0.3114262              -8.4743
       131        2.0000           -0.3098363              -8.4311
       132        2.0000           -0.3070979              -8.3566
       133        2.0000           -0.3005588              -8.1786
       134        2.0000           -0.2975394              -8.0965
       135        2.0000           -0.2943903              -8.0108
       136        2.0000           -0.2895219              -7.8783
       137        1.9989           -0.2862035              -7.7880
       138        0.6924           -0.2730995              -7.4314 (HOMO)
       139        0.3088           -0.2715665              -7.3897 (LUMO)
       140        0.0000           -0.2571125              -6.9964
       141                         -0.2568891              -6.9903
       142                         -0.2452831              -6.6745
       143                         -0.2395827              -6.5194
       144                         -0.2328909              -6.3373
       145                         -0.2260268              -6.1505
       146                         -0.2152934              -5.8584
       147                         -0.2132081              -5.8017
       148                         -0.2091855              -5.6922
       149                         -0.2080885              -5.6624
       ...                                ...                  ...
       308                          1.1714808              31.8776
      -------------------------------------------------------------
                  HL-Gap            0.0015330 Eh            0.0417 eV
             Fermi-level           -0.2760283 Eh           -7.5111 eV

     #   Z          covCN         q      C6AA      α(0)
     1   7 N        2.637    -0.321    28.264     7.896
     2   6 C        2.893     0.060    26.653     8.464
     3   6 C        2.914    -0.053    29.323     8.880
     4   6 C        2.912    -0.046    29.143     8.852
     5   6 C        2.983     0.059    26.673     8.472
     6   7 N        1.983    -0.136    24.689     7.369
     7   7 N        1.985    -0.130    24.550     7.348
     8   6 C        2.977     0.075    26.316     8.415
     9   6 C        2.912    -0.037    28.926     8.819
    10   6 C        2.912    -0.046    29.153     8.854
    11   6 C        2.996     0.007    27.861     8.658
    12   6 C        2.959    -0.118    31.005     9.133
    13  16 S        3.649     1.299    98.496    16.704
    14   8 O        0.860    -0.599    26.095     6.849
    15   8 O        0.860    -0.630    26.877     6.951
    16   8 O        1.660    -0.545    23.883     6.597
    17   6 C        2.968    -0.059    29.463     8.903
    18   6 C        2.890     0.081    26.193     8.391
    19   7 N        2.638    -0.281    27.264     7.755
    20   6 C        2.927    -0.071    29.775     8.949
    21   6 C        2.983     0.020    27.547     8.609
    22   6 C        2.926    -0.059    29.454     8.900
    23   6 C        2.978     0.004    27.919     8.667
    24   6 C        2.917    -0.034    28.856     8.809
    25   6 C        2.909    -0.037    28.928     8.819
    26   6 C        2.909    -0.036    28.903     8.816
    27   6 C        2.915    -0.040    28.999     8.831
    28   6 C        2.974    -0.008    28.220     8.714
    29   1 H        0.860     0.145     1.434     1.876
    30   1 H        0.860     0.149     1.405     1.857
    31   1 H        0.925     0.041     2.431     2.438
    32   1 H        0.925     0.034     2.535     2.490
    33   1 H        0.925     0.042     2.423     2.434
    34   1 H        0.925     0.047     2.355     2.400
    35   1 H        0.824     0.350     0.585     1.200
    36   1 H        0.925     0.056     2.247     2.344
    37   1 H        0.860     0.163     1.318     1.799
    38   1 H        0.860     0.163     1.315     1.797
    39   1 H        0.925     0.040     2.449     2.447
    40   1 H        0.925     0.041     2.437     2.441
    41   1 H        0.925     0.035     2.515     2.480
    42   1 H        0.925     0.025     2.656     2.549
    43   1 H        0.925     0.023     2.684     2.562
    44   1 H        0.925     0.020     2.730     2.584
    45   5 B        3.729     0.067    21.427     7.479
    46   5 B        4.543     0.069    21.498     7.471
    47   5 B        3.764     0.032    22.094     7.584
    48   5 B        3.812     0.045    21.905     7.545
    49   5 B        3.866     0.060    21.649     7.498
    50   5 B        4.607     0.026    22.259     7.602
    51   5 B        2.881     0.053    20.497     7.557
    52   5 B        2.866     0.088    19.937     7.454
    53   5 B        4.657     0.033    22.130     7.580
    54   5 B        2.924     0.072    20.184     7.497
    55   5 B        3.820     0.056    21.707     7.511
    56   5 B        3.871     0.024    22.299     7.610
    57   5 B        4.530    -0.002    22.782     7.691
    58   5 B        3.833     0.050    21.824     7.530
    59   5 B        4.711     0.060    21.653     7.498
    60   5 B        4.714     0.051    21.817     7.526
    61   5 B        3.891     0.048    21.864     7.535
    62   5 B        2.930     0.025    20.965     7.640
    63   5 B        4.652     0.021    22.356     7.618
    64   5 B        2.877     0.058    20.431     7.545
    65   5 B        3.828     0.067    21.523     7.478
    66   5 B        3.859     0.025    22.279     7.607
    67   5 B        3.858    -0.006    22.842     7.703
    68   5 B        3.841     0.053    21.772     7.521
    69   5 B        4.594     0.026    22.259     7.602
    70   5 B        5.681     0.106    20.865     7.360
    71   5 B        4.131     0.016    22.445     7.634
    72   5 B        2.924     0.033    20.830     7.616
    73   5 B        5.586     0.062    21.615     7.491
    74   5 B        3.637     0.066    21.097     7.488
    75   5 B        3.826     0.047    21.868     7.538
    76   5 B        3.877     0.032    22.147     7.584
    77   5 B        3.870     0.022    22.331     7.615
    78   5 B        2.915     0.094    19.825     7.430
    79   5 B        3.773     0.075    21.344     7.453
    80   5 B        5.329     0.100    20.971     7.379
    81   5 B        4.732     0.046    21.903     7.541
    82   5 B        3.808     0.016    22.428     7.635
    83   5 B        3.784     0.079    21.292     7.442
    84   5 B        2.896     0.054    20.484     7.553
    85   1 H        0.938    -0.113     6.041     3.843
    86   1 H        1.528     0.036     2.483     2.460
    87   1 H        0.935    -0.142     7.293     4.222
    88   1 H        0.931    -0.135     6.939     4.119
    89   1 H        0.935    -0.118     6.236     3.904
    90   1 H        0.934    -0.117     6.184     3.888
    91   1 H        0.938    -0.101     5.603     3.701
    92   1 H        0.936    -0.133     6.858     4.094
    93   1 H        0.938    -0.088     5.144     3.546
    94   1 H        0.933    -0.150     7.674     4.331
    95   1 H        0.938    -0.092     5.292     3.597
    96   1 H        0.940    -0.131     6.795     4.075
    97   1 H        0.939    -0.109     5.890     3.794
    98   1 H        0.938    -0.111     5.947     3.813
    99   1 H        0.940    -0.139     7.119     4.171

 Mol. C6AA /au·bohr⁶  :     157742.643568
 Mol. C8AA /au·bohr⁸  :    4774948.116675
 Mol. α(0) /au        :        637.318843


Wiberg/Mayer (AO) data.
largest (>0.10) Wiberg bond orders for each atom

 ---------------------------------------------------------------------------
     #   Z sym  total        # sym  WBO       # sym  WBO       # sym  WBO
 ---------------------------------------------------------------------------
     1   7 N    3.072 --     2 C    1.064    29 H    0.956    30 H    0.945
     2   6 C    3.961 --     3 C    1.454    28 C    1.243     1 N    1.064
                             5 C    0.102
     3   6 C    3.987 --     2 C    1.454     4 C    1.380    31 H    0.967
     4   6 C    3.975 --     5 C    1.428     3 C    1.380    32 H    0.970
     5   6 C    3.974 --     4 C    1.428    23 C    1.230     6 N    1.087
                             2 C    0.102
     6   7 N    2.968 --     7 N    1.676     5 C    1.087
     7   7 N    2.971 --     6 N    1.676     8 C    1.101
     8   6 C    3.967 --    22 C    1.415     9 C    1.292     7 N    1.101
     9   6 C    3.973 --    10 C    1.529     8 C    1.292    33 H    0.968
    10   6 C    3.971 --     9 C    1.529    11 C    1.285    34 H    0.967
                            22 C    0.112
    11   6 C    3.984 --    10 C    1.285    12 C    1.279    21 C    1.218
    12   6 C    3.924 --    17 C    1.474    11 C    1.279    13 S    0.740
                            20 C    0.105    14 O    0.100
    13  16 S    4.855 --    14 O    1.571    15 O    1.539    16 O    0.953
                            12 C    0.740
    14   8 O    1.886 --    13 S    1.571    15 O    0.115    12 C    0.100
    15   8 O    1.843 --    13 S    1.539    14 O    0.115
    16   8 O    2.022 --    13 S    0.953    35 H    0.855
    17   6 C    3.948 --    12 C    1.474    18 C    1.301    36 H    0.962
    18   6 C    3.970 --    20 C    1.409    17 C    1.301    19 N    1.139
    19   7 N    3.213 --    18 C    1.139    37 H    0.955    38 H    0.954
    20   6 C    3.952 --    18 C    1.409    21 C    1.299    39 H    0.966
                            12 C    0.105
    21   6 C    3.988 --    22 C    1.304    20 C    1.299    11 C    1.218
    22   6 C    3.941 --     8 C    1.415    21 C    1.304    40 H    0.968
                            10 C    0.112
    23   6 C    3.982 --    24 C    1.308    28 C    1.235     5 C    1.230
    24   6 C    3.988 --    25 C    1.508    23 C    1.308    41 H    0.969
                            27 C    0.128
    25   6 C    3.988 --    24 C    1.508    26 C    1.369    42 H    0.971
    26   6 C    3.990 --    27 C    1.509    25 C    1.369    43 H    0.971
    27   6 C    3.984 --    26 C    1.509    28 C    1.304    44 H    0.965
                            24 C    0.128
    28   6 C    3.988 --    27 C    1.304     2 C    1.243    23 C    1.235
    29   1 H    0.978 --     1 N    0.956
    30   1 H    0.975 --     1 N    0.945
    31   1 H    0.997 --     3 C    0.967
    32   1 H    0.998 --     4 C    0.970
    33   1 H    0.997 --     9 C    0.968
    34   1 H    0.997 --    10 C    0.967
    35   1 H    0.877 --    16 O    0.855
    36   1 H    0.996 --    17 C    0.962
    37   1 H    0.973 --    19 N    0.955
    38   1 H    0.972 --    19 N    0.954
    39   1 H    0.997 --    20 C    0.966
    40   1 H    0.997 --    22 C    0.968
    41   1 H    0.998 --    24 C    0.969
    42   1 H    0.998 --    25 C    0.971
    43   1 H    0.999 --    26 C    0.971
    44   1 H    0.999 --    27 C    0.965
    45   5 B    3.566 --    85 H    0.952    48 B    0.910    46 B    0.880
                            86 H    0.537
    46   5 B    3.536 --    45 B    0.880    47 B    0.751    48 B    0.603
                            50 B    0.545    86 H    0.425    49 B    0.134
    47   5 B    3.570 --    49 B    1.120    87 H    0.950    46 B    0.751
                            50 B    0.453
    48   5 B    3.553 --    45 B    0.910    55 B    0.843    56 B    0.817
                            46 B    0.603    58 B    0.112
    49   5 B    3.391 --    47 B    1.120    57 B    0.803    53 B    0.633
                            50 B    0.432    46 B    0.134
    50   5 B    3.595 --    51 B    1.079    53 B    0.765    46 B    0.545
                            47 B    0.453    49 B    0.432
    51   5 B    3.426 --    50 B    1.079    52 B    0.993    88 H    0.912
                            53 B    0.155    54 B    0.100
    52   5 B    3.247 --    54 B    1.015    51 B    0.993    89 H    0.940
                            62 B    0.108
    53   5 B    3.677 --    61 B    0.779    50 B    0.765    60 B    0.699
                            49 B    0.633    57 B    0.374    51 B    0.155
    54   5 B    3.407 --    52 B    1.015    62 B    0.985    90 H    0.924
                            61 B    0.191    51 B    0.100
    55   5 B    3.627 --    91 H    0.927    56 B    0.843    48 B    0.843
                            58 B    0.793
    56   5 B    3.608 --    58 B    0.863    55 B    0.843    48 B    0.817
                            57 B    0.802
    57   5 B    3.634 --    59 B    0.838    49 B    0.803    56 B    0.802
                            60 B    0.436    53 B    0.374
    58   5 B    3.576 --    56 B    0.863    55 B    0.793    65 B    0.772
                            66 B    0.714    48 B    0.112
    59   5 B    3.584 --    57 B    0.838    67 B    0.681    60 B    0.637
                            70 B    0.567    63 B    0.458
    60   5 B    3.599 --    63 B    0.950    53 B    0.699    59 B    0.637
                            61 B    0.594    57 B    0.436
    61   5 B    3.549 --    62 B    0.969    53 B    0.779    63 B    0.666
                            60 B    0.594    54 B    0.191
    62   5 B    3.448 --    54 B    0.985    61 B    0.969    64 B    0.960
                            72 B    0.182    52 B    0.108
    63   5 B    3.638 --    60 B    0.950    71 B    0.774    61 B    0.666
                            59 B    0.458    70 B    0.437
    64   5 B    3.414 --    72 B    1.138    62 B    0.960    92 H    0.953
                            74 B    0.112
    65   5 B    3.564 --    93 H    0.921    68 B    0.838    66 B    0.802
                            58 B    0.772
    66   5 B    3.586 --    67 B    1.009    65 B    0.802    58 B    0.714
                            68 B    0.700
    67   5 B    3.629 --    66 B    1.009    69 B    0.894    59 B    0.681
                            70 B    0.607
    68   5 B    3.584 --    76 B    0.844    65 B    0.838    75 B    0.760
                            66 B    0.700    78 B    0.148
    69   5 B    3.667 --    67 B    0.894    77 B    0.701    70 B    0.683
                            80 B    0.614    73 B    0.392
    70   5 B    3.669 --    69 B    0.683    67 B    0.607    73 B    0.586
                            59 B    0.567    71 B    0.523    63 B    0.437
    71   5 B    3.523 --    72 B    0.966    63 B    0.774    73 B    0.773
                            70 B    0.523    74 B    0.197
    72   5 B    3.404 --    64 B    1.138    71 B    0.966    74 B    0.780
                            62 B    0.182
    73   5 B    3.633 --    71 B    0.773    81 B    0.618    70 B    0.586
                            82 B    0.486    69 B    0.392    80 B    0.292
                            74 B    0.266
    74   5 B    3.504 --    82 B    0.971    94 H    0.940    72 B    0.780
                            73 B    0.266    71 B    0.197    64 B    0.112
    75   5 B    3.599 --    78 B    1.015    95 H    0.919    68 B    0.760
                            76 B    0.752
    76   5 B    3.597 --    78 B    0.927    77 B    0.889    68 B    0.844
                            75 B    0.752
    77   5 B    3.609 --    76 B    0.889    79 B    0.862    69 B    0.701
                            80 B    0.635    78 B    0.228
    78   5 B    3.451 --    75 B    1.015    96 H    0.973    76 B    0.927
                            77 B    0.228    68 B    0.148
    79   5 B    3.510 --    97 H    0.953    77 B    0.862    80 B    0.764
                            83 B    0.686
    80   5 B    3.651 --    79 B    0.764    83 B    0.762    77 B    0.635
                            69 B    0.614    81 B    0.441    73 B    0.292
    81   5 B    3.633 --    84 B    0.950    83 B    0.762    82 B    0.706
                            73 B    0.618    80 B    0.441
    82   5 B    3.568 --    84 B    1.164    74 B    0.971    81 B    0.706
                            73 B    0.486
    83   5 B    3.551 --    98 H    0.954    80 B    0.762    81 B    0.762
                            79 B    0.686    84 B    0.186
    84   5 B    3.507 --    82 B    1.164    99 H    0.970    81 B    0.950
                            83 B    0.186
    85   1 H    0.981 --    45 B    0.952
    86   1 H    0.994 --    45 B    0.537    46 B    0.425
    87   1 H    0.978 --    47 B    0.950
    88   1 H    0.979 --    51 B    0.912
    89   1 H    0.984 --    52 B    0.940
    90   1 H    0.982 --    54 B    0.924
    91   1 H    0.978 --    55 B    0.927
    92   1 H    0.979 --    64 B    0.953
    93   1 H    0.981 --    65 B    0.921
    94   1 H    0.976 --    74 B    0.940
    95   1 H    0.981 --    75 B    0.919
    96   1 H    0.982 --    78 B    0.973
    97   1 H    0.985 --    79 B    0.953
    98   1 H    0.983 --    83 B    0.954
    99   1 H    0.980 --    84 B    0.970
 ---------------------------------------------------------------------------

Topologies differ in total number of bonds
Writing topology from bond orders to xtbtopo.mol

molecular dipole:
                 x           y           z       tot (Debye)
 q only:        2.568       0.878      -5.399
   full:        2.045       0.591      -5.034      13.891
molecular quadrupole (traceless):
                xx          xy          yy          xz          yz          zz
 q only:       -4.919     -24.243      52.355      43.728      69.693     -47.436
  q+dip:       35.373     -15.579      57.742      46.506      81.755     -93.115
   full:       23.069     -19.092      52.415      43.807      81.762     -75.484


           -------------------------------------------------
          | TOTAL ENERGY             -134.250654544135 Eh   |
          | GRADIENT NORM               0.118647122459 Eh/α |
          | HOMO-LUMO GAP               0.041715201313 eV   |
           -------------------------------------------------

------------------------------------------------------------------------
 * finished run on 2026/09/01 at 20:28:37.048     
------------------------------------------------------------------------
 total:
 * wall-time:     0 d,  0 h,  0 min,  0.892 sec
 *  cpu-time:     0 d,  0 h,  0 min, 10.297 sec
 * ratio c/w:    11.544 speedup
 SCF:
 * wall-time:     0 d,  0 h,  0 min,  0.843 sec
 *  cpu-time:     0 d,  0 h,  0 min,  9.891 sec
 * ratio c/w:    11.733 speedup

