      -----------------------------------------------------------      
     |                   =====================                   |     
     |                           x T B                           |     
     |                   =====================                   |     
     |                         S. Grimme                         |     
     |          Mulliken Center for Theoretical Chemistry        |     
     |                    University of Bonn                     |     
      -----------------------------------------------------------      

   * xtb version 6.7.1pre (5071a88) compiled by 'Marcel@Raven' on 2024-07-23

   xtb is free software: you can redistribute it and/or modify it under
   the terms of the GNU Lesser General Public License as published by
   the Free Software Foundation, either version 3 of the License, or
   (at your option) any later version.
   
   xtb is distributed in the hope that it will be useful,
   but WITHOUT ANY WARRANTY; without even the implied warranty of
   MERCHANTABILITY or FITNESS FOR A PARTICULAR PURPOSE.  See the
   GNU Lesser General Public License for more details.
   
   Cite this work as:
   * C. Bannwarth, E. Caldeweyher, S. Ehlert, A. Hansen, P. Pracht,
     J. Seibert, S. Spicher, S. Grimme, WIREs Comput. Mol. Sci., 2020, 11,
     e01493. DOI: 10.1002/wcms.1493
   
   for GFN2-xTB:
   * C. Bannwarth, S. Ehlert and S. Grimme., J. Chem. Theory Comput., 2019,
     15, 1652-1671. DOI: 10.1021/acs.jctc.8b01176
   for GFN1-xTB:
   * S. Grimme, C. Bannwarth, P. Shushkov, J. Chem. Theory Comput., 2017,
     13, 1989-2009. DOI: 10.1021/acs.jctc.7b00118
   for GFN0-xTB:
   * P. Pracht, E. Caldeweyher, S. Ehlert, S. Grimme, ChemRxiv, 2019, preprint.
     DOI: 10.26434/chemrxiv.8326202.v1
   for GFN-FF:
   * S. Spicher and S. Grimme, Angew. Chem. Int. Ed., 2020, 59, 15665-15673.
     DOI: 10.1002/anie.202004239
   
   for ALPB and GBSA implicit solvation:
   * S. Ehlert, M. Stahn, S. Spicher, S. Grimme, J. Chem. Theory Comput.,
     2021, 17, 4250-4261. DOI: 10.1021/acs.jctc.1c00471
   
   for ddCOSMO and CPCM-X implicit solvation:
   * M. Stahn, S. Ehlert, S. Grimme, J. Phys. Chem. A,
     2023, XX, XXXX-XXXX. DOI: 10.1021/acs.jpca.3c04382
   
   for DFT-D4:
   * E. Caldeweyher, C. Bannwarth and S. Grimme, J. Chem. Phys., 2017,
     147, 034112. DOI: 10.1063/1.4993215
   * E. Caldeweyher, S. Ehlert, A. Hansen, H. Neugebauer, S. Spicher,
     C. Bannwarth and S. Grimme, J. Chem. Phys., 2019, 150, 154122.
     DOI: 10.1063/1.5090222
   * E. Caldeweyher, J.-M. Mewes, S. Ehlert and S. Grimme, Phys. Chem. Chem. Phys.
     2020, 22, 8499-8512. DOI: 10.1039/D0CP00502A
   
   for sTDA-xTB:
   * S. Grimme and C. Bannwarth, J. Chem. Phys., 2016, 145, 054103.
     DOI: 10.1063/1.4959605
   
   in the mass-spec context:
   * V. Asgeirsson, C. Bauer and S. Grimme, Chem. Sci., 2017, 8, 4879.
     DOI: 10.1039/c7sc00601b
   * J. Koopman and S. Grimme, ACS Omega 2019, 4, 12, 15120-15133.
     DOI: 10.1021/acsomega.9b02011
   
   for metadynamics refer to:
   * S. Grimme, J. Chem. Theory Comput., 2019, 155, 2847-2862
     DOI: 10.1021/acs.jctc.9b00143
   
   for SPH calculations refer to:
   * S. Spicher and S. Grimme, J. Chem. Theory Comput., 2021, 17, 1701-1714
     DOI: 10.1021/acs.jctc.0c01306
   
   for ONIOM refer to:
   * C. Plett, A. Katbashev, S. Ehlert, S. Grimme, M. Bursch,
     Phys. Chem. Chem. Phys., 2023, 25, 17860-17868. DOI: 10.1039/D3CP02178E
   
   for DIPRO refer to:
   * J. Kohn, N. Gildemeister, S. Grimme, D. Fazzi, A. Hansen,
     J. Chem. Phys., 2023, just accepted.
   
   for PTB refer to:
   * S. Grimme, M. Mueller, A. Hansen, J. Chem. Phys., 2023, 158, 124111.
     DOI: 10.1063/5.0137838
   
   with help from (in alphabetical order)
   P. Atkinson, C. Bannwarth, F. Bohle, G. Brandenburg, E. Caldeweyher
   M. Checinski, S. Dohm, S. Ehlert, S. Ehrlich, I. Gerasimov, C. Hölzer
   A. Katbashev, J. Kohn, J. Koopman, C. Lavigne, S. Lehtola, F. März, M. Müller,
   F. Musil, H. Neugebauer, J. Pisarek, C. Plett, P. Pracht, F. Pultar,
   J. Seibert, P. Shushkov, S. Spicher, M. Stahn, M. Steiner, T. Strunk,
   J. Stückrath, T. Rose, and J. Unsleber
   
 * started run on 2026/09/01 at 16:34:29.581     
   ID    Z sym.   atoms
    1    7 N      1, 6, 7, 19
    2    6 C      2-5, 8-12, 17, 18, 20-28
    3   16 S      13
    4    8 O      14-16
    5    1 H      29-44, 93-104
    6    5 B      45-92

           -------------------------------------------------
          |                Calculation Setup                |
           -------------------------------------------------

          program call               : "c:\Users\Andre\Proyectos doctorado\kras-pancreatic-gC3N4-ai\tools\xtb\xtb-6.7.1\bin\xtb.exe" "c:\Users\Andre\Proyectos doctorado\borophene-alzheimer-tau-ai\calculations\tau\Congo_Red\Congo_Red_B48H12_clean_complex.xyz" --gfn 2 --sp --chrg 0 --uhf 0 --etemp 300 --iterations 500 --norestart
          coordinate file            : c:\Users\Andre\Proyectos doctorado\borophene-alzheimer-tau-ai\calculations\tau\Congo_Red\Congo_Red_B48H12_clean_complex.xyz
          omp threads                :                    16


molecular fragmentation (1/2 indicates fragments):
111111111111111111111111111111111111111111112222222222222222222222222222
22222222222222222222222222222222
# atoms in fragment 1/2:    44    60
 fragment masses (1/2) :      392.43      531.02
CMA distance (Bohr)    :  15.071
constraining FC (au)   :  0.0500

           -------------------------------------------------
          |                 G F N 2 - x T B                 |
           -------------------------------------------------

        Reference                      10.1021/acs.jctc.8b01176
      * Hamiltonian:
        H0-scaling (s, p, d)           1.850000    2.230000    2.230000
        zeta-weighting                 0.500000
      * Dispersion:
        s8                             2.700000
        a1                             0.520000
        a2                             5.000000
        s9                             5.000000
      * Repulsion:
        kExp                           1.500000    1.000000
        rExp                           1.000000
      * Coulomb:
        alpha                          2.000000
        third order                    shell-resolved
        anisotropic                    true
        a3                             3.000000
        a5                             4.000000
        cn-shift                       1.200000
        cn-exp                         4.000000
        max-rad                        5.000000


          ...................................................
          :                      SETUP                      :
          :.................................................:
          :  # basis functions                 338          :
          :  # atomic orbitals                 337          :
          :  # shells                          181          :
          :  # electrons                       296          :
          :  max. iterations                   500          :
          :  Hamiltonian                  GFN2-xTB          :
          :  restarted?                      false          :
          :  GBSA solvation                  false          :
          :  PC potential                    false          :
          :  electronic temp.          300.0000000     K    :
          :  accuracy                    1.0000000          :
          :  -> integral cutoff          0.2500000E+02      :
          :  -> integral neglect         0.1000000E-07      :
          :  -> SCF convergence          0.1000000E-05 Eh   :
          :  -> wf. convergence          0.1000000E-03 e    :
          :  Broyden damping             0.4000000          :
          :  net charge                          0          :
          :  unpaired electrons                  0          :
          ...................................................

 iter      E             dE          RMSdq      gap      omega  full diag
   1   -143.7192053 -0.143719E+03  0.146E+01    0.07       0.0  T
   2   -139.9982138  0.372099E+01  0.946E+00    0.21       1.0  T
   3    -46.4538437  0.935444E+02  0.170E+01    0.16       1.0  T
   4    -85.9013328 -0.394475E+02  0.113E+01    0.12       1.0  T
   5   -115.9350317 -0.300337E+02  0.857E+00    0.02       1.0  T
   6   -136.5156373 -0.205806E+02  0.555E+00    0.08       1.0  T
   7   -125.9048178  0.106108E+02  0.555E+00    0.10       1.0  T
   8   -136.2873302 -0.103825E+02  0.427E+00    0.14       1.0  T
   9   -144.0108293 -0.772350E+01  0.234E+00    0.36       1.0  T
  10   -144.2092969 -0.198468E+00  0.201E+00    0.17       1.0  T
  11   -144.2849379 -0.756410E-01  0.176E+00    0.38       1.0  T
  12   -144.3009079 -0.159701E-01  0.161E+00    0.27       1.0  T
  13   -144.0132076  0.287700E+00  0.159E+00    0.20       1.0  T
  14   -144.3448245 -0.331617E+00  0.109E+00    0.37       1.0  T
  15   -143.1602907  0.118453E+01  0.227E+00    0.05       1.0  T
  16   -143.9851518 -0.824861E+00  0.151E+00    0.18       1.0  T
  17   -144.0230440 -0.378922E-01  0.139E+00    0.12       1.0  T
  18   -144.1126300 -0.895860E-01  0.127E+00    0.19       1.0  T
  19   -144.2254218 -0.112792E+00  0.103E+00    0.09       1.0  T
  20   -144.4046817 -0.179260E+00  0.585E-01    0.38       1.0  T
  21   -144.4047918 -0.110063E-03  0.543E-01    0.30       1.0  T
  22   -144.4107962 -0.600444E-02  0.513E-01    0.24       1.0  T
  23   -144.4228650 -0.120688E-01  0.415E-01    0.14       1.0  T
  24   -144.3761242  0.467408E-01  0.533E-01    0.02       1.0  T
  25   -144.4418511 -0.657269E-01  0.196E-01    0.06       1.0  T
  26   -144.4421281 -0.276987E-03  0.134E-01    0.05       1.0  T
  27   -144.4430333 -0.905261E-03  0.117E-01    0.08       1.0  T
  28   -144.4318125  0.112208E-01  0.230E-01    0.03       1.0  T
  29   -144.4167625  0.150499E-01  0.324E-01    0.01       1.0  T
  30   -144.4295393 -0.127768E-01  0.235E-01    0.03       1.0  T
  31   -144.4408533 -0.113140E-01  0.113E-01    0.05       1.0  T
  32   -144.4422279 -0.137460E-02  0.843E-02    0.05       1.0  T
  33   -144.4442276 -0.199967E-02  0.221E-02    0.07       1.0  T
  34   -144.4440047  0.222872E-03  0.401E-02    0.08       1.0  T
  35   -144.4440649 -0.602155E-04  0.347E-02    0.08       1.0  T
  36   -144.4442146 -0.149680E-03  0.223E-02    0.07       1.0  T
  37   -144.4442779 -0.633294E-04  0.123E-02    0.07       1.0  T
  38   -144.4442697  0.818366E-05  0.128E-02    0.07       1.0  T
  39   -144.4442736 -0.385547E-05  0.121E-02    0.07       1.0  T
  40   -144.4442882 -0.145742E-04  0.984E-03    0.07       1.0  T
  41   -144.4442892 -0.990801E-06  0.910E-03    0.07       1.1  T
  42   -144.4442940 -0.482788E-05  0.797E-03    0.07       1.2  T
  43   -144.4442961 -0.207315E-05  0.702E-03    0.07       1.4  T
  44   -144.4442953  0.722076E-06  0.644E-03    0.07       1.5  T
  45   -144.4442957 -0.367159E-06  0.587E-03    0.07       1.7  T
  46   -144.4442995 -0.383889E-05  0.489E-03    0.07       2.0  T
  47   -144.4443000 -0.501690E-06  0.460E-03    0.07       2.1  T
  48   -144.4443009 -0.810106E-06  0.362E-03    0.07       2.7  T
  49   -144.4443018 -0.935479E-06  0.280E-03    0.07       3.5  T
  50   -144.4443021 -0.347795E-06  0.184E-03    0.07       5.3  T
  51   -144.4443025 -0.338460E-06  0.126E-03    0.07       7.8  T
  52   -144.4443026 -0.153144E-06  0.767E-04    0.07      12.8  T
  53   -144.4443027 -0.100917E-06  0.486E-04    0.07      20.2  T

   *** convergence criteria satisfied after 53 iterations ***

         #    Occupation            Energy/Eh            Energy/eV
      -------------------------------------------------------------
         1        2.0000           -0.7635570             -20.7774
       ...           ...                  ...                  ...
       142        2.0000           -0.2941862              -8.0052
       143        2.0000           -0.2906410              -7.9087
       144        2.0000           -0.2899272              -7.8893
       145        2.0000           -0.2862664              -7.7897
       146        2.0000           -0.2831520              -7.7050
       147        2.0000           -0.2803306              -7.6282
       148        1.5884           -0.2689765              -7.3192 (HOMO)
       149        0.4116           -0.2664106              -7.2494 (LUMO)
       150        0.0000           -0.2560069              -6.9663
       151        0.0000           -0.2529072              -6.8820
       152                         -0.2420463              -6.5864
       153                         -0.2417145              -6.5774
       ...                                ...                  ...
       337                          1.2020347              32.7090
      -------------------------------------------------------------
                  HL-Gap            0.0025659 Eh            0.0698 eV
             Fermi-level           -0.2676935 Eh           -7.2843 eV

 SCC (total)                   0 d,  0 h,  0 min,  1.222 sec
 SCC setup                      ...        0 min,  0.001 sec (  0.082%)
 Dispersion                     ...        0 min,  0.003 sec (  0.246%)
 classical contributions        ...        0 min,  0.000 sec (  0.000%)
 integral evaluation            ...        0 min,  0.009 sec (  0.737%)
 iterations                     ...        0 min,  1.173 sec ( 95.990%)
 molecular gradient             ...        0 min,  0.034 sec (  2.782%)
 printout                       ...        0 min,  0.002 sec (  0.164%)

         :::::::::::::::::::::::::::::::::::::::::::::::::::::
         ::                     SUMMARY                     ::
         :::::::::::::::::::::::::::::::::::::::::::::::::::::
         :: total energy            -142.334195716868 Eh    ::
         :: gradient norm              0.120133944234 Eh/a0 ::
         :: HOMO-LUMO gap              0.069821943064 eV    ::
         ::.................................................::
         :: SCC energy              -144.442479453688 Eh    ::
         :: -> isotropic ES            0.373751317777 Eh    ::
         :: -> anisotropic ES         -0.002359649134 Eh    ::
         :: -> anisotropic XC          0.004732736762 Eh    ::
         :: -> dispersion             -0.124439714770 Eh    ::
         :: repulsion energy           2.108283736820 Eh    ::
         :: add. restraining           0.000000000000 Eh    ::
         :: total charge               0.000000000000 e     ::
         :::::::::::::::::::::::::::::::::::::::::::::::::::::

           -------------------------------------------------
          |                Property Printout                |
           -------------------------------------------------

    * Orbital Energies and Occupations

         #    Occupation            Energy/Eh            Energy/eV
      -------------------------------------------------------------
         1        2.0000           -0.7635570             -20.7774
       ...           ...                  ...                  ...
       136        2.0000           -0.3124343              -8.5018
       137        2.0000           -0.3095929              -8.4245
       138        2.0000           -0.3060409              -8.3278
       139        2.0000           -0.3059864              -8.3263
       140        2.0000           -0.3020493              -8.2192
       141        2.0000           -0.2991870              -8.1413
       142        2.0000           -0.2941862              -8.0052
       143        2.0000           -0.2906410              -7.9087
       144        2.0000           -0.2899272              -7.8893
       145        2.0000           -0.2862664              -7.7897
       146        2.0000           -0.2831520              -7.7050
       147        2.0000           -0.2803306              -7.6282
       148        1.5884           -0.2689765              -7.3192 (HOMO)
       149        0.4116           -0.2664106              -7.2494 (LUMO)
       150        0.0000           -0.2560069              -6.9663
       151        0.0000           -0.2529072              -6.8820
       152                         -0.2420463              -6.5864
       153                         -0.2417145              -6.5774
       154                         -0.2382775              -6.4839
       155                         -0.2354706              -6.4075
       156                         -0.2291699              -6.2360
       157                         -0.2157970              -5.8721
       158                         -0.2117732              -5.7626
       159                         -0.2101071              -5.7173
       ...                                ...                  ...
       337                          1.2020347              32.7090
      -------------------------------------------------------------
                  HL-Gap            0.0025659 Eh            0.0698 eV
             Fermi-level           -0.2676935 Eh           -7.2843 eV

     #   Z          covCN         q      C6AA      α(0)
     1   7 N        2.637    -0.323    28.310     7.902
     2   6 C        2.893     0.058    26.696     8.471
     3   6 C        2.914    -0.055    29.368     8.886
     4   6 C        2.912    -0.049    29.206     8.862
     5   6 C        2.983     0.058    26.687     8.474
     6   7 N        1.983    -0.145    24.893     7.399
     7   7 N        1.985    -0.136    24.690     7.369
     8   6 C        2.977     0.073    26.362     8.422
     9   6 C        2.912    -0.040    28.992     8.829
    10   6 C        2.912    -0.052    29.298     8.876
    11   6 C        2.996     0.004    27.917     8.667
    12   6 C        2.959    -0.127    31.234     9.167
    13  16 S        3.649     1.319    97.983    16.660
    14   8 O        0.860    -0.605    26.250     6.869
    15   8 O        0.860    -0.640    27.121     6.982
    16   8 O        1.660    -0.556    24.119     6.630
    17   6 C        2.968    -0.064    29.583     8.922
    18   6 C        2.890     0.079    26.246     8.399
    19   7 N        2.638    -0.283    27.311     7.762
    20   6 C        2.927    -0.075    29.867     8.962
    21   6 C        2.983     0.019    27.586     8.616
    22   6 C        2.926    -0.063    29.555     8.915
    23   6 C        2.978     0.003    27.948     8.672
    24   6 C        2.917    -0.036    28.901     8.816
    25   6 C        2.909    -0.039    28.966     8.825
    26   6 C        2.909    -0.037    28.926     8.819
    27   6 C        2.915    -0.042    29.034     8.836
    28   6 C        2.974    -0.009    28.242     8.717
    29   1 H        0.860     0.145     1.434     1.876
    30   1 H        0.860     0.149     1.409     1.859
    31   1 H        0.925     0.040     2.449     2.447
    32   1 H        0.925     0.033     2.545     2.495
    33   1 H        0.925     0.040     2.443     2.444
    34   1 H        0.925     0.043     2.405     2.425
    35   1 H        0.824     0.347     0.591     1.207
    36   1 H        0.925     0.052     2.296     2.369
    37   1 H        0.860     0.161     1.329     1.806
    38   1 H        0.860     0.161     1.330     1.806
    39   1 H        0.925     0.037     2.483     2.464
    40   1 H        0.925     0.039     2.468     2.457
    41   1 H        0.925     0.034     2.528     2.486
    42   1 H        0.925     0.024     2.671     2.556
    43   1 H        0.925     0.024     2.667     2.554
    44   1 H        0.925     0.021     2.721     2.580
    45   5 B        2.839     0.117    19.497     7.374
    46   5 B        3.803     0.035    22.074     7.575
    47   5 B        3.718    -0.014    22.864     7.730
    48   5 B        2.746     0.023    21.146     7.697
    49   5 B        2.911    -0.038    22.100     7.845
    50   5 B        3.855     0.017    22.412     7.630
    51   5 B        2.869     0.065    20.310     7.523
    52   5 B        2.921     0.007    21.277     7.697
    53   5 B        3.823     0.062    21.607     7.493
    54   5 B        3.767     0.029    22.153     7.594
    55   5 B        3.849     0.007    22.597     7.661
    56   5 B        4.346     0.057    21.710     7.508
    57   5 B        4.682     0.090    21.145     7.409
    58   5 B        3.801     0.069    21.478     7.473
    59   5 B        3.829     0.063    21.595     7.491
    60   5 B        3.950     0.048    21.868     7.535
    61   5 B        4.552     0.062    21.620     7.492
    62   5 B        5.635     0.111    20.794     7.347
    63   5 B        4.742     0.038    22.050     7.566
    64   5 B        3.678     0.044    21.692     7.553
    65   5 B        4.781     0.082    21.269     7.431
    66   5 B        4.465     0.030    22.186     7.589
    67   5 B        3.855     0.048    21.866     7.536
    68   5 B        3.833     0.043    21.936     7.549
    69   5 B        3.834     0.013    22.484     7.643
    70   5 B        3.803    -0.018    23.053     7.741
    71   5 B        3.806     0.009    22.545     7.655
    72   5 B        4.226    -0.010    22.938     7.717
    73   5 B        3.802     0.022    22.301     7.614
    74   5 B        3.878     0.033    22.137     7.582
    75   5 B        2.888     0.106    19.635     7.396
    76   5 B        3.778     0.081    21.252     7.436
    77   5 B        3.898     0.055    21.749     7.515
    78   5 B        3.709     0.040    21.860     7.562
    79   5 B        3.761     0.031    22.107     7.587
    80   5 B        3.854     0.044    21.925     7.546
    81   5 B        4.286     0.048    21.866     7.534
    82   5 B        2.876     0.087    19.944     7.455
    83   5 B        3.771     0.082    21.229     7.433
    84   5 B        3.795     0.011    22.504     7.650
    85   5 B        2.925     0.014    21.152     7.674
    86   5 B        3.663     0.009    22.252     7.663
    87   5 B        2.926     0.028    20.917     7.631
    88   5 B        3.840     0.002    22.699     7.679
    89   5 B        3.860     0.019    22.392     7.626
    90   5 B        2.912     0.008    21.257     7.694
    91   5 B        2.915     0.011    21.216     7.686
    92   5 B        2.842     0.139    19.145     7.307
    93   1 H        0.935    -0.132     6.833     4.087
    94   1 H        0.939    -0.099     5.511     3.670
    95   1 H        0.934    -0.128     6.665     4.036
    96   1 H        0.932    -0.143     7.318     4.230
    97   1 H        0.938    -0.125     6.506     3.988
    98   1 H        0.940    -0.137     7.047     4.150
    99   1 H        0.936    -0.109     5.896     3.796
   100   1 H        0.939    -0.145     7.417     4.258
   101   1 H        0.938    -0.123     6.444     3.969
   102   1 H        0.936    -0.135     6.970     4.128
   103   1 H        0.935    -0.133     6.875     4.100
   104   1 H        0.933    -0.140     7.199     4.195

 Mol. C6AA /au·bohr⁶  :     184254.955151
 Mol. C8AA /au·bohr⁸  :    5776268.388525
 Mol. α(0) /au        :        690.492542


Wiberg/Mayer (AO) data.
largest (>0.10) Wiberg bond orders for each atom

 ---------------------------------------------------------------------------
     #   Z sym  total        # sym  WBO       # sym  WBO       # sym  WBO
 ---------------------------------------------------------------------------
     1   7 N    3.070 --     2 C    1.063    29 H    0.956    30 H    0.945
     2   6 C    3.956 --     3 C    1.453    28 C    1.244     1 N    1.063
                             5 C    0.101
     3   6 C    3.986 --     2 C    1.453     4 C    1.381    31 H    0.967
     4   6 C    3.971 --     5 C    1.426     3 C    1.381    32 H    0.970
     5   6 C    3.972 --     4 C    1.426    23 C    1.229     6 N    1.089
                             2 C    0.101
     6   7 N    2.934 --     7 N    1.647     5 C    1.089
     7   7 N    2.937 --     6 N    1.647     8 C    1.104
     8   6 C    3.958 --    22 C    1.405     9 C    1.295     7 N    1.104
     9   6 C    3.970 --    10 C    1.525     8 C    1.295    33 H    0.969
    10   6 C    3.958 --     9 C    1.525    11 C    1.284    34 H    0.968
                            22 C    0.106
    11   6 C    3.984 --    10 C    1.284    12 C    1.280    21 C    1.217
    12   6 C    3.901 --    17 C    1.458    11 C    1.280    13 S    0.738
                            14 O    0.101
    13  16 S    4.828 --    14 O    1.566    15 O    1.530    16 O    0.942
                            12 C    0.738
    14   8 O    1.879 --    13 S    1.566    15 O    0.114    12 C    0.101
    15   8 O    1.834 --    13 S    1.530    14 O    0.114
    16   8 O    2.010 --    13 S    0.942    35 H    0.858
    17   6 C    3.929 --    12 C    1.458    18 C    1.306    36 H    0.962
    18   6 C    3.968 --    20 C    1.406    17 C    1.306    19 N    1.135
    19   7 N    3.209 --    18 C    1.135    37 H    0.955    38 H    0.955
    20   6 C    3.930 --    18 C    1.406    21 C    1.295    39 H    0.966
    21   6 C    3.987 --    22 C    1.307    20 C    1.295    11 C    1.217
    22   6 C    3.918 --     8 C    1.405    21 C    1.307    40 H    0.968
                            10 C    0.106
    23   6 C    3.981 --    24 C    1.309    28 C    1.235     5 C    1.229
    24   6 C    3.986 --    25 C    1.507    23 C    1.309    41 H    0.969
                            27 C    0.127
    25   6 C    3.987 --    24 C    1.507    26 C    1.369    42 H    0.971
    26   6 C    3.990 --    27 C    1.508    25 C    1.369    43 H    0.971
    27   6 C    3.982 --    26 C    1.508    28 C    1.304    44 H    0.965
                            24 C    0.127
    28   6 C    3.987 --    27 C    1.304     2 C    1.244    23 C    1.235
    29   1 H    0.978 --     1 N    0.956
    30   1 H    0.975 --     1 N    0.945
    31   1 H    0.997 --     3 C    0.967
    32   1 H    0.998 --     4 C    0.970
    33   1 H    0.998 --     9 C    0.969
    34   1 H    0.997 --    10 C    0.968
    35   1 H    0.879 --    16 O    0.858
    36   1 H    0.997 --    17 C    0.962
    37   1 H    0.973 --    19 N    0.955
    38   1 H    0.973 --    19 N    0.955
    39   1 H    0.997 --    20 C    0.966
    40   1 H    0.997 --    22 C    0.968
    41   1 H    0.998 --    24 C    0.969
    42   1 H    0.998 --    25 C    0.971
    43   1 H    0.999 --    26 C    0.971
    44   1 H    0.999 --    27 C    0.965
    45   5 B    3.274 --    52 B    1.201   104 H    0.944    96 H    0.941
    46   5 B    3.541 --    47 B    1.199    52 B    0.848    53 B    0.528
                            61 B    0.487    60 B    0.140
    47   5 B    3.573 --    46 B    1.199    54 B    1.123    62 B    0.463
                            61 B    0.453
    48   5 B    3.360 --    49 B    1.368    55 B    1.083    64 B    0.428
                            65 B    0.104
    49   5 B    3.522 --    48 B    1.368    56 B    1.115    65 B    0.623
    50   5 B    3.565 --    51 B    1.304    56 B    0.751    57 B    0.686
                            58 B    0.680
    51   5 B    3.384 --    50 B    1.304   100 H    0.969    58 B    0.815
                            57 B    0.129
    52   5 B    3.386 --    45 B    1.201    53 B    1.068    46 B    0.848
    53   5 B    3.499 --    52 B    1.068    59 B    0.817    60 B    0.711
                            46 B    0.528
    54   5 B    3.436 --    47 B    1.123    55 B    0.995    63 B    0.542
                            62 B    0.442
    55   5 B    3.538 --    48 B    1.083    54 B    0.995    64 B    0.642
                            63 B    0.614
    56   5 B    3.526 --    49 B    1.115    50 B    0.751    65 B    0.637
                            57 B    0.459    66 B    0.321
    57   5 B    3.622 --    58 B    0.902    67 B    0.691    50 B    0.686
                            66 B    0.573    56 B    0.459    51 B    0.129
    58   5 B    3.565 --   102 H    0.938    57 B    0.902    51 B    0.815
                            50 B    0.680
    59   5 B    3.564 --    99 H    0.923    69 B    0.830    53 B    0.817
                            60 B    0.801
    60   5 B    3.646 --    69 B    0.850    61 B    0.810    59 B    0.801
                            53 B    0.711    46 B    0.140
    61   5 B    3.551 --    60 B    0.810    70 B    0.794    62 B    0.646
                            46 B    0.487    47 B    0.453
    62   5 B    3.669 --    70 B    0.728    71 B    0.706    61 B    0.646
                            63 B    0.517    47 B    0.463    54 B    0.442
    63   5 B    3.560 --    64 B    0.950    71 B    0.717    55 B    0.614
                            54 B    0.542    62 B    0.517
    64   5 B    3.493 --    72 B    1.037    63 B    0.950    55 B    0.642
                            48 B    0.428
    65   5 B    3.614 --    73 B    0.684    66 B    0.643    72 B    0.640
                            56 B    0.637    49 B    0.623    48 B    0.104
    66   5 B    3.598 --    73 B    1.021    67 B    0.772    65 B    0.643
                            57 B    0.573    56 B    0.321
    67   5 B    3.670 --    74 B    0.832    68 B    0.805    66 B    0.772
                            57 B    0.691    75 B    0.162
    68   5 B    3.624 --    75 B    1.011    94 H    0.909    67 B    0.805
                            74 B    0.737
    69   5 B    3.568 --    77 B    0.879    60 B    0.850    59 B    0.830
                            76 B    0.720
    70   5 B    3.623 --    78 B    1.106    61 B    0.794    62 B    0.728
                            71 B    0.599
    71   5 B    3.512 --    79 B    1.090    63 B    0.717    62 B    0.706
                            70 B    0.599
    72   5 B    3.593 --    64 B    1.037    80 B    0.900    65 B    0.640
                            73 B    0.462    81 B    0.266
    73   5 B    3.579 --    66 B    1.021    81 B    0.968    65 B    0.684
                            72 B    0.462
    74   5 B    3.600 --    75 B    0.959    82 B    0.897    67 B    0.832
                            68 B    0.737
    75   5 B    3.426 --    68 B    1.011    98 H    0.973    74 B    0.959
                            82 B    0.182    67 B    0.162
    76   5 B    3.541 --   101 H    0.955    83 B    0.861    77 B    0.826
                            69 B    0.720
    77   5 B    3.638 --    69 B    0.879    83 B    0.875    76 B    0.826
                            84 B    0.766
    78   5 B    3.594 --    70 B    1.106    85 B    0.829    84 B    0.687
                            86 B    0.550
    79   5 B    3.603 --    71 B    1.090    87 B    0.859    88 B    0.698
                            86 B    0.584
    80   5 B    3.551 --    72 B    0.900    88 B    0.787    89 B    0.708
                            81 B    0.662
    81   5 B    3.574 --    73 B    0.968    90 B    0.749    89 B    0.683
                            80 B    0.662    72 B    0.266
    82   5 B    3.434 --    91 B    0.989    95 H    0.934    74 B    0.897
                            75 B    0.182    92 B    0.158
    83   5 B    3.537 --    97 H    0.957    77 B    0.875    76 B    0.861
                            84 B    0.658
    84   5 B    3.576 --    85 B    1.258    77 B    0.766    78 B    0.687
                            83 B    0.658
    85   5 B    3.543 --    84 B    1.258    86 B    1.113    78 B    0.829
    86   5 B    3.547 --    87 B    1.114    85 B    1.113    79 B    0.584
                            78 B    0.550
    87   5 B    3.515 --    88 B    1.162    86 B    1.114    79 B    0.859
    88   5 B    3.592 --    87 B    1.162    80 B    0.787    89 B    0.738
                            79 B    0.698
    89   5 B    3.574 --    90 B    1.196    88 B    0.738    80 B    0.708
                            81 B    0.683
    90   5 B    3.512 --    89 B    1.196    91 B    1.061    81 B    0.749
                            92 B    0.120
    91   5 B    3.389 --    90 B    1.061    92 B    1.061    82 B    0.989
    92   5 B    3.277 --    91 B    1.061    93 H    0.953   103 H    0.952
                            82 B    0.158    90 B    0.120
    93   1 H    0.980 --    92 B    0.953
    94   1 H    0.984 --    68 B    0.909
    95   1 H    0.981 --    82 B    0.934
    96   1 H    0.971 --    45 B    0.941
    97   1 H    0.981 --    83 B    0.957
    98   1 H    0.981 --    75 B    0.973
    99   1 H    0.978 --    59 B    0.923
   100   1 H    0.977 --    51 B    0.969
   101   1 H    0.979 --    76 B    0.955
   102   1 H    0.973 --    58 B    0.938
   103   1 H    0.979 --    92 B    0.952
   104   1 H    0.972 --    45 B    0.944
 ---------------------------------------------------------------------------

Topologies differ in total number of bonds
Writing topology from bond orders to xtbtopo.mol

molecular dipole:
                 x           y           z       tot (Debye)
 q only:        0.512       2.391      -5.851
   full:        0.840       3.504      -5.675      17.086
molecular quadrupole (traceless):
                xx          xy          yy          xz          yz          zz
 q only:      -54.567     -59.157      63.819      44.937      45.052      -9.252
  q+dip:       11.085     -58.661      53.192      42.774      57.549     -64.277
   full:       -9.695     -59.067      40.748      43.269      58.748     -31.053


           -------------------------------------------------
          | TOTAL ENERGY             -142.334195716868 Eh   |
          | GRADIENT NORM               0.120133944234 Eh/α |
          | HOMO-LUMO GAP               0.069821943064 eV   |
           -------------------------------------------------

------------------------------------------------------------------------
 * finished run on 2026/09/01 at 16:34:30.854     
------------------------------------------------------------------------
 total:
 * wall-time:     0 d,  0 h,  0 min,  1.270 sec
 *  cpu-time:     0 d,  0 h,  0 min, 11.469 sec
 * ratio c/w:     9.031 speedup
 SCF:
 * wall-time:     0 d,  0 h,  0 min,  1.223 sec
 *  cpu-time:     0 d,  0 h,  0 min, 11.016 sec
 * ratio c/w:     9.007 speedup

normal termination of xtb
