86
Luteolin/B40H15 GFN2 opt
O      -1.64608736      2.34362763      3.72903731
C      -0.95522341      1.57663380      4.63141004
C      -0.79223332      0.21583192      4.48604759
C      -0.00266012     -0.53280851      5.33990226
C       0.29052764     -1.91414811      5.16944279
C       0.98674654     -2.63221419      6.15990652
C       1.31844644     -3.95560224      5.97682580
C       0.97802740     -4.61415585      4.80499229
O       1.30391750     -5.93678195      4.55013825
C       0.27789296     -3.92364297      3.80858625
O      -0.06453466     -4.54988953      2.64430442
C      -0.05831076     -2.60182945      3.98871296
O       0.60931762      0.08636439      6.43420904
C       0.50262004      1.43097886      6.58138404
C       1.20517098      1.99004515      7.62994432
C       1.16430142      3.36947447      7.83872195
O       1.87657775      3.87776657      8.88359792
C       0.42723103      4.17866703      6.99670355
C      -0.28724403      3.62272427      5.93794056
O      -0.98533026      4.46265665      5.13203474
C      -0.26401913      2.23824117      5.71435148
H      -1.31679992     -0.28723618      3.69577254
H       1.25939788     -2.12865654      7.07142986
H       1.85329398     -4.49244339      6.74942026
H       1.78564621     -6.28338869      5.30657100
H       0.29471001     -5.44466130      2.68085187
H      -0.58236463     -2.11861491      3.18407760
H       1.78571426      1.36520516      8.28523481
H       1.76458495      4.83521652      8.90558813
H       0.38532489      5.24817932      7.13546270
H      -1.41180924      3.91643494      4.43960432
B      -1.95424578     -3.95612186     -1.50413804
B      -2.16430158     -2.94457762     -2.79705782
B      -1.89124738     -1.34655322     -3.38457190
B      -0.51152295     -3.73516633     -0.88459471
B      -1.33538425     -0.97596130     -2.00495752
B      -3.00053590     -1.67892411     -2.01882212
B      -4.47403239     -1.51378360     -1.41282182
B      -5.34710915     -0.13632712     -1.25263000
B      -2.36319508     -0.89550578     -0.68837837
B      -4.95768640      0.69609608      0.08681398
B       1.00116979     -3.99886047     -0.31414899
B       0.33462004     -2.52883770     -0.28822675
B      -0.53775513     -1.14463599     -0.55687867
B       1.76640332     -2.68746227      0.42070144
B      -0.15507418     -0.01118503      0.59858878
B      -1.65452098     -0.69705034      0.76293041
B      -2.64614132      0.48955304      0.13985636
B      -3.68656998      1.67559831     -0.00427373
B      -1.52102725      0.73179094      1.46099511
B      -3.53644721      3.25860783      0.23496892
B       3.21286230     -2.52913637      1.20879365
B       2.18632008     -1.29412983      1.22756392
B       1.37671958      0.07728153      1.28512976
B       3.19022193     -1.54386510      2.55485704
B       1.72041691      1.38331560      2.16846594
B       0.22322321      1.29722421      1.49853622
B      -1.86844111      2.04482162      2.40310474
B      -2.31176930      3.11534944      1.23808964
B       0.80030861      2.77420558      1.80682647
B      -0.88483145      3.59005433      0.54383051
B       3.69651286     -1.81738556      4.08108594
B       3.34354737     -0.29215507      3.61092525
B       3.02668217      1.25722757      3.28877441
B       3.67039034     -0.57388937      5.12252739
B       3.71209749      2.71826421      3.71619942
B       2.20815512      2.67458573      3.12979871
B       1.28818359      4.12458206      2.75973353
B       0.24846108      4.28838915      1.46684186
B       2.63347208      4.08898673      3.76719210
B       0.80973775      5.54145834      2.22149418
H      -2.75876413     -4.75353060     -1.17810317
H      -2.02632622     -3.58852294     -3.77733315
H      -2.01402776     -1.06207418     -4.51582283
H      -5.00899251     -2.46972772     -0.95991251
H      -6.24889886      0.11078635     -1.96947835
H      -5.51619517      0.45238482      1.09721071
H       1.38488074     -5.09594498     -0.19262239
H      -4.07386675      4.17874401     -0.25580636
H       4.16657275     -3.17594014      0.98568756
H      -0.65849364      3.33917496     -0.58952421
H       3.88491711     -2.86680215      4.55317328
H       3.80325951     -0.24097356      6.22631805
H       4.74314789      2.88241626      4.24051238
H       2.87871512      4.92711143      4.54330973
H       0.88197957      6.69351574      2.36599372
