      -----------------------------------------------------------      
     |                   =====================                   |     
     |                           x T B                           |     
     |                   =====================                   |     
     |                         S. Grimme                         |     
     |          Mulliken Center for Theoretical Chemistry        |     
     |                    University of Bonn                     |     
      -----------------------------------------------------------      

   * xtb version 6.7.1pre (5071a88) compiled by 'Marcel@Raven' on 2024-07-23

   xtb is free software: you can redistribute it and/or modify it under
   the terms of the GNU Lesser General Public License as published by
   the Free Software Foundation, either version 3 of the License, or
   (at your option) any later version.
   
   xtb is distributed in the hope that it will be useful,
   but WITHOUT ANY WARRANTY; without even the implied warranty of
   MERCHANTABILITY or FITNESS FOR A PARTICULAR PURPOSE.  See the
   GNU Lesser General Public License for more details.
   
   Cite this work as:
   * C. Bannwarth, E. Caldeweyher, S. Ehlert, A. Hansen, P. Pracht,
     J. Seibert, S. Spicher, S. Grimme, WIREs Comput. Mol. Sci., 2020, 11,
     e01493. DOI: 10.1002/wcms.1493
   
   for GFN2-xTB:
   * C. Bannwarth, S. Ehlert and S. Grimme., J. Chem. Theory Comput., 2019,
     15, 1652-1671. DOI: 10.1021/acs.jctc.8b01176
   for GFN1-xTB:
   * S. Grimme, C. Bannwarth, P. Shushkov, J. Chem. Theory Comput., 2017,
     13, 1989-2009. DOI: 10.1021/acs.jctc.7b00118
   for GFN0-xTB:
   * P. Pracht, E. Caldeweyher, S. Ehlert, S. Grimme, ChemRxiv, 2019, preprint.
     DOI: 10.26434/chemrxiv.8326202.v1
   for GFN-FF:
   * S. Spicher and S. Grimme, Angew. Chem. Int. Ed., 2020, 59, 15665-15673.
     DOI: 10.1002/anie.202004239
   
   for ALPB and GBSA implicit solvation:
   * S. Ehlert, M. Stahn, S. Spicher, S. Grimme, J. Chem. Theory Comput.,
     2021, 17, 4250-4261. DOI: 10.1021/acs.jctc.1c00471
   
   for ddCOSMO and CPCM-X implicit solvation:
   * M. Stahn, S. Ehlert, S. Grimme, J. Phys. Chem. A,
     2023, XX, XXXX-XXXX. DOI: 10.1021/acs.jpca.3c04382
   
   for DFT-D4:
   * E. Caldeweyher, C. Bannwarth and S. Grimme, J. Chem. Phys., 2017,
     147, 034112. DOI: 10.1063/1.4993215
   * E. Caldeweyher, S. Ehlert, A. Hansen, H. Neugebauer, S. Spicher,
     C. Bannwarth and S. Grimme, J. Chem. Phys., 2019, 150, 154122.
     DOI: 10.1063/1.5090222
   * E. Caldeweyher, J.-M. Mewes, S. Ehlert and S. Grimme, Phys. Chem. Chem. Phys.
     2020, 22, 8499-8512. DOI: 10.1039/D0CP00502A
   
   for sTDA-xTB:
   * S. Grimme and C. Bannwarth, J. Chem. Phys., 2016, 145, 054103.
     DOI: 10.1063/1.4959605
   
   in the mass-spec context:
   * V. Asgeirsson, C. Bauer and S. Grimme, Chem. Sci., 2017, 8, 4879.
     DOI: 10.1039/c7sc00601b
   * J. Koopman and S. Grimme, ACS Omega 2019, 4, 12, 15120-15133.
     DOI: 10.1021/acsomega.9b02011
   
   for metadynamics refer to:
   * S. Grimme, J. Chem. Theory Comput., 2019, 155, 2847-2862
     DOI: 10.1021/acs.jctc.9b00143
   
   for SPH calculations refer to:
   * S. Spicher and S. Grimme, J. Chem. Theory Comput., 2021, 17, 1701-1714
     DOI: 10.1021/acs.jctc.0c01306
   
   for ONIOM refer to:
   * C. Plett, A. Katbashev, S. Ehlert, S. Grimme, M. Bursch,
     Phys. Chem. Chem. Phys., 2023, 25, 17860-17868. DOI: 10.1039/D3CP02178E
   
   for DIPRO refer to:
   * J. Kohn, N. Gildemeister, S. Grimme, D. Fazzi, A. Hansen,
     J. Chem. Phys., 2023, just accepted.
   
   for PTB refer to:
   * S. Grimme, M. Mueller, A. Hansen, J. Chem. Phys., 2023, 158, 124111.
     DOI: 10.1063/5.0137838
   
   with help from (in alphabetical order)
   P. Atkinson, C. Bannwarth, F. Bohle, G. Brandenburg, E. Caldeweyher
   M. Checinski, S. Dohm, S. Ehlert, S. Ehrlich, I. Gerasimov, C. Hölzer
   A. Katbashev, J. Kohn, J. Koopman, C. Lavigne, S. Lehtola, F. März, M. Müller,
   F. Musil, H. Neugebauer, J. Pisarek, C. Plett, P. Pracht, F. Pultar,
   J. Seibert, P. Shushkov, S. Spicher, M. Stahn, M. Steiner, T. Strunk,
   J. Stückrath, T. Rose, and J. Unsleber
   
 * started run on 2026/08/31 at 20:23:15.061     
   ID    Z sym.   atoms
    1    8 O      1, 4, 10, 12, 14, 19
    2    6 C      2, 3, 5-9, 11, 13, 15-18, 20, 21
    3    1 H      22-31, 85-91
    4    5 B      32-84

           -------------------------------------------------
          |                Calculation Setup                |
           -------------------------------------------------

          program call               : "c:\Users\Andre\Proyectos doctorado\kras-pancreatic-gC3N4-ai\tools\xtb\xtb-6.7.1\bin\xtb.exe" "c:\Users\Andre\Proyectos doctorado\borophene-alzheimer-tau-ai\calculations\tau\Fisetin\Fisetin_B48H12_complex.xyz" --gfn 2 --sp --chrg 0 --uhf 0 --iterations 500 --norestart
          coordinate file            : c:\Users\Andre\Proyectos doctorado\borophene-alzheimer-tau-ai\calculations\tau\Fisetin\Fisetin_B48H12_complex.xyz
          omp threads                :                    16


molecular fragmentation (1/2 indicates fragments):
111111111111111111111111111111111111111111111111111111111111111111111111
1111111111111221111
# atoms in fragment 1/2:    89     2
 fragment masses (1/2) :      864.26        2.02
CMA distance (Bohr)    :  16.290
constraining FC (au)   :  0.0500

           -------------------------------------------------
          |                 G F N 2 - x T B                 |
           -------------------------------------------------

        Reference                      10.1021/acs.jctc.8b01176
      * Hamiltonian:
        H0-scaling (s, p, d)           1.850000    2.230000    2.230000
        zeta-weighting                 0.500000
      * Dispersion:
        s8                             2.700000
        a1                             0.520000
        a2                             5.000000
        s9                             5.000000
      * Repulsion:
        kExp                           1.500000    1.000000
        rExp                           1.000000
      * Coulomb:
        alpha                          2.000000
        third order                    shell-resolved
        anisotropic                    true
        a3                             3.000000
        a5                             4.000000
        cn-shift                       1.200000
        cn-exp                         4.000000
        max-rad                        5.000000


          ...................................................
          :                      SETUP                      :
          :.................................................:
          :  # basis functions                 313          :
          :  # atomic orbitals                 313          :
          :  # shells                          165          :
          :  # electrons                       272          :
          :  max. iterations                   500          :
          :  Hamiltonian                  GFN2-xTB          :
          :  restarted?                      false          :
          :  GBSA solvation                  false          :
          :  PC potential                    false          :
          :  electronic temp.          300.0000000     K    :
          :  accuracy                    1.0000000          :
          :  -> integral cutoff          0.2500000E+02      :
          :  -> integral neglect         0.1000000E-07      :
          :  -> SCF convergence          0.1000000E-05 Eh   :
          :  -> wf. convergence          0.1000000E-03 e    :
          :  Broyden damping             0.4000000          :
          :  net charge                          0          :
          :  unpaired electrons                  0          :
          ...................................................

 iter      E             dE          RMSdq      gap      omega  full diag
   1   -128.1664579 -0.128166E+03  0.172E+01    0.01       0.0  T
   2    -39.9378873  0.882286E+02  0.145E+01    0.08       1.0  T
   3    584.0937770  0.624032E+03  0.341E+01    0.15       1.0  T
   4     -5.1962098 -0.589290E+03  0.170E+01    0.11       1.0  T
   5    171.2747479  0.176471E+03  0.188E+01    0.04       1.0  T
   6    -99.6567804 -0.270932E+03  0.107E+01    0.18       1.0  T
   7    -75.0114827  0.246453E+02  0.138E+01    0.09       1.0  T
   8   -106.6611718 -0.316497E+02  0.913E+00    0.06       1.0  T
   9   -117.1822848 -0.105211E+02  0.785E+00    0.09       1.0  T
  10   -122.5407170 -0.535843E+01  0.770E+00    0.08       1.0  T
  11   -127.5755507 -0.503483E+01  0.674E+00    0.04       1.0  T
  12   -128.0373856 -0.461835E+00  0.627E+00    0.14       1.0  T
  13   -128.6688943 -0.631509E+00  0.606E+00    0.09       1.0  T
  14   -128.8880848 -0.219190E+00  0.589E+00    0.13       1.0  T
  15   -128.6217087  0.266376E+00  0.566E+00    0.06       1.0  T
  16   -128.4696213  0.152087E+00  0.543E+00    0.03       1.0  T
  17   -128.4842683 -0.146470E-01  0.536E+00    0.04       1.0  T
  18   -128.4303345  0.539339E-01  0.520E+00    0.01       1.0  T
  19   -129.1642044 -0.733870E+00  0.461E+00    0.13       1.0  T
  20   -129.2705956 -0.106391E+00  0.388E+00    0.05       1.0  T
  21   -129.5284837 -0.257888E+00  0.330E+00    0.05       1.0  T
  22   -129.6846733 -0.156190E+00  0.308E+00    0.10       1.0  T
  23   -129.6214330  0.632404E-01  0.279E+00    0.03       1.0  T
  24   -129.4988138  0.122619E+00  0.272E+00    0.04       1.0  T
  25   -129.6103450 -0.111531E+00  0.265E+00    0.03       1.0  T
  26   -129.6871016 -0.767565E-01  0.248E+00    0.04       1.0  T
  27   -130.0311730 -0.344071E+00  0.198E+00    0.10       1.0  T
  28   -130.0647368 -0.335638E-01  0.168E+00    0.07       1.0  T
  29   -129.9426441  0.122093E+00  0.141E+00    0.02       1.0  T
  30   -129.8577054  0.849387E-01  0.144E+00    0.03       1.0  T
  31   -130.0704588 -0.212753E+00  0.154E+00    0.03       1.0  T
  32   -130.1181908 -0.477319E-01  0.135E+00    0.01       1.0  T
  33   -130.1210617 -0.287089E-02  0.129E+00    0.01       1.0  T
  34   -130.0538070  0.672547E-01  0.108E+00    0.04       1.0  T
  35   -130.2017505 -0.147944E+00  0.838E-01    0.02       1.0  T
  36   -130.1902529  0.114977E-01  0.802E-01    0.02       1.0  T
  37   -130.1257155  0.645373E-01  0.944E-01    0.02       1.0  T
  38   -130.1290126 -0.329708E-02  0.919E-01    0.03       1.0  T
  39   -130.1648991 -0.358865E-01  0.861E-01    0.02       1.0  T
  40   -130.2645171 -0.996180E-01  0.613E-01    0.03       1.0  T
  41   -130.2804939 -0.159767E-01  0.585E-01    0.04       1.0  T
  42   -130.2830989 -0.260502E-02  0.572E-01    0.04       1.0  T
  43   -130.2848624 -0.176353E-02  0.552E-01    0.03       1.0  T
  44   -130.2843714  0.491038E-03  0.540E-01    0.03       1.0  T
  45   -130.2767649  0.760650E-02  0.571E-01    0.02       1.0  T
  46   -130.2644349  0.123300E-01  0.619E-01    0.03       1.0  T
  47   -130.2777265 -0.132917E-01  0.565E-01    0.02       1.0  T
  48   -130.2830460 -0.531942E-02  0.492E-01    0.02       1.0  T
  49   -130.2731769  0.986911E-02  0.518E-01    0.02       1.0  T
  50   -130.2779838 -0.480699E-02  0.484E-01    0.02       1.0  T
  51   -130.2968624 -0.188785E-01  0.352E-01    0.04       1.0  T
  52   -130.2982055 -0.134311E-02  0.327E-01    0.04       1.0  T
  53   -130.2964435  0.176202E-02  0.345E-01    0.04       1.0  T
  54   -130.3011014 -0.465791E-02  0.255E-01    0.04       1.0  T
  55   -130.3074731 -0.637175E-02  0.120E-01    0.05       1.0  T
  56   -130.3073076  0.165489E-03  0.112E-01    0.04       1.0  T
  57   -130.3074856 -0.177978E-03  0.101E-01    0.04       1.0  T
  58   -130.3055239  0.196167E-02  0.132E-01    0.04       1.0  T
  59   -130.3065547 -0.103076E-02  0.103E-01    0.04       1.0  T
  60   -130.3075221 -0.967417E-03  0.747E-02    0.04       1.0  T
  61   -130.3085077 -0.985569E-03  0.391E-02    0.05       1.0  T
  62   -130.3085611 -0.534611E-04  0.377E-02    0.05       1.0  T
  63   -130.3086453 -0.841134E-04  0.317E-02    0.05       1.0  T
  64   -130.3086590 -0.137895E-04  0.266E-02    0.05       1.0  T
  65   -130.3086926 -0.335754E-04  0.191E-02    0.05       1.0  T
  66   -130.3087114 -0.187517E-04  0.134E-02    0.05       1.0  T
  67   -130.3087050  0.633821E-05  0.170E-02    0.05       1.0  T
  68   -130.3087174 -0.124186E-04  0.123E-02    0.05       1.0  T
  69   -130.3087148  0.263940E-05  0.122E-02    0.05       1.0  T
  70   -130.3087202 -0.540924E-05  0.905E-03    0.05       1.2  T
  71   -130.3087247 -0.450018E-05  0.659E-03    0.05       1.6  T
  72   -130.3087199  0.480073E-05  0.762E-03    0.05       1.4  T
  73   -130.3087234 -0.347095E-05  0.636E-03    0.05       1.6  T
  74   -130.3087235 -0.144196E-06  0.623E-03    0.05       1.7  T
  75   -130.3087236 -0.853652E-07  0.577E-03    0.05       1.8  T
  76   -130.3087267 -0.308261E-05  0.401E-03    0.05       2.6  T
  77   -130.3087277 -0.992838E-06  0.312E-03    0.05       3.4  T
  78   -130.3087282 -0.536123E-06  0.213E-03    0.05       4.9  T
  79   -130.3087284 -0.143003E-06  0.186E-03    0.05       5.6  T
  80   -130.3087286 -0.259912E-06  0.104E-03    0.05      10.1  T
  81   -130.3087287 -0.442444E-07  0.788E-04    0.05      13.3  T
  82   -130.3087287 -0.984022E-08  0.687E-04    0.05      15.3  T

   *** convergence criteria satisfied after 82 iterations ***

         #    Occupation            Energy/Eh            Energy/eV
      -------------------------------------------------------------
         1        2.0000           -0.7270824             -19.7849
       ...           ...                  ...                  ...
       130        2.0000           -0.2419299              -6.5832
       131        2.0000           -0.2329129              -6.3379
       132        2.0000           -0.2290622              -6.2331
       133        2.0000           -0.2227134              -6.0603
       134        1.9992           -0.2196408              -5.9767
       135        1.7485           -0.2140413              -5.8244
       136        1.3710           -0.2129393              -5.7944 (HOMO)
       137        0.5345           -0.2112409              -5.7482 (LUMO)
       138        0.3127           -0.2105978              -5.7307
       139        0.0325           -0.2083023              -5.6682
       140        0.0009           -0.2048462              -5.5741
       141        0.0007           -0.2045817              -5.5670
       ...           ...                  ...                  ...
       313                          3.4339462              93.4424
      -------------------------------------------------------------
                  HL-Gap            0.0016984 Eh            0.0462 eV
             Fermi-level           -0.2121991 Eh           -5.7742 eV

 SCC (total)                   0 d,  0 h,  0 min,  2.149 sec
 SCC setup                      ...        0 min,  0.002 sec (  0.093%)
 Dispersion                     ...        0 min,  0.001 sec (  0.047%)
 classical contributions        ...        0 min,  0.000 sec (  0.000%)
 integral evaluation            ...        0 min,  0.009 sec (  0.419%)
 iterations                     ...        0 min,  2.118 sec ( 98.557%)
 molecular gradient             ...        0 min,  0.018 sec (  0.838%)
 printout                       ...        0 min,  0.001 sec (  0.047%)

         :::::::::::::::::::::::::::::::::::::::::::::::::::::
         ::                     SUMMARY                     ::
         :::::::::::::::::::::::::::::::::::::::::::::::::::::
         :: total energy            -127.673100122076 Eh    ::
         :: gradient norm              2.529539366040 Eh/a0 ::
         :: HOMO-LUMO gap              0.046216913619 eV    ::
         ::.................................................::
         :: SCC energy              -130.304626289469 Eh    ::
         :: -> isotropic ES            0.430644116453 Eh    ::
         :: -> anisotropic ES         -0.003613198041 Eh    ::
         :: -> anisotropic XC         -0.079385569812 Eh    ::
         :: -> dispersion             -0.138965186805 Eh    ::
         :: repulsion energy           2.631526167393 Eh    ::
         :: add. restraining           0.000000000000 Eh    ::
         :: total charge               0.000000000003 e     ::
         :::::::::::::::::::::::::::::::::::::::::::::::::::::

           -------------------------------------------------
          |                Property Printout                |
           -------------------------------------------------

    * Orbital Energies and Occupations

         #    Occupation            Energy/Eh            Energy/eV
      -------------------------------------------------------------
         1        2.0000           -0.7270824             -19.7849
       ...           ...                  ...                  ...
       124        2.0000           -0.2525933              -6.8734
       125        2.0000           -0.2524893              -6.8706
       126        2.0000           -0.2506085              -6.8194
       127        2.0000           -0.2502418              -6.8094
       128        2.0000           -0.2488071              -6.7704
       129        2.0000           -0.2436904              -6.6312
       130        2.0000           -0.2419299              -6.5832
       131        2.0000           -0.2329129              -6.3379
       132        2.0000           -0.2290622              -6.2331
       133        2.0000           -0.2227134              -6.0603
       134        1.9992           -0.2196408              -5.9767
       135        1.7485           -0.2140413              -5.8244
       136        1.3710           -0.2129393              -5.7944 (HOMO)
       137        0.5345           -0.2112409              -5.7482 (LUMO)
       138        0.3127           -0.2105978              -5.7307
       139        0.0325           -0.2083023              -5.6682
       140        0.0009           -0.2048462              -5.5741
       141        0.0007           -0.2045817              -5.5670
       142        0.0000           -0.2010126              -5.4698
       143        0.0000           -0.1987652              -5.4087
       144                         -0.1949378              -5.3045
       145                         -0.1936764              -5.2702
       146                         -0.1909250              -5.1953
       147                         -0.1859206              -5.0592
       ...                                ...                  ...
       313                          3.4339462              93.4424
      -------------------------------------------------------------
                  HL-Gap            0.0016984 Eh            0.0462 eV
             Fermi-level           -0.2121991 Eh           -5.7742 eV

     #   Z          covCN         q      C6AA      α(0)
     1   8 O        2.460     0.203    12.089     4.696
     2   6 C        3.924    -0.074    21.842     6.642
     3   6 C        2.823    -0.005    28.147     8.693
     4   8 O        3.195    -0.154    16.597     5.502
     5   6 C        2.850     0.059    26.679     8.465
     6   6 C        2.965    -0.024    28.599     8.772
     7   6 C        2.918    -0.060    29.487     8.905
     8   6 C        2.910    -0.070    29.732     8.941
     9   6 C        2.845     0.110    25.566     8.287
    10   8 O        1.658    -0.416    21.157     6.209
    11   6 C        2.841     0.099    25.805     8.325
    12   8 O        1.658    -0.450    21.851     6.310
    13   6 C        2.914    -0.120    31.060     9.139
    14   8 O        1.707    -0.297    18.933     5.875
    15   6 C        2.868     0.099    25.803     8.327
    16   6 C        2.915    -0.081    30.032     8.986
    17   6 C        2.913    -0.089    30.231     9.016
    18   6 C        2.844     0.118    25.393     8.259
    19   8 O        1.659    -0.444    21.715     6.291
    20   6 C        2.915    -0.198    33.239     9.454
    21   6 C        2.975    -0.056    29.380     8.891
    22   1 H        1.375     0.426     0.428     1.022
    23   1 H        0.925     0.033     2.542     2.493
    24   1 H        0.925     0.039     2.460     2.452
    25   1 H        0.804     0.322     0.659     1.275
    26   1 H        0.804     0.339     0.614     1.230
    27   1 H        0.925     0.075     2.032     2.229
    28   1 H        0.925     0.022     2.701     2.570
    29   1 H        0.925     0.019     2.744     2.591
    30   1 H        0.804     0.306     0.703     1.317
    31   1 H        0.965     0.117     1.632     1.996
    32   5 B        2.887    -0.008    21.549     7.748
    33   5 B        2.890     0.025    20.973     7.644
    34   5 B        2.890     0.016    21.132     7.672
    35   5 B        2.890     0.021    21.038     7.655
    36   5 B        2.890     0.026    20.951     7.640
    37   5 B        2.887     0.009    21.264     7.697
    38   5 B        2.916     0.005    21.310     7.703
    39   5 B        3.868    -0.021    23.140     7.752
    40   5 B        3.868    -0.015    23.025     7.733
    41   5 B        3.868    -0.022    23.143     7.753
    42   5 B        3.868     0.002    22.704     7.679
    43   5 B        2.916     0.053    20.493     7.554
    44   5 B        3.266    -0.014    21.628     7.756
    45   5 B        2.314     0.032    31.741    10.977
    46   5 B        3.047    -0.001    21.395     7.715
    47   5 B        3.026     0.043    20.645     7.579
    48   5 B        1.958     0.022    43.315    13.840
    49   5 B        2.911    -0.058    22.458     7.908
    50   5 B        2.939    -0.009    21.559     7.747
    51   5 B        2.976    -0.118    23.621     8.108
    52   5 B        3.538     0.036    21.043     7.592
    53   5 B        3.000    -0.030    21.924     7.811
    54   5 B        1.958    -0.060    46.383    14.322
    55   5 B        1.960     0.027    43.129    13.810
    56   5 B        3.266    -0.013    21.610     7.753
    57   5 B        2.314     0.045    31.406    10.919
    58   5 B        1.985    -0.026    44.897    14.080
    59   5 B        1.959     0.000    44.105    13.966
    60   5 B        1.958     0.002    44.043    13.956
    61   5 B        2.911    -0.042    22.169     7.857
    62   5 B        2.916     0.009    21.242     7.691
    63   5 B        3.868    -0.016    23.032     7.734
    64   5 B        3.868    -0.009    22.913     7.714
    65   5 B        3.868    -0.013    22.982     7.726
    66   5 B        3.868    -0.008    22.880     7.709
    67   5 B        2.914    -0.010    21.577     7.751
    68   5 B        2.887    -0.006    21.520     7.743
    69   5 B        2.890     0.022    21.023     7.653
    70   5 B        2.890     0.028    20.917     7.633
    71   5 B        2.890     0.022    21.032     7.654
    72   5 B        2.890     0.016    21.135     7.673
    73   5 B        1.934    -0.004    44.392    14.019
    74   5 B        3.822     0.041    21.978     7.557
    75   5 B        3.822     0.024    22.288     7.610
    76   5 B        3.822     0.012    22.505     7.647
    77   5 B        3.822     0.038    22.025     7.565
    78   5 B        3.822     0.050    21.811     7.528
    79   5 B        3.822     0.042    21.954     7.553
    80   5 B        3.822     0.035    22.087     7.576
    81   5 B        3.822     0.039    22.012     7.563
    82   5 B        3.822     0.033    22.121     7.582
    83   5 B        3.822     0.033    22.111     7.580
    84   5 B        3.381     0.103    19.670     7.393
    85   1 H        0.954    -0.086     5.075     3.521
    86   1 H        0.956     0.004     2.985     2.701
    87   1 H        0.956     0.005     2.968     2.693
    88   1 H        0.954    -0.085     5.055     3.514
    89   1 H        0.954    -0.076     4.793     3.422
    90   1 H        0.956    -0.008     3.190     2.792
    91   1 H        0.956    -0.016     3.351     2.861

 Mol. C6AA /au·bohr⁶  :     154475.573932
 Mol. C8AA /au·bohr⁸  :    5231773.343050
 Mol. α(0) /au        :        662.446705


Wiberg/Mayer (AO) data.
largest (>0.10) Wiberg bond orders for each atom

 ---------------------------------------------------------------------------
     #   Z sym  total        # sym  WBO       # sym  WBO       # sym  WBO
 ---------------------------------------------------------------------------
     1   8 O    3.095 --    52 B    1.206     2 C    0.935    46 B    0.822
     2   6 C    3.735 --     3 C    1.136    21 C    1.132     1 O    0.935
     3   6 C    3.849 --     5 C    1.520     2 C    1.136     4 O    0.910
     4   8 O    2.639 --     3 C    0.910    22 H    0.650    53 B    0.502
                            47 B    0.394
     5   6 C    3.870 --     3 C    1.520     6 C    1.065    14 O    0.979
     6   6 C    3.973 --     7 C    1.364    13 C    1.356     5 C    1.065
     7   6 C    3.972 --     8 C    1.445     6 C    1.364    23 H    0.971
     8   6 C    3.982 --     7 C    1.445     9 C    1.382    24 H    0.969
     9   6 C    3.908 --     8 C    1.382    11 C    1.300    10 O    1.059
    10   8 O    2.084 --     9 C    1.059    25 H    0.871
    11   6 C    3.941 --    13 C    1.399     9 C    1.300    12 O    1.068
    12   8 O    2.076 --    11 C    1.068    26 H    0.798
    13   6 C    3.953 --    11 C    1.399     6 C    1.356    27 H    0.938
    14   8 O    2.225 --    15 C    1.004     5 C    0.979
    15   6 C    3.913 --    16 C    1.432    21 C    1.287    14 O    1.004
    16   6 C    3.962 --    15 C    1.432    17 C    1.361    28 H    0.971
    17   6 C    3.940 --    18 C    1.393    16 C    1.361    29 H    0.970
    18   6 C    3.923 --    17 C    1.393    20 C    1.354    19 O    1.042
    19   8 O    2.066 --    18 C    1.042    30 H    0.871
    20   6 C    3.890 --    18 C    1.354    21 C    1.338    31 H    0.834
    21   6 C    3.973 --    20 C    1.338    15 C    1.287     2 C    1.132
    22   1 H    0.817 --     4 O    0.650
    23   1 H    0.999 --     7 C    0.971
    24   1 H    0.998 --     8 C    0.969
    25   1 H    0.896 --    10 O    0.871
    26   1 H    0.883 --    12 O    0.798
    27   1 H    0.994 --    13 C    0.938
    28   1 H    0.999 --    16 C    0.971
    29   1 H    0.998 --    17 C    0.970
    30   1 H    0.906 --    19 O    0.871
    31   1 H    0.986 --    20 C    0.834
    32   5 B    3.257 --    38 B    1.094    74 B    0.936    85 H    0.867
                            44 B    0.105    33 B    0.101
    33   5 B    3.390 --    74 B    1.000    75 B    0.976    39 B    0.934
                            34 B    0.126    32 B    0.101
    34   5 B    3.416 --    76 B    1.004    75 B    0.979    40 B    0.949
                            33 B    0.126    35 B    0.102
    35   5 B    3.375 --    77 B    0.986    41 B    0.969    76 B    0.958
                            36 B    0.107    34 B    0.102
    36   5 B    3.345 --    78 B    0.971    77 B    0.968    42 B    0.915
                            37 B    0.142    35 B    0.107
    37   5 B    3.316 --    78 B    1.061    43 B    1.006    89 H    0.860
                            36 B    0.142    49 B    0.103
    38   5 B    3.425 --    44 B    1.176    32 B    1.094    74 B    0.741
                            86 H    0.108
    39   5 B    3.663 --    45 B    1.178    33 B    0.934    75 B    0.685
                            74 B    0.666
    40   5 B    3.704 --    46 B    1.156    34 B    0.949    76 B    0.697
                            75 B    0.680
    41   5 B    3.692 --    47 B    1.147    35 B    0.969    76 B    0.697
                            77 B    0.681
    42   5 B    3.629 --    48 B    1.152    36 B    0.915    77 B    0.682
                            78 B    0.650
    43   5 B    3.452 --    49 B    1.232    37 B    1.006    78 B    0.698
                            90 H    0.151    55 B    0.103
    44   5 B    3.582 --    38 B    1.176    50 B    0.968    86 H    0.693
                            84 B    0.380    32 B    0.105
    45   5 B    3.360 --    51 B    1.259    39 B    1.178    84 B    0.353
                            57 B    0.135
    46   5 B    3.150 --    40 B    1.156     1 O    0.822    52 B    0.626
                            58 B    0.139
    47   5 B    3.190 --    41 B    1.147    53 B    1.122     4 O    0.394
                            59 B    0.104
    48   5 B    3.251 --    54 B    1.444    42 B    1.152    60 B    0.228
    49   5 B    3.523 --    55 B    1.251    43 B    1.232    90 H    0.666
                            61 B    0.103    37 B    0.103
    50   5 B    3.594 --    84 B    1.008    56 B    0.972    44 B    0.968
                            86 H    0.144    87 H    0.142
    51   5 B    3.689 --    45 B    1.259    57 B    1.259    84 B    0.890
    52   5 B    3.283 --     1 O    1.206    58 B    1.165    46 B    0.626
    53   5 B    3.325 --    59 B    1.391    47 B    1.122     4 O    0.502
    54   5 B    3.294 --    60 B    1.455    48 B    1.444
    55   5 B    3.274 --    61 B    1.320    49 B    1.251    91 H    0.162
                            90 H    0.134    43 B    0.103
    56   5 B    3.578 --    62 B    1.179    50 B    0.972    87 H    0.693
                            84 B    0.374    68 B    0.104
    57   5 B    3.371 --    51 B    1.259    63 B    1.166    84 B    0.353
                            45 B    0.135
    58   5 B    3.136 --    64 B    1.260    52 B    1.165    46 B    0.139
    59   5 B    3.246 --    53 B    1.391    65 B    1.228    47 B    0.104
    60   5 B    3.316 --    54 B    1.455    66 B    1.165    48 B    0.228
    61   5 B    3.454 --    55 B    1.320    67 B    1.049    91 H    0.689
                            49 B    0.103
    62   5 B    3.411 --    56 B    1.179    68 B    1.079    79 B    0.740
                            87 H    0.110
    63   5 B    3.658 --    57 B    1.166    69 B    0.927    80 B    0.693
                            79 B    0.671
    64   5 B    3.657 --    58 B    1.260    70 B    0.912    81 B    0.658
                            80 B    0.631
    65   5 B    3.652 --    59 B    1.228    71 B    0.906    81 B    0.666
                            82 B    0.647
    66   5 B    3.648 --    60 B    1.165    72 B    0.910    82 B    0.694
                            83 B    0.634
    67   5 B    3.629 --    73 B    1.584    61 B    1.049    83 B    0.691
    68   5 B    3.253 --    62 B    1.079    79 B    0.960    88 H    0.864
                            56 B    0.104
    69   5 B    3.395 --    80 B    0.994    79 B    0.967    63 B    0.927
                            70 B    0.146
    70   5 B    3.467 --    81 B    1.004    80 B    0.999    64 B    0.912
                            69 B    0.146    71 B    0.122
    71   5 B    3.396 --    82 B    1.002    81 B    0.961    65 B    0.906
                            70 B    0.122    72 B    0.105
    72   5 B    3.462 --    83 B    0.994    82 B    0.960    66 B    0.910
                            73 B    0.204    71 B    0.105
    73   5 B    3.170 --    67 B    1.584    83 B    1.122    72 B    0.204
    74   5 B    3.601 --    33 B    1.000    32 B    0.936    38 B    0.741
                            39 B    0.666
    75   5 B    3.614 --    34 B    0.979    33 B    0.976    39 B    0.685
                            40 B    0.680
    76   5 B    3.633 --    34 B    1.004    35 B    0.958    40 B    0.697
                            41 B    0.697
    77   5 B    3.603 --    35 B    0.986    36 B    0.968    42 B    0.682
                            41 B    0.681
    78   5 B    3.595 --    37 B    1.061    36 B    0.971    43 B    0.698
                            42 B    0.650
    79   5 B    3.594 --    69 B    0.967    68 B    0.960    62 B    0.740
                            63 B    0.671
    80   5 B    3.608 --    70 B    0.999    69 B    0.994    63 B    0.693
                            64 B    0.631
    81   5 B    3.581 --    70 B    1.004    71 B    0.961    65 B    0.666
                            64 B    0.658
    82   5 B    3.603 --    71 B    1.002    72 B    0.960    66 B    0.694
                            65 B    0.647
    83   5 B    3.622 --    73 B    1.122    72 B    0.994    67 B    0.691
                            66 B    0.634
    84   5 B    3.603 --    50 B    1.008    51 B    0.890    44 B    0.380
                            56 B    0.374    57 B    0.353    45 B    0.353
    85   1 H    0.979 --    32 B    0.867
    86   1 H    0.991 --    44 B    0.693    50 B    0.144    38 B    0.108
    87   1 H    0.991 --    56 B    0.693    50 B    0.142    62 B    0.110
    88   1 H    0.978 --    68 B    0.864
    89   1 H    0.987 --    37 B    0.860
    90   1 H    0.983 --    49 B    0.666    43 B    0.151    55 B    0.134
    91   1 H    0.972 --    61 B    0.689    55 B    0.162
 ---------------------------------------------------------------------------

Topologies differ in total number of bonds
Writing topology from bond orders to xtbtopo.mol

molecular dipole:
                 x           y           z       tot (Debye)
 q only:        0.726      -0.186      -6.007
   full:       -1.290       0.166      -4.188      11.147
molecular quadrupole (traceless):
                xx          xy          yy          xz          yz          zz
 q only:      -44.756       8.078      72.745       9.849      -0.176     -27.990
  q+dip:       21.583       7.341      76.578       6.265      -2.586     -98.161
   full:       14.432       7.074      46.958       4.846      -1.916     -61.390


           -------------------------------------------------
          | TOTAL ENERGY             -127.673100122076 Eh   |
          | GRADIENT NORM               2.529539366040 Eh/α |
          | HOMO-LUMO GAP               0.046216913619 eV   |
           -------------------------------------------------

------------------------------------------------------------------------
 * finished run on 2026/08/31 at 20:23:17.264     
------------------------------------------------------------------------
 total:
 * wall-time:     0 d,  0 h,  0 min,  2.200 sec
 *  cpu-time:     0 d,  0 h,  0 min, 16.016 sec
 * ratio c/w:     7.280 speedup
 SCF:
 * wall-time:     0 d,  0 h,  0 min,  2.151 sec
 *  cpu-time:     0 d,  0 h,  0 min, 15.625 sec
 * ratio c/w:     7.264 speedup

normal termination of xtb
