      -----------------------------------------------------------      
     |                   =====================                   |     
     |                           x T B                           |     
     |                   =====================                   |     
     |                         S. Grimme                         |     
     |          Mulliken Center for Theoretical Chemistry        |     
     |                    University of Bonn                     |     
      -----------------------------------------------------------      

   * xtb version 6.7.1pre (5071a88) compiled by 'Marcel@Raven' on 2024-07-23

   xtb is free software: you can redistribute it and/or modify it under
   the terms of the GNU Lesser General Public License as published by
   the Free Software Foundation, either version 3 of the License, or
   (at your option) any later version.
   
   xtb is distributed in the hope that it will be useful,
   but WITHOUT ANY WARRANTY; without even the implied warranty of
   MERCHANTABILITY or FITNESS FOR A PARTICULAR PURPOSE.  See the
   GNU Lesser General Public License for more details.
   
   Cite this work as:
   * C. Bannwarth, E. Caldeweyher, S. Ehlert, A. Hansen, P. Pracht,
     J. Seibert, S. Spicher, S. Grimme, WIREs Comput. Mol. Sci., 2020, 11,
     e01493. DOI: 10.1002/wcms.1493
   
   for GFN2-xTB:
   * C. Bannwarth, S. Ehlert and S. Grimme., J. Chem. Theory Comput., 2019,
     15, 1652-1671. DOI: 10.1021/acs.jctc.8b01176
   for GFN1-xTB:
   * S. Grimme, C. Bannwarth, P. Shushkov, J. Chem. Theory Comput., 2017,
     13, 1989-2009. DOI: 10.1021/acs.jctc.7b00118
   for GFN0-xTB:
   * P. Pracht, E. Caldeweyher, S. Ehlert, S. Grimme, ChemRxiv, 2019, preprint.
     DOI: 10.26434/chemrxiv.8326202.v1
   for GFN-FF:
   * S. Spicher and S. Grimme, Angew. Chem. Int. Ed., 2020, 59, 15665-15673.
     DOI: 10.1002/anie.202004239
   
   for ALPB and GBSA implicit solvation:
   * S. Ehlert, M. Stahn, S. Spicher, S. Grimme, J. Chem. Theory Comput.,
     2021, 17, 4250-4261. DOI: 10.1021/acs.jctc.1c00471
   
   for ddCOSMO and CPCM-X implicit solvation:
   * M. Stahn, S. Ehlert, S. Grimme, J. Phys. Chem. A,
     2023, XX, XXXX-XXXX. DOI: 10.1021/acs.jpca.3c04382
   
   for DFT-D4:
   * E. Caldeweyher, C. Bannwarth and S. Grimme, J. Chem. Phys., 2017,
     147, 034112. DOI: 10.1063/1.4993215
   * E. Caldeweyher, S. Ehlert, A. Hansen, H. Neugebauer, S. Spicher,
     C. Bannwarth and S. Grimme, J. Chem. Phys., 2019, 150, 154122.
     DOI: 10.1063/1.5090222
   * E. Caldeweyher, J.-M. Mewes, S. Ehlert and S. Grimme, Phys. Chem. Chem. Phys.
     2020, 22, 8499-8512. DOI: 10.1039/D0CP00502A
   
   for sTDA-xTB:
   * S. Grimme and C. Bannwarth, J. Chem. Phys., 2016, 145, 054103.
     DOI: 10.1063/1.4959605
   
   in the mass-spec context:
   * V. Asgeirsson, C. Bauer and S. Grimme, Chem. Sci., 2017, 8, 4879.
     DOI: 10.1039/c7sc00601b
   * J. Koopman and S. Grimme, ACS Omega 2019, 4, 12, 15120-15133.
     DOI: 10.1021/acsomega.9b02011
   
   for metadynamics refer to:
   * S. Grimme, J. Chem. Theory Comput., 2019, 155, 2847-2862
     DOI: 10.1021/acs.jctc.9b00143
   
   for SPH calculations refer to:
   * S. Spicher and S. Grimme, J. Chem. Theory Comput., 2021, 17, 1701-1714
     DOI: 10.1021/acs.jctc.0c01306
   
   for ONIOM refer to:
   * C. Plett, A. Katbashev, S. Ehlert, S. Grimme, M. Bursch,
     Phys. Chem. Chem. Phys., 2023, 25, 17860-17868. DOI: 10.1039/D3CP02178E
   
   for DIPRO refer to:
   * J. Kohn, N. Gildemeister, S. Grimme, D. Fazzi, A. Hansen,
     J. Chem. Phys., 2023, just accepted.
   
   for PTB refer to:
   * S. Grimme, M. Mueller, A. Hansen, J. Chem. Phys., 2023, 158, 124111.
     DOI: 10.1063/5.0137838
   
   with help from (in alphabetical order)
   P. Atkinson, C. Bannwarth, F. Bohle, G. Brandenburg, E. Caldeweyher
   M. Checinski, S. Dohm, S. Ehlert, S. Ehrlich, I. Gerasimov, C. Hölzer
   A. Katbashev, J. Kohn, J. Koopman, C. Lavigne, S. Lehtola, F. März, M. Müller,
   F. Musil, H. Neugebauer, J. Pisarek, C. Plett, P. Pracht, F. Pultar,
   J. Seibert, P. Shushkov, S. Spicher, M. Stahn, M. Steiner, T. Strunk,
   J. Stückrath, T. Rose, and J. Unsleber
   
 * started run on 2026/09/01 at 20:28:42.853     
   ID    Z sym.   atoms
    1    8 O      1, 4, 10, 12, 14, 19
    2    6 C      2, 3, 5-9, 11, 13, 15-18, 20, 21
    3    1 H      22-31, 72-86
    4    5 B      32-71

           -------------------------------------------------
          |                Calculation Setup                |
           -------------------------------------------------

          program call               : "c:\Users\Andre\Proyectos doctorado\nano-qsar-ai-papers\kras-pancreatic-gC3N4-ai\tools\xtb\xtb-6.7.1\bin\xtb.exe" "c:\Users\Andre\Proyectos doctorado\borophene-alzheimer-tau-ai\calculations\tau\Fisetin\Fisetin_B40H15_clean_complex.xyz" --gfn 2 --sp --chrg 0 --uhf 0 --iterations 500 --norestart
          coordinate file            : c:\Users\Andre\Proyectos doctorado\borophene-alzheimer-tau-ai\calculations\tau\Fisetin\Fisetin_B40H15_clean_complex.xyz
          omp threads                :                    16


molecular fragmentation (1/2 indicates fragments):
111111111111111111111111111111122222222222222222222222222222222222222222
22222222222222
# atoms in fragment 1/2:    31    55
 fragment masses (1/2) :      286.24      447.56
CMA distance (Bohr)    :  17.821
constraining FC (au)   :  0.0500

           -------------------------------------------------
          |                 G F N 2 - x T B                 |
           -------------------------------------------------

        Reference                      10.1021/acs.jctc.8b01176
      * Hamiltonian:
        H0-scaling (s, p, d)           1.850000    2.230000    2.230000
        zeta-weighting                 0.500000
      * Dispersion:
        s8                             2.700000
        a1                             0.520000
        a2                             5.000000
        s9                             5.000000
      * Repulsion:
        kExp                           1.500000    1.000000
        rExp                           1.000000
      * Coulomb:
        alpha                          2.000000
        third order                    shell-resolved
        anisotropic                    true
        a3                             3.000000
        a5                             4.000000
        cn-shift                       1.200000
        cn-exp                         4.000000
        max-rad                        5.000000


          ...................................................
          :                      SETUP                      :
          :.................................................:
          :  # basis functions                 269          :
          :  # atomic orbitals                 269          :
          :  # shells                          147          :
          :  # electrons                       241          :
          :  max. iterations                   500          :
          :  Hamiltonian                  GFN2-xTB          :
          :  restarted?                      false          :
          :  GBSA solvation                  false          :
          :  PC potential                    false          :
          :  electronic temp.          300.0000000     K    :
          :  accuracy                    1.0000000          :
          :  -> integral cutoff          0.2500000E+02      :
          :  -> integral neglect         0.1000000E-07      :
          :  -> SCF convergence          0.1000000E-05 Eh   :
          :  -> wf. convergence          0.1000000E-03 e    :
          :  Broyden damping             0.4000000          :
          :  net charge                          0          :
          :  unpaired electrons                  0          :
          ...................................................

 iter      E             dE          RMSdq      gap      omega  full diag
   1   -118.5082261 -0.118508E+03  0.139E+01    0.30       0.0  T
   2   -117.0358950  0.147233E+01  0.930E+00    0.33       1.0  T
   3    -54.0963064  0.629396E+02  0.145E+01    0.08       1.0  T
   4    -52.7820402  0.131427E+01  0.126E+01    0.07       1.0  T
   5   -108.9994516 -0.562174E+02  0.567E+00    0.09       1.0  T
   6   -107.2360873  0.176336E+01  0.614E+00    0.15       1.0  T
   7   -117.7417516 -0.105057E+02  0.309E+00    0.37       1.0  T
   8   -118.9137516 -0.117200E+01  0.209E+00    0.14       1.0  T
   9   -119.2566995 -0.342948E+00  0.171E+00    0.57       1.0  T
  10   -119.2885186 -0.318191E-01  0.151E+00    0.48       1.0  T
  11   -119.2932988 -0.478025E-02  0.121E+00    0.50       1.0  T
  12   -119.2999835 -0.668464E-02  0.765E-01    0.15       1.0  T
  13   -119.2972730  0.271051E-02  0.784E-01    0.06       1.0  T
  14   -119.3258024 -0.285294E-01  0.544E-01    0.18       1.0  T
  15   -119.2948841  0.309183E-01  0.775E-01    0.09       1.0  T
  16   -119.3342237 -0.393396E-01  0.567E-01    0.03       1.0  T
  17   -119.3331671  0.105659E-02  0.541E-01    0.04       1.0  T
  18   -119.3417603 -0.859317E-02  0.475E-01    0.03       1.0  T
  19   -119.3556797 -0.139194E-01  0.338E-01    0.01       1.0  T
  20   -119.3689365 -0.132568E-01  0.108E-01    0.05       1.0  T
  21   -119.3695587 -0.622170E-03  0.779E-02    0.05       1.0  T
  22   -119.3693227  0.235978E-03  0.874E-02    0.04       1.0  T
  23   -119.3698675 -0.544828E-03  0.496E-02    0.05       1.0  T
  24   -119.3700687 -0.201149E-03  0.344E-02    0.06       1.0  T
  25   -119.3700913 -0.226526E-04  0.300E-02    0.06       1.0  T
  26   -119.3701140 -0.226676E-04  0.234E-02    0.06       1.0  T
  27   -119.3701457 -0.316964E-04  0.158E-02    0.06       1.0  T
  28   -119.3701652 -0.194962E-04  0.885E-03    0.06       1.2  T
  29   -119.3701717 -0.652312E-05  0.616E-03    0.06       1.7  T
  30   -119.3701772 -0.553162E-05  0.279E-03    0.06       3.9  T
  31   -119.3701779 -0.660408E-06  0.140E-03    0.06       7.7  T
  32   -119.3701780 -0.114364E-06  0.127E-03    0.06       8.5  T
  33   -119.3701781 -0.111276E-06  0.103E-03    0.06      10.5  T
  34   -119.3701783 -0.174931E-06  0.642E-04    0.06      16.8  T
  35   -119.3701784 -0.794092E-07  0.405E-04    0.06      26.6  T

   *** convergence criteria satisfied after 35 iterations ***

         #    Occupation            Energy/Eh            Energy/eV
      -------------------------------------------------------------
         1        2.0000           -0.7202801             -19.5998
       ...           ...                  ...                  ...
       115        2.0000           -0.3001868              -8.1685
       116        2.0000           -0.2937240              -7.9926
       117        2.0000           -0.2907018              -7.9104
       118        2.0000           -0.2875463              -7.8245
       119        2.0000           -0.2827516              -7.6941
       120        1.9991           -0.2796620              -7.6100
       121        0.7621           -0.2662369              -7.2447 (HOMO)
       122        0.2388           -0.2640333              -7.1847 (LUMO)
       123        0.0000           -0.2504755              -6.8158
       124                         -0.2326661              -6.3312
       125                         -0.2287079              -6.2235
       126                         -0.2261159              -6.1529
       ...                                ...                  ...
       269                          1.0627316              28.9184
      -------------------------------------------------------------
                  HL-Gap            0.0022035 Eh            0.0600 eV
             Fermi-level           -0.2690555 Eh           -7.3214 eV

 SCC (total)                   0 d,  0 h,  0 min,  0.455 sec
 SCC setup                      ...        0 min,  0.001 sec (  0.220%)
 Dispersion                     ...        0 min,  0.001 sec (  0.220%)
 classical contributions        ...        0 min,  0.000 sec (  0.000%)
 integral evaluation            ...        0 min,  0.005 sec (  1.099%)
 iterations                     ...        0 min,  0.430 sec ( 94.505%)
 molecular gradient             ...        0 min,  0.015 sec (  3.297%)
 printout                       ...        0 min,  0.003 sec (  0.659%)

         :::::::::::::::::::::::::::::::::::::::::::::::::::::
         ::                     SUMMARY                     ::
         :::::::::::::::::::::::::::::::::::::::::::::::::::::
         :: total energy            -117.826589252669 Eh    ::
         :: gradient norm              0.074508789602 Eh/a0 ::
         :: HOMO-LUMO gap              0.059961085566 eV    ::
         ::.................................................::
         :: SCC energy              -119.369255498429 Eh    ::
         :: -> isotropic ES            0.324570989026 Eh    ::
         :: -> anisotropic ES          0.006818697056 Eh    ::
         :: -> anisotropic XC         -0.011533044773 Eh    ::
         :: -> dispersion             -0.106230229052 Eh    ::
         :: repulsion energy           1.542666245759 Eh    ::
         :: add. restraining           0.000000000000 Eh    ::
         :: total charge              -0.000000000000 e     ::
         :::::::::::::::::::::::::::::::::::::::::::::::::::::

           -------------------------------------------------
          |                Property Printout                |
           -------------------------------------------------

    * Orbital Energies and Occupations

         #    Occupation            Energy/Eh            Energy/eV
      -------------------------------------------------------------
         1        2.0000           -0.7202801             -19.5998
       ...           ...                  ...                  ...
       109        2.0000           -0.3166204              -8.6157
       110        2.0000           -0.3130346              -8.5181
       111        2.0000           -0.3112776              -8.4703
       112        2.0000           -0.3102730              -8.4430
       113        2.0000           -0.3046647              -8.2903
       114        2.0000           -0.3031041              -8.2479
       115        2.0000           -0.3001868              -8.1685
       116        2.0000           -0.2937240              -7.9926
       117        2.0000           -0.2907018              -7.9104
       118        2.0000           -0.2875463              -7.8245
       119        2.0000           -0.2827516              -7.6941
       120        1.9991           -0.2796620              -7.6100
       121        0.7621           -0.2662369              -7.2447 (HOMO)
       122        0.2388           -0.2640333              -7.1847 (LUMO)
       123        0.0000           -0.2504755              -6.8158
       124                         -0.2326661              -6.3312
       125                         -0.2287079              -6.2235
       126                         -0.2261159              -6.1529
       127                         -0.2192513              -5.9661
       128                         -0.2167006              -5.8967
       129                         -0.2087489              -5.6803
       130                         -0.2083890              -5.6706
       131                         -0.2024366              -5.5086
       132                         -0.1973092              -5.3691
       ...                                ...                  ...
       269                          1.0627316              28.9184
      -------------------------------------------------------------
                  HL-Gap            0.0022035 Eh            0.0600 eV
             Fermi-level           -0.2690555 Eh           -7.3214 eV

     #   Z          covCN         q      C6AA      α(0)
     1   8 O        0.858    -0.463    22.978     6.427
     2   6 C        2.835     0.184    24.060     8.038
     3   6 C        2.820     0.074    26.336     8.409
     4   8 O        1.655    -0.409    21.016     6.189
     5   6 C        2.850     0.104    25.701     8.309
     6   6 C        2.965     0.001    27.997     8.679
     7   6 C        2.918    -0.042    29.047     8.838
     8   6 C        2.910    -0.058    29.440     8.897
     9   6 C        2.845     0.126    25.235     8.233
    10   8 O        1.658    -0.391    20.677     6.138
    11   6 C        2.841     0.107    25.627     8.296
    12   8 O        1.658    -0.410    21.038     6.192
    13   6 C        2.914    -0.073    29.825     8.955
    14   8 O        1.707    -0.228    17.778     5.693
    15   6 C        2.868     0.125    25.250     8.237
    16   6 C        2.915    -0.057    29.413     8.893
    17   6 C        2.913    -0.054    29.349     8.884
    18   6 C        2.844     0.139    24.959     8.188
    19   8 O        1.659    -0.393    20.712     6.144
    20   6 C        2.914    -0.071    29.760     8.946
    21   6 C        2.975    -0.040    29.000     8.833
    22   1 H        0.803     0.326     0.647     1.263
    23   1 H        0.925     0.050     2.317     2.380
    24   1 H        0.925     0.060     2.197     2.318
    25   1 H        0.804     0.322     0.660     1.276
    26   1 H        0.804     0.306     0.703     1.317
    27   1 H        0.925     0.048     2.345     2.395
    28   1 H        0.925     0.055     2.257     2.350
    29   1 H        0.925     0.059     2.210     2.325
    30   1 H        0.804     0.303     0.711     1.324
    31   1 H        0.925     0.059     2.205     2.322
    32   5 B        3.729     0.067    21.431     7.479
    33   5 B        4.543     0.069    21.500     7.471
    34   5 B        3.764     0.031    22.114     7.588
    35   5 B        3.812     0.043    21.934     7.550
    36   5 B        3.866     0.059    21.668     7.502
    37   5 B        4.607     0.026    22.263     7.602
    38   5 B        2.881     0.054    20.496     7.557
    39   5 B        2.866     0.088    19.936     7.454
    40   5 B        4.657     0.034    22.115     7.577
    41   5 B        2.924     0.072    20.179     7.496
    42   5 B        3.820     0.056    21.712     7.512
    43   5 B        3.871     0.023    22.306     7.611
    44   5 B        4.530    -0.003    22.802     7.694
    45   5 B        3.833     0.048    21.851     7.535
    46   5 B        4.711     0.060    21.666     7.500
    47   5 B        4.714     0.053    21.775     7.519
    48   5 B        3.891     0.049    21.850     7.533
    49   5 B        2.930     0.024    20.974     7.642
    50   5 B        4.652     0.021    22.356     7.618
    51   5 B        2.877     0.057    20.443     7.547
    52   5 B        3.828     0.066    21.540     7.481
    53   5 B        3.859     0.024    22.298     7.610
    54   5 B        3.858    -0.006    22.855     7.705
    55   5 B        3.841     0.051    21.796     7.525
    56   5 B        4.594     0.026    22.272     7.604
    57   5 B        5.681     0.106    20.868     7.360
    58   5 B        4.131     0.014    22.479     7.639
    59   5 B        2.924     0.031    20.855     7.620
    60   5 B        5.586     0.062    21.629     7.493
    61   5 B        3.637     0.066    21.105     7.489
    62   5 B        3.826     0.046    21.887     7.541
    63   5 B        3.877     0.031    22.165     7.587
    64   5 B        3.870     0.020    22.359     7.620
    65   5 B        2.915     0.091    19.873     7.439
    66   5 B        3.773     0.075    21.355     7.455
    67   5 B        5.329     0.099    20.989     7.382
    68   5 B        4.732     0.044    21.934     7.546
    69   5 B        3.808     0.014    22.451     7.639
    70   5 B        3.784     0.077    21.320     7.447
    71   5 B        2.896     0.052    20.513     7.559
    72   1 H        0.938    -0.117     6.172     3.884
    73   1 H        1.528     0.033     2.532     2.484
    74   1 H        0.935    -0.146     7.461     4.271
    75   1 H        0.931    -0.134     6.918     4.113
    76   1 H        0.935    -0.121     6.366     3.945
    77   1 H        0.934    -0.115     6.104     3.863
    78   1 H        0.938    -0.105     5.747     3.748
    79   1 H        0.936    -0.136     6.994     4.135
    80   1 H        0.938    -0.091     5.258     3.585
    81   1 H        0.933    -0.152     7.792     4.365
    82   1 H        0.938    -0.096     5.425     3.641
    83   1 H        0.940    -0.134     6.926     4.115
    84   1 H        0.939    -0.112     6.001     3.830
    85   1 H        0.938    -0.114     6.076     3.854
    86   1 H        0.940    -0.142     7.274     4.217

 Mol. C6AA /au·bohr⁶  :     115916.537871
 Mol. C8AA /au·bohr⁸  :    3560347.893324
 Mol. α(0) /au        :        544.463773


Wiberg/Mayer (AO) data.
largest (>0.10) Wiberg bond orders for each atom

 ---------------------------------------------------------------------------
     #   Z sym  total        # sym  WBO       # sym  WBO       # sym  WBO
 ---------------------------------------------------------------------------
     1   8 O    1.911 --     2 C    1.616
     2   6 C    3.890 --     1 O    1.616    21 C    1.082     3 C    1.072
     3   6 C    3.927 --     5 C    1.556     2 C    1.072     4 O    1.064
     4   8 O    2.085 --     3 C    1.064    22 H    0.861
     5   6 C    3.869 --     3 C    1.556     6 C    1.044    14 O    1.039
     6   6 C    3.980 --     7 C    1.382    13 C    1.370     5 C    1.044
     7   6 C    3.976 --     8 C    1.445     6 C    1.382    23 H    0.970
     8   6 C    3.985 --     7 C    1.445     9 C    1.382    24 H    0.967
     9   6 C    3.933 --     8 C    1.382    11 C    1.304    10 O    1.076
    10   8 O    2.112 --     9 C    1.076    25 H    0.873
    11   6 C    3.934 --    13 C    1.408     9 C    1.304    12 O    1.045
    12   8 O    2.093 --    11 C    1.045    26 H    0.883
    13   6 C    3.971 --    11 C    1.408     6 C    1.370    27 H    0.964
    14   8 O    2.335 --    15 C    1.056     5 C    1.039
    15   6 C    3.919 --    16 C    1.358    21 C    1.309    14 O    1.056
    16   6 C    3.959 --    17 C    1.450    15 C    1.358    28 H    0.968
                            20 C    0.101
    17   6 C    3.945 --    16 C    1.450    18 C    1.344    29 H    0.967
    18   6 C    3.937 --    20 C    1.401    17 C    1.344    19 O    1.070
    19   8 O    2.111 --    18 C    1.070    30 H    0.887
    20   6 C    3.942 --    18 C    1.401    21 C    1.344    31 H    0.962
                            16 C    0.101
    21   6 C    3.979 --    20 C    1.344    15 C    1.309     2 C    1.082
    22   1 H    0.893 --     4 O    0.861
    23   1 H    0.997 --     7 C    0.970
    24   1 H    0.996 --     8 C    0.967
    25   1 H    0.897 --    10 O    0.873
    26   1 H    0.906 --    12 O    0.883
    27   1 H    0.998 --    13 C    0.964
    28   1 H    0.996 --    16 C    0.968
    29   1 H    0.996 --    17 C    0.967
    30   1 H    0.908 --    19 O    0.887
    31   1 H    0.996 --    20 C    0.962
    32   5 B    3.568 --    72 H    0.952    35 B    0.914    33 B    0.878
                            73 H    0.538
    33   5 B    3.536 --    32 B    0.878    34 B    0.752    35 B    0.605
                            37 B    0.545    73 H    0.426    36 B    0.133
    34   5 B    3.574 --    36 B    1.120    74 H    0.949    33 B    0.752
                            37 B    0.454
    35   5 B    3.556 --    32 B    0.914    42 B    0.842    43 B    0.815
                            33 B    0.605    45 B    0.110
    36   5 B    3.391 --    34 B    1.120    44 B    0.803    40 B    0.634
                            37 B    0.432    33 B    0.133
    37   5 B    3.596 --    38 B    1.079    40 B    0.764    33 B    0.545
                            34 B    0.454    36 B    0.432
    38   5 B    3.427 --    37 B    1.079    39 B    0.993    75 H    0.912
                            40 B    0.155
    39   5 B    3.248 --    41 B    1.015    38 B    0.993    76 H    0.939
                            49 B    0.108
    40   5 B    3.677 --    48 B    0.779    37 B    0.764    47 B    0.699
                            36 B    0.634    44 B    0.374    38 B    0.155
    41   5 B    3.405 --    39 B    1.015    49 B    0.984    77 H    0.924
                            48 B    0.191
    42   5 B    3.628 --    78 H    0.927    43 B    0.843    35 B    0.842
                            45 B    0.793
    43   5 B    3.609 --    45 B    0.861    42 B    0.843    35 B    0.815
                            44 B    0.806
    44   5 B    3.637 --    46 B    0.837    43 B    0.806    36 B    0.803
                            47 B    0.436    40 B    0.374
    45   5 B    3.579 --    43 B    0.861    42 B    0.793    52 B    0.775
                            53 B    0.716    35 B    0.110
    46   5 B    3.586 --    44 B    0.837    54 B    0.681    47 B    0.637
                            57 B    0.567    50 B    0.458
    47   5 B    3.598 --    50 B    0.948    40 B    0.699    46 B    0.637
                            48 B    0.594    44 B    0.436
    48   5 B    3.548 --    49 B    0.969    40 B    0.779    50 B    0.666
                            47 B    0.594    41 B    0.191
    49   5 B    3.448 --    41 B    0.984    48 B    0.969    51 B    0.961
                            59 B    0.182    39 B    0.108
    50   5 B    3.639 --    47 B    0.948    58 B    0.774    48 B    0.666
                            46 B    0.458    57 B    0.438
    51   5 B    3.415 --    59 B    1.139    49 B    0.961    79 H    0.952
                            61 B    0.112
    52   5 B    3.566 --    80 H    0.921    55 B    0.840    53 B    0.799
                            45 B    0.775
    53   5 B    3.589 --    54 B    1.010    52 B    0.799    45 B    0.716
                            55 B    0.701
    54   5 B    3.631 --    53 B    1.010    56 B    0.894    46 B    0.681
                            57 B    0.607
    55   5 B    3.586 --    63 B    0.843    52 B    0.840    62 B    0.758
                            53 B    0.701    65 B    0.146
    56   5 B    3.668 --    54 B    0.894    64 B    0.701    57 B    0.683
                            67 B    0.615    60 B    0.392
    57   5 B    3.669 --    56 B    0.683    54 B    0.607    60 B    0.586
                            46 B    0.567    58 B    0.522    50 B    0.438
    58   5 B    3.524 --    59 B    0.967    50 B    0.774    60 B    0.774
                            57 B    0.522    61 B    0.197
    59   5 B    3.405 --    51 B    1.139    58 B    0.967    61 B    0.780
                            49 B    0.182
    60   5 B    3.633 --    58 B    0.774    68 B    0.618    57 B    0.586
                            69 B    0.486    56 B    0.392    67 B    0.292
                            61 B    0.267
    61   5 B    3.505 --    69 B    0.972    81 H    0.939    59 B    0.780
                            60 B    0.267    58 B    0.197    51 B    0.112
    62   5 B    3.602 --    65 B    1.019    82 H    0.919    55 B    0.758
                            63 B    0.752
    63   5 B    3.599 --    65 B    0.928    64 B    0.890    55 B    0.843
                            62 B    0.752
    64   5 B    3.612 --    63 B    0.890    66 B    0.862    56 B    0.701
                            67 B    0.634    65 B    0.229
    65   5 B    3.456 --    62 B    1.019    83 H    0.972    63 B    0.928
                            64 B    0.229    55 B    0.146
    66   5 B    3.512 --    84 H    0.953    64 B    0.862    67 B    0.765
                            70 B    0.687
    67   5 B    3.652 --    66 B    0.765    70 B    0.763    64 B    0.634
                            56 B    0.615    68 B    0.440    60 B    0.292
    68   5 B    3.635 --    71 B    0.952    70 B    0.763    69 B    0.706
                            60 B    0.618    67 B    0.440
    69   5 B    3.569 --    71 B    1.166    61 B    0.972    68 B    0.706
                            60 B    0.486
    70   5 B    3.555 --    85 H    0.953    67 B    0.763    68 B    0.763
                            66 B    0.687    71 B    0.187
    71   5 B    3.511 --    69 B    1.166    86 H    0.969    68 B    0.952
                            70 B    0.187
    72   1 H    0.981 --    32 B    0.952
    73   1 H    0.995 --    32 B    0.538    33 B    0.426
    74   1 H    0.977 --    34 B    0.949
    75   1 H    0.979 --    38 B    0.912
    76   1 H    0.983 --    39 B    0.939
    77   1 H    0.983 --    41 B    0.924
    78   1 H    0.977 --    42 B    0.927
    79   1 H    0.978 --    51 B    0.952
    80   1 H    0.980 --    52 B    0.921
    81   1 H    0.975 --    61 B    0.939
    82   1 H    0.980 --    62 B    0.919
    83   1 H    0.981 --    65 B    0.972
    84   1 H    0.984 --    66 B    0.953
    85   1 H    0.983 --    70 B    0.953
    86   1 H    0.979 --    71 B    0.969
 ---------------------------------------------------------------------------

Topologies differ in total number of bonds
Writing topology from bond orders to xtbtopo.mol

molecular dipole:
                 x           y           z       tot (Debye)
 q only:        1.126      -0.624      -3.913
   full:        0.461      -1.197      -3.483       9.433
molecular quadrupole (traceless):
                xx          xy          yy          xz          yz          zz
 q only:        9.014       9.947      28.059       6.792      18.708     -37.073
  q+dip:       36.207      19.596      29.088       0.866      17.589     -65.295
   full:       25.821      15.436      29.484      -0.926      19.174     -55.305


           -------------------------------------------------
          | TOTAL ENERGY             -117.826589252669 Eh   |
          | GRADIENT NORM               0.074508789602 Eh/α |
          | HOMO-LUMO GAP               0.059961085566 eV   |
           -------------------------------------------------

------------------------------------------------------------------------
 * finished run on 2026/09/01 at 20:28:43.353     
------------------------------------------------------------------------
 total:
 * wall-time:     0 d,  0 h,  0 min,  0.499 sec
 *  cpu-time:     0 d,  0 h,  0 min,  5.469 sec
 * ratio c/w:    10.959 speedup
 SCF:
 * wall-time:     0 d,  0 h,  0 min,  0.456 sec
 *  cpu-time:     0 d,  0 h,  0 min,  4.969 sec
 * ratio c/w:    10.896 speedup

