      -----------------------------------------------------------      
     |                   =====================                   |     
     |                           x T B                           |     
     |                   =====================                   |     
     |                         S. Grimme                         |     
     |          Mulliken Center for Theoretical Chemistry        |     
     |                    University of Bonn                     |     
      -----------------------------------------------------------      

   * xtb version 6.7.1pre (5071a88) compiled by 'Marcel@Raven' on 2024-07-23

   xtb is free software: you can redistribute it and/or modify it under
   the terms of the GNU Lesser General Public License as published by
   the Free Software Foundation, either version 3 of the License, or
   (at your option) any later version.
   
   xtb is distributed in the hope that it will be useful,
   but WITHOUT ANY WARRANTY; without even the implied warranty of
   MERCHANTABILITY or FITNESS FOR A PARTICULAR PURPOSE.  See the
   GNU Lesser General Public License for more details.
   
   Cite this work as:
   * C. Bannwarth, E. Caldeweyher, S. Ehlert, A. Hansen, P. Pracht,
     J. Seibert, S. Spicher, S. Grimme, WIREs Comput. Mol. Sci., 2020, 11,
     e01493. DOI: 10.1002/wcms.1493
   
   for GFN2-xTB:
   * C. Bannwarth, S. Ehlert and S. Grimme., J. Chem. Theory Comput., 2019,
     15, 1652-1671. DOI: 10.1021/acs.jctc.8b01176
   for GFN1-xTB:
   * S. Grimme, C. Bannwarth, P. Shushkov, J. Chem. Theory Comput., 2017,
     13, 1989-2009. DOI: 10.1021/acs.jctc.7b00118
   for GFN0-xTB:
   * P. Pracht, E. Caldeweyher, S. Ehlert, S. Grimme, ChemRxiv, 2019, preprint.
     DOI: 10.26434/chemrxiv.8326202.v1
   for GFN-FF:
   * S. Spicher and S. Grimme, Angew. Chem. Int. Ed., 2020, 59, 15665-15673.
     DOI: 10.1002/anie.202004239
   
   for ALPB and GBSA implicit solvation:
   * S. Ehlert, M. Stahn, S. Spicher, S. Grimme, J. Chem. Theory Comput.,
     2021, 17, 4250-4261. DOI: 10.1021/acs.jctc.1c00471
   
   for ddCOSMO and CPCM-X implicit solvation:
   * M. Stahn, S. Ehlert, S. Grimme, J. Phys. Chem. A,
     2023, XX, XXXX-XXXX. DOI: 10.1021/acs.jpca.3c04382
   
   for DFT-D4:
   * E. Caldeweyher, C. Bannwarth and S. Grimme, J. Chem. Phys., 2017,
     147, 034112. DOI: 10.1063/1.4993215
   * E. Caldeweyher, S. Ehlert, A. Hansen, H. Neugebauer, S. Spicher,
     C. Bannwarth and S. Grimme, J. Chem. Phys., 2019, 150, 154122.
     DOI: 10.1063/1.5090222
   * E. Caldeweyher, J.-M. Mewes, S. Ehlert and S. Grimme, Phys. Chem. Chem. Phys.
     2020, 22, 8499-8512. DOI: 10.1039/D0CP00502A
   
   for sTDA-xTB:
   * S. Grimme and C. Bannwarth, J. Chem. Phys., 2016, 145, 054103.
     DOI: 10.1063/1.4959605
   
   in the mass-spec context:
   * V. Asgeirsson, C. Bauer and S. Grimme, Chem. Sci., 2017, 8, 4879.
     DOI: 10.1039/c7sc00601b
   * J. Koopman and S. Grimme, ACS Omega 2019, 4, 12, 15120-15133.
     DOI: 10.1021/acsomega.9b02011
   
   for metadynamics refer to:
   * S. Grimme, J. Chem. Theory Comput., 2019, 155, 2847-2862
     DOI: 10.1021/acs.jctc.9b00143
   
   for SPH calculations refer to:
   * S. Spicher and S. Grimme, J. Chem. Theory Comput., 2021, 17, 1701-1714
     DOI: 10.1021/acs.jctc.0c01306
   
   for ONIOM refer to:
   * C. Plett, A. Katbashev, S. Ehlert, S. Grimme, M. Bursch,
     Phys. Chem. Chem. Phys., 2023, 25, 17860-17868. DOI: 10.1039/D3CP02178E
   
   for DIPRO refer to:
   * J. Kohn, N. Gildemeister, S. Grimme, D. Fazzi, A. Hansen,
     J. Chem. Phys., 2023, just accepted.
   
   for PTB refer to:
   * S. Grimme, M. Mueller, A. Hansen, J. Chem. Phys., 2023, 158, 124111.
     DOI: 10.1063/5.0137838
   
   with help from (in alphabetical order)
   P. Atkinson, C. Bannwarth, F. Bohle, G. Brandenburg, E. Caldeweyher
   M. Checinski, S. Dohm, S. Ehlert, S. Ehrlich, I. Gerasimov, C. Hölzer
   A. Katbashev, J. Kohn, J. Koopman, C. Lavigne, S. Lehtola, F. März, M. Müller,
   F. Musil, H. Neugebauer, J. Pisarek, C. Plett, P. Pracht, F. Pultar,
   J. Seibert, P. Shushkov, S. Spicher, M. Stahn, M. Steiner, T. Strunk,
   J. Stückrath, T. Rose, and J. Unsleber
   
 * started run on 2026/08/31 at 22:04:38.747     
   ID    Z sym.   atoms
    1    8 O      1, 4, 10, 12, 14, 19
    2    6 C      2, 3, 5-9, 11, 13, 15-18, 20, 21
    3    1 H      22-31, 85-91
    4    5 B      32-84

           -------------------------------------------------
          |                Calculation Setup                |
           -------------------------------------------------

          program call               : "c:\Users\Andre\Proyectos doctorado\kras-pancreatic-gC3N4-ai\tools\xtb\xtb-6.7.1\bin\xtb.exe" "c:\Users\Andre\Proyectos doctorado\borophene-alzheimer-tau-ai\calculations\tau\Fisetin\Fisetin_B48H12_clean_complex.xyz" --gfn 2 --sp --chrg 0 --uhf 0 --etemp 300 --iterations 500 --norestart
          coordinate file            : c:\Users\Andre\Proyectos doctorado\borophene-alzheimer-tau-ai\calculations\tau\Fisetin\Fisetin_B48H12_clean_complex.xyz
          omp threads                :                    16


molecular fragmentation (1/2 indicates fragments):
111111111111111111111111111111122222222222222222222222222222222222222222
2222222222222222222
# atoms in fragment 1/2:    31    60
 fragment masses (1/2) :      286.24      580.04
CMA distance (Bohr)    :  15.888
constraining FC (au)   :  0.0500

           -------------------------------------------------
          |                 G F N 2 - x T B                 |
           -------------------------------------------------

        Reference                      10.1021/acs.jctc.8b01176
      * Hamiltonian:
        H0-scaling (s, p, d)           1.850000    2.230000    2.230000
        zeta-weighting                 0.500000
      * Dispersion:
        s8                             2.700000
        a1                             0.520000
        a2                             5.000000
        s9                             5.000000
      * Repulsion:
        kExp                           1.500000    1.000000
        rExp                           1.000000
      * Coulomb:
        alpha                          2.000000
        third order                    shell-resolved
        anisotropic                    true
        a3                             3.000000
        a5                             4.000000
        cn-shift                       1.200000
        cn-exp                         4.000000
        max-rad                        5.000000


          ...................................................
          :                      SETUP                      :
          :.................................................:
          :  # basis functions                 313          :
          :  # atomic orbitals                 313          :
          :  # shells                          165          :
          :  # electrons                       272          :
          :  max. iterations                   500          :
          :  Hamiltonian                  GFN2-xTB          :
          :  restarted?                      false          :
          :  GBSA solvation                  false          :
          :  PC potential                    false          :
          :  electronic temp.          300.0000000     K    :
          :  accuracy                    1.0000000          :
          :  -> integral cutoff          0.2500000E+02      :
          :  -> integral neglect         0.1000000E-07      :
          :  -> SCF convergence          0.1000000E-05 Eh   :
          :  -> wf. convergence          0.1000000E-03 e    :
          :  Broyden damping             0.4000000          :
          :  net charge                          0          :
          :  unpaired electrons                  0          :
          ...................................................

 iter      E             dE          RMSdq      gap      omega  full diag
   1   -130.1962844 -0.130196E+03  0.158E+01    0.12       0.0  T
   2   -119.2626069  0.109337E+02  0.110E+01    0.09       1.0  T
   3     97.9655667  0.217228E+03  0.203E+01    0.17       1.0  T
   4     32.1754879 -0.657901E+02  0.171E+01    0.12       1.0  T
   5    -97.4248844 -0.129600E+03  0.938E+00    0.09       1.0  T
   6    -41.9339180  0.554910E+02  0.136E+01    0.05       1.0  T
   7   -127.5441674 -0.856102E+02  0.527E+00    0.04       1.0  T
   8   -124.0531466  0.349102E+01  0.495E+00    0.05       1.0  T
   9   -130.5704788 -0.651733E+01  0.324E+00    0.54       1.0  T
  10   -130.7942826 -0.223804E+00  0.282E+00    0.44       1.0  T
  11   -130.9412743 -0.146992E+00  0.252E+00    0.44       1.0  T
  12   -130.9250517  0.162227E-01  0.232E+00    0.46       1.0  T
  13   -130.9053198  0.197319E-01  0.170E+00    0.26       1.0  T
  14   -130.4044100  0.500910E+00  0.184E+00    0.23       1.0  T
  15   -130.9927989 -0.588389E+00  0.108E+00    0.06       1.0  T
  16   -130.6166795  0.376119E+00  0.153E+00    0.21       1.0  T
  17   -130.7885917 -0.171912E+00  0.119E+00    0.06       1.0  T
  18   -131.0811739 -0.292582E+00  0.649E-01    0.02       1.0  T
  19   -131.1208221 -0.396482E-01  0.532E-01    0.09       1.0  T
  20   -131.0334571  0.873651E-01  0.767E-01    0.03       1.0  T
  21   -131.0681900 -0.347329E-01  0.660E-01    0.01       1.0  T
  22   -131.0748392 -0.664917E-02  0.573E-01    0.01       1.0  T
  23   -131.1331647 -0.583255E-01  0.259E-01    0.13       1.0  T
  24   -131.1365090 -0.334434E-02  0.227E-01    0.10       1.0  T
  25   -131.1349645  0.154456E-02  0.223E-01    0.12       1.0  T
  26   -131.1388268 -0.386231E-02  0.154E-01    0.09       1.0  T
  27   -131.1364900  0.233677E-02  0.168E-01    0.11       1.0  T
  28   -131.1397786 -0.328857E-02  0.106E-01    0.09       1.0  T
  29   -131.1412193 -0.144067E-02  0.529E-02    0.08       1.0  T
  30   -131.1412292 -0.998534E-05  0.425E-02    0.07       1.0  T
  31   -131.1414239 -0.194689E-03  0.297E-02    0.07       1.0  T
  32   -131.1414152  0.870576E-05  0.275E-02    0.07       1.0  T
  33   -131.1415105 -0.952296E-04  0.153E-02    0.07       1.0  T
  34   -131.1414841  0.263842E-04  0.167E-02    0.08       1.0  T
  35   -131.1415111 -0.270635E-04  0.118E-02    0.07       1.0  T
  36   -131.1414994  0.117037E-04  0.132E-02    0.08       1.0  T
  37   -131.1415243 -0.248419E-04  0.603E-03    0.07       1.7  T
  38   -131.1415244 -0.163794E-06  0.571E-03    0.07       1.8  T
  39   -131.1415257 -0.122366E-05  0.498E-03    0.07       2.1  T
  40   -131.1415281 -0.246309E-05  0.311E-03    0.07       3.4  T
  41   -131.1415288 -0.717030E-06  0.202E-03    0.07       5.2  T
  42   -131.1415290 -0.192970E-06  0.157E-03    0.07       6.7  T
  43   -131.1415291 -0.845630E-07  0.129E-03    0.07       8.2  T
  44   -131.1415291 -0.271116E-07  0.107E-03    0.07       9.8  T
  45   -131.1415293 -0.137747E-06  0.603E-04    0.07      17.4  T
  46   -131.1415293 -0.271571E-07  0.429E-04    0.07      24.4  T

   *** convergence criteria satisfied after 46 iterations ***

         #    Occupation            Energy/Eh            Energy/eV
      -------------------------------------------------------------
         1        2.0000           -0.7108873             -19.3442
       ...           ...                  ...                  ...
       130        2.0000           -0.2728538              -7.4247
       131        2.0000           -0.2676477              -7.2831
       132        2.0000           -0.2672790              -7.2730
       133        2.0000           -0.2628700              -7.1531
       134        1.9999           -0.2583683              -7.0306
       135        1.9992           -0.2567442              -6.9864
       136        1.6086           -0.2506795              -6.8213 (HOMO)
       137        0.3923           -0.2479967              -6.7483 (LUMO)
       138        0.0000           -0.2337467              -6.3606
       139                         -0.2302320              -6.2649
       140                         -0.2267599              -6.1705
       141                         -0.2170063              -5.9050
       ...                                ...                  ...
       313                          1.1880755              32.3292
      -------------------------------------------------------------
                  HL-Gap            0.0026828 Eh            0.0730 eV
             Fermi-level           -0.2493366 Eh           -6.7848 eV

 SCC (total)                   0 d,  0 h,  0 min,  1.176 sec
 SCC setup                      ...        0 min,  0.000 sec (  0.000%)
 Dispersion                     ...        0 min,  0.002 sec (  0.170%)
 classical contributions        ...        0 min,  0.000 sec (  0.000%)
 integral evaluation            ...        0 min,  0.011 sec (  0.935%)
 iterations                     ...        0 min,  1.141 sec ( 97.024%)
 molecular gradient             ...        0 min,  0.020 sec (  1.701%)
 printout                       ...        0 min,  0.002 sec (  0.170%)

         :::::::::::::::::::::::::::::::::::::::::::::::::::::
         ::                     SUMMARY                     ::
         :::::::::::::::::::::::::::::::::::::::::::::::::::::
         :: total energy            -129.304450581328 Eh    ::
         :: gradient norm              0.077322071576 Eh/a0 ::
         :: HOMO-LUMO gap              0.073001962719 eV    ::
         ::.................................................::
         :: SCC energy              -131.140216151851 Eh    ::
         :: -> isotropic ES            0.359738171582 Eh    ::
         :: -> anisotropic ES          0.003623991515 Eh    ::
         :: -> anisotropic XC         -0.048950608390 Eh    ::
         :: -> dispersion             -0.114309888972 Eh    ::
         :: repulsion energy           1.835765570522 Eh    ::
         :: add. restraining           0.000000000000 Eh    ::
         :: total charge               0.000000001143 e     ::
         :::::::::::::::::::::::::::::::::::::::::::::::::::::

           -------------------------------------------------
          |                Property Printout                |
           -------------------------------------------------

    * Orbital Energies and Occupations

         #    Occupation            Energy/Eh            Energy/eV
      -------------------------------------------------------------
         1        2.0000           -0.7108873             -19.3442
       ...           ...                  ...                  ...
       124        2.0000           -0.2879947              -7.8367
       125        2.0000           -0.2863878              -7.7930
       126        2.0000           -0.2818527              -7.6696
       127        2.0000           -0.2791300              -7.5955
       128        2.0000           -0.2780062              -7.5649
       129        2.0000           -0.2746119              -7.4726
       130        2.0000           -0.2728538              -7.4247
       131        2.0000           -0.2676477              -7.2831
       132        2.0000           -0.2672790              -7.2730
       133        2.0000           -0.2628700              -7.1531
       134        1.9999           -0.2583683              -7.0306
       135        1.9992           -0.2567442              -6.9864
       136        1.6086           -0.2506795              -6.8213 (HOMO)
       137        0.3923           -0.2479967              -6.7483 (LUMO)
       138        0.0000           -0.2337467              -6.3606
       139                         -0.2302320              -6.2649
       140                         -0.2267599              -6.1705
       141                         -0.2170063              -5.9050
       142                         -0.2158972              -5.8749
       143                         -0.2158935              -5.8748
       144                         -0.2126063              -5.7853
       145                         -0.2075372              -5.6474
       146                         -0.2051920              -5.5836
       147                         -0.2011916              -5.4747
       ...                                ...                  ...
       313                          1.1880755              32.3292
      -------------------------------------------------------------
                  HL-Gap            0.0026828 Eh            0.0730 eV
             Fermi-level           -0.2493366 Eh           -6.7848 eV

     #   Z          covCN         q      C6AA      α(0)
     1   8 O        0.858    -0.475    23.245     6.464
     2   6 C        2.835     0.172    24.305     8.079
     3   6 C        2.820     0.068    26.468     8.430
     4   8 O        1.655    -0.422    21.290     6.229
     5   6 C        2.850     0.095    25.889     8.339
     6   6 C        2.965    -0.000    28.034     8.685
     7   6 C        2.918    -0.045    29.110     8.848
     8   6 C        2.910    -0.060    29.492     8.905
     9   6 C        2.845     0.122    25.321     8.247
    10   8 O        1.658    -0.396    20.772     6.153
    11   6 C        2.841     0.104    25.698     8.308
    12   8 O        1.658    -0.415    21.140     6.207
    13   6 C        2.914    -0.078    29.950     8.974
    14   8 O        1.707    -0.237    17.927     5.717
    15   6 C        2.868     0.122    25.311     8.247
    16   6 C        2.915    -0.062    29.549     8.914
    17   6 C        2.913    -0.061    29.506     8.907
    18   6 C        2.844     0.135    25.042     8.201
    19   8 O        1.659    -0.399    20.836     6.162
    20   6 C        2.914    -0.079    29.972     8.977
    21   6 C        2.975    -0.044    29.088     8.847
    22   1 H        0.803     0.333     0.631     1.248
    23   1 H        0.925     0.049     2.330     2.387
    24   1 H        0.925     0.057     2.239     2.340
    25   1 H        0.804     0.319     0.667     1.283
    26   1 H        0.804     0.304     0.711     1.324
    27   1 H        0.925     0.045     2.385     2.415
    28   1 H        0.925     0.048     2.342     2.393
    29   1 H        0.925     0.052     2.300     2.372
    30   1 H        0.804     0.301     0.719     1.332
    31   1 H        0.925     0.056     2.247     2.344
    32   5 B        2.872     0.042    20.700     7.595
    33   5 B        3.645     0.027    21.829     7.607
    34   5 B        3.704     0.012    22.349     7.649
    35   5 B        3.599     0.003    21.977     7.690
    36   5 B        3.804     0.012    22.487     7.646
    37   5 B        3.812     0.037    22.046     7.570
    38   5 B        4.425     0.059    21.671     7.501
    39   5 B        3.843     0.027    22.230     7.599
    40   5 B        5.059     0.053    21.778     7.519
    41   5 B        5.523     0.103    20.928     7.371
    42   5 B        3.792     0.001    22.694     7.682
    43   5 B        4.799     0.086    21.217     7.422
    44   5 B        4.746     0.061    21.645     7.496
    45   5 B        3.691     0.013    22.296     7.648
    46   5 B        3.741     0.022    22.248     7.616
    47   5 B        4.170    -0.017    23.070     7.739
    48   5 B        3.938     0.009    22.583     7.657
    49   5 B        3.779     0.074    21.378     7.458
    50   5 B        3.808     0.065    21.553     7.485
    51   5 B        3.812    -0.010    22.917     7.718
    52   5 B        3.702     0.002    22.536     7.682
    53   5 B        3.825     0.012    22.508     7.648
    54   5 B        4.691     0.053    21.777     7.519
    55   5 B        4.735     0.044    21.946     7.548
    56   5 B        3.813     0.074    21.393     7.457
    57   5 B        2.071     0.000    43.029    13.721
    58   5 B        3.706     0.006    22.461     7.667
    59   5 B        4.547     0.020    22.375     7.622
    60   5 B        4.200     0.031    22.172     7.587
    61   5 B        3.748     0.072    21.375     7.464
    62   5 B        3.840    -0.006    22.839     7.703
    63   5 B        3.769     0.017    22.371     7.631
    64   5 B        4.530     0.066    21.558     7.481
    65   5 B        5.624     0.097    21.020     7.387
    66   5 B        3.805     0.018    22.378     7.627
    67   5 B        3.825     0.011    22.514     7.649
    68   5 B        2.886     0.070    20.227     7.507
    69   5 B        2.918     0.042    20.686     7.589
    70   5 B        2.913     0.016    21.117     7.668
    71   5 B        3.630     0.007    22.097     7.672
    72   5 B        3.792     0.001    22.685     7.681
    73   5 B        2.860    -0.006    21.536     7.748
    74   5 B        2.920    -0.033    22.003     7.827
    75   5 B        3.825     0.019    22.368     7.624
    76   5 B        2.901    -0.029    21.926     7.815
    77   5 B        4.532     0.041    21.995     7.557
    78   5 B        3.896     0.035    22.104     7.576
    79   5 B        3.818     0.015    22.443     7.637
    80   5 B        3.778    -0.037    23.402     7.803
    81   5 B        3.628    -0.022    22.619     7.763
    82   5 B        4.556     0.023    22.328     7.614
    83   5 B        3.280     0.017    21.086     7.658
    84   5 B        4.869     0.087    21.192     7.417
    85   1 H        0.937    -0.176     9.156     4.731
    86   1 H        0.935    -0.145     7.428     4.261
    87   1 H        0.936    -0.140     7.206     4.197
    88   1 H        0.939    -0.154     7.913     4.398
    89   1 H        0.936    -0.141     7.235     4.206
    90   1 H        0.937    -0.145     7.428     4.261
    91   1 H        0.934    -0.144     7.362     4.242

 Mol. C6AA /au·bohr⁶  :     150068.961906
 Mol. C8AA /au·bohr⁸  :    4985441.463909
 Mol. α(0) /au        :        624.787262


Wiberg/Mayer (AO) data.
largest (>0.10) Wiberg bond orders for each atom

 ---------------------------------------------------------------------------
     #   Z sym  total        # sym  WBO       # sym  WBO       # sym  WBO
 ---------------------------------------------------------------------------
     1   8 O    1.859 --     2 C    1.587
     2   6 C    3.851 --     1 O    1.587    21 C    1.085     3 C    1.076
     3   6 C    3.919 --     5 C    1.549     2 C    1.076     4 O    1.059
     4   8 O    2.071 --     3 C    1.059    22 H    0.856
     5   6 C    3.831 --     3 C    1.549     6 C    1.049    14 O    1.028
     6   6 C    3.972 --     7 C    1.377    13 C    1.365     5 C    1.049
     7   6 C    3.970 --     8 C    1.447     6 C    1.377    23 H    0.970
     8   6 C    3.983 --     7 C    1.447     9 C    1.380    24 H    0.967
     9   6 C    3.922 --     8 C    1.380    11 C    1.306    10 O    1.070
    10   8 O    2.103 --     9 C    1.070    25 H    0.875
    11   6 C    3.931 --    13 C    1.409     9 C    1.306    12 O    1.040
    12   8 O    2.086 --    11 C    1.040    26 H    0.885
    13   6 C    3.962 --    11 C    1.409     6 C    1.365    27 H    0.964
    14   8 O    2.310 --    15 C    1.052     5 C    1.028
    15   6 C    3.914 --    16 C    1.366    21 C    1.307    14 O    1.052
    16   6 C    3.940 --    17 C    1.432    15 C    1.366    28 H    0.969
    17   6 C    3.920 --    16 C    1.432    18 C    1.350    29 H    0.968
    18   6 C    3.934 --    20 C    1.398    17 C    1.350    19 O    1.063
    19   8 O    2.103 --    18 C    1.063    30 H    0.888
    20   6 C    3.913 --    18 C    1.398    21 C    1.337    31 H    0.962
    21   6 C    3.973 --    20 C    1.337    15 C    1.307     2 C    1.085
    22   1 H    0.889 --     4 O    0.856
    23   1 H    0.998 --     7 C    0.970
    24   1 H    0.996 --     8 C    0.967
    25   1 H    0.898 --    10 O    0.875
    26   1 H    0.908 --    12 O    0.885
    27   1 H    0.998 --    13 C    0.964
    28   1 H    0.997 --    16 C    0.969
    29   1 H    0.996 --    17 C    0.968
    30   1 H    0.910 --    19 O    0.888
    31   1 H    0.997 --    20 C    0.962
    32   5 B    3.480 --    74 B    1.428    85 H    0.958    38 B    0.837
    33   5 B    3.501 --    74 B    1.123    75 B    0.988    39 B    0.557
                            38 B    0.508
    34   5 B    3.502 --    76 B    1.275    75 B    1.014    41 B    0.485
                            40 B    0.447
    35   5 B    3.473 --    76 B    1.289    36 B    1.018    41 B    0.562
                            77 B    0.358
    36   5 B    3.531 --    78 B    1.094    35 B    1.018    42 B    0.682
                            77 B    0.483
    37   5 B    3.595 --    89 H    0.941    78 B    0.856    49 B    0.810
                            43 B    0.800
    38   5 B    3.613 --    32 B    0.837    44 B    0.835    74 B    0.787
                            33 B    0.508    45 B    0.390
    39   5 B    3.564 --    45 B    1.106    75 B    0.768    40 B    0.691
                            33 B    0.557
    40   5 B    3.587 --    46 B    0.964    39 B    0.691    41 B    0.520
                            75 B    0.503    34 B    0.447    47 B    0.233
    41   5 B    3.597 --    47 B    0.625    77 B    0.619    76 B    0.590
                            35 B    0.562    40 B    0.520    34 B    0.485
    42   5 B    3.596 --    48 B    1.107    77 B    0.920    36 B    0.682
                            78 B    0.506
    43   5 B    3.596 --    49 B    0.845    37 B    0.800    55 B    0.686
                            78 B    0.593    48 B    0.516
    44   5 B    3.620 --    38 B    0.835    50 B    0.755    45 B    0.692
                            51 B    0.557    84 B    0.495
    45   5 B    3.546 --    39 B    1.106    51 B    0.930    44 B    0.692
                            38 B    0.390
    46   5 B    3.436 --    52 B    1.102    40 B    0.964    53 B    0.590
                            47 B    0.417
    47   5 B    3.600 --    53 B    1.115    77 B    0.909    41 B    0.625
                            46 B    0.417    40 B    0.233
    48   5 B    3.550 --    42 B    1.107    54 B    0.832    55 B    0.607
                            43 B    0.516    78 B    0.181
    49   5 B    3.512 --    90 H    0.953    43 B    0.845    37 B    0.810
                            55 B    0.678
    50   5 B    3.524 --    86 H    0.940    56 B    0.830    44 B    0.755
                            84 B    0.728
    51   5 B    3.624 --    57 B    1.268    45 B    0.930    44 B    0.557
                            84 B    0.544
    52   5 B    3.476 --    58 B    1.159    46 B    1.102    53 B    0.553
                            59 B    0.393
    53   5 B    3.567 --    47 B    1.115    59 B    0.972    46 B    0.590
                            52 B    0.553
    54   5 B    3.579 --    60 B    0.864    48 B    0.832    67 B    0.560
                            55 B    0.541    61 B    0.499
    55   5 B    3.605 --    61 B    0.869    43 B    0.686    49 B    0.678
                            48 B    0.607    54 B    0.541
    56   5 B    3.571 --    87 H    0.942    50 B    0.830    84 B    0.773
                            62 B    0.726
    57   5 B    3.413 --    63 B    1.330    51 B    1.268    84 B    0.204
                            79 B    0.157
    58   5 B    3.427 --    52 B    1.159    64 B    1.015    65 B    0.509
                            59 B    0.457
    59   5 B    3.576 --    53 B    0.972    82 B    0.781    65 B    0.657
                            58 B    0.457    52 B    0.393
    60   5 B    3.561 --    66 B    1.007    54 B    0.864    67 B    0.632
                            73 B    0.541    83 B    0.320
    61   5 B    3.413 --    91 H    0.925    67 B    0.890    55 B    0.869
                            54 B    0.499
    62   5 B    3.605 --    68 B    1.230    56 B    0.726    79 B    0.712
                            84 B    0.691
    63   5 B    3.570 --    57 B    1.330    69 B    0.686    79 B    0.606
                            80 B    0.574
    64   5 B    3.512 --    58 B    1.015    70 B    0.647    80 B    0.577
                            65 B    0.537    81 B    0.450
    65   5 B    3.612 --    59 B    0.657    82 B    0.630    64 B    0.537
                            71 B    0.525    58 B    0.509    81 B    0.507
    66   5 B    3.543 --    82 B    1.026    60 B    1.007    72 B    0.630
                            83 B    0.526
    67   5 B    3.505 --    73 B    1.232    61 B    0.890    60 B    0.632
                            54 B    0.560
    68   5 B    3.459 --    62 B    1.230    88 H    0.957    79 B    0.849
                            69 B    0.144
    69   5 B    3.402 --    80 B    1.161    79 B    1.108    63 B    0.686
                            68 B    0.144
    70   5 B    3.348 --    81 B    1.208    80 B    1.134    64 B    0.647
    71   5 B    3.386 --    81 B    1.130    72 B    1.080    65 B    0.525
                            82 B    0.392
    72   5 B    3.488 --    71 B    1.080    83 B    1.063    66 B    0.630
                            82 B    0.495
    73   5 B    3.338 --    83 B    1.265    67 B    1.232    60 B    0.541
    74   5 B    3.520 --    32 B    1.428    33 B    1.123    38 B    0.787
    75   5 B    3.521 --    34 B    1.014    33 B    0.988    39 B    0.768
                            40 B    0.503
    76   5 B    3.442 --    35 B    1.289    34 B    1.275    41 B    0.590
    77   5 B    3.559 --    42 B    0.920    47 B    0.909    41 B    0.619
                            36 B    0.483    35 B    0.358
    78   5 B    3.483 --    36 B    1.094    37 B    0.856    43 B    0.593
                            42 B    0.506    48 B    0.181
    79   5 B    3.628 --    69 B    1.108    68 B    0.849    62 B    0.712
                            63 B    0.606    57 B    0.157
    80   5 B    3.617 --    69 B    1.161    70 B    1.134    64 B    0.577
                            63 B    0.574
    81   5 B    3.499 --    70 B    1.208    71 B    1.130    65 B    0.507
                            64 B    0.450
    82   5 B    3.591 --    66 B    1.026    59 B    0.781    65 B    0.630
                            72 B    0.495    71 B    0.392
    83   5 B    3.386 --    73 B    1.265    72 B    1.063    66 B    0.526
                            60 B    0.320
    84   5 B    3.625 --    56 B    0.773    50 B    0.728    62 B    0.691
                            51 B    0.544    44 B    0.495    57 B    0.204
    85   1 H    0.967 --    32 B    0.958
    86   1 H    0.973 --    50 B    0.940
    87   1 H    0.975 --    56 B    0.942
    88   1 H    0.972 --    68 B    0.957
    89   1 H    0.969 --    37 B    0.941
    90   1 H    0.975 --    49 B    0.953
    91   1 H    0.973 --    61 B    0.925
 ---------------------------------------------------------------------------

Topologies differ in total number of bonds
Writing topology from bond orders to xtbtopo.mol

molecular dipole:
                 x           y           z       tot (Debye)
 q only:        2.320       1.329      -3.235
   full:        2.215       1.186      -4.729      13.610
molecular quadrupole (traceless):
                xx          xy          yy          xz          yz          zz
 q only:      -30.162      22.267      93.344      -9.652       8.077     -63.182
  q+dip:        7.733       3.055      68.579     -10.971      19.920     -76.312
   full:       -5.515       7.806      62.430      -7.825      21.122     -56.915


           -------------------------------------------------
          | TOTAL ENERGY             -129.304450581328 Eh   |
          | GRADIENT NORM               0.077322071576 Eh/α |
          | HOMO-LUMO GAP               0.073001962719 eV   |
           -------------------------------------------------

------------------------------------------------------------------------
 * finished run on 2026/08/31 at 22:04:39.988     
------------------------------------------------------------------------
 total:
 * wall-time:     0 d,  0 h,  0 min,  1.239 sec
 *  cpu-time:     0 d,  0 h,  0 min,  8.891 sec
 * ratio c/w:     7.176 speedup
 SCF:
 * wall-time:     0 d,  0 h,  0 min,  1.178 sec
 *  cpu-time:     0 d,  0 h,  0 min,  8.531 sec
 * ratio c/w:     7.242 speedup

normal termination of xtb
