89
Memantine/B40H15 GFN2 opt
C       1.77704500     -1.99878242      6.81877275
C       0.80818905     -0.94215750      7.34986924
C       0.85431580     -0.90714224      8.88023645
C      -0.11516186      0.14917256      9.40593879
C       0.27716391      1.52178931      8.86080780
C       0.22582124      1.51020661      7.32962005
C       0.61999685      2.87945103      6.77333501
C       1.18909039      0.43952123      6.80927061
C      -1.19612522      1.15391033      6.88851599
C      -1.60239519     -0.22448444      7.43139749
N      -2.95007488     -0.62092693      7.03738625
C      -1.53416611     -0.19495349      8.96060447
C      -0.61812902     -1.27089909      6.90346624
H       2.79536777     -1.77061031      7.12616317
H       1.74415607     -2.03094693      5.73337363
H       1.51580154     -2.98287630      7.20178021
H       0.58496142     -1.88685242      9.28086538
H       1.86887290     -0.67639042      9.21339211
H      -0.07434630      0.16798706     10.50144265
H      -0.40460704      2.28233870      9.24908545
H       1.28548779      1.77735343      9.19441471
H       1.62921318      3.14006462      7.08389616
H      -0.05815879      3.64794698      7.13842772
H       0.58402791      2.87191076      5.68726022
H       2.20687632      0.68471630      7.11953013
H       1.16598281      0.42653225      5.71856956
H      -1.25113162      1.14506261      5.79797425
H      -1.89646595      1.91003021      7.25553567
H      -3.02175481     -0.66136812      6.02624786
H      -3.62622314      0.05992830      7.36579324
H      -2.23850651      0.54720190      9.34439798
H      -1.83253298     -1.16960189      9.34944840
H      -0.66523815     -1.29441149      5.81322480
H      -0.91630855     -2.25256988      7.27452747
B      -1.99970289     -3.58200178     -0.71391768
B      -2.58490038     -2.07795158     -1.33631764
B      -3.76076961     -1.19710272     -2.09937921
B      -1.56350185     -2.92255470     -2.20174593
B      -2.75708522     -0.02628784     -1.85637874
B      -3.16502293     -0.93494648     -0.28483919
B      -4.21198600     -1.16338568      0.96310138
B      -4.33067465     -0.24932830      2.29681532
B      -2.04765375      0.28377656     -0.41496210
B      -2.96717922     -0.26005422      3.14164480
B      -0.47346557     -3.23814080     -3.31587970
B      -0.64786798     -1.53465291     -2.55361040
B      -1.17853755     -0.00077470     -2.36689619
B       0.73257747     -2.54171073     -2.56263795
B       0.02972473      0.80123727     -1.68675700
B      -0.41649224      0.78821202     -0.04433367
B      -1.66234828      0.76779604      1.03293962
B      -2.08730240      0.96681101      2.53885890
B      -0.07906407      0.38803717      1.51009991
B      -1.42908616      2.12698923      3.43825749
B       1.99492363     -2.62074398     -1.42435302
B       1.02812511     -1.29409250     -1.65459511
B       1.51503086      0.17846695     -1.10460262
B       2.11636287     -1.31830973     -0.40824686
B       2.79524937      0.18238929      0.00792651
B       0.86002220      1.69916157     -0.65743023
B       0.88435018      0.39115089      2.89720557
B       0.05275981      1.71234384      2.93486041
B       1.62717926      2.84824004      0.08565550
B       0.44628943      3.19970411      2.27296752
B       0.71616110     -1.05148786      1.95614879
B       2.17531546     -0.90112198      1.18577015
B       2.99585666      0.45222522      1.75260137
B       2.23530871     -0.51015673      2.89053669
B       4.17143313      1.58716218      2.19080174
B       3.90681767      1.17066110      0.52506757
B       3.05940773      3.28543189      0.51625850
B       1.90739069      3.15744663      1.70474121
B       4.54672643      2.65213735      0.66187206
B       3.52803409      3.18584450      2.18872040
H      -1.03470492     -3.76838459     -0.04862318
H      -2.91165115     -4.26803925     -0.39730446
H      -4.77491846     -1.52775826     -2.58176522
H      -4.81204123     -2.18489058      0.99674153
H      -5.27421341      0.41548866      2.52550709
H      -2.57888661     -1.07049642      3.90196543
H      -0.59859797     -3.81030578     -4.33693349
H      -1.85155336      2.94420035      4.16474641
H       2.55918789     -3.63679963     -1.26391235
H      -0.26963879      4.13880621      2.24854663
H       0.07709100     -2.02940378      2.14359217
H       2.80631819     -1.05500757      3.77003586
H       5.04066811      1.26508568      2.92905161
H       5.60327157      3.07638147      0.35064280
H       3.92279385      4.01876663      2.93549795
