29
RDKit ETKDG+MMFF
N       0.85104692      2.35099019      0.78283687
C       0.62111965      0.99655399      0.43129596
C      -0.68011549      0.57779747      0.08882234
C      -0.85729496     -0.75760203     -0.28156646
N       0.16561904     -1.63517580     -0.39761083
C       1.41412108     -1.20959677     -0.16988632
C       2.44981978     -2.11801495     -0.34723780
C       3.78624042     -1.76380761     -0.15789810
C       4.10215241     -0.46666517      0.21386154
C       3.07792653      0.46135211      0.40378512
C       1.71468368      0.10870716      0.22814966
C      -2.21153435     -1.31063679     -0.64501674
C      -3.36852156     -0.46411408     -0.12875849
C      -3.13352612      0.99525803     -0.48494201
C      -1.86351994      1.51212078      0.18946172
H       0.04774828      2.80352538      1.20582504
H       1.67510058      2.47780373      1.36042747
H       2.20641808     -3.13386039     -0.65067949
H       4.57055381     -2.49987235     -0.31103199
H       5.13917078     -0.17260841      0.35193925
H       3.35763720      1.47464242      0.67636975
H      -2.30866830     -2.33025383     -0.25393801
H      -2.26521843     -1.37442421     -1.73900672
H      -3.45879504     -0.57068037      0.95956913
H      -4.30893124     -0.81543397     -0.56759037
H      -3.04417269      1.09772535     -1.57403687
H      -3.98959989      1.60527610     -0.17555803
H      -2.07144299      1.68012837      1.25387967
H      -1.61801724      2.48086564     -0.26146527
