114
Bexarotene/beta12_supported GFN2 opt
C      -2.53186639     -1.83779587      3.45629101
C      -1.33092182     -1.88993248      4.06117283
C      -0.75291881     -3.15850291      4.49137422
C      -0.93928668     -4.33920714      3.75453719
C      -0.39917829     -5.52676814      4.17802025
C       0.34258459     -5.59331072      5.36826351
C       0.90014925     -6.86761079      5.78410723
O       0.78075642     -7.92355143      5.18949433
O       1.61060656     -6.81025237      6.94654020
C       0.51640838     -4.42049820      6.11906162
C      -0.01695937     -3.23309497      5.68442942
C      -0.59489291     -0.64849606      4.36261610
C      -1.30360982      0.45237782      4.83147881
C      -0.70606133      1.64862581      5.20195435
C       0.68565619      1.74173427      5.13711234
C       1.38477572      0.66982274      4.59220570
C       0.78889266     -0.51637771      4.19962108
C       1.66064065     -1.60077231      3.64079840
C       1.47737663      2.92339395      5.66771702
C       2.18216991      3.64464013      4.51184857
C       2.53882780      2.42162635      6.66091404
C       0.56796000      3.90721092      6.41642619
C      -0.77360923      4.08433699      5.72550255
C      -1.58025889      2.78069945      5.70665618
C      -2.08520013      2.42507500      7.11277716
C      -2.79160973      3.00364187      4.78956825
H      -3.11849301     -2.72616705      3.30826357
H      -2.96165723     -0.90946549      3.13372591
H      -1.49324114     -4.30714362      2.82837578
H      -0.52654393     -6.43304322      3.60666058
H       1.93486394     -7.70037360      7.14363246
H       1.07178927     -4.46770791      7.04277575
H       0.11091048     -2.33676504      6.27489160
H      -2.36872392      0.33979042      4.95139239
H       2.45654692      0.74297257      4.48715582
H       2.46184853     -1.16134067      3.05178743
H       1.08800181     -2.28425685      3.02435038
H       2.10457163     -2.17888581      4.45137585
H       2.81192498      2.95523969      3.95720541
H       1.45868556      4.07643501      3.82625522
H       2.81090014      4.44334806      4.89959015
H       3.31793258      1.85137021      6.16381416
H       2.08169868      1.78632696      7.41653719
H       3.00629585      3.26871760      7.15893684
H       1.07366648      4.87185541      6.49414562
H       0.40364111      3.54555095      7.43227047
H      -1.35023040      4.85814707      6.23631553
H      -0.61314090      4.41477732      4.69766317
H      -2.72237889      1.54519760      7.07219696
H      -1.25889393      2.20363867      7.78278404
H      -2.66055482      3.24910285      7.52970359
H      -3.35667499      3.86429278      5.14163486
H      -2.46383263      3.20331868      3.77254762
H      -3.45907649      2.14726813      4.78452802
B      -5.97731576      3.13290388      1.36317432
B      -5.91524630      1.52016566      0.78071284
B      -4.56550255      4.08096192      1.13598622
B      -4.49259401      2.40152127      0.97880948
B      -4.41790699      0.72183964      0.75796368
B      -5.75975553     -1.87986173      0.61695561
B      -5.69921611     -3.49579783      0.05255546
B      -4.34516626     -0.94192989      0.54794095
B      -4.27286893     -2.62417929      0.34157338
B      -4.19481926     -4.30531065      0.19771194
B      -3.05944233      3.30804426      1.09816541
B      -2.98556749      1.61077447      0.94597322
B      -1.63068614      4.17464532      1.36220658
B      -1.56146738      2.52108070      1.02653371
B      -1.49027122      0.85395323      0.73604187
B      -2.84490493     -1.70291661      0.34758516
B      -2.76932199     -3.38946185      0.12607996
B      -1.41818863     -0.80910229      0.48813857
B      -1.34859705     -2.47221420      0.16853253
B      -1.28068843     -4.11585221     -0.22039528
B      -0.13127629      3.42126810      1.16884706
B      -0.06396969      1.76643184      0.75647527
B       1.29433542      4.32138455      1.23564843
B       1.36463954      2.66208116      0.93015510
B       1.43358715      1.00384317      0.58323284
B       0.08064327     -1.56623938      0.27891386
B       0.15359927     -3.24980610      0.04282568
B       1.50440368     -0.65465635      0.30366791
B       1.57999180     -2.34248445      0.14527480
B       1.65541552     -4.02752747      0.02387462
B       2.78595255      3.58667838      0.92155204
B       2.86535174      1.88285328      0.81594917
B       4.21262013      4.49192080      0.92194193
B       4.29048483      2.80732655      0.80348467
B       4.36373551      1.11986395      0.63260105
B       3.00733233     -1.43694262      0.25925893
B       3.07563368     -3.10746100     -0.06891336
B       4.43506688     -0.53739863      0.37720240
B       4.50666209     -2.19921937      0.03825904
B       4.57150116     -3.84175733     -0.35906879
B       5.71856032      3.68059915      1.08141466
B       5.78053634      2.06417947      0.52685377
B       5.92565102     -1.28628179      0.02579693
B       6.00602408     -2.99144173      0.05212951
H      -6.93574129      3.58956736      1.86028568
H      -6.86524097      1.05782135      0.27525402
H      -4.67405096      5.23167859      0.92639677
H      -6.71375205     -1.49466544      1.17421255
H      -6.62695822     -4.04916737     -0.40112706
H      -4.18039240     -5.46126369      0.39659678
H      -1.68439396      5.30898327      1.66635502
H      -1.23946130     -5.21945885     -0.61693892
H       1.25963465      5.45847820      1.53189050
H       1.72143826     -5.19773316      0.04413448
H       4.20531338      5.65113873      0.73632652
H       4.66002887     -4.88749603     -0.88307823
H       6.64800909      4.23069440      1.53803896
H       6.74476898      1.67733763     -0.00945450
H       6.84364296     -0.66831755     -0.34861520
H       6.97993288     -3.58329027      0.32437454
