60
carrier @complex
B      -5.97731576      3.13290388      1.36317432
B      -5.91524630      1.52016566      0.78071284
B      -4.56550255      4.08096192      1.13598622
B      -4.49259401      2.40152127      0.97880948
B      -4.41790699      0.72183964      0.75796368
B      -5.75975553     -1.87986173      0.61695561
B      -5.69921611     -3.49579783      0.05255546
B      -4.34516626     -0.94192989      0.54794095
B      -4.27286893     -2.62417929      0.34157338
B      -4.19481926     -4.30531065      0.19771194
B      -3.05944233      3.30804426      1.09816541
B      -2.98556749      1.61077447      0.94597322
B      -1.63068614      4.17464532      1.36220658
B      -1.56146738      2.52108070      1.02653371
B      -1.49027122      0.85395323      0.73604187
B      -2.84490493     -1.70291661      0.34758516
B      -2.76932199     -3.38946185      0.12607996
B      -1.41818863     -0.80910229      0.48813857
B      -1.34859705     -2.47221420      0.16853253
B      -1.28068843     -4.11585221     -0.22039528
B      -0.13127629      3.42126810      1.16884706
B      -0.06396969      1.76643184      0.75647527
B       1.29433542      4.32138455      1.23564843
B       1.36463954      2.66208116      0.93015510
B       1.43358715      1.00384317      0.58323284
B       0.08064327     -1.56623938      0.27891386
B       0.15359927     -3.24980610      0.04282568
B       1.50440368     -0.65465635      0.30366791
B       1.57999180     -2.34248445      0.14527480
B       1.65541552     -4.02752747      0.02387462
B       2.78595255      3.58667838      0.92155204
B       2.86535174      1.88285328      0.81594917
B       4.21262013      4.49192080      0.92194193
B       4.29048483      2.80732655      0.80348467
B       4.36373551      1.11986395      0.63260105
B       3.00733233     -1.43694262      0.25925893
B       3.07563368     -3.10746100     -0.06891336
B       4.43506688     -0.53739863      0.37720240
B       4.50666209     -2.19921937      0.03825904
B       4.57150116     -3.84175733     -0.35906879
B       5.71856032      3.68059915      1.08141466
B       5.78053634      2.06417947      0.52685377
B       5.92565102     -1.28628179      0.02579693
B       6.00602408     -2.99144173      0.05212951
H      -6.93574129      3.58956736      1.86028568
H      -6.86524097      1.05782135      0.27525402
H      -4.67405096      5.23167859      0.92639677
H      -6.71375205     -1.49466544      1.17421255
H      -6.62695822     -4.04916737     -0.40112706
H      -4.18039240     -5.46126369      0.39659678
H      -1.68439396      5.30898327      1.66635502
H      -1.23946130     -5.21945885     -0.61693892
H       1.25963465      5.45847820      1.53189050
H       1.72143826     -5.19773316      0.04413448
H       4.20531338      5.65113873      0.73632652
H       4.66002887     -4.88749603     -0.88307823
H       6.64800909      4.23069440      1.53803896
H       6.74476898      1.67733763     -0.00945450
H       6.84364296     -0.66831755     -0.34861520
H       6.97993288     -3.58329027      0.32437454
