54
drug @complex
C      -2.53186639     -1.83779587      3.45629101
C      -1.33092182     -1.88993248      4.06117283
C      -0.75291881     -3.15850291      4.49137422
C      -0.93928668     -4.33920714      3.75453719
C      -0.39917829     -5.52676814      4.17802025
C       0.34258459     -5.59331072      5.36826351
C       0.90014925     -6.86761079      5.78410723
O       0.78075642     -7.92355143      5.18949433
O       1.61060656     -6.81025237      6.94654020
C       0.51640838     -4.42049820      6.11906162
C      -0.01695937     -3.23309497      5.68442942
C      -0.59489291     -0.64849606      4.36261610
C      -1.30360982      0.45237782      4.83147881
C      -0.70606133      1.64862581      5.20195435
C       0.68565619      1.74173427      5.13711234
C       1.38477572      0.66982274      4.59220570
C       0.78889266     -0.51637771      4.19962108
C       1.66064065     -1.60077231      3.64079840
C       1.47737663      2.92339395      5.66771702
C       2.18216991      3.64464013      4.51184857
C       2.53882780      2.42162635      6.66091404
C       0.56796000      3.90721092      6.41642619
C      -0.77360923      4.08433699      5.72550255
C      -1.58025889      2.78069945      5.70665618
C      -2.08520013      2.42507500      7.11277716
C      -2.79160973      3.00364187      4.78956825
H      -3.11849301     -2.72616705      3.30826357
H      -2.96165723     -0.90946549      3.13372591
H      -1.49324114     -4.30714362      2.82837578
H      -0.52654393     -6.43304322      3.60666058
H       1.93486394     -7.70037360      7.14363246
H       1.07178927     -4.46770791      7.04277575
H       0.11091048     -2.33676504      6.27489160
H      -2.36872392      0.33979042      4.95139239
H       2.45654692      0.74297257      4.48715582
H       2.46184853     -1.16134067      3.05178743
H       1.08800181     -2.28425685      3.02435038
H       2.10457163     -2.17888581      4.45137585
H       2.81192498      2.95523969      3.95720541
H       1.45868556      4.07643501      3.82625522
H       2.81090014      4.44334806      4.89959015
H       3.31793258      1.85137021      6.16381416
H       2.08169868      1.78632696      7.41653719
H       3.00629585      3.26871760      7.15893684
H       1.07366648      4.87185541      6.49414562
H       0.40364111      3.54555095      7.43227047
H      -1.35023040      4.85814707      6.23631553
H      -0.61314090      4.41477732      4.69766317
H      -2.72237889      1.54519760      7.07219696
H      -1.25889393      2.20363867      7.78278404
H      -2.66055482      3.24910285      7.52970359
H      -3.35667499      3.86429278      5.14163486
H      -2.46383263      3.20331868      3.77254762
H      -3.45907649      2.14726813      4.78452802
