114
 energy: -135.371095919737 gnorm: 0.000953140408 xtb: 6.7.1 (edcfbbe)
C           -1.93013332440027        2.60022159625012        3.91273770328361
C           -1.90973874048888        1.36057625002053        4.43099115156617
C           -3.13096405703940        0.74387389588028        4.94180339485726
C           -4.36236351295524        0.91397808630284        4.29250511174139
C           -5.50428762531242        0.33574388437761        4.78565310826126
C           -5.46913052140357       -0.42433037077234        5.96605641471881
C           -6.69671247482015       -1.02267709275161        6.45744480733043
O           -7.79096893162359       -0.93343399450458        5.92947524398977
O           -6.54498943812550       -1.73747904575776        7.60885935335336
C           -4.24298064045049       -0.58000601250639        6.63159226454621
C           -3.10109570673703       -0.01287507652889        6.12278553565065
C           -0.64563647182732        0.61272047605702        4.55390742309067
C            0.50957084218024        1.29326400084498        4.92025255256581
C            1.74002725314605        0.67528004022986        5.09797209076702
C            1.80961948483318       -0.71073071741482        4.95709036547872
C            0.67100236176211       -1.38080714168089        4.52081907528650
C           -0.54657313447635       -0.76195821198429        4.30058480116810
C           -1.69960642835122       -1.58232454907814        3.80539975990159
C            3.05503365809371       -1.51930168242178        5.26753184061763
C            3.63000512004096       -2.08853592987198        3.96448007693954
C            2.70799240020095       -2.67988917464319        6.21357565873841
C            4.10305995431099       -0.64698050185737        5.96946464091454
C            4.23258048210172        0.71899240150059        5.31688166143145
C            2.94059896909777        1.53557055090294        5.44528240344141
C            2.78498097801025        2.07650659654622        6.87315031942365
C            3.04392274848536        2.71635858816050        4.46752647788098
H           -2.83590525688848        3.17836555415743        3.88138743267632
H           -1.04286755311470        3.07519142991664        3.53828951590114
H           -4.40254602904339        1.48230190518882        3.37659223629686
H           -6.45081964131346        0.44704471792385        4.27980509734479
H           -7.41088002301558       -2.08957697619865        7.85891513626138
H           -4.21259759431667       -1.15050087592864        7.54669130762929
H           -2.16076730324936       -0.13158777683586        6.64301608014100
H            0.42521407416269        2.35194927630890        5.10540581454128
H            0.72590373116759       -2.44611423538454        4.35558631971648
H           -1.33297430223531       -2.47440811170298        3.30395660586949
H           -2.31515196504012       -1.00589590595407        3.12119708115984
H           -2.32745254202082       -1.89772843495188        4.63793642609259
H            2.90429475485150       -2.73807431281617        3.48430911532268
H            3.88318286038492       -1.28773058778857        3.27649405874725
H            4.52612795947215       -2.66998309145318        4.17102322898802
H            2.09833446251710       -3.43273900924102        5.72315452782750
H            2.16447922082568       -2.31329714675166        7.08158273619973
H            3.62249904088470       -3.15965026010030        6.55651221356891
H            5.06713518406118       -1.15939701105106        5.95025618963944
H            3.82145784063129       -0.52238712479786        7.01618007899814
H            5.05334640156527        1.27103943205062        5.77930163127585
H            4.47263860135725        0.59329954342932        4.25999202105820
H            1.88201245311629        2.67549420407416        6.95755724449604
H            2.71317680920946        1.26515620939100        7.59260131588871
H            3.63738820795413        2.69945292212043        7.13646276898306
H            3.98795718014224        3.23598436097698        4.61821732417791
H            3.00473674333724        2.35174935554976        3.44538244565896
H            2.24134196195772        3.43269202380798        4.61415055470419
B           -5.84979887522381        3.38256978729973        0.75047890743118
B           -5.84017804336900        1.72129917981728        0.33839983496138
B           -4.38278794885693        4.24076031756421        0.50877437840286
B           -4.38723300617286        2.55063004506259        0.54754780663575
B           -4.38662407025642        0.85348098294605        0.52508106940419
B           -5.83853284307129       -1.66407590938223        0.14812767918447
B           -5.84541371374789       -3.36162808691471        0.34125013229584
B           -4.38554059120184       -0.82207471212985        0.42819814618382
B           -4.38448504995434       -2.51039934834809        0.25614632091568
B           -4.37714268575476       -4.18419089796631        0.01302859053575
B           -2.91605939341101        3.40166927759668        0.60092149705877
B           -2.92041222629648        1.69481751647924        0.62811960311073
B           -1.46156782651013        4.22408310858943        0.86351020135747
B           -1.45773257382444        2.54542429029240        0.67268246341120
B           -1.45383686206732        0.86085987084422        0.47692789214513
B           -2.91733265698726       -1.66572260290722        0.39177064861109
B           -2.91279154073779       -3.36183188747691        0.23355083235550
B           -1.45226896719902       -0.81842855974711        0.36066979323986
B           -1.45431332537415       -2.51532915777682        0.36198725564447
B           -1.45659744733621       -4.20638508860845        0.40732630774390
B            0.00597551080531        3.38847564879690        0.82871046296871
B            0.01112603933718        1.69993225914734        0.58247886037726
B            1.46885637473817        4.22283808631696        0.92642200073009
B            1.47149595776621        2.54117755168790        0.77613416298988
B            1.47230225595680        0.85075420006859        0.67206180087602
B            0.01192411333653       -1.66620189007956        0.42868671923700
B            0.01258806219839       -3.36574187233728        0.34374251056293
B            1.47289697303015       -0.82985360454706        0.58391911624248
B            1.47640623914781       -2.51669495697473        0.41689742838477
B            1.48074158435171       -4.19040946026716        0.17030018591892
B            2.93629919075175        3.39549671204890        0.76827250402657
B            2.93582562912843        1.68880297514097        0.79651105906415
B            4.40477937501897        4.23266467096173        0.73817522809594
B            4.40497665751392        2.54460700985959        0.73564558697926
B            4.40339596662791        0.84954039186579        0.68331695789106
B            2.94054363254545       -1.66838730385975        0.49827632615932
B            2.93904026936705       -3.36960814349426        0.42639251839172
B            4.40339214325662       -0.82775417482464        0.62532721041533
B            4.40551758362794       -2.52243357907286        0.55481877026807
B            4.40097191536039       -4.21177447322718        0.57085729427876
B            5.85817139562982        3.37219862425808        1.05344865240946
B            5.86742275940331        1.71096379058001        0.62607977605101
B            5.86059736828564       -1.69273941502990        0.76538815741542
B            5.87095672763147       -3.35438232686716        0.35078990416830
H           -6.80359564951221        3.92741030632331        1.15700181092993
H           -6.77999679565534        1.25574016652758       -0.17677151815614
H           -4.42523930217814        5.37240510463865        0.20012764089951
H           -6.77237869712615       -1.13288735482332       -0.30924794661367
H           -6.79772801334043       -3.96403103315396        0.65898984862337
H           -4.41458472724135       -5.27782250653348       -0.41061126837375
H           -1.47747133530008        5.37148660947295        1.11283670251655
H           -1.46884450740026       -5.37193923031661        0.54909730266716
H            1.47394215113687        5.38698625264910        1.08410620661053
H            1.48807980423862       -5.33821356789072       -0.07923579606876
H            4.46661937747661        5.36227714961427        0.42200111900007
H            4.43716695890944       -5.34874517191056        0.86075174781960
H            6.79216212817606        3.91455360401859        1.50972509081508
H            6.83779314492710        1.23956529634301        0.16962868437800
H            6.79429926985863       -1.21804094198985        1.28725995348235
H            6.82174364391348       -3.90815045764495       -0.05331192886185
