114
 energy: -135.371430209664 gnorm: 0.000991390538 xtb: 6.7.1 (edcfbbe)
C            2.51545751979628        1.87163338181934        3.59041582364394
C            1.31056543627253        1.88799187476518        4.18866325654099
C            0.72993442820806        3.12981110550073        4.68874352896136
C            0.91429212633643        4.35003187858004        4.01921998413529
C            0.37731780024750        5.51187873853711        4.51268663928762
C           -0.35903015163806        5.51064674648719        5.70812210335440
C           -0.91164565438129        6.75986622674019        6.20015334410238
O           -0.79352934098378        7.84832651944279        5.66725271267681
O           -1.61546852990437        6.63662787264968        7.36166657450359
C           -0.53328410824478        4.29663081237950        6.39009740271921
C           -0.00328256646451        3.13558580852061        5.88562545356764
C            0.57483767001102        0.63034533529173        4.41374392027717
C            1.28361307176809       -0.49537966529394        4.81884554181527
C            0.68736770692699       -1.71388703449627        5.11025459412762
C           -0.70366606263810       -1.80566361868695        5.03239665064213
C           -1.40297010010413       -0.70311109296759        4.55253459433216
C           -0.80782084267571        0.50592495188645        4.23562565182030
C           -1.67808369281001        1.62108941686538        3.73785846642934
C           -1.49327003307428       -3.02246600861379        5.48011697280002
C           -2.18012603329904       -3.67430965171278        4.27340297211493
C           -2.56920298430536       -2.59203950870927        6.49093859728914
C           -0.58413639086448       -4.04419080670565        6.17635165065804
C            0.76120647661814       -4.17849616206427        5.48303120185703
C            1.56441044165461       -2.87380537459231        5.54184495298245
C            2.07524366776405       -2.60665308051487        6.96511234543496
C            2.77169535644244       -3.03515097270166        4.60642248208245
H            3.09988580624560        2.76852986255249        3.49275054783563
H            2.94769972330847        0.96302607860455        3.21781315220104
H            1.46357931351943        4.36959554432220        3.08975888629313
H            0.50360450784002        6.44955706668632        3.99418521462210
H           -1.93660842531446        7.51464945975857        7.61132834335308
H           -1.08581415948415        4.29133628183796        7.31671761023215
H           -0.13085579305340        2.20647088744469        6.42318657806579
H            2.34774012407771       -0.38812061100366        4.95131285259307
H           -2.47405363960513       -0.77198727944361        4.43822409572560
H           -2.48082282186129        1.21656722012445        3.12624544266948
H           -1.10505928857964        2.33741163213807        3.15989795189931
H           -2.12055959218623        2.15446481448633        4.57936103155350
H           -2.80998900199684       -2.95537457153813        3.75768200881821
H           -1.44649121189635       -4.05601690295886        3.56916198907086
H           -2.80574431023672       -4.50119898579694        4.60265753991860
H           -3.34838977921114       -1.99858067025235        6.02196995201287
H           -2.12558106529353       -2.00152565560464        7.28963980852264
H           -3.03412266124745       -3.47250395202041        6.93000964435811
H           -1.08713795593143       -5.01312581060682        6.19743645090899
H           -0.42579483946738       -3.73911065632499        7.21156632428693
H            1.33767696147207       -4.97821156261427        5.95243824072373
H            0.60647409285197       -4.45180956529003        4.43767896205681
H            2.69993898281200       -1.71709652073389        6.98014452880110
H            1.25123219449763       -2.44341039334371        7.65435147771721
H            2.66521190103639       -3.44880612871526        7.32098520113028
H            3.33674633044735       -3.91908225971217        4.89511604803651
H            2.43759718673259       -3.16280284091803        3.58045672259414
H            3.44020715312229       -2.18117451875562        4.65694645786806
B           -5.88938616123365        3.25936211105238        0.17947847104366
B           -5.85948601933278        1.55683934005444        0.04858669217319
B           -4.42828417206647        4.08854747738368       -0.16828920139124
B           -4.41683889333795        2.42408416538576        0.13085400157742
B           -4.39861146801942        0.74347238402258        0.36955917001705
B           -5.81998203222654       -1.82011225841318        0.34985017654942
B           -5.81231110154795       -3.46789430108048        0.80892844760522
B           -4.37952679447642       -0.92754026904485        0.52537036222485
B           -4.35858826349908       -2.62341517154689        0.59789153164455
B           -4.33233982296801       -4.31384100419968        0.61311333181061
B           -2.95573185178003        3.29300229512213        0.09084591063051
B           -2.94102923590374        1.60489940091837        0.32249244733101
B           -1.51250496062647        4.16250599485133        0.25598309871165
B           -1.48870985141647        2.47189492023620        0.27737940949097
B           -1.46534836311230        0.77617758089599        0.33485930476060
B           -2.90415196241925       -1.74518804242377        0.67773716195964
B           -2.87667351722289       -3.45417474021473        0.67713375835892
B           -1.44700430635277       -0.89766033251049        0.51282307443657
B           -1.43101105380870       -2.57576246638956        0.75291525012450
B           -1.41347337448418       -4.25208150048623        0.95596145039408
B           -0.03227823640080        3.33968878190176        0.24013396166211
B           -0.01204420781634        1.64339613696121        0.37326091056636
B            1.42728974558954        4.17621945749756        0.04446966727926
B            1.44199027764892        2.51082661070877        0.33482735589162
B            1.45867990992932        0.82959503992894        0.54834819033345
B            0.02791373042313       -1.71487975373656        0.64899688784797
B            0.04143607024015       -3.39304367585565        0.95940361841413
B            1.47837181453838       -0.84662533563197        0.69713653116016
B            1.49660642869551       -2.52945058364096        0.88844250774362
B            1.51258793328518       -4.20076637348565        1.13021074160910
B            2.89271652616050        3.38460437152681        0.35281111363437
B            2.91553994045722        1.68615578977855        0.47152026089629
B            4.34148699029569        4.25069171069562        0.49416636651863
B            4.36781278205607        2.56226454230903        0.53530629258873
B            4.38745778550316        0.86946322039652        0.64286506962743
B            2.95070292022613       -1.66005913884749        0.87233270507590
B            2.97203611173128       -3.36450903600402        0.92717026784142
B            4.40822805012014       -0.80525933960581        0.75331379371457
B            4.43042904469204       -2.49674373173656        0.87193313056195
B            4.45135185618194       -4.18389811763107        0.92977441025091
B            5.82508002787681        3.40601547398555        0.31395394070141
B            5.83128461635918        1.75820422208885        0.78023366788284
B            5.88337006897325       -1.64890085964031        0.74068224541881
B            5.89113179313223       -3.29472342465173        1.22459498298693
H           -6.85007868675464        3.86041528959799        0.47723505471791
H           -6.79208625823889        0.99355155128994       -0.37323537262394
H           -4.47886084537364        5.16371848088591       -0.63436089195701
H           -6.76860490959264       -1.37405192308467       -0.16802633040249
H           -6.76394235178170       -4.01225655715171        1.22523680008403
H           -4.35630886266039       -5.45962029210099        0.35838307194467
H           -1.54291987146336        5.33020238746119        0.35439832200273
H           -1.41421540248433       -5.40545381220165        1.18198095702189
H            1.42380140965387        5.30614188057685       -0.27246498767121
H            1.53066738102310       -5.34913963623131        1.38081998326421
H            4.36100165902202        5.39245712836392        0.76269962952310
H            4.52859781219459       -5.32322567396772        0.65428666636555
H            6.77159671971269        3.95924443860012       -0.09931195405553
H            6.76430092607458        1.31030908543769        1.32595501507112
H            6.84977497895573       -1.18495534411552        0.26897999744411
H            6.82809260430585       -3.81162622891295        1.70319103791570
