35
Toluidine Blue O GFN2 opt
C      -5.66079290     -0.86704780     -0.17213897
C      -4.30037319     -0.25009516     -0.24539187
C      -3.17315620     -0.98780425     -0.04296500
C      -1.86679025     -0.43333418     -0.10664146
N      -0.85179259     -1.25544763      0.10459346
C       0.41231285     -0.88573914      0.08097663
C       1.39402757     -1.88772716      0.32595820
C       2.72027090     -1.60871634      0.33200513
C       3.20540877     -0.28542490      0.09279548
N       4.51880317     -0.01337792      0.10907140
C       4.99638070      1.32957246     -0.12718360
C       5.49250522     -1.05148878      0.36131319
C       2.24731293      0.71708275     -0.15883590
C       0.90049730      0.43653265     -0.16735586
S      -0.20855211      1.74321675     -0.49155567
C      -1.76087338      0.96196700     -0.39571968
C      -2.89375538      1.71812553     -0.60383963
C      -4.16955835      1.14664622     -0.53527864
N      -5.25704531      1.90495146     -0.73884122
H      -5.58199778     -1.92689917      0.04922088
H      -6.18732631     -0.75591135     -1.11994818
H      -6.25621102     -0.39939256      0.61190955
H      -3.23177512     -2.04202749      0.17751801
H       1.02988986     -2.88593778      0.50872227
H       3.41725116     -2.40635559      0.52310448
H       6.08001258      1.35053493     -0.05860898
H       4.59481993      2.02291107      0.61565386
H       4.71147118      1.67526757     -1.12386810
H       6.49237795     -0.62867912      0.32909992
H       5.43231766     -1.83668886     -0.39516414
H       5.34425024     -1.49661503      1.34730575
H       2.55047671      1.73243981     -0.35252671
H      -2.79808048      2.77149853     -0.82300005
H      -5.16340910      2.88489022     -0.94364089
H      -6.17889728      1.50907327     -0.69190193
