98
Drug@beta12-B40H15 clean complex
O     -2.767334      3.788345     10.994003
C     -3.604341      2.943361     11.244423
O     -4.448893      3.053170     12.281442
C     -3.862552      1.697347     10.513269
C     -3.141768      1.410424      9.419319
C     -3.312701      0.175389      8.641589
C     -4.590518     -0.277837      8.269484
C     -4.750076     -1.436689      7.496708
C     -3.626001     -2.140941      7.080782
O     -3.722797     -3.271703      6.318063
C     -2.352380     -1.703193      7.428177
O     -1.256391     -2.402134      6.998558
C     -2.197803     -0.559812      8.210827
O     -0.904777     -0.133872      8.522381
C     -0.399068     -0.806220      9.624002
O     -1.017946     -1.525449     10.404806
C      1.077189     -0.458094      9.815153
C      1.904425     -0.938285      8.616534
C      3.208547     -0.180741      8.477081
C      3.371398      0.768540      7.452889
C      4.568585      1.476503      7.323660
C      5.597911      1.236360      8.220378
O      6.767866      1.929683      8.096329
C      5.449107      0.302535      9.241431
O      6.500981      0.119167     10.096699
C      4.262671     -0.409993      9.376178
O      1.580524     -1.079818     11.011108
H     -4.195648      3.901735     12.701191
H     -4.628040      1.040997     10.907727
H     -2.360701      2.086978      9.075695
H     -5.478826      0.275821      8.567991
H     -5.750957     -1.760180      7.227587
H     -4.665756     -3.465533      6.175674
H     -1.628209     -3.153909      6.493879
H      1.143662      0.625850      9.962539
H      1.343724     -0.839254      7.679402
H      2.136720     -2.006874      8.716466
H      2.567652      0.962695      6.745685
H      4.695859      2.208143      6.531890
H      7.324534      1.593847      8.826937
H      6.226301     -0.532239     10.765487
H      4.138385     -1.138298     10.173167
H      0.797442     -1.375820     11.519172
B     -4.780602     -2.604513      0.317266
B     -4.569465     -1.356683     -0.648004
B     -4.463861     -0.247381     -1.882945
B     -3.396531     -2.661979     -0.502827
B     -3.038009      0.177607     -1.404773
B     -4.390872      0.342644     -0.192397
B     -5.031012      1.403078      0.819222
B     -4.620094      2.986388      0.997562
B     -2.808851      0.512803      0.199513
B     -3.218551      3.227540      1.793236
B     -2.161133     -3.775821     -0.584343
B     -1.876928     -2.248084     -0.933414
B     -1.697164     -0.613334     -0.835751
B     -0.584443     -3.218984     -0.835049
B     -0.219751     -0.148448     -0.311803
B     -1.394985      0.035818      0.852087
B     -1.775686      1.662110      0.759224
B     -1.897502      3.236989      0.882584
B     -0.215292      1.037200      1.069695
B     -0.752118      4.348002      0.558417
B      0.826501     -4.112870     -0.740049
B      0.925144     -2.505404     -0.749723
B      1.214364     -0.948979     -0.586972
B      2.200665     -3.402586     -0.168167
B      2.622046     -0.195651     -0.292977
B      1.234081      0.551562      0.142600
B      1.124844      2.000923      1.042986
B      0.536600      3.437229      0.618007
B      2.458015      1.672646      0.087495
B      1.213646      3.017073     -0.852963
B      3.220244     -3.850820      1.104428
B      3.624046     -2.653486      0.063737
B      4.025027     -1.121930     -0.236552
B      4.417376     -2.835474      1.420329
B      5.363640     -0.241898     -0.689778
B      4.104119      0.531009     -0.013477
B      4.018093      2.321775     -0.033810
B      2.821838      3.096833     -0.912930
B      5.422007      1.458254     -0.185288
B      4.296118      3.550090     -1.013979
H     -5.168734     -3.094856      1.310677
H     -5.716063     -2.076392     -0.393509
H     -5.264034     -0.120717     -2.741690
H     -5.771097      1.007443      1.664604
H     -5.364514      3.843125      0.672044
H     -3.234300      3.224974      2.975674
H     -2.359297     -4.926237     -0.473225
H     -0.896482      5.475480      0.244253
H      0.822346     -5.249794     -1.023329
H      0.553695      2.694294     -1.783686
H      2.970323     -4.817556      1.717250
H      5.263074     -2.512454      2.156542
H      6.384778     -0.646686     -1.095590
H      6.503197      1.838169      0.065012
H      5.138890      4.252414     -1.415442
