103
Drug@B48H12 complex
O     -2.767334      3.788345      5.518305
C     -3.604341      2.943361      5.768725
O     -4.448893      3.053170      6.805744
C     -3.862552      1.697347      5.037571
C     -3.141768      1.410424      3.943621
C     -3.312701      0.175389      3.165891
C     -4.590518     -0.277837      2.793786
C     -4.750076     -1.436689      2.021010
C     -3.626001     -2.140941      1.605084
O     -3.722797     -3.271703      0.842365
C     -2.352380     -1.703193      1.952479
O     -1.256391     -2.402134      1.522860
C     -2.197803     -0.559812      2.735129
O     -0.904777     -0.133872      3.046683
C     -0.399068     -0.806220      4.148304
O     -1.017946     -1.525449      4.929108
C      1.077189     -0.458094      4.339455
C      1.904425     -0.938285      3.140836
C      3.208547     -0.180741      3.001383
C      3.371398      0.768540      1.977191
C      4.568585      1.476503      1.847962
C      5.597911      1.236360      2.744680
O      6.767866      1.929683      2.620631
C      5.449107      0.302535      3.765733
O      6.500981      0.119167      4.621001
C      4.262671     -0.409993      3.900480
O      1.580524     -1.079818      5.535410
H     -4.195648      3.901735      7.225493
H     -4.628040      1.040997      5.432029
H     -2.360701      2.086978      3.599997
H     -5.478826      0.275821      3.092293
H     -5.750957     -1.760180      1.751889
H     -4.665756     -3.465533      0.699976
H     -1.628209     -3.153909      1.018181
H      1.143662      0.625850      4.486841
H      1.343724     -0.839254      2.203704
H      2.136720     -2.006874      3.240768
H      2.567652      0.962695      1.269987
H      4.695859      2.208143      1.056192
H      7.324534      1.593847      3.351239
H      6.226301     -0.532239      5.289789
H      4.138385     -1.138298      4.697469
H      0.797442     -1.375820      6.043474
B     -7.500000     -4.500000      0.000000
B     -4.500000     -4.500000      0.000000
B     -1.500000     -4.500000      0.000000
B      1.500000     -4.500000      0.000000
B      4.500000     -4.500000      0.000000
B      7.500000     -4.500000      0.000000
B     -7.500000     -3.000000      0.000000
B     -4.500000     -3.000000      0.000000
B     -1.500000     -3.000000      0.000000
B      1.500000     -3.000000      0.000000
B      4.500000     -3.000000      0.000000
B      7.500000     -3.000000      0.000000
B     -7.500000     -1.500000      0.000000
B     -4.500000     -1.500000      0.000000
B     -1.500000     -1.500000      0.000000
B      1.500000     -1.500000      0.000000
B      4.500000     -1.500000      0.000000
B      7.500000     -1.500000      0.000000
B     -7.500000      0.000000      0.000000
B     -4.500000      0.000000      0.000000
B     -1.500000      0.000000      0.000000
B      1.500000      0.000000      0.000000
B      4.500000      0.000000      0.000000
B      7.500000      0.000000      0.000000
B     -7.500000      1.500000      0.000000
B     -4.500000      1.500000      0.000000
B     -1.500000      1.500000      0.000000
B      1.500000      1.500000      0.000000
B      4.500000      1.500000      0.000000
B      7.500000      1.500000      0.000000
B     -7.500000      3.000000      0.000000
B     -4.500000      3.000000      0.000000
B     -1.500000      3.000000      0.000000
B      1.500000      3.000000      0.000000
B      4.500000      3.000000      0.000000
B      7.500000      3.000000      0.000000
B     -7.500000      4.500000      0.000000
B     -4.500000      4.500000      0.000000
B     -1.500000      4.500000      0.000000
B      1.500000      4.500000      0.000000
B      4.500000      4.500000      0.000000
B      7.500000      4.500000      0.000000
B     -6.000000     -3.750000      0.000000
B     -3.000000     -3.750000      0.000000
B      0.000000     -3.750000      0.000000
B      3.000000     -3.750000      0.000000
B      6.000000     -3.750000      0.000000
B     -6.000000      3.750000      0.000000
B     -3.000000      3.750000      0.000000
B      0.000000      3.750000      0.000000
B      3.000000      3.750000      0.000000
B      6.000000      3.750000      0.000000
B     -6.000000      0.000000      0.000000
H     -8.600000     -4.500000      0.000000
H     -8.600000     -1.500000      0.000000
H     -8.600000      1.500000      0.000000
H     -8.600000      4.500000      0.000000
H      8.600000     -4.500000      0.000000
H      8.600000     -1.500000      0.000000
H      8.600000      1.500000      0.000000
