      -----------------------------------------------------------      
     |                   =====================                   |     
     |                           x T B                           |     
     |                   =====================                   |     
     |                         S. Grimme                         |     
     |          Mulliken Center for Theoretical Chemistry        |     
     |                    University of Bonn                     |     
      -----------------------------------------------------------      

   * xtb version 6.7.1pre (5071a88) compiled by 'Marcel@Raven' on 2024-07-23

   xtb is free software: you can redistribute it and/or modify it under
   the terms of the GNU Lesser General Public License as published by
   the Free Software Foundation, either version 3 of the License, or
   (at your option) any later version.
   
   xtb is distributed in the hope that it will be useful,
   but WITHOUT ANY WARRANTY; without even the implied warranty of
   MERCHANTABILITY or FITNESS FOR A PARTICULAR PURPOSE.  See the
   GNU Lesser General Public License for more details.
   
   Cite this work as:
   * C. Bannwarth, E. Caldeweyher, S. Ehlert, A. Hansen, P. Pracht,
     J. Seibert, S. Spicher, S. Grimme, WIREs Comput. Mol. Sci., 2020, 11,
     e01493. DOI: 10.1002/wcms.1493
   
   for GFN2-xTB:
   * C. Bannwarth, S. Ehlert and S. Grimme., J. Chem. Theory Comput., 2019,
     15, 1652-1671. DOI: 10.1021/acs.jctc.8b01176
   for GFN1-xTB:
   * S. Grimme, C. Bannwarth, P. Shushkov, J. Chem. Theory Comput., 2017,
     13, 1989-2009. DOI: 10.1021/acs.jctc.7b00118
   for GFN0-xTB:
   * P. Pracht, E. Caldeweyher, S. Ehlert, S. Grimme, ChemRxiv, 2019, preprint.
     DOI: 10.26434/chemrxiv.8326202.v1
   for GFN-FF:
   * S. Spicher and S. Grimme, Angew. Chem. Int. Ed., 2020, 59, 15665-15673.
     DOI: 10.1002/anie.202004239
   
   for ALPB and GBSA implicit solvation:
   * S. Ehlert, M. Stahn, S. Spicher, S. Grimme, J. Chem. Theory Comput.,
     2021, 17, 4250-4261. DOI: 10.1021/acs.jctc.1c00471
   
   for ddCOSMO and CPCM-X implicit solvation:
   * M. Stahn, S. Ehlert, S. Grimme, J. Phys. Chem. A,
     2023, XX, XXXX-XXXX. DOI: 10.1021/acs.jpca.3c04382
   
   for DFT-D4:
   * E. Caldeweyher, C. Bannwarth and S. Grimme, J. Chem. Phys., 2017,
     147, 034112. DOI: 10.1063/1.4993215
   * E. Caldeweyher, S. Ehlert, A. Hansen, H. Neugebauer, S. Spicher,
     C. Bannwarth and S. Grimme, J. Chem. Phys., 2019, 150, 154122.
     DOI: 10.1063/1.5090222
   * E. Caldeweyher, J.-M. Mewes, S. Ehlert and S. Grimme, Phys. Chem. Chem. Phys.
     2020, 22, 8499-8512. DOI: 10.1039/D0CP00502A
   
   for sTDA-xTB:
   * S. Grimme and C. Bannwarth, J. Chem. Phys., 2016, 145, 054103.
     DOI: 10.1063/1.4959605
   
   in the mass-spec context:
   * V. Asgeirsson, C. Bauer and S. Grimme, Chem. Sci., 2017, 8, 4879.
     DOI: 10.1039/c7sc00601b
   * J. Koopman and S. Grimme, ACS Omega 2019, 4, 12, 15120-15133.
     DOI: 10.1021/acsomega.9b02011
   
   for metadynamics refer to:
   * S. Grimme, J. Chem. Theory Comput., 2019, 155, 2847-2862
     DOI: 10.1021/acs.jctc.9b00143
   
   for SPH calculations refer to:
   * S. Spicher and S. Grimme, J. Chem. Theory Comput., 2021, 17, 1701-1714
     DOI: 10.1021/acs.jctc.0c01306
   
   for ONIOM refer to:
   * C. Plett, A. Katbashev, S. Ehlert, S. Grimme, M. Bursch,
     Phys. Chem. Chem. Phys., 2023, 25, 17860-17868. DOI: 10.1039/D3CP02178E
   
   for DIPRO refer to:
   * J. Kohn, N. Gildemeister, S. Grimme, D. Fazzi, A. Hansen,
     J. Chem. Phys., 2023, just accepted.
   
   for PTB refer to:
   * S. Grimme, M. Mueller, A. Hansen, J. Chem. Phys., 2023, 158, 124111.
     DOI: 10.1063/5.0137838
   
   with help from (in alphabetical order)
   P. Atkinson, C. Bannwarth, F. Bohle, G. Brandenburg, E. Caldeweyher
   M. Checinski, S. Dohm, S. Ehlert, S. Ehrlich, I. Gerasimov, C. Hölzer
   A. Katbashev, J. Kohn, J. Koopman, C. Lavigne, S. Lehtola, F. März, M. Müller,
   F. Musil, H. Neugebauer, J. Pisarek, C. Plett, P. Pracht, F. Pultar,
   J. Seibert, P. Shushkov, S. Spicher, M. Stahn, M. Steiner, T. Strunk,
   J. Stückrath, T. Rose, and J. Unsleber
   
 * started run on 2026/09/01 at 16:34:39.747     
   ID    Z sym.   atoms
    1    8 O      1, 3, 10, 12, 14, 16, 23, 25, 27
    2    6 C      2, 4-9, 11, 13, 15, 17-22, 24, 26
    3    1 H      28-43, 92-103
    4    5 B      44-91

           -------------------------------------------------
          |                Calculation Setup                |
           -------------------------------------------------

          program call               : "c:\Users\Andre\Proyectos doctorado\kras-pancreatic-gC3N4-ai\tools\xtb\xtb-6.7.1\bin\xtb.exe" "c:\Users\Andre\Proyectos doctorado\borophene-alzheimer-tau-ai\calculations\tau\Rosmarinic_Acid\Rosmarinic_Acid_B48H12_clean_complex.xyz" --gfn 2 --sp --chrg 0 --uhf 0 --etemp 300 --iterations 500 --norestart
          coordinate file            : c:\Users\Andre\Proyectos doctorado\borophene-alzheimer-tau-ai\calculations\tau\Rosmarinic_Acid\Rosmarinic_Acid_B48H12_clean_complex.xyz
          omp threads                :                    16


molecular fragmentation (1/2 indicates fragments):
111111111111111111111111111111111111111111122222222222222222222222222222
2222222222222222222222222222222
# atoms in fragment 1/2:    43    60
 fragment masses (1/2) :      376.31      531.02
CMA distance (Bohr)    :  14.665
constraining FC (au)   :  0.0500

           -------------------------------------------------
          |                 G F N 2 - x T B                 |
           -------------------------------------------------

        Reference                      10.1021/acs.jctc.8b01176
      * Hamiltonian:
        H0-scaling (s, p, d)           1.850000    2.230000    2.230000
        zeta-weighting                 0.500000
      * Dispersion:
        s8                             2.700000
        a1                             0.520000
        a2                             5.000000
        s9                             5.000000
      * Repulsion:
        kExp                           1.500000    1.000000
        rExp                           1.000000
      * Coulomb:
        alpha                          2.000000
        third order                    shell-resolved
        anisotropic                    true
        a3                             3.000000
        a5                             4.000000
        cn-shift                       1.200000
        cn-exp                         4.000000
        max-rad                        5.000000


          ...................................................
          :                      SETUP                      :
          :.................................................:
          :  # basis functions                 328          :
          :  # atomic orbitals                 328          :
          :  # shells                          178          :
          :  # electrons                       298          :
          :  max. iterations                   500          :
          :  Hamiltonian                  GFN2-xTB          :
          :  restarted?                      false          :
          :  GBSA solvation                  false          :
          :  PC potential                    false          :
          :  electronic temp.          300.0000000     K    :
          :  accuracy                    1.0000000          :
          :  -> integral cutoff          0.2500000E+02      :
          :  -> integral neglect         0.1000000E-07      :
          :  -> SCF convergence          0.1000000E-05 Eh   :
          :  -> wf. convergence          0.1000000E-03 e    :
          :  Broyden damping             0.4000000          :
          :  net charge                          0          :
          :  unpaired electrons                  0          :
          ...................................................

 iter      E             dE          RMSdq      gap      omega  full diag
   1   -148.7901179 -0.148790E+03  0.146E+01    0.38       0.0  T
   2   -142.6850840  0.610503E+01  0.954E+00    0.06       1.0  T
   3     27.7069035  0.170392E+03  0.200E+01    0.09       1.0  T
   4    -48.0975572 -0.758045E+02  0.131E+01    0.05       1.0  T
   5      6.1653615  0.542629E+02  0.143E+01    0.03       1.0  T
   6    -88.3309360 -0.944963E+02  0.106E+01    0.01       1.0  T
   7   -147.9434890 -0.596126E+02  0.439E+00    0.17       1.0  T
   8   -147.4809606  0.462528E+00  0.363E+00    0.05       1.0  T
   9   -149.2315292 -0.175057E+01  0.262E+00    0.58       1.0  T
  10   -149.2717689 -0.402397E-01  0.241E+00    0.50       1.0  T
  11   -149.2003431  0.714259E-01  0.204E+00    0.54       1.0  T
  12   -149.3143890 -0.114046E+00  0.157E+00    0.49       1.0  T
  13   -149.4298352 -0.115446E+00  0.934E-01    0.38       1.0  T
  14   -149.4359549 -0.611967E-02  0.772E-01    0.37       1.0  T
  15   -149.4599073 -0.239524E-01  0.710E-01    0.34       1.0  T
  16   -149.4623437 -0.243648E-02  0.602E-01    0.30       1.0  T
  17   -149.4918124 -0.294686E-01  0.507E-01    0.14       1.0  T
  18   -149.4905968  0.121556E-02  0.436E-01    0.21       1.0  T
  19   -149.4973743 -0.677745E-02  0.361E-01    0.14       1.0  T
  20   -149.4988908 -0.151656E-02  0.254E-01    0.16       1.0  T
  21   -149.4984224  0.468456E-03  0.287E-01    0.06       1.0  T
  22   -149.5016494 -0.322707E-02  0.256E-01    0.06       1.0  T
  23   -149.4852818  0.163677E-01  0.356E-01    0.04       1.0  T
  24   -149.5039735 -0.186918E-01  0.206E-01    0.07       1.0  T
  25   -149.5062471 -0.227352E-02  0.130E-01    0.07       1.0  T
  26   -149.5060400  0.207101E-03  0.912E-02    0.07       1.0  T
  27   -149.5074494 -0.140944E-02  0.400E-02    0.08       1.0  T
  28   -149.5079545 -0.505126E-03  0.209E-02    0.09       1.0  T
  29   -149.5080412 -0.866486E-04  0.162E-02    0.09       1.0  T
  30   -149.5080571 -0.159265E-04  0.137E-02    0.09       1.0  T
  31   -149.5080530  0.407788E-05  0.124E-02    0.09       1.0  T
  32   -149.5080553 -0.222466E-05  0.112E-02    0.09       1.0  T
  33   -149.5080843 -0.290877E-04  0.484E-03    0.09       2.0  T
  34   -149.5080884 -0.403143E-05  0.279E-03    0.09       3.5  T
  35   -149.5080880  0.342323E-06  0.261E-03    0.09       3.8  T
  36   -149.5080884 -0.377564E-06  0.251E-03    0.09       3.9  T
  37   -149.5080890 -0.606566E-06  0.225E-03    0.09       4.4  T
  38   -149.5080886  0.380958E-06  0.268E-03    0.09       3.7  T
  39   -149.5080888 -0.212628E-06  0.254E-03    0.09       3.9  T
  40   -149.5080896 -0.801043E-06  0.178E-03    0.09       5.5  T
  41   -149.5080903 -0.653469E-06  0.721E-04    0.09      13.7  T
  42   -149.5080903 -0.441391E-07  0.489E-04    0.09      20.1  T

   *** convergence criteria satisfied after 42 iterations ***

         #    Occupation            Energy/Eh            Energy/eV
      -------------------------------------------------------------
         1        2.0000           -0.7352976             -20.0085
       ...           ...                  ...                  ...
       143        2.0000           -0.2886221              -7.8538
       144        2.0000           -0.2852021              -7.7607
       145        2.0000           -0.2842459              -7.7347
       146        2.0000           -0.2804732              -7.6321
       147        2.0000           -0.2777906              -7.5591
       148        2.0000           -0.2746602              -7.4739
       149        1.7018           -0.2631767              -7.1614 (HOMO)
       150        0.2982           -0.2598675              -7.0714 (LUMO)
       151        0.0000           -0.2511220              -6.8334
       152        0.0000           -0.2483820              -6.7588
       153                         -0.2363751              -6.4321
       154                         -0.2324212              -6.3245
       ...                                ...                  ...
       328                          1.2077157              32.8636
      -------------------------------------------------------------
                  HL-Gap            0.0033092 Eh            0.0900 eV
             Fermi-level           -0.2615222 Eh           -7.1164 eV

 SCC (total)                   0 d,  0 h,  0 min,  0.801 sec
 SCC setup                      ...        0 min,  0.002 sec (  0.250%)
 Dispersion                     ...        0 min,  0.002 sec (  0.250%)
 classical contributions        ...        0 min,  0.000 sec (  0.000%)
 integral evaluation            ...        0 min,  0.007 sec (  0.874%)
 iterations                     ...        0 min,  0.768 sec ( 95.880%)
 molecular gradient             ...        0 min,  0.020 sec (  2.497%)
 printout                       ...        0 min,  0.002 sec (  0.250%)

         :::::::::::::::::::::::::::::::::::::::::::::::::::::
         ::                     SUMMARY                     ::
         :::::::::::::::::::::::::::::::::::::::::::::::::::::
         :: total energy            -147.580098201101 Eh    ::
         :: gradient norm              0.105453316877 Eh/a0 ::
         :: HOMO-LUMO gap              0.090047615530 eV    ::
         ::.................................................::
         :: SCC energy              -149.506272793435 Eh    ::
         :: -> isotropic ES            0.471425001840 Eh    ::
         :: -> anisotropic ES          0.002206679565 Eh    ::
         :: -> anisotropic XC         -0.033218370807 Eh    ::
         :: -> dispersion             -0.115456856050 Eh    ::
         :: repulsion energy           1.926174592334 Eh    ::
         :: add. restraining           0.000000000000 Eh    ::
         :: total charge              -0.000000000000 e     ::
         :::::::::::::::::::::::::::::::::::::::::::::::::::::

           -------------------------------------------------
          |                Property Printout                |
           -------------------------------------------------

    * Orbital Energies and Occupations

         #    Occupation            Energy/Eh            Energy/eV
      -------------------------------------------------------------
         1        2.0000           -0.7352976             -20.0085
       ...           ...                  ...                  ...
       137        2.0000           -0.3066894              -8.3454
       138        2.0000           -0.3039538              -8.2710
       139        2.0000           -0.3011961              -8.1960
       140        2.0000           -0.2999596              -8.1623
       141        2.0000           -0.2963006              -8.0628
       142        2.0000           -0.2933909              -7.9836
       143        2.0000           -0.2886221              -7.8538
       144        2.0000           -0.2852021              -7.7607
       145        2.0000           -0.2842459              -7.7347
       146        2.0000           -0.2804732              -7.6321
       147        2.0000           -0.2777906              -7.5591
       148        2.0000           -0.2746602              -7.4739
       149        1.7018           -0.2631767              -7.1614 (HOMO)
       150        0.2982           -0.2598675              -7.0714 (LUMO)
       151        0.0000           -0.2511220              -6.8334
       152        0.0000           -0.2483820              -6.7588
       153                         -0.2363751              -6.4321
       154                         -0.2324212              -6.3245
       155                         -0.2304151              -6.2699
       156                         -0.2297190              -6.2510
       157                         -0.2232520              -6.0750
       158                         -0.2151991              -5.8559
       159                         -0.2099968              -5.7143
       160                         -0.2070723              -5.6347
       ...                                ...                  ...
       328                          1.2077157              32.8636
      -------------------------------------------------------------
                  HL-Gap            0.0033092 Eh            0.0900 eV
             Fermi-level           -0.2615222 Eh           -7.1164 eV

     #   Z          covCN         q      C6AA      α(0)
     1   8 O        0.856    -0.458    22.881     6.413
     2   6 C        2.700     0.340    21.221     7.540
     3   8 O        1.660    -0.397    20.792     6.156
     4   6 C        2.894    -0.082    30.054     8.988
     5   6 C        2.903    -0.027    28.675     8.780
     6   6 C        2.964    -0.009    28.245     8.717
     7   6 C        2.917    -0.054    29.341     8.883
     8   6 C        2.909    -0.085    30.117     8.999
     9   6 C        2.843     0.097    25.851     8.333
    10   8 O        1.658    -0.409    21.029     6.191
    11   6 C        2.840     0.107    25.622     8.295
    12   8 O        1.657    -0.395    20.744     6.148
    13   6 C        2.899     0.109    25.602     8.296
    14   8 O        1.704    -0.252    18.173     5.756
    15   6 C        2.740     0.339    21.244     7.547
    16   8 O        0.856    -0.393    21.548     6.224
    17   6 C        3.723     0.091    19.177     6.254
    18   6 C        3.805    -0.071    21.857     6.656
    19   6 C        2.962     0.000    28.026     8.683
    20   6 C        2.915    -0.061    29.516     8.909
    21   6 C        2.910    -0.065    29.626     8.925
    22   6 C        2.845     0.122    25.317     8.246
    23   8 O        1.658    -0.394    20.725     6.146
    24   6 C        2.841     0.105    25.664     8.302
    25   8 O        1.658    -0.411    21.061     6.195
    26   6 C        2.914    -0.079    29.979     8.978
    27   8 O        1.650    -0.446    21.756     6.296
    28   1 H        0.804     0.322     0.659     1.275
    29   1 H        0.925     0.058     2.226     2.333
    30   1 H        0.925     0.065     2.141     2.288
    31   1 H        0.925     0.054     2.266     2.354
    32   1 H        0.925     0.044     2.396     2.421
    33   1 H        0.804     0.313     0.682     1.297
    34   1 H        0.803     0.332     0.634     1.250
    35   1 H        0.924     0.067     2.117     2.276
    36   1 H        0.924     0.062     2.177     2.307
    37   1 H        0.923     0.068     2.110     2.271
    38   1 H        0.925     0.043     2.406     2.426
    39   1 H        0.925     0.063     2.166     2.301
    40   1 H        0.804     0.322     0.659     1.275
    41   1 H        0.804     0.307     0.701     1.315
    42   1 H        0.925     0.053     2.277     2.360
    43   1 H        0.803     0.307     0.699     1.314
    44   5 B        2.839     0.115    19.518     7.378
    45   5 B        3.803     0.030    22.167     7.591
    46   5 B        3.718    -0.017    22.927     7.740
    47   5 B        2.746     0.018    21.231     7.713
    48   5 B        2.911    -0.042    22.175     7.858
    49   5 B        3.855     0.016    22.445     7.635
    50   5 B        2.869     0.063    20.348     7.530
    51   5 B        2.921    -0.000    21.410     7.721
    52   5 B        3.823     0.058    21.673     7.504
    53   5 B        3.767     0.024    22.245     7.610
    54   5 B        3.849     0.005    22.648     7.670
    55   5 B        4.346     0.055    21.741     7.513
    56   5 B        4.682     0.089    21.153     7.410
    57   5 B        3.801     0.068    21.491     7.475
    58   5 B        3.829     0.061    21.622     7.495
    59   5 B        3.950     0.048    21.863     7.534
    60   5 B        4.552     0.060    21.654     7.498
    61   5 B        5.635     0.110    20.812     7.350
    62   5 B        4.742     0.036    22.091     7.573
    63   5 B        3.678     0.042    21.721     7.558
    64   5 B        4.781     0.082    21.277     7.432
    65   5 B        4.465     0.030    22.200     7.592
    66   5 B        3.855     0.047    21.877     7.538
    67   5 B        3.833     0.044    21.932     7.549
    68   5 B        3.834     0.012    22.511     7.648
    69   5 B        3.803    -0.019    23.066     7.744
    70   5 B        3.806     0.009    22.551     7.656
    71   5 B        4.226    -0.011    22.958     7.720
    72   5 B        3.802     0.020    22.341     7.621
    73   5 B        3.878     0.032    22.147     7.584
    74   5 B        2.888     0.107    19.625     7.394
    75   5 B        3.778     0.080    21.267     7.439
    76   5 B        3.898     0.054    21.754     7.516
    77   5 B        3.709     0.039    21.871     7.564
    78   5 B        3.761     0.031    22.123     7.590
    79   5 B        3.854     0.043    21.940     7.549
    80   5 B        4.286     0.047    21.878     7.537
    81   5 B        2.876     0.087    19.947     7.455
    82   5 B        3.771     0.082    21.231     7.433
    83   5 B        3.795     0.010    22.522     7.653
    84   5 B        2.925     0.014    21.159     7.675
    85   5 B        3.663     0.008    22.270     7.666
    86   5 B        2.926     0.027    20.931     7.634
    87   5 B        3.840     0.001    22.715     7.682
    88   5 B        3.860     0.017    22.414     7.630
    89   5 B        2.912     0.008    21.267     7.696
    90   5 B        2.915     0.010    21.224     7.688
    91   5 B        2.842     0.139    19.148     7.307
    92   1 H        0.935    -0.133     6.887     4.103
    93   1 H        0.939    -0.099     5.521     3.674
    94   1 H        0.934    -0.130     6.757     4.064
    95   1 H        0.932    -0.150     7.659     4.327
    96   1 H        0.938    -0.128     6.627     4.025
    97   1 H        0.940    -0.137     7.064     4.155
    98   1 H        0.936    -0.116     6.133     3.872
    99   1 H        0.939    -0.148     7.595     4.309
   100   1 H        0.938    -0.127     6.610     4.020
   101   1 H        0.936    -0.138     7.090     4.163
   102   1 H        0.935    -0.131     6.795     4.076
   103   1 H        0.933    -0.153     7.822     4.373

 Mol. C6AA /au·bohr⁶  :     165947.290216
 Mol. C8AA /au·bohr⁸  :    5135353.973493
 Mol. α(0) /au        :        648.631252


Wiberg/Mayer (AO) data.
largest (>0.10) Wiberg bond orders for each atom

 ---------------------------------------------------------------------------
     #   Z sym  total        # sym  WBO       # sym  WBO       # sym  WBO
 ---------------------------------------------------------------------------
     1   8 O    1.934 --     2 C    1.665     3 O    0.153
     2   6 C    3.857 --     1 O    1.665     3 O    1.091     4 C    1.068
     3   8 O    2.148 --     2 C    1.091    28 H    0.872     1 O    0.153
     4   6 C    3.902 --     5 C    1.716     2 C    1.068    29 H    0.965
     5   6 C    3.867 --     4 C    1.716     6 C    1.093    30 H    0.954
     6   6 C    3.951 --     7 C    1.361    13 C    1.318     5 C    1.093
     7   6 C    3.963 --     8 C    1.446     6 C    1.361    31 H    0.969
     8   6 C    3.976 --     7 C    1.446     9 C    1.377    32 H    0.966
     9   6 C    3.893 --     8 C    1.377    11 C    1.305    10 O    1.047
    10   8 O    2.083 --     9 C    1.047    33 H    0.880
    11   6 C    3.945 --    13 C    1.362     9 C    1.305    12 O    1.074
    12   8 O    2.108 --    11 C    1.074    34 H    0.866
    13   6 C    3.876 --    11 C    1.362     6 C    1.318    14 O    0.961
    14   8 O    2.317 --    15 C    1.092    13 C    0.961    16 O    0.166
    15   6 C    3.902 --    16 O    1.763    14 O    1.092    17 C    0.954
    16   8 O    2.057 --    15 C    1.763    14 O    0.166
    17   6 C    3.961 --    27 O    0.995    18 C    0.962    15 C    0.954
                            35 H    0.938
    18   6 C    3.988 --    19 C    1.007    36 H    0.969    37 H    0.965
                            17 C    0.962
    19   6 C    3.986 --    20 C    1.415    26 C    1.400    18 C    1.007
    20   6 C    3.987 --    21 C    1.434    19 C    1.415    38 H    0.969
    21   6 C    3.985 --    20 C    1.434    22 C    1.389    39 H    0.966
    22   6 C    3.944 --    21 C    1.389    24 C    1.308    23 O    1.074
    23   8 O    2.113 --    22 C    1.074    40 H    0.873
    24   6 C    3.934 --    26 C    1.403    22 C    1.308    25 O    1.046
    25   8 O    2.094 --    24 C    1.046    41 H    0.883
    26   6 C    3.984 --    24 C    1.403    19 C    1.400    42 H    0.962
    27   8 O    1.943 --    17 C    0.995    43 H    0.877
    28   1 H    0.896 --     3 O    0.872
    29   1 H    0.997 --     4 C    0.965
    30   1 H    0.994 --     5 C    0.954
    31   1 H    0.997 --     7 C    0.969
    32   1 H    0.998 --     8 C    0.966
    33   1 H    0.901 --    10 O    0.880
    34   1 H    0.890 --    12 O    0.866
    35   1 H    0.995 --    17 C    0.938
    36   1 H    0.996 --    18 C    0.969
    37   1 H    0.995 --    18 C    0.965
    38   1 H    0.998 --    20 C    0.969
    39   1 H    0.996 --    21 C    0.966
    40   1 H    0.896 --    23 O    0.873
    41   1 H    0.906 --    25 O    0.883
    42   1 H    0.997 --    26 C    0.962
    43   1 H    0.905 --    27 O    0.877
    44   5 B    3.284 --    51 B    1.207   103 H    0.944    95 H    0.940
    45   5 B    3.548 --    46 B    1.199    51 B    0.856    52 B    0.531
                            60 B    0.484    59 B    0.139
    46   5 B    3.575 --    45 B    1.199    53 B    1.122    61 B    0.465
                            60 B    0.452
    47   5 B    3.372 --    48 B    1.376    54 B    1.082    63 B    0.428
                            64 B    0.105
    48   5 B    3.534 --    47 B    1.376    55 B    1.115    64 B    0.622
    49   5 B    3.566 --    50 B    1.306    55 B    0.751    56 B    0.686
                            57 B    0.680
    50   5 B    3.388 --    49 B    1.306    99 H    0.968    57 B    0.819
                            56 B    0.129
    51   5 B    3.400 --    44 B    1.207    52 B    1.071    45 B    0.856
    52   5 B    3.507 --    51 B    1.071    58 B    0.818    59 B    0.707
                            45 B    0.531
    53   5 B    3.443 --    46 B    1.122    54 B    0.997    62 B    0.546
                            61 B    0.443
    54   5 B    3.540 --    47 B    1.082    53 B    0.997    63 B    0.643
                            62 B    0.614
    55   5 B    3.527 --    48 B    1.115    49 B    0.751    64 B    0.637
                            56 B    0.459    65 B    0.321
    56   5 B    3.623 --    57 B    0.901    66 B    0.692    49 B    0.686
                            65 B    0.573    55 B    0.459    50 B    0.129
    57   5 B    3.566 --   101 H    0.937    56 B    0.901    50 B    0.819
                            49 B    0.680
    58   5 B    3.568 --    98 H    0.923    68 B    0.832    52 B    0.818
                            59 B    0.803
    59   5 B    3.646 --    68 B    0.850    60 B    0.811    58 B    0.803
                            52 B    0.707    45 B    0.139
    60   5 B    3.555 --    59 B    0.811    69 B    0.797    61 B    0.647
                            45 B    0.484    46 B    0.452
    61   5 B    3.670 --    69 B    0.727    70 B    0.704    60 B    0.647
                            62 B    0.517    46 B    0.465    53 B    0.443
    62   5 B    3.566 --    63 B    0.948    70 B    0.720    54 B    0.614
                            53 B    0.546    61 B    0.517
    63   5 B    3.496 --    71 B    1.039    62 B    0.948    54 B    0.643
                            47 B    0.428
    64   5 B    3.616 --    72 B    0.684    65 B    0.644    71 B    0.640
                            55 B    0.637    48 B    0.622    47 B    0.105
    65   5 B    3.600 --    72 B    1.023    66 B    0.771    64 B    0.644
                            56 B    0.573    55 B    0.321
    66   5 B    3.672 --    73 B    0.833    67 B    0.806    65 B    0.771
                            56 B    0.692    74 B    0.162
    67   5 B    3.625 --    74 B    1.010    93 H    0.909    66 B    0.806
                            73 B    0.737
    68   5 B    3.572 --    76 B    0.879    59 B    0.850    58 B    0.832
                            75 B    0.722
    69   5 B    3.626 --    77 B    1.106    60 B    0.797    61 B    0.727
                            70 B    0.597
    70   5 B    3.512 --    78 B    1.090    62 B    0.720    61 B    0.704
                            69 B    0.597
    71   5 B    3.595 --    63 B    1.039    79 B    0.897    64 B    0.640
                            72 B    0.463    80 B    0.266
    72   5 B    3.586 --    65 B    1.023    80 B    0.967    64 B    0.684
                            71 B    0.463
    73   5 B    3.601 --    74 B    0.959    81 B    0.897    66 B    0.833
                            67 B    0.737
    74   5 B    3.427 --    67 B    1.010    97 H    0.972    73 B    0.959
                            81 B    0.182    66 B    0.162
    75   5 B    3.545 --   100 H    0.955    82 B    0.861    76 B    0.827
                            68 B    0.722
    76   5 B    3.638 --    68 B    0.879    82 B    0.874    75 B    0.827
                            83 B    0.766
    77   5 B    3.595 --    69 B    1.106    84 B    0.828    83 B    0.688
                            85 B    0.549
    78   5 B    3.604 --    70 B    1.090    86 B    0.860    87 B    0.698
                            85 B    0.585
    79   5 B    3.554 --    71 B    0.897    87 B    0.789    88 B    0.710
                            80 B    0.663
    80   5 B    3.575 --    72 B    0.967    89 B    0.749    88 B    0.683
                            79 B    0.663    71 B    0.266
    81   5 B    3.435 --    90 B    0.990    94 H    0.934    73 B    0.897
                            74 B    0.182    91 B    0.158
    82   5 B    3.538 --    96 H    0.957    76 B    0.874    75 B    0.861
                            83 B    0.659
    83   5 B    3.577 --    84 B    1.259    76 B    0.766    77 B    0.688
                            82 B    0.659
    84   5 B    3.543 --    83 B    1.259    85 B    1.113    77 B    0.828
    85   5 B    3.549 --    86 B    1.114    84 B    1.113    78 B    0.585
                            77 B    0.549
    86   5 B    3.517 --    87 B    1.161    85 B    1.114    78 B    0.860
    87   5 B    3.593 --    86 B    1.161    79 B    0.789    88 B    0.739
                            78 B    0.698
    88   5 B    3.577 --    89 B    1.196    87 B    0.739    79 B    0.710
                            80 B    0.683
    89   5 B    3.514 --    88 B    1.196    90 B    1.062    80 B    0.749
                            91 B    0.120
    90   5 B    3.391 --    89 B    1.062    91 B    1.060    81 B    0.990
    91   5 B    3.276 --    90 B    1.060    92 H    0.953   102 H    0.953
                            81 B    0.158    89 B    0.120
    92   1 H    0.980 --    91 B    0.953
    93   1 H    0.984 --    67 B    0.909
    94   1 H    0.981 --    81 B    0.934
    95   1 H    0.969 --    44 B    0.940
    96   1 H    0.980 --    82 B    0.957
    97   1 H    0.981 --    74 B    0.972
    98   1 H    0.977 --    58 B    0.923
    99   1 H    0.976 --    50 B    0.968
   100   1 H    0.978 --    75 B    0.955
   101   1 H    0.973 --    57 B    0.937
   102   1 H    0.979 --    91 B    0.953
   103   1 H    0.969 --    44 B    0.944
 ---------------------------------------------------------------------------

Topologies differ in total number of bonds
Writing topology from bond orders to xtbtopo.mol

molecular dipole:
                 x           y           z       tot (Debye)
 q only:       -0.911      -0.983      -5.069
   full:       -1.091      -0.441      -4.176      11.027
molecular quadrupole (traceless):
                xx          xy          yy          xz          yz          zz
 q only:      -22.002     -27.296      40.706      27.767     -40.337     -18.703
  q+dip:       24.386     -30.261      14.624      15.952     -42.781     -39.010
   full:        5.740     -32.739       4.298      18.316     -40.324     -10.039


           -------------------------------------------------
          | TOTAL ENERGY             -147.580098201101 Eh   |
          | GRADIENT NORM               0.105453316877 Eh/α |
          | HOMO-LUMO GAP               0.090047615530 eV   |
           -------------------------------------------------

------------------------------------------------------------------------
 * finished run on 2026/09/01 at 16:34:40.598     
------------------------------------------------------------------------
 total:
 * wall-time:     0 d,  0 h,  0 min,  0.849 sec
 *  cpu-time:     0 d,  0 h,  0 min,  8.656 sec
 * ratio c/w:    10.196 speedup
 SCF:
 * wall-time:     0 d,  0 h,  0 min,  0.802 sec
 *  cpu-time:     0 d,  0 h,  0 min,  8.328 sec
 * ratio c/w:    10.384 speedup

normal termination of xtb
