43
Rosmarinic_Acid - ETKDG+MMFF conformer
O     -2.767334      3.788345      2.018305
C     -3.604341      2.943361      2.268725
O     -4.448893      3.053170      3.305744
C     -3.862552      1.697347      1.537571
C     -3.141768      1.410424      0.443621
C     -3.312701      0.175389     -0.334109
C     -4.590518     -0.277837     -0.706214
C     -4.750076     -1.436689     -1.478990
C     -3.626001     -2.140941     -1.894916
O     -3.722797     -3.271703     -2.657635
C     -2.352380     -1.703193     -1.547521
O     -1.256391     -2.402134     -1.977140
C     -2.197803     -0.559812     -0.764871
O     -0.904777     -0.133872     -0.453317
C     -0.399068     -0.806220      0.648304
O     -1.017946     -1.525449      1.429108
C      1.077189     -0.458094      0.839455
C      1.904425     -0.938285     -0.359164
C      3.208547     -0.180741     -0.498617
C      3.371398      0.768540     -1.522809
C      4.568585      1.476503     -1.652038
C      5.597911      1.236360     -0.755320
O      6.767866      1.929683     -0.879369
C      5.449107      0.302535      0.265733
O      6.500981      0.119167      1.121001
C      4.262671     -0.409993      0.400480
O      1.580524     -1.079818      2.035410
H     -4.195648      3.901735      3.725493
H     -4.628040      1.040997      1.932029
H     -2.360701      2.086978      0.099997
H     -5.478826      0.275821     -0.407707
H     -5.750957     -1.760180     -1.748111
H     -4.665756     -3.465533     -2.800024
H     -1.628209     -3.153909     -2.481819
H      1.143662      0.625850      0.986841
H      1.343724     -0.839254     -1.296296
H      2.136720     -2.006874     -0.259232
H      2.567652      0.962695     -2.230013
H      4.695859      2.208143     -2.443808
H      7.324534      1.593847     -0.148761
H      6.226301     -0.532239      1.789789
H      4.138385     -1.138298      1.197469
H      0.797442     -1.375820      2.543474
