      -----------------------------------------------------------      
     |                   =====================                   |     
     |                           x T B                           |     
     |                   =====================                   |     
     |                         S. Grimme                         |     
     |          Mulliken Center for Theoretical Chemistry        |     
     |                    University of Bonn                     |     
      -----------------------------------------------------------      

   * xtb version 6.7.1pre (5071a88) compiled by 'Marcel@Raven' on 2024-07-23

   xtb is free software: you can redistribute it and/or modify it under
   the terms of the GNU Lesser General Public License as published by
   the Free Software Foundation, either version 3 of the License, or
   (at your option) any later version.
   
   xtb is distributed in the hope that it will be useful,
   but WITHOUT ANY WARRANTY; without even the implied warranty of
   MERCHANTABILITY or FITNESS FOR A PARTICULAR PURPOSE.  See the
   GNU Lesser General Public License for more details.
   
   Cite this work as:
   * C. Bannwarth, E. Caldeweyher, S. Ehlert, A. Hansen, P. Pracht,
     J. Seibert, S. Spicher, S. Grimme, WIREs Comput. Mol. Sci., 2020, 11,
     e01493. DOI: 10.1002/wcms.1493
   
   for GFN2-xTB:
   * C. Bannwarth, S. Ehlert and S. Grimme., J. Chem. Theory Comput., 2019,
     15, 1652-1671. DOI: 10.1021/acs.jctc.8b01176
   for GFN1-xTB:
   * S. Grimme, C. Bannwarth, P. Shushkov, J. Chem. Theory Comput., 2017,
     13, 1989-2009. DOI: 10.1021/acs.jctc.7b00118
   for GFN0-xTB:
   * P. Pracht, E. Caldeweyher, S. Ehlert, S. Grimme, ChemRxiv, 2019, preprint.
     DOI: 10.26434/chemrxiv.8326202.v1
   for GFN-FF:
   * S. Spicher and S. Grimme, Angew. Chem. Int. Ed., 2020, 59, 15665-15673.
     DOI: 10.1002/anie.202004239
   
   for ALPB and GBSA implicit solvation:
   * S. Ehlert, M. Stahn, S. Spicher, S. Grimme, J. Chem. Theory Comput.,
     2021, 17, 4250-4261. DOI: 10.1021/acs.jctc.1c00471
   
   for ddCOSMO and CPCM-X implicit solvation:
   * M. Stahn, S. Ehlert, S. Grimme, J. Phys. Chem. A,
     2023, XX, XXXX-XXXX. DOI: 10.1021/acs.jpca.3c04382
   
   for DFT-D4:
   * E. Caldeweyher, C. Bannwarth and S. Grimme, J. Chem. Phys., 2017,
     147, 034112. DOI: 10.1063/1.4993215
   * E. Caldeweyher, S. Ehlert, A. Hansen, H. Neugebauer, S. Spicher,
     C. Bannwarth and S. Grimme, J. Chem. Phys., 2019, 150, 154122.
     DOI: 10.1063/1.5090222
   * E. Caldeweyher, J.-M. Mewes, S. Ehlert and S. Grimme, Phys. Chem. Chem. Phys.
     2020, 22, 8499-8512. DOI: 10.1039/D0CP00502A
   
   for sTDA-xTB:
   * S. Grimme and C. Bannwarth, J. Chem. Phys., 2016, 145, 054103.
     DOI: 10.1063/1.4959605
   
   in the mass-spec context:
   * V. Asgeirsson, C. Bauer and S. Grimme, Chem. Sci., 2017, 8, 4879.
     DOI: 10.1039/c7sc00601b
   * J. Koopman and S. Grimme, ACS Omega 2019, 4, 12, 15120-15133.
     DOI: 10.1021/acsomega.9b02011
   
   for metadynamics refer to:
   * S. Grimme, J. Chem. Theory Comput., 2019, 155, 2847-2862
     DOI: 10.1021/acs.jctc.9b00143
   
   for SPH calculations refer to:
   * S. Spicher and S. Grimme, J. Chem. Theory Comput., 2021, 17, 1701-1714
     DOI: 10.1021/acs.jctc.0c01306
   
   for ONIOM refer to:
   * C. Plett, A. Katbashev, S. Ehlert, S. Grimme, M. Bursch,
     Phys. Chem. Chem. Phys., 2023, 25, 17860-17868. DOI: 10.1039/D3CP02178E
   
   for DIPRO refer to:
   * J. Kohn, N. Gildemeister, S. Grimme, D. Fazzi, A. Hansen,
     J. Chem. Phys., 2023, just accepted.
   
   for PTB refer to:
   * S. Grimme, M. Mueller, A. Hansen, J. Chem. Phys., 2023, 158, 124111.
     DOI: 10.1063/5.0137838
   
   with help from (in alphabetical order)
   P. Atkinson, C. Bannwarth, F. Bohle, G. Brandenburg, E. Caldeweyher
   M. Checinski, S. Dohm, S. Ehlert, S. Ehrlich, I. Gerasimov, C. Hölzer
   A. Katbashev, J. Kohn, J. Koopman, C. Lavigne, S. Lehtola, F. März, M. Müller,
   F. Musil, H. Neugebauer, J. Pisarek, C. Plett, P. Pracht, F. Pultar,
   J. Seibert, P. Shushkov, S. Spicher, M. Stahn, M. Steiner, T. Strunk,
   J. Stückrath, T. Rose, and J. Unsleber
   
 * started run on 2026/08/31 at 21:15:30.903     
   ID    Z sym.   atoms
    1    8 O      1, 3, 10, 12, 14, 16, 23, 25, 27
    2    6 C      2, 4-9, 11, 13, 15, 17-22, 24, 26
    3    1 H      28-43, 97-103
    4    5 B      44-96

           -------------------------------------------------
          |                Calculation Setup                |
           -------------------------------------------------

          program call               : "c:\Users\Andre\Proyectos doctorado\kras-pancreatic-gC3N4-ai\tools\xtb\xtb-6.7.1\bin\xtb.exe" "c:\Users\Andre\Proyectos doctorado\borophene-alzheimer-tau-ai\calculations\tau\Rosmarinic_Acid\Rosmarinic_Acid_B48H12_phys_complex.xyz" --gfn 2 --sp --chrg 0 --uhf 0 --etemp 300 --iterations 500 --norestart
          coordinate file            : c:\Users\Andre\Proyectos doctorado\borophene-alzheimer-tau-ai\calculations\tau\Rosmarinic_Acid\Rosmarinic_Acid_B48H12_phys_complex.xyz
          omp threads                :                    16


molecular fragmentation (1/2 indicates fragments):
111111111111111111111111111111111111111111122222222222222222222222222222
2222222222222222222222222222222
# atoms in fragment 1/2:    43    60
 fragment masses (1/2) :      376.31      580.04
CMA distance (Bohr)    :  10.930
constraining FC (au)   :  0.0500

           -------------------------------------------------
          |                 G F N 2 - x T B                 |
           -------------------------------------------------

        Reference                      10.1021/acs.jctc.8b01176
      * Hamiltonian:
        H0-scaling (s, p, d)           1.850000    2.230000    2.230000
        zeta-weighting                 0.500000
      * Dispersion:
        s8                             2.700000
        a1                             0.520000
        a2                             5.000000
        s9                             5.000000
      * Repulsion:
        kExp                           1.500000    1.000000
        rExp                           1.000000
      * Coulomb:
        alpha                          2.000000
        third order                    shell-resolved
        anisotropic                    true
        a3                             3.000000
        a5                             4.000000
        cn-shift                       1.200000
        cn-exp                         4.000000
        max-rad                        5.000000


          ...................................................
          :                      SETUP                      :
          :.................................................:
          :  # basis functions                 343          :
          :  # atomic orbitals                 343          :
          :  # shells                          183          :
          :  # electrons                       308          :
          :  max. iterations                   500          :
          :  Hamiltonian                  GFN2-xTB          :
          :  restarted?                      false          :
          :  GBSA solvation                  false          :
          :  PC potential                    false          :
          :  electronic temp.          300.0000000     K    :
          :  accuracy                    1.0000000          :
          :  -> integral cutoff          0.2500000E+02      :
          :  -> integral neglect         0.1000000E-07      :
          :  -> SCF convergence          0.1000000E-05 Eh   :
          :  -> wf. convergence          0.1000000E-03 e    :
          :  Broyden damping             0.4000000          :
          :  net charge                          0          :
          :  unpaired electrons                  0          :
          ...................................................

 iter      E             dE          RMSdq      gap      omega  full diag
   1   -151.9461251 -0.151946E+03  0.149E+01    0.26       0.0  T
   2   -136.1657111  0.157804E+02  0.105E+01    0.08       1.0  T
   3    127.3697735  0.263535E+03  0.210E+01    0.20       1.0  T
   4     11.1170075 -0.116253E+03  0.166E+01    0.06       1.0  T
   5    -92.4561171 -0.103573E+03  0.103E+01    0.12       1.0  T
   6    -24.7382967  0.677178E+02  0.149E+01    0.10       1.0  T
   7   -142.3854001 -0.117647E+03  0.672E+00    0.02       1.0  T
   8   -126.4309332  0.159545E+02  0.661E+00    0.05       1.0  T
   9   -150.7145773 -0.242836E+02  0.382E+00    0.06       1.0  T
  10   -152.2687737 -0.155420E+01  0.314E+00    0.33       1.0  T
  11   -152.4903653 -0.221592E+00  0.283E+00    0.23       1.0  T
  12   -152.5859635 -0.955982E-01  0.261E+00    0.31       1.0  T
  13   -152.6187762 -0.328127E-01  0.247E+00    0.32       1.0  T
  14   -152.5732552  0.455210E-01  0.181E+00    0.24       1.0  T
  15   -152.7367842 -0.163529E+00  0.110E+00    0.28       1.0  T
  16   -152.7741318 -0.373476E-01  0.101E+00    0.20       1.0  T
  17   -152.7959630 -0.218313E-01  0.878E-01    0.11       1.0  T
  18   -152.8499523 -0.539892E-01  0.789E-01    0.26       1.0  T
  19   -152.8437090  0.624327E-02  0.734E-01    0.06       1.0  T
  20   -152.8951843 -0.514753E-01  0.584E-01    0.26       1.0  T
  21   -152.9206660 -0.254817E-01  0.466E-01    0.26       1.0  T
  22   -152.9327109 -0.120449E-01  0.395E-01    0.20       1.0  T
  23   -152.9375511 -0.484021E-02  0.371E-01    0.16       1.0  T
  24   -152.9434752 -0.592405E-02  0.328E-01    0.12       1.0  T
  25   -152.9458322 -0.235702E-02  0.276E-01    0.10       1.0  T
  26   -152.9490793 -0.324711E-02  0.178E-01    0.09       1.0  T
  27   -152.9352206  0.138587E-01  0.255E-01    0.04       1.0  T
  28   -152.8309396  0.104281E+00  0.704E-01    0.03       1.0  T
  29   -152.9005375 -0.695979E-01  0.516E-01    0.03       1.0  T
  30   -152.8966019  0.393561E-02  0.510E-01    0.03       1.0  T
  31   -152.9498134 -0.532115E-01  0.142E-01    0.06       1.0  T
  32   -152.9542159 -0.440254E-02  0.729E-02    0.09       1.0  T
  33   -152.9544548 -0.238873E-03  0.626E-02    0.10       1.0  T
  34   -152.9548700 -0.415240E-03  0.418E-02    0.09       1.0  T
  35   -152.9549952 -0.125147E-03  0.358E-02    0.09       1.0  T
  36   -152.9550621 -0.669372E-04  0.313E-02    0.09       1.0  T
  37   -152.9551022 -0.400254E-04  0.286E-02    0.09       1.0  T
  38   -152.9551521 -0.499144E-04  0.253E-02    0.09       1.0  T
  39   -152.9551619 -0.981157E-05  0.244E-02    0.09       1.0  T
  40   -152.9551718 -0.988711E-05  0.236E-02    0.09       1.0  T
  41   -152.9551746 -0.280071E-05  0.225E-02    0.09       1.0  T
  42   -152.9551842 -0.962792E-05  0.207E-02    0.09       1.0  T
  43   -152.9551847 -0.461697E-06  0.200E-02    0.09       1.0  T
  44   -152.9551882 -0.350930E-05  0.192E-02    0.09       1.0  T
  45   -152.9551944 -0.623417E-05  0.179E-02    0.09       1.0  T
  46   -152.9552036 -0.924191E-05  0.163E-02    0.09       1.0  T
  47   -152.9552116 -0.797166E-05  0.149E-02    0.09       1.0  T
  48   -152.9552146 -0.296103E-05  0.142E-02    0.09       1.0  T
  49   -152.9552202 -0.559767E-05  0.126E-02    0.09       1.0  T
  50   -152.9552295 -0.935140E-05  0.972E-03    0.09       1.0  T
  51   -152.9552367 -0.719848E-05  0.720E-03    0.09       1.4  T
  52   -152.9552403 -0.353632E-05  0.538E-03    0.09       1.8  T
  53   -152.9552437 -0.342585E-05  0.248E-03    0.09       4.0  T
  54   -152.9552443 -0.591821E-06  0.145E-03    0.09       6.8  T
  55   -152.9552445 -0.212399E-06  0.795E-04    0.09      12.4  T
  56   -152.9552445 -0.292589E-07  0.658E-04    0.09      15.0  T

   *** convergence criteria satisfied after 56 iterations ***

         #    Occupation            Energy/Eh            Energy/eV
      -------------------------------------------------------------
         1        2.0000           -0.7221009             -19.6494
       ...           ...                  ...                  ...
       148        2.0000           -0.2717853              -7.3957
       149        2.0000           -0.2665319              -7.2527
       150        2.0000           -0.2645019              -7.1975
       151        2.0000           -0.2619486              -7.1280
       152        1.9998           -0.2557306              -6.9588
       153        1.9989           -0.2539291              -6.9098
       154        1.6866           -0.2483617              -6.7583 (HOMO)
       155        0.3141           -0.2451665              -6.6713 (LUMO)
       156        0.0005           -0.2389711              -6.5027
       157        0.0000           -0.2315804              -6.3016
       158                         -0.2287672              -6.2251
       159                         -0.2242680              -6.1026
       ...                                ...                  ...
       343                          1.1911044              32.4116
      -------------------------------------------------------------
                  HL-Gap            0.0031952 Eh            0.0869 eV
             Fermi-level           -0.2467629 Eh           -6.7148 eV

 SCC (total)                   0 d,  0 h,  0 min,  1.189 sec
 SCC setup                      ...        0 min,  0.001 sec (  0.084%)
 Dispersion                     ...        0 min,  0.003 sec (  0.252%)
 classical contributions        ...        0 min,  0.000 sec (  0.000%)
 integral evaluation            ...        0 min,  0.011 sec (  0.925%)
 iterations                     ...        0 min,  1.145 sec ( 96.299%)
 molecular gradient             ...        0 min,  0.027 sec (  2.271%)
 printout                       ...        0 min,  0.002 sec (  0.168%)

         :::::::::::::::::::::::::::::::::::::::::::::::::::::
         ::                     SUMMARY                     ::
         :::::::::::::::::::::::::::::::::::::::::::::::::::::
         :: total energy            -150.947168279186 Eh    ::
         :: gradient norm              0.138946156869 Eh/a0 ::
         :: HOMO-LUMO gap              0.086946697855 eV    ::
         ::.................................................::
         :: SCC energy              -152.949848653239 Eh    ::
         :: -> isotropic ES            0.418539201597 Eh    ::
         :: -> anisotropic ES         -0.001375463963 Eh    ::
         :: -> anisotropic XC         -0.048325117078 Eh    ::
         :: -> dispersion             -0.140193556717 Eh    ::
         :: repulsion energy           2.002680374053 Eh    ::
         :: add. restraining           0.000000000000 Eh    ::
         :: total charge               0.000000000497 e     ::
         :::::::::::::::::::::::::::::::::::::::::::::::::::::

           -------------------------------------------------
          |                Property Printout                |
           -------------------------------------------------

    * Orbital Energies and Occupations

         #    Occupation            Energy/Eh            Energy/eV
      -------------------------------------------------------------
         1        2.0000           -0.7221009             -19.6494
       ...           ...                  ...                  ...
       142        2.0000           -0.2867311              -7.8024
       143        2.0000           -0.2851394              -7.7590
       144        2.0000           -0.2803746              -7.6294
       145        2.0000           -0.2778248              -7.5600
       146        2.0000           -0.2758597              -7.5065
       147        2.0000           -0.2733099              -7.4371
       148        2.0000           -0.2717853              -7.3957
       149        2.0000           -0.2665319              -7.2527
       150        2.0000           -0.2645019              -7.1975
       151        2.0000           -0.2619486              -7.1280
       152        1.9998           -0.2557306              -6.9588
       153        1.9989           -0.2539291              -6.9098
       154        1.6866           -0.2483617              -6.7583 (HOMO)
       155        0.3141           -0.2451665              -6.6713 (LUMO)
       156        0.0005           -0.2389711              -6.5027
       157        0.0000           -0.2315804              -6.3016
       158                         -0.2287672              -6.2251
       159                         -0.2242680              -6.1026
       160                         -0.2199519              -5.9852
       161                         -0.2150586              -5.8520
       162                         -0.2136250              -5.8130
       163                         -0.2132569              -5.8030
       164                         -0.2118001              -5.7634
       165                         -0.2106436              -5.7319
       ...                                ...                  ...
       343                          1.1911044              32.4116
      -------------------------------------------------------------
                  HL-Gap            0.0031952 Eh            0.0869 eV
             Fermi-level           -0.2467629 Eh           -6.7148 eV

     #   Z          covCN         q      C6AA      α(0)
     1   8 O        0.856    -0.471    23.150     6.451
     2   6 C        2.700     0.336    21.294     7.553
     3   8 O        1.660    -0.403    20.908     6.173
     4   6 C        2.894    -0.089    30.239     9.016
     5   6 C        2.903    -0.035    28.875     8.811
     6   6 C        2.964    -0.015    28.377     8.738
     7   6 C        2.917    -0.060    29.486     8.905
     8   6 C        2.909    -0.094    30.369     9.036
     9   6 C        2.843     0.077    26.269     8.400
    10   8 O        1.695    -0.372    20.291     6.082
    11   6 C        2.840     0.098    25.828     8.329
    12   8 O        1.670    -0.426    21.350     6.238
    13   6 C        2.899     0.099    25.803     8.329
    14   8 O        1.704    -0.253    18.195     5.759
    15   6 C        2.740     0.329    21.414     7.577
    16   8 O        0.856    -0.403    21.746     6.252
    17   6 C        3.723     0.087    19.235     6.263
    18   6 C        3.805    -0.082    22.067     6.687
    19   6 C        2.962    -0.002    28.073     8.691
    20   6 C        2.915    -0.074    29.858     8.960
    21   6 C        2.910    -0.075    29.878     8.963
    22   6 C        2.845     0.119    25.385     8.257
    23   8 O        1.658    -0.398    20.818     6.159
    24   6 C        2.841     0.104    25.694     8.307
    25   8 O        1.658    -0.413    21.101     6.201
    26   6 C        2.914    -0.081    30.038     8.987
    27   8 O        1.650    -0.451    21.867     6.312
    28   1 H        0.804     0.318     0.669     1.285
    29   1 H        0.925     0.053     2.285     2.364
    30   1 H        0.925     0.064     2.150     2.293
    31   1 H        0.925     0.050     2.316     2.380
    32   1 H        0.925     0.039     2.461     2.453
    33   1 H        0.804     0.319     0.668     1.284
    34   1 H        0.804     0.374     0.534     1.148
    35   1 H        0.924     0.065     2.144     2.290
    36   1 H        0.924     0.072     2.066     2.248
    37   1 H        0.923     0.070     2.080     2.256
    38   1 H        0.925     0.058     2.225     2.332
    39   1 H        0.925     0.068     2.108     2.270
    40   1 H        0.804     0.322     0.658     1.275
    41   1 H        0.804     0.308     0.698     1.312
    42   1 H        0.925     0.056     2.245     2.343
    43   1 H        0.803     0.309     0.696     1.311
    44   5 B        2.872     0.039    20.739     7.602
    45   5 B        3.646     0.029    21.800     7.602
    46   5 B        3.704    -0.015    22.862     7.736
    47   5 B        3.599     0.006    21.920     7.680
    48   5 B        3.804     0.010    22.522     7.652
    49   5 B        3.812     0.036    22.061     7.572
    50   5 B        4.425     0.060    21.655     7.498
    51   5 B        3.843     0.012    22.515     7.648
    52   5 B        5.071     0.071    21.463     7.465
    53   5 B        5.523     0.101    20.949     7.375
    54   5 B        3.792     0.003    22.650     7.675
    55   5 B        4.799     0.085    21.217     7.422
    56   5 B        4.746     0.060    21.659     7.499
    57   5 B        3.691     0.008    22.381     7.662
    58   5 B        3.742     0.036    21.992     7.572
    59   5 B        4.170    -0.016    23.049     7.735
    60   5 B        3.938     0.009    22.569     7.655
    61   5 B        3.779     0.075    21.358     7.454
    62   5 B        3.808     0.063    21.576     7.489
    63   5 B        3.812    -0.011    22.926     7.719
    64   5 B        3.702    -0.007    22.690     7.709
    65   5 B        3.825     0.009    22.565     7.657
    66   5 B        4.691     0.055    21.743     7.513
    67   5 B        4.735     0.045    21.922     7.544
    68   5 B        3.813     0.073    21.405     7.459
    69   5 B        2.071    -0.001    43.071    13.727
    70   5 B        3.706     0.008    22.426     7.661
    71   5 B        4.547     0.020    22.379     7.622
    72   5 B        4.200     0.033    22.136     7.581
    73   5 B        3.748     0.072    21.377     7.464
    74   5 B        3.840    -0.006    22.852     7.705
    75   5 B        3.769     0.016    22.392     7.634
    76   5 B        4.530     0.068    21.519     7.474
    77   5 B        5.624     0.098    21.003     7.384
    78   5 B        3.805     0.020    22.352     7.623
    79   5 B        3.825     0.014    22.475     7.642
    80   5 B        2.886     0.068    20.250     7.511
    81   5 B        2.918     0.043    20.656     7.584
    82   5 B        2.913     0.020    21.057     7.657
    83   5 B        3.630     0.011    22.027     7.660
    84   5 B        3.792     0.004    22.640     7.673
    85   5 B        2.860    -0.001    21.443     7.731
    86   5 B        2.920    -0.054    22.382     7.894
    87   5 B        3.862     0.040    21.996     7.558
    88   5 B        2.901    -0.031    21.975     7.823
    89   5 B        4.532     0.041    21.985     7.555
    90   5 B        3.896     0.035    22.096     7.575
    91   5 B        3.818     0.015    22.443     7.637
    92   5 B        3.778    -0.035    23.372     7.798
    93   5 B        3.628    -0.019    22.567     7.754
    94   5 B        4.556     0.023    22.312     7.611
    95   5 B        3.280     0.022    20.990     7.640
    96   5 B        4.869     0.087    21.193     7.418
    97   1 H        0.937    -0.179     9.319     4.773
    98   1 H        0.935    -0.146     7.457     4.270
    99   1 H        0.936    -0.141     7.222     4.202
   100   1 H        0.939    -0.155     7.921     4.400
   101   1 H        0.936    -0.140     7.204     4.196
   102   1 H        0.937    -0.143     7.344     4.237
   103   1 H        0.934    -0.142     7.276     4.218

 Mol. C6AA /au·bohr⁶  :     178246.023927
 Mol. C8AA /au·bohr⁸  :    5730995.410435
 Mol. α(0) /au        :        675.765284


Wiberg/Mayer (AO) data.
largest (>0.10) Wiberg bond orders for each atom

 ---------------------------------------------------------------------------
     #   Z sym  total        # sym  WBO       # sym  WBO       # sym  WBO
 ---------------------------------------------------------------------------
     1   8 O    1.914 --     2 C    1.650     3 O    0.148
     2   6 C    3.845 --     1 O    1.650     3 O    1.083     4 C    1.078
     3   8 O    2.138 --     2 C    1.083    28 H    0.874     1 O    0.148
     4   6 C    3.891 --     5 C    1.694     2 C    1.078    29 H    0.965
     5   6 C    3.854 --     4 C    1.694     6 C    1.101    30 H    0.954
     6   6 C    3.939 --     7 C    1.353    13 C    1.309     5 C    1.101
     7   6 C    3.953 --     8 C    1.446     6 C    1.353    31 H    0.969
     8   6 C    3.970 --     7 C    1.446     9 C    1.368    32 H    0.966
     9   6 C    3.887 --     8 C    1.368    11 C    1.293    10 O    1.037
    10   8 O    2.157 --     9 C    1.037    33 H    0.856
    11   6 C    3.947 --    13 C    1.357     9 C    1.293    12 O    1.086
    12   8 O    2.114 --    11 C    1.086    34 H    0.740
    13   6 C    3.864 --    11 C    1.357     6 C    1.309    14 O    0.955
    14   8 O    2.313 --    15 C    1.096    13 C    0.955    16 O    0.166
    15   6 C    3.886 --    16 O    1.743    14 O    1.096    17 C    0.952
    16   8 O    2.036 --    15 C    1.743    14 O    0.166
    17   6 C    3.960 --    27 O    0.994    18 C    0.964    15 C    0.952
                            35 H    0.940
    18   6 C    3.987 --    19 C    1.009    36 H    0.967    37 H    0.964
                            17 C    0.964
    19   6 C    3.986 --    20 C    1.414    26 C    1.400    18 C    1.009
    20   6 C    3.985 --    21 C    1.434    19 C    1.414    38 H    0.966
    21   6 C    3.984 --    20 C    1.434    22 C    1.389    39 H    0.964
    22   6 C    3.943 --    21 C    1.389    24 C    1.308    23 O    1.071
    23   8 O    2.108 --    22 C    1.071    40 H    0.873
    24   6 C    3.934 --    26 C    1.403    22 C    1.308    25 O    1.046
    25   8 O    2.094 --    24 C    1.046    41 H    0.882
    26   6 C    3.984 --    24 C    1.403    19 C    1.400    42 H    0.962
    27   8 O    1.940 --    17 C    0.994    43 H    0.876
    28   1 H    0.898 --     3 O    0.874
    29   1 H    0.997 --     4 C    0.965
    30   1 H    0.994 --     5 C    0.954
    31   1 H    0.997 --     7 C    0.969
    32   1 H    0.998 --     8 C    0.966
    33   1 H    0.896 --    10 O    0.856
    34   1 H    0.858 --    12 O    0.740
    35   1 H    0.995 --    17 C    0.940
    36   1 H    0.994 --    18 C    0.967
    37   1 H    0.994 --    18 C    0.964
    38   1 H    0.997 --    20 C    0.966
    39   1 H    0.995 --    21 C    0.964
    40   1 H    0.896 --    23 O    0.873
    41   1 H    0.905 --    25 O    0.882
    42   1 H    0.997 --    26 C    0.962
    43   1 H    0.905 --    27 O    0.876
    44   5 B    3.487 --    86 B    1.438    97 H    0.957    50 B    0.833
    45   5 B    3.491 --    86 B    1.139    87 B    0.936    51 B    0.546
                            50 B    0.519
    46   5 B    3.520 --    88 B    1.296    87 B    0.993    53 B    0.491
                            52 B    0.409
    47   5 B    3.460 --    88 B    1.281    48 B    1.020    53 B    0.553
                            89 B    0.357
    48   5 B    3.533 --    90 B    1.094    47 B    1.020    54 B    0.683
                            89 B    0.485
    49   5 B    3.596 --   101 H    0.941    90 B    0.858    61 B    0.810
                            55 B    0.799
    50   5 B    3.615 --    56 B    0.834    44 B    0.833    86 B    0.784
                            45 B    0.519    57 B    0.388
    51   5 B    3.568 --    57 B    1.129    87 B    0.722    52 B    0.698
                            45 B    0.546
    52   5 B    3.568 --    58 B    0.911    51 B    0.698    53 B    0.532
                            87 B    0.480    46 B    0.409    59 B    0.233
    53   5 B    3.603 --    59 B    0.621    89 B    0.618    88 B    0.588
                            47 B    0.553    52 B    0.532    46 B    0.491
    54   5 B    3.591 --    60 B    1.106    89 B    0.920    48 B    0.683
                            90 B    0.503
    55   5 B    3.595 --    61 B    0.845    49 B    0.799    67 B    0.684
                            90 B    0.594    60 B    0.517
    56   5 B    3.619 --    50 B    0.834    62 B    0.755    57 B    0.689
                            63 B    0.562    96 B    0.495
    57   5 B    3.557 --    51 B    1.129    63 B    0.923    56 B    0.689
                            50 B    0.388
    58   5 B    3.442 --    64 B    1.126    52 B    0.911    65 B    0.595
                            59 B    0.418
    59   5 B    3.591 --    65 B    1.106    89 B    0.911    53 B    0.621
                            58 B    0.418    52 B    0.233
    60   5 B    3.548 --    54 B    1.106    66 B    0.829    67 B    0.611
                            55 B    0.517    90 B    0.180
    61   5 B    3.509 --   102 H    0.953    55 B    0.845    49 B    0.810
                            67 B    0.675
    62   5 B    3.525 --    98 H    0.940    68 B    0.831    56 B    0.755
                            96 B    0.729
    63   5 B    3.617 --    69 B    1.265    57 B    0.923    56 B    0.562
                            96 B    0.545
    64   5 B    3.493 --    70 B    1.152    58 B    1.126    65 B    0.558
                            71 B    0.385
    65   5 B    3.569 --    59 B    1.106    71 B    0.977    58 B    0.595
                            64 B    0.558
    66   5 B    3.579 --    72 B    0.866    60 B    0.829    79 B    0.559
                            67 B    0.542    73 B    0.498
    67   5 B    3.603 --    73 B    0.869    55 B    0.684    61 B    0.675
                            60 B    0.611    66 B    0.542
    68   5 B    3.570 --    99 H    0.942    62 B    0.831    96 B    0.774
                            74 B    0.724
    69   5 B    3.404 --    75 B    1.335    63 B    1.265    96 B    0.203
                            91 B    0.157
    70   5 B    3.426 --    64 B    1.152    76 B    1.015    77 B    0.513
                            71 B    0.455
    71   5 B    3.581 --    65 B    0.977    94 B    0.783    77 B    0.659
                            70 B    0.455    64 B    0.385
    72   5 B    3.559 --    78 B    1.004    66 B    0.866    79 B    0.629
                            85 B    0.541    95 B    0.320
    73   5 B    3.412 --   103 H    0.925    79 B    0.891    67 B    0.869
                            66 B    0.498
    74   5 B    3.604 --    80 B    1.230    68 B    0.724    91 B    0.714
                            96 B    0.690
    75   5 B    3.567 --    69 B    1.335    81 B    0.685    91 B    0.603
                            92 B    0.573
    76   5 B    3.511 --    70 B    1.015    82 B    0.647    92 B    0.577
                            77 B    0.538    93 B    0.449
    77   5 B    3.613 --    71 B    0.659    94 B    0.629    76 B    0.538
                            83 B    0.524    70 B    0.513    93 B    0.506
    78   5 B    3.545 --    94 B    1.030    72 B    1.004    84 B    0.628
                            95 B    0.526
    79   5 B    3.503 --    85 B    1.233    73 B    0.891    72 B    0.629
                            66 B    0.559
    80   5 B    3.459 --    74 B    1.230   100 H    0.957    91 B    0.851
                            81 B    0.145
    81   5 B    3.402 --    92 B    1.162    91 B    1.106    75 B    0.685
                            80 B    0.145
    82   5 B    3.345 --    93 B    1.208    92 B    1.132    76 B    0.647
    83   5 B    3.383 --    93 B    1.131    84 B    1.080    77 B    0.524
                            94 B    0.388
    84   5 B    3.490 --    83 B    1.080    95 B    1.063    78 B    0.628
                            94 B    0.495
    85   5 B    3.335 --    95 B    1.260    79 B    1.233    72 B    0.541
    86   5 B    3.545 --    44 B    1.438    45 B    1.139    50 B    0.784
    87   5 B    3.481 --    46 B    0.993    45 B    0.936    51 B    0.722
                            52 B    0.480
    88   5 B    3.458 --    46 B    1.296    47 B    1.281    53 B    0.588
    89   5 B    3.559 --    54 B    0.920    59 B    0.911    53 B    0.618
                            48 B    0.485    47 B    0.357
    90   5 B    3.480 --    48 B    1.094    49 B    0.858    55 B    0.594
                            54 B    0.503    60 B    0.180
    91   5 B    3.627 --    81 B    1.106    80 B    0.851    74 B    0.714
                            75 B    0.603    69 B    0.157
    92   5 B    3.613 --    81 B    1.162    82 B    1.132    76 B    0.577
                            75 B    0.573
    93   5 B    3.499 --    82 B    1.208    83 B    1.131    77 B    0.506
                            76 B    0.449
    94   5 B    3.595 --    78 B    1.030    71 B    0.783    77 B    0.629
                            84 B    0.495    83 B    0.388
    95   5 B    3.385 --    85 B    1.260    84 B    1.063    78 B    0.526
                            72 B    0.320
    96   5 B    3.625 --    68 B    0.774    62 B    0.729    74 B    0.690
                            63 B    0.545    56 B    0.495    69 B    0.203
    97   1 H    0.966 --    44 B    0.957
    98   1 H    0.972 --    62 B    0.940
    99   1 H    0.975 --    68 B    0.942
   100   1 H    0.972 --    80 B    0.957
   101   1 H    0.969 --    49 B    0.941
   102   1 H    0.976 --    61 B    0.953
   103   1 H    0.973 --    73 B    0.925
 ---------------------------------------------------------------------------

Topologies differ in total number of bonds
Writing topology from bond orders to xtbtopo.mol

molecular dipole:
                 x           y           z       tot (Debye)
 q only:        2.607      -0.846      -3.090
   full:        2.037      -1.202      -3.295      10.309
molecular quadrupole (traceless):
                xx          xy          yy          xz          yz          zz
 q only:      -28.797      25.145      74.709      12.244     -29.433     -45.912
  q+dip:        2.066       1.871      35.392       9.687     -20.797     -37.458
   full:      -11.469       5.381      25.409      13.620     -20.039     -13.940


           -------------------------------------------------
          | TOTAL ENERGY             -150.947168279186 Eh   |
          | GRADIENT NORM               0.138946156869 Eh/α |
          | HOMO-LUMO GAP               0.086946697855 eV   |
           -------------------------------------------------

------------------------------------------------------------------------
 * finished run on 2026/08/31 at 21:15:32.157     
------------------------------------------------------------------------
 total:
 * wall-time:     0 d,  0 h,  0 min,  1.252 sec
 *  cpu-time:     0 d,  0 h,  0 min, 13.266 sec
 * ratio c/w:    10.596 speedup
 SCF:
 * wall-time:     0 d,  0 h,  0 min,  1.191 sec
 *  cpu-time:     0 d,  0 h,  0 min, 12.766 sec
 * ratio c/w:    10.718 speedup

normal termination of xtb
