43
 energy: -69.691925961306 gnorm: 0.000611397829 xtb: 6.7.1 (edcfbbe)
N           -6.03464329059213       -1.10784785672025        4.24301746507184
C           -5.77826070291826       -0.83966870772230        3.15739775052264
C           -5.46123563496036       -0.51333324321611        1.82009720963324
C           -6.49670780586230       -0.42209303006514        0.87764936494649
C           -6.21332356282487       -0.10044818814509       -0.43210119885307
C           -4.89033421378994        0.12303435722624       -0.77497121127409
N           -4.35988751797733        0.45982814379754       -1.99497710156789
C           -3.01467357263678        0.58895752585456       -1.87087011236357
O           -2.26585094647757        0.91640855841895       -2.90980280077877
C           -2.61781119379561        0.33421028116679       -0.56329870108593
C           -1.22791014181229        0.40792212010443       -0.17933940778434
C           -0.73317034407864        0.13052492791208        1.09956844646230
C            0.62059148597574        0.24643719504496        1.33881002651231
C            1.47888928374562        0.64072773758354        0.31590435485594
C            2.95585240383827        0.81500314973661        0.53441167831568
N            3.70063073633318        0.38473508738773       -0.63558448646713
C            3.67533602165146       -1.05332754318518       -0.85785125269917
C            4.64854255832573       -1.81145477131288        0.05501790761601
O            5.96374507641497       -1.31137124028650       -0.06654662258209
C            6.01245608443471        0.06956341052830        0.22488136597342
C            5.07293571741130        0.85793295366412       -0.69657171937242
C            0.90388200797173        0.88509268264801       -0.92423066455528
N           -0.38658857726257        0.77119174158525       -1.16547688889551
C           -3.82305477650876        0.03368128557609        0.16051640180373
C           -4.13120229674614       -0.28908507936926        1.47612962557384
H           -7.51294834533905       -0.60403171208094        1.19188886983806
H           -6.99798102887104       -0.02308800511081       -1.16927258136334
H           -4.87007004539138        0.59515322237383       -2.85182647478448
H           -1.32947860287836        0.95442551143602       -2.53445897509481
H           -1.39591681682021       -0.17634307221902        1.88879200656121
H            1.01507323789771        0.03323116936346        2.32334022708960
H            3.24487619482418        0.29661494967048        1.46375567599761
H            3.16223489517541        1.88213460972845        0.67715948974237
H            2.65834989075033       -1.42081608262988       -0.71061061380469
H            3.96432864511732       -1.22425287286530       -1.89955732823989
H            4.69777914138370       -2.86441703996485       -0.22623481908989
H            4.31957233933960       -1.74064735291434        1.10410637455743
H            7.04924948244153        0.37431781078802        0.07420311629327
H            5.74020119752704        0.23947693386336        1.27899186195276
H            5.41029050132292        0.73039028894525       -1.73030863400619
H            5.10220841362042        1.92002861849767       -0.44690909055617
H            1.52088597770071        1.17928930026249       -1.76261980277120
H           -3.37686191565755       -0.36808777536216        2.24203355866364
