32
RDKit ETKDG+MMFF
Br     -5.82940782      2.90742037      0.34897073
C      -5.15848267      1.16630452      0.03613381
C      -6.04718761      0.11560103     -0.17760525
C      -5.55117365     -1.16509244     -0.40628058
C      -4.17109806     -1.38634734     -0.42057381
C      -3.26468320     -0.33360599     -0.20763239
C      -1.81739009     -0.58509120     -0.22787783
C      -0.75262622      0.35309582     -0.11848704
C       0.42281865     -0.37045885     -0.18221422
C       1.82442077      0.04201210     -0.13343359
C       2.20186452      1.31683443     -0.61683982
C       3.53553129      1.74208186     -0.58595576
C       4.47002263      0.87700397     -0.06499276
C       4.11694218     -0.36199479      0.41143335
C       2.81040173     -0.80789370      0.39342330
O       5.18465516     -1.05853349      0.88627126
C       6.25010507     -0.11242658      0.65570550
O       5.80299376      1.11686426      0.04711368
N       0.00935380     -1.66597574     -0.33943735
N      -1.32081980     -1.82505939     -0.36521254
C      -3.77793315      0.95107201      0.02296439
H      -7.12079495      0.28276463     -0.16710973
H      -6.23366245     -1.99444211     -0.57356637
H      -3.80243800     -2.39519481     -0.60104606
H      -0.82956906      1.42382202      0.00273425
H       1.45394496      1.98768408     -1.03507166
H       3.82333301      2.71793154     -0.96034848
H       2.57690958     -1.78484833      0.80104082
H       6.72357882      0.12317524      1.61581708
H       6.99562357     -0.57730955      0.00034309
H       0.58806446     -2.49086343     -0.44920859
H      -3.11329725      1.79146985      0.19731004
