32
 energy: -57.934167098581 gnorm: 0.000411060868 xtb: 6.7.1 (edcfbbe)
Br          -5.84021790389964        2.89129668080901        0.28790842669093
C           -5.13665781027590        1.13892289967453       -0.00020120532864
C           -6.01132983352147        0.08435037817840       -0.19224945988333
C           -5.48706082003710       -1.18229567546842       -0.39550806721670
C           -4.12086140330263       -1.38272288835197       -0.40620003254486
C           -3.24501552919115       -0.31348602064407       -0.21359502711373
C           -1.80936904442438       -0.54410380896974       -0.21963652898230
C           -0.76026103909498        0.39649913177964       -0.17478770988865
C            0.40582978714973       -0.34845779499844       -0.18857416419792
C            1.79902063361775        0.05582234354455       -0.14177707227457
C            2.16300214800224        1.33749830683992       -0.54775291108658
C            3.48145738712409        1.77671860370192       -0.51221633354835
C            4.42602004977143        0.89006211019481       -0.05430892541262
C            4.07271804075807       -0.39769017118394        0.35613762488748
C            2.77664081585200       -0.84043746131705        0.32246198617403
O            5.19378645317204       -1.06608442523167        0.76778860335434
C            6.26344774503315       -0.15731064311805        0.61727904312206
O            5.77522820648099        1.05762109209396        0.09002822170328
N            0.00438092070978       -1.64447226129207       -0.23877859331470
N           -1.31118947754589       -1.77776373346924       -0.26682188884342
C           -3.76700467080115        0.96168666951424       -0.00798315836306
H           -7.07754363575016        0.24952097374343       -0.18146079060673
H           -6.15773768245182       -2.01489063432931       -0.54606736116547
H           -3.70368791114109       -2.36463149119593       -0.56131148640598
H           -0.84019040391659        1.46175042173175       -0.12637372604819
H            1.40068196258258        2.00718193626937       -0.91156653678554
H            3.75586321964029        2.76840349799351       -0.82927309769130
H            2.53110295581080       -1.83042782179195        0.66883235908737
H            6.73054616296506        0.02767781832020        1.59811944521023
H            7.01445990323523       -0.58173652080787       -0.06743366398952
H            0.58839751515511       -2.46378607635521       -0.29031947552053
H           -3.11445676170644        1.80528455413564        0.15200897598278
