102
 energy: -135.780766787411 gnorm: 0.012178623954 xtb: 6.7.1pre (5071a88)
C           -5.27527309179490       -0.11060334870392       11.22493318221786
O           -5.81073366289765       -0.68831577149208       10.06222792140100
C           -5.26040422649581       -0.34965843312170        8.86189797890599
C           -4.22955167153239        0.54960531254251        8.67735213822321
C           -3.70906219497682        0.83033076318723        7.40353417082099
C           -2.61764927503238        1.76287873662391        7.29388412154488
C           -1.86583564211086        2.01216496076672        6.20134363381413
C           -0.79722923976727        2.99536727959308        6.23366658482143
O           -0.50252982975243        3.66259202895167        7.21447882830487
C            0.01961312653600        3.06163333912304        4.94813108126953
C            0.73063276631080        1.73855957344172        4.96313677410558
O            0.41659596803582        0.80107729000231        4.08129891100144
C            1.68804735277812        1.49250258153817        5.93828051718740
C            2.42204209940652        0.32956736928157        6.04874389287640
C            3.50260608885075        0.10409518004291        6.94715581442286
C            4.06383391927591        1.10944762036044        7.74624712023824
C            5.14660042687709        0.83919383331900        8.55612872147288
C            5.70911696846772       -0.42666592415775        8.60970101839440
O            6.79112696710041       -0.70995398026572        9.39361116343085
C            5.15537129237066       -1.46049469855614        7.82777798367367
O            5.76104105068943       -2.67966075750164        7.94115751491928
C            5.26519049767644       -3.73660663702062        7.15888614527215
C            4.07413690615919       -1.18250179308193        7.01938049987279
C           -4.27486531201835        0.18867737611628        6.30226667575567
C           -5.31697670670902       -0.70191420230214        6.47358076191038
C           -5.81604649059177       -0.98740129653596        7.73440637724841
O           -6.83813677797850       -1.86634666579636        7.92457131551468
H           -5.84053599979680       -0.53662036578379       12.05258352937096
H           -4.21534666571685       -0.35694357649596       11.34700344630222
H           -5.39697536557427        0.97806964936924       11.22902688048302
H           -3.79481032704096        1.05344290690605        9.52595529552539
H           -2.35625045589680        2.30480814475547        8.19478085344676
H           -2.03513288903700        1.50116519962598        5.26684472585592
H            0.71251963531315        3.90059646725155        5.00180601004612
H           -0.62471341073993        3.15705184428412        4.07576455272113
H            1.86035408282820        2.30147525935008        6.63085004365552
H            2.17014626251743       -0.48841928146055        5.38538230199969
H            3.66094444188087        2.10830878202663        7.72458024613052
H            5.57756962374954        1.62883563427761        9.15793752018613
H            7.05467797633600        0.09169317076957        9.86048419723552
H            5.90146198078739       -4.59190970113908        7.38381781826512
H            5.32654880975576       -3.50897429521283        6.08933677227379
H            4.22951446123639       -3.97770813061065        7.42165781346624
H            3.63973162006298       -1.95786753513881        6.40793745997609
H           -3.92268384781743        0.39705401853323        5.30507495559678
H           -5.75485086456327       -1.18851232462279        5.61307466405743
H           -7.12160026741410       -2.21386053179855        7.07112667180738
B           -3.70535509747465       -2.31708476980143        2.31570855679329
B           -4.63991707442499       -1.87941699988867        0.95365231839140
B           -4.44955366756132       -0.64680456276273       -0.17160051290729
B           -2.48991790042979       -3.16686643825019        1.73100782366076
B           -2.95024194727064       -0.72049884476872        0.09624814426749
B           -3.98709546592847       -0.55164234080077        1.76769659504436
B           -4.96611329870190        0.52138747312993        2.53315176078983
B           -4.81831593778492        2.10957048623811        2.29232148936687
B           -2.38533620724056       -0.10323241291706        1.52824656445036
B           -3.59860162416444        2.89655379694293        3.01802250992367
B           -1.27068315105270       -4.25987873550582        1.73359817811132
B           -1.14326884067841       -2.85012999383741        0.94337532741986
B           -1.45039121593785       -1.28688302287719        0.43666542745552
B            0.20428743087897       -3.69161678263733        1.10816947260186
B           -0.01685106159667       -0.63061347499905        0.20109979040099
B           -0.70843039170018       -0.10602980286716        1.65854636516829
B           -1.61834906299274        1.22802345238607        2.10148556802993
B           -2.28126239002173        2.64366235401555        2.15608912367160
B            0.01745903825702        0.99481930393136        2.71153740067747
B           -1.52536841169809        3.72981414888297        1.11787271757102
B            1.71534813717487       -4.29355507446930        1.29503939094926
B            1.54616086717159       -2.75683645341282        0.79811333316778
B            1.48183560054676       -1.19568234667299        0.36423486925867
B            2.77892641087122       -3.14660779128628        1.86010927238386
B            2.55725496550490       -0.09804408405472        0.83594945047943
B            0.94102700932106        0.28718193353502        1.30472615896020
B            0.84257038491181        2.04917018399420        1.67503276596165
B           -0.05678054961793        3.19259694090296        1.03456085748033
B            2.06198658269193        1.55536155460199        0.67932581824748
B            0.50526723084060        2.36369051989678       -0.30595457919195
B            3.65752369215580       -3.17817597527163        3.27285296459705
B            3.86952104808498       -1.98290608834257        2.18169327931739
B            4.07146309160340       -0.58528291052904        1.41469613028285
B            4.66009119957530       -1.94211990951809        3.54687306606996
B            5.30434546991230        0.40345058783632        0.87709725747598
B            3.79927865128392        0.99987311564245        0.96362517627780
B            3.36504226048462        2.66737163911756        0.49614265336908
B            2.03149443129365        2.81882458365649       -0.56068848144671
B            4.93208918723392        2.11679396766651        0.69392136874857
B            3.26491151093635        3.73394825177373       -0.69782773539617
H           -4.09609530191583       -2.46986286501317        3.42331922627003
H           -5.45748086434345       -2.68042569528637        0.70756774088930
H           -5.32051023763766       -0.17230301270218       -0.78940454819109
H           -5.75454237774577        0.12164479875358        3.31886398658800
H           -5.54050475483851        2.67933727105619        1.56055712665024
H           -3.68698944557236        3.42967095300290        4.06226240034658
H           -1.33340553224913       -5.24359191042578        2.36220505830688
H           -2.12989092116529        4.54744867395447        0.52140331686526
H            2.02155148237134       -5.42561085260321        1.23704648448319
H           -0.18371306660793        1.73670211581273       -1.03453460325565
H            3.47317744273772       -4.00234113642583        4.08301220193087
H            5.38955250909172       -1.40842581504193        4.27533074634665
H            6.44054404364972        0.15324862901529        0.78006470198141
H            5.86625401593854        2.81742101019772        0.76939803963636
H            3.90111999486632        4.57010328544556       -1.20311112380144
