      -----------------------------------------------------------      
     |                   =====================                   |     
     |                           x T B                           |     
     |                   =====================                   |     
     |                         S. Grimme                         |     
     |          Mulliken Center for Theoretical Chemistry        |     
     |                    University of Bonn                     |     
      -----------------------------------------------------------      

   * xtb version 6.7.1pre (5071a88) compiled by 'Marcel@Raven' on 2024-07-23

   xtb is free software: you can redistribute it and/or modify it under
   the terms of the GNU Lesser General Public License as published by
   the Free Software Foundation, either version 3 of the License, or
   (at your option) any later version.
   
   xtb is distributed in the hope that it will be useful,
   but WITHOUT ANY WARRANTY; without even the implied warranty of
   MERCHANTABILITY or FITNESS FOR A PARTICULAR PURPOSE.  See the
   GNU Lesser General Public License for more details.
   
   Cite this work as:
   * C. Bannwarth, E. Caldeweyher, S. Ehlert, A. Hansen, P. Pracht,
     J. Seibert, S. Spicher, S. Grimme, WIREs Comput. Mol. Sci., 2020, 11,
     e01493. DOI: 10.1002/wcms.1493
   
   for GFN2-xTB:
   * C. Bannwarth, S. Ehlert and S. Grimme., J. Chem. Theory Comput., 2019,
     15, 1652-1671. DOI: 10.1021/acs.jctc.8b01176
   for GFN1-xTB:
   * S. Grimme, C. Bannwarth, P. Shushkov, J. Chem. Theory Comput., 2017,
     13, 1989-2009. DOI: 10.1021/acs.jctc.7b00118
   for GFN0-xTB:
   * P. Pracht, E. Caldeweyher, S. Ehlert, S. Grimme, ChemRxiv, 2019, preprint.
     DOI: 10.26434/chemrxiv.8326202.v1
   for GFN-FF:
   * S. Spicher and S. Grimme, Angew. Chem. Int. Ed., 2020, 59, 15665-15673.
     DOI: 10.1002/anie.202004239
   
   for ALPB and GBSA implicit solvation:
   * S. Ehlert, M. Stahn, S. Spicher, S. Grimme, J. Chem. Theory Comput.,
     2021, 17, 4250-4261. DOI: 10.1021/acs.jctc.1c00471
   
   for ddCOSMO and CPCM-X implicit solvation:
   * M. Stahn, S. Ehlert, S. Grimme, J. Phys. Chem. A,
     2023, XX, XXXX-XXXX. DOI: 10.1021/acs.jpca.3c04382
   
   for DFT-D4:
   * E. Caldeweyher, C. Bannwarth and S. Grimme, J. Chem. Phys., 2017,
     147, 034112. DOI: 10.1063/1.4993215
   * E. Caldeweyher, S. Ehlert, A. Hansen, H. Neugebauer, S. Spicher,
     C. Bannwarth and S. Grimme, J. Chem. Phys., 2019, 150, 154122.
     DOI: 10.1063/1.5090222
   * E. Caldeweyher, J.-M. Mewes, S. Ehlert and S. Grimme, Phys. Chem. Chem. Phys.
     2020, 22, 8499-8512. DOI: 10.1039/D0CP00502A
   
   for sTDA-xTB:
   * S. Grimme and C. Bannwarth, J. Chem. Phys., 2016, 145, 054103.
     DOI: 10.1063/1.4959605
   
   in the mass-spec context:
   * V. Asgeirsson, C. Bauer and S. Grimme, Chem. Sci., 2017, 8, 4879.
     DOI: 10.1039/c7sc00601b
   * J. Koopman and S. Grimme, ACS Omega 2019, 4, 12, 15120-15133.
     DOI: 10.1021/acsomega.9b02011
   
   for metadynamics refer to:
   * S. Grimme, J. Chem. Theory Comput., 2019, 155, 2847-2862
     DOI: 10.1021/acs.jctc.9b00143
   
   for SPH calculations refer to:
   * S. Spicher and S. Grimme, J. Chem. Theory Comput., 2021, 17, 1701-1714
     DOI: 10.1021/acs.jctc.0c01306
   
   for ONIOM refer to:
   * C. Plett, A. Katbashev, S. Ehlert, S. Grimme, M. Bursch,
     Phys. Chem. Chem. Phys., 2023, 25, 17860-17868. DOI: 10.1039/D3CP02178E
   
   for DIPRO refer to:
   * J. Kohn, N. Gildemeister, S. Grimme, D. Fazzi, A. Hansen,
     J. Chem. Phys., 2023, just accepted.
   
   for PTB refer to:
   * S. Grimme, M. Mueller, A. Hansen, J. Chem. Phys., 2023, 158, 124111.
     DOI: 10.1063/5.0137838
   
   with help from (in alphabetical order)
   P. Atkinson, C. Bannwarth, F. Bohle, G. Brandenburg, E. Caldeweyher
   M. Checinski, S. Dohm, S. Ehlert, S. Ehrlich, I. Gerasimov, C. Hölzer
   A. Katbashev, J. Kohn, J. Koopman, C. Lavigne, S. Lehtola, F. März, M. Müller,
   F. Musil, H. Neugebauer, J. Pisarek, C. Plett, P. Pracht, F. Pultar,
   J. Seibert, P. Shushkov, S. Spicher, M. Stahn, M. Steiner, T. Strunk,
   J. Stückrath, T. Rose, and J. Unsleber
   
 * started run on 2026/09/01 at 20:30:14.287     
   ID    Z sym.   atoms
    1    6 C      1, 3-8, 10, 11, 13-18, 20, 22-26
    2    8 O      2, 9, 12, 19, 21, 27
    3    1 H      28-47, 88-102
    4    5 B      48-87

           -------------------------------------------------
          |                Calculation Setup                |
           -------------------------------------------------

          program call               : "c:\Users\Andre\Proyectos doctorado\nano-qsar-ai-papers\kras-pancreatic-gC3N4-ai\tools\xtb\xtb-6.7.1\bin\xtb.exe" "c:\Users\Andre\Proyectos doctorado\borophene-alzheimer-tau-ai\calculations\tau\Curcumin\Curcumin_opt_0deg_input.xyz" --opt vloose --gfn 2 --chrg 0 --uhf 0 --iterations 500 --cycles 100 --norestart
          coordinate file            : c:\Users\Andre\Proyectos doctorado\borophene-alzheimer-tau-ai\calculations\tau\Curcumin\Curcumin_opt_0deg_input.xyz
          omp threads                :                    16


molecular fragmentation (1/2 indicates fragments):
111111111111111111111111111111111111111111111112222222222222222222222222
222222222222222222222222222222
# atoms in fragment 1/2:    47    55
 fragment masses (1/2) :      368.38      447.56
CMA distance (Bohr)    :  17.117
constraining FC (au)   :  0.0500

           -------------------------------------------------
          |                 G F N 2 - x T B                 |
           -------------------------------------------------

        Reference                      10.1021/acs.jctc.8b01176
      * Hamiltonian:
        H0-scaling (s, p, d)           1.850000    2.230000    2.230000
        zeta-weighting                 0.500000
      * Dispersion:
        s8                             2.700000
        a1                             0.520000
        a2                             5.000000
        s9                             5.000000
      * Repulsion:
        kExp                           1.500000    1.000000
        rExp                           1.000000
      * Coulomb:
        alpha                          2.000000
        third order                    shell-resolved
        anisotropic                    true
        a3                             3.000000
        a5                             4.000000
        cn-shift                       1.200000
        cn-exp                         4.000000
        max-rad                        5.000000


          ...................................................
          :                      SETUP                      :
          :.................................................:
          :  # basis functions                 303          :
          :  # atomic orbitals                 303          :
          :  # shells                          169          :
          :  # electrons                       275          :
          :  max. iterations                   500          :
          :  Hamiltonian                  GFN2-xTB          :
          :  restarted?                      false          :
          :  GBSA solvation                  false          :
          :  PC potential                    false          :
          :  electronic temp.          300.0000000     K    :
          :  accuracy                    1.0000000          :
          :  -> integral cutoff          0.2500000E+02      :
          :  -> integral neglect         0.1000000E-07      :
          :  -> SCF convergence          0.1000000E-05 Eh   :
          :  -> wf. convergence          0.1000000E-03 e    :
          :  Broyden damping             0.4000000          :
          :  net charge                          0          :
          :  unpaired electrons                  0          :
          ...................................................

 iter      E             dE          RMSdq      gap      omega  full diag
   1   -136.3156641 -0.136316E+03  0.128E+01    0.10       0.0  T
   2   -130.8713245  0.544434E+01  0.927E+00    0.05       1.0  T
   3     32.3918624  0.163263E+03  0.140E+01    0.04       1.0  T
   4    137.2777173  0.104886E+03  0.195E+01    0.13       1.0  T
   5   -101.9345099 -0.239212E+03  0.963E+00    0.16       1.0  T
   6    -10.2511732  0.916833E+02  0.125E+01    0.08       1.0  T
   7   -119.6492657 -0.109398E+03  0.616E+00    0.08       1.0  T
   8   -120.4224383 -0.773173E+00  0.581E+00    0.05       1.0  T
   9   -129.9316339 -0.950920E+01  0.379E+00    0.12       1.0  T
  10   -134.2880314 -0.435640E+01  0.302E+00    0.01       1.0  T
  11   -135.8981951 -0.161016E+01  0.242E+00    0.16       1.0  T
  12   -136.9262672 -0.102807E+01  0.206E+00    0.29       1.0  T
  13   -137.1375425 -0.211275E+00  0.190E+00    0.36       1.0  T
  14   -137.1123483  0.251941E-01  0.173E+00    0.27       1.0  T
  15   -137.1153476 -0.299926E-02  0.148E+00    0.52       1.0  T
  16   -137.3599177 -0.244570E+00  0.964E-01    0.28       1.0  T
  17   -137.4127634 -0.528457E-01  0.840E-01    0.49       1.0  T
  18   -137.4458368 -0.330735E-01  0.684E-01    0.44       1.0  T
  19   -137.4605998 -0.147629E-01  0.589E-01    0.45       1.0  T
  20   -137.4723636 -0.117638E-01  0.490E-01    0.44       1.0  T
  21   -137.4834604 -0.110968E-01  0.390E-01    0.43       1.0  T
  22   -137.4934683 -0.100080E-01  0.304E-01    0.43       1.0  T
  23   -137.4971134 -0.364510E-02  0.248E-01    0.35       1.0  T
  24   -137.5080333 -0.109199E-01  0.187E-01    0.12       1.0  T
  25   -137.5111304 -0.309705E-02  0.208E-01    0.06       1.0  T
  26   -137.5103093  0.821103E-03  0.238E-01    0.05       1.0  T
  27   -137.5111127 -0.803471E-03  0.186E-01    0.06       1.0  T
  28   -137.5099786  0.113417E-02  0.134E-01    0.12       1.0  T
  29   -137.5112102 -0.123169E-02  0.132E-01    0.10       1.0  T
  30   -137.5118638 -0.653533E-03  0.114E-01    0.10       1.0  T
  31   -137.5137063 -0.184255E-02  0.988E-02    0.09       1.0  T
  32   -137.5142568 -0.550500E-03  0.100E-01    0.08       1.0  T
  33   -137.5140435  0.213349E-03  0.100E-01    0.08       1.0  T
  34   -137.5149440 -0.900503E-03  0.917E-02    0.07       1.0  T
  35   -137.5162373 -0.129331E-02  0.819E-02    0.05       1.0  T
  36   -137.5166463 -0.409047E-03  0.676E-02    0.05       1.0  T
  37   -137.5169436 -0.297266E-03  0.606E-02    0.05       1.0  T
  38   -137.5172391 -0.295532E-03  0.395E-02    0.05       1.0  T
  39   -137.5173724 -0.133261E-03  0.448E-02    0.04       1.0  T
  40   -137.5175716 -0.199240E-03  0.200E-02    0.04       1.0  T
  41   -137.5176080 -0.363750E-04  0.963E-03    0.04       1.0  T
  42   -137.5176138 -0.580998E-05  0.788E-03    0.04       1.3  T
  43   -137.5176169 -0.312132E-05  0.735E-03    0.04       1.3  T
  44   -137.5176191 -0.220404E-05  0.575E-03    0.04       1.7  T
  45   -137.5176243 -0.519859E-05  0.232E-03    0.04       4.3  T
  46   -137.5176244 -0.103876E-06  0.134E-03    0.04       7.4  T
  47   -137.5176244  0.583105E-07  0.191E-03    0.04       5.2  T
  48   -137.5176247 -0.273088E-06  0.637E-04    0.04      15.5  T
  49   -137.5176247 -0.876157E-07  0.500E-04    0.04      19.8  T

   *** convergence criteria satisfied after 49 iterations ***

         #    Occupation            Energy/Eh            Energy/eV
      -------------------------------------------------------------
         1        2.0000           -0.7020965             -19.1050
       ...           ...                  ...                  ...
       132        2.0000           -0.3037307              -8.2649
       133        2.0000           -0.2968671              -8.0782
       134        2.0000           -0.2937143              -7.9924
       135        2.0000           -0.2908503              -7.9144
       136        2.0000           -0.2860305              -7.7833
       137        1.9988           -0.2826870              -7.6923
       138        0.6907           -0.2697259              -7.3396 (HOMO)
       139        0.3105           -0.2682083              -7.2983 (LUMO)
       140        0.0000           -0.2581316              -7.0241
       141                         -0.2535363              -6.8991
       142                         -0.2359430              -6.4203
       143                         -0.2294251              -6.2430
       ...                                ...                  ...
       303                          1.0599354              28.8423
      -------------------------------------------------------------
                  HL-Gap            0.0015176 Eh            0.0413 eV
             Fermi-level           -0.2726237 Eh           -7.4185 eV

 SCC (total)                   0 d,  0 h,  0 min,  0.752 sec
 SCC setup                      ...        0 min,  0.001 sec (  0.133%)
 Dispersion                     ...        0 min,  0.002 sec (  0.266%)
 classical contributions        ...        0 min,  0.000 sec (  0.000%)
 integral evaluation            ...        0 min,  0.006 sec (  0.798%)
 iterations                     ...        0 min,  0.720 sec ( 95.745%)
 molecular gradient             ...        0 min,  0.019 sec (  2.527%)
 printout                       ...        0 min,  0.004 sec (  0.532%)

         :::::::::::::::::::::::::::::::::::::::::::::::::::::
         ::                     SUMMARY                     ::
         :::::::::::::::::::::::::::::::::::::::::::::::::::::
         :: total energy            -135.689162722508 Eh    ::
         :: gradient norm              0.078901085961 Eh/a0 ::
         :: HOMO-LUMO gap              0.041296943761 eV    ::
         ::.................................................::
         :: SCC energy              -137.516183797884 Eh    ::
         :: -> isotropic ES            0.329059610302 Eh    ::
         :: -> anisotropic ES          0.013613832533 Eh    ::
         :: -> anisotropic XC          0.003932475691 Eh    ::
         :: -> dispersion             -0.117068836160 Eh    ::
         :: repulsion energy           1.827021075376 Eh    ::
         :: add. restraining           0.000000000000 Eh    ::
         :: total charge              -0.000000000011 e     ::
         :::::::::::::::::::::::::::::::::::::::::::::::::::::

      ----------------------------------------------------------- 
     |                   =====================                   |
     |                        A N C O P T                        |
     |                   =====================                   |
     |               Approximate Normal Coordinate               |
     |                Rational Function Optimizer                |
      ----------------------------------------------------------- 
      ----------------------------------------------------------- 
     |                   =====================                   |
     |                        A N C O P T                        |
     |                   =====================                   |
     |               Approximate Normal Coordinate               |
     |                Rational Function Optimizer                |
      ----------------------------------------------------------- 

          ...................................................
          :                      SETUP                      :
          :.................................................:
          :   optimization level            normal          :
          :   max. optcycles                   100          :
          :   ANC micro-cycles                  20          :
          :   degrees of freedom               300          :
          :.................................................:
          :   RF solver                   davidson          :
          :   write xtbopt.log                true          :
          :   linear?                        false          :
          :   energy convergence         0.5000000E-05 Eh   :
          :   grad. convergence          0.1000000E-02 Eh/α :
          :   maxmium RF displ.          1.0000000          :
          :   Hlow (freq-cutoff)         0.1000000E-01      :
          :   Hmax (freq-cutoff)         5.0000000          :
          :   S6 in model hess.         20.0000000          :
          ...................................................

generating ANC from exact Hessian ...
Using Lindh-Hessian (1995)
 Shifting diagonal of input Hessian by   1.030302319116131E-002
 Lowest  eigenvalues of input Hessian
    0.010000    0.010100    0.010116    0.010121    0.010268    0.000000
    0.000000    0.000000    0.000000    0.000000    0.000000    0.010313
    0.010318    0.010346    0.010356    0.010380    0.010484    0.010548
 Highest eigenvalues
    2.017319    2.017698    2.077520    2.102710    2.104561    2.109377
 

........................................................................
.............................. CYCLE    1 ..............................
........................................................................

 iter      E             dE          RMSdq      gap      omega  full diag
   1   -137.5176248 -0.137518E+03  0.408E-04    0.04       0.0  T
   2   -137.5176247  0.173955E-07  0.532E-04    0.04      18.6  T
   3   -137.5176248 -0.318367E-07  0.299E-04    0.04      33.1  T
     SCC iter.                  ...        0 min,  0.053 sec
     gradient                   ...        0 min,  0.020 sec
 * total energy  :  -135.6891627 Eh     change       -0.2231354E-07 Eh
   gradient norm :     0.0788961 Eh/α   predicted     0.0000000E+00 (-100.00%)
   displ. norm   :     0.2603286 α      lambda       -0.9166561E-02
   maximum displ.:     0.0720321 α      in ANC's #107, #31, #77, ...

........................................................................
.............................. CYCLE    2 ..............................
........................................................................

 iter      E             dE          RMSdq      gap      omega  full diag
   1   -137.5552949 -0.137555E+03  0.164E-01    0.01       0.0  T
   2   -137.5378392  0.174557E-01  0.271E-01    0.35       1.0  T
   3   -137.5479283 -0.100891E-01  0.191E-01    0.01       1.0  T
   4   -137.5485404 -0.612123E-03  0.169E-01    0.09       1.0  T
   5   -137.5564521 -0.791163E-02  0.637E-02    0.05       1.0  T
   6   -137.5573001 -0.847992E-03  0.216E-02    0.04       1.0  T
   7   -137.5573303 -0.302866E-04  0.154E-02    0.04       1.0  T
   8   -137.5573792 -0.488948E-04  0.557E-03    0.04       1.8  T
   9   -137.5573804 -0.116651E-05  0.460E-03    0.04       2.2  T
  10   -137.5573851 -0.467372E-05  0.136E-03    0.04       7.3  T
  11   -137.5573851  0.185034E-07  0.122E-03    0.04       8.1  T
  12   -137.5573853 -0.268551E-06  0.705E-04    0.04      14.1  T
  13   -137.5573854 -0.972887E-07  0.326E-04    0.04      30.4  T
     SCC iter.                  ...        0 min,  0.223 sec
     gradient                   ...        0 min,  0.018 sec
 * total energy  :  -135.6956983 Eh     change       -0.6535553E-02 Eh
   gradient norm :     0.0396938 Eh/α   predicted    -0.4897281E-02 ( -25.07%)
   displ. norm   :     0.3250013 α      lambda       -0.4054991E-02
   maximum displ.:     0.1194377 α      in ANC's #19, #43, #39, ...

........................................................................
.............................. CYCLE    3 ..............................
........................................................................

 iter      E             dE          RMSdq      gap      omega  full diag
   1   -137.5713595 -0.137571E+03  0.225E-01    0.02       0.0  T
   2   -137.5463117  0.250478E-01  0.360E-01    0.49       1.0  T
   3   -137.5682458 -0.219340E-01  0.227E-01    0.15       1.0  T
   4   -137.5772272 -0.898142E-02  0.103E-01    0.07       1.0  T
   5   -137.5480108  0.292164E-01  0.346E-01    0.08       1.0  T
   6   -137.5789877 -0.309770E-01  0.530E-02    0.03       1.0  T
   7   -137.5785811  0.406661E-03  0.636E-02    0.06       1.0  T
   8   -137.5793084 -0.727349E-03  0.329E-02    0.05       1.0  T
   9   -137.5795818 -0.273409E-03  0.697E-03    0.04       1.4  T
  10   -137.5795892 -0.738097E-05  0.386E-03    0.04       2.6  T
  11   -137.5795898 -0.570070E-06  0.342E-03    0.04       2.9  T
  12   -137.5795918 -0.197339E-05  0.186E-03    0.04       5.3  T
  13   -137.5795925 -0.744290E-06  0.715E-04    0.04      13.8  T
  14   -137.5795925  0.524017E-08  0.665E-04    0.04      14.9  T
     SCC iter.                  ...        0 min,  0.206 sec
     gradient                   ...        0 min,  0.018 sec
 * total energy  :  -135.6981853 Eh     change       -0.2486983E-02 Eh
   gradient norm :     0.0109638 Eh/α   predicted    -0.2242522E-02 (  -9.83%)
   displ. norm   :     0.2944454 α      lambda       -0.1148235E-02
   maximum displ.:     0.1333004 α      in ANC's #19, #39, #43, ...

........................................................................
.............................. CYCLE    4 ..............................
........................................................................

 iter      E             dE          RMSdq      gap      omega  full diag
   1   -137.5762884 -0.137576E+03  0.179E-01    0.01       0.0  T
   2   -137.5536501  0.226383E-01  0.329E-01    0.46       1.0  T
   3   -137.5746986 -0.210485E-01  0.175E-01    0.10       1.0  T
   4   -137.5805178 -0.581925E-02  0.711E-02    0.04       1.0  T
   5   -137.5574110  0.231068E-01  0.298E-01    0.06       1.0  T
   6   -137.5808894 -0.234784E-01  0.428E-02    0.03       1.0  T
   7   -137.5809942 -0.104816E-03  0.343E-02    0.05       1.0  T
   8   -137.5811635 -0.169285E-03  0.208E-02    0.04       1.0  T
   9   -137.5812753 -0.111845E-03  0.353E-03    0.03       2.8  T
  10   -137.5812766 -0.126030E-05  0.255E-03    0.03       3.9  T
  11   -137.5812775 -0.963208E-06  0.144E-03    0.03       6.9  T
  12   -137.5812773  0.235569E-06  0.164E-03    0.03       6.0  T
  13   -137.5812780 -0.674616E-06  0.421E-04    0.03      23.5  T
  14   -137.5812779  0.482066E-07  0.577E-04    0.03      17.2  T
     SCC iter.                  ...        0 min,  0.205 sec
     gradient                   ...        0 min,  0.017 sec
 * total energy  :  -135.6989820 Eh     change       -0.7967544E-03 Eh
   gradient norm :     0.0099212 Eh/α   predicted    -0.6239192E-03 ( -21.69%)
   displ. norm   :     0.5091311 α      lambda       -0.1471426E-02
   maximum displ.:     0.2462618 α      in ANC's #19, #39, #43, ...

........................................................................
.............................. CYCLE    5 ..............................
........................................................................

 iter      E             dE          RMSdq      gap      omega  full diag
   1   -137.5681175 -0.137568E+03  0.261E-01    0.03       0.0  T
   2   -137.5407360  0.273814E-01  0.391E-01    0.46       1.0  T
   3   -137.5645403 -0.238043E-01  0.256E-01    0.15       1.0  T
   4   -137.5748162 -0.102759E-01  0.124E-01    0.05       1.0  T
   5   -137.5288258  0.459904E-01  0.425E-01    0.14       1.0  T
   6   -137.5732462 -0.444204E-01  0.120E-01    0.00       1.0  T
   7   -137.5758278 -0.258160E-02  0.710E-02    0.06       1.0  T
   8   -137.5768098 -0.982010E-03  0.338E-02    0.04       1.0  T
   9   -137.5770976 -0.287827E-03  0.669E-03    0.03       1.5  T
  10   -137.5771040 -0.642476E-05  0.392E-03    0.03       2.5  T
  11   -137.5771024  0.156698E-05  0.437E-03    0.03       2.3  T
  12   -137.5771049 -0.240191E-05  0.270E-03    0.03       3.7  T
  13   -137.5771065 -0.162545E-05  0.116E-03    0.03       8.5  T
  14   -137.5771064  0.788280E-07  0.119E-03    0.03       8.3  T
  15   -137.5771068 -0.369784E-06  0.177E-04    0.03      55.9  T
  16   -137.5771068 -0.195530E-08  0.117E-04    0.03      84.7  T
     SCC iter.                  ...        0 min,  0.223 sec
     gradient                   ...        0 min,  0.018 sec
 * total energy  :  -135.6997335 Eh     change       -0.7514206E-03 Eh
   gradient norm :     0.0199541 Eh/α   predicted    -0.9264211E-03 (  23.29%)
   displ. norm   :     0.3848359 α      lambda       -0.1171543E-02
   maximum displ.:     0.2067081 α      in ANC's #19, #39, #17, ...

........................................................................
.............................. CYCLE    6 ..............................
........................................................................

 iter      E             dE          RMSdq      gap      omega  full diag
   1   -137.5714233 -0.137571E+03  0.168E-01    0.00       0.0  T
   2   -137.5512832  0.201401E-01  0.300E-01    0.32       1.0  T
   3   -137.5690549 -0.177717E-01  0.137E-01    0.00       1.0  T
   4   -137.5599218  0.913308E-02  0.205E-01    0.08       1.0  T
   5   -137.5727182 -0.127964E-01  0.550E-02    0.03       1.0  T
   6   -137.5732549 -0.536688E-03  0.174E-02    0.03       1.0  T
   7   -137.5732881 -0.332222E-04  0.111E-02    0.03       1.0  T
   8   -137.5733064 -0.182724E-04  0.708E-03    0.03       1.4  T
   9   -137.5733155 -0.912097E-05  0.373E-03    0.03       2.7  T
  10   -137.5733172 -0.173902E-05  0.212E-03    0.03       4.7  T
  11   -137.5733181 -0.828134E-06  0.107E-03    0.03       9.3  T
  12   -137.5733182 -0.174934E-06  0.569E-04    0.03      17.4  T
  13   -137.5733183 -0.290413E-07  0.377E-04    0.03      26.2  T
     SCC iter.                  ...        0 min,  0.174 sec
     gradient                   ...        0 min,  0.018 sec
 * total energy  :  -135.7004440 Eh     change       -0.7105632E-03 Eh
   gradient norm :     0.0190748 Eh/α   predicted    -0.6725244E-03 (  -5.35%)
   displ. norm   :     0.3297210 α      lambda       -0.9686778E-03
   maximum displ.:     0.1881045 α      in ANC's #19, #39, #17, ...

........................................................................
.............................. CYCLE    7 ..............................
........................................................................

 iter      E             dE          RMSdq      gap      omega  full diag
   1   -137.5752029 -0.137575E+03  0.107E-01    0.03       0.0  T
   2   -137.5682334  0.696950E-02  0.170E-01    0.02       1.0  T
   3   -137.5663447  0.188872E-02  0.187E-01    0.11       1.0  T
   4   -137.5729629 -0.661823E-02  0.949E-02    0.06       1.0  T
   5   -137.5742540 -0.129112E-02  0.602E-02    0.05       1.0  T
   6   -137.5750905 -0.836536E-03  0.263E-02    0.04       1.0  T
   7   -137.5752533 -0.162749E-03  0.981E-03    0.03       1.0  T
   8   -137.5752778 -0.245379E-04  0.241E-03    0.03       4.1  T
   9   -137.5752769  0.917592E-06  0.288E-03    0.03       3.4  T
  10   -137.5752787 -0.179086E-05  0.107E-03    0.03       9.2  T
  11   -137.5752789 -0.169030E-06  0.713E-04    0.03      13.9  T
  12   -137.5752790 -0.109656E-06  0.306E-04    0.03      32.4  T
     SCC iter.                  ...        0 min,  0.179 sec
     gradient                   ...        0 min,  0.018 sec
 * total energy  :  -135.7010923 Eh     change       -0.6482917E-03 Eh
   gradient norm :     0.0093536 Eh/α   predicted    -0.5369955E-03 ( -17.17%)
   displ. norm   :     0.4268811 α      lambda       -0.6870265E-03
   maximum displ.:     0.2367290 α      in ANC's #19, #39, #17, ...

........................................................................
.............................. CYCLE    8 ..............................
........................................................................

 iter      E             dE          RMSdq      gap      omega  full diag
   1   -137.5782783 -0.137578E+03  0.117E-01    0.02       0.0  T
   2   -137.5710556  0.722264E-02  0.177E-01    0.10       1.0  T
   3   -137.5555009  0.155548E-01  0.290E-01    0.07       1.0  T
   4   -137.5742272 -0.187264E-01  0.117E-01    0.06       1.0  T
   5   -137.5777500 -0.352276E-02  0.497E-02    0.05       1.0  T
   6   -137.5781996 -0.449602E-03  0.276E-02    0.04       1.0  T
   7   -137.5783762 -0.176626E-03  0.115E-02    0.03       1.0  T
   8   -137.5784076 -0.314507E-04  0.309E-03    0.03       3.2  T
   9   -137.5784077 -0.242784E-07  0.274E-03    0.03       3.6  T
  10   -137.5784094 -0.170817E-05  0.116E-03    0.03       8.5  T
  11   -137.5784095 -0.160202E-06  0.594E-04    0.03      16.7  T
  12   -137.5784096 -0.441438E-07  0.372E-04    0.03      26.6  T
     SCC iter.                  ...        0 min,  0.152 sec
     gradient                   ...        0 min,  0.018 sec
 * total energy  :  -135.7015993 Eh     change       -0.5070348E-03 Eh
   gradient norm :     0.0064964 Eh/α   predicted    -0.4061124E-03 ( -19.90%)
   displ. norm   :     0.4653578 α      lambda       -0.4941463E-03
   maximum displ.:     0.2472640 α      in ANC's #19, #39, #17, ...

........................................................................
.............................. CYCLE    9 ..............................
........................................................................

 iter      E             dE          RMSdq      gap      omega  full diag
   1   -137.5801924 -0.137580E+03  0.130E-01    0.01       0.0  T
   2   -137.5630701  0.171223E-01  0.264E-01    0.20       1.0  T
   3   -137.5729818 -0.991171E-02  0.174E-01    0.02       1.0  T
   4   -137.5704519  0.252992E-02  0.184E-01    0.10       1.0  T
   5   -137.5781664 -0.771456E-02  0.100E-01    0.06       1.0  T
   6   -137.5803612 -0.219474E-02  0.431E-02    0.04       1.0  T
   7   -137.5808344 -0.473225E-03  0.142E-02    0.03       1.0  T
   8   -137.5808782 -0.437643E-04  0.580E-03    0.03       1.7  T
   9   -137.5808800 -0.186739E-05  0.527E-03    0.03       1.9  T
  10   -137.5808853 -0.529231E-05  0.211E-03    0.03       4.7  T
  11   -137.5808852  0.107695E-06  0.218E-03    0.03       4.5  T
  12   -137.5808863 -0.106295E-05  0.847E-04    0.03      11.7  T
  13   -137.5808864 -0.147242E-06  0.310E-04    0.03      32.0  T
  14   -137.5808864 -0.126556E-07  0.212E-04    0.03      46.7  T
     SCC iter.                  ...        0 min,  0.190 sec
     gradient                   ...        0 min,  0.017 sec
 * total energy  :  -135.7019536 Eh     change       -0.3542569E-03 Eh
   gradient norm :     0.0060922 Eh/α   predicted    -0.3005794E-03 ( -15.15%)
   displ. norm   :     0.4216381 α      lambda       -0.3553367E-03
   maximum displ.:     0.2046377 α      in ANC's #19, #11, #17, ...

........................................................................
.............................. CYCLE   10 ..............................
........................................................................

 iter      E             dE          RMSdq      gap      omega  full diag
   1   -137.5847755 -0.137585E+03  0.106E-01    0.02       0.0  T
   2   -137.5778469  0.692860E-02  0.169E-01    0.09       1.0  T
   3   -137.5655742  0.122727E-01  0.268E-01    0.06       1.0  T
   4   -137.5822114 -0.166371E-01  0.960E-02    0.05       1.0  T
   5   -137.5844090 -0.219762E-02  0.416E-02    0.04       1.0  T
   6   -137.5847980 -0.388991E-03  0.194E-02    0.03       1.0  T
   7   -137.5848665 -0.685487E-04  0.972E-03    0.03       1.0  T
   8   -137.5848908 -0.242448E-04  0.297E-03    0.03       3.3  T
   9   -137.5848914 -0.627422E-06  0.219E-03    0.03       4.5  T
  10   -137.5848920 -0.639709E-06  0.128E-03    0.03       7.7  T
  11   -137.5848924 -0.356294E-06  0.490E-04    0.03      20.2  T
  12   -137.5848924 -0.377964E-07  0.249E-04    0.03      39.8  T
     SCC iter.                  ...        0 min,  0.161 sec
     gradient                   ...        0 min,  0.018 sec
 * total energy  :  -135.7021971 Eh     change       -0.2435398E-03 Eh
   gradient norm :     0.0061006 Eh/α   predicted    -0.2092546E-03 ( -14.08%)
   displ. norm   :     0.4150820 α      lambda       -0.2509110E-03
   maximum displ.:     0.1825821 α      in ANC's #19, #11, #6, ...

........................................................................
.............................. CYCLE   11 ..............................
........................................................................

 iter      E             dE          RMSdq      gap      omega  full diag
   1   -137.5820334 -0.137582E+03  0.120E-01    0.01       0.0  T
   2   -137.5620916  0.199417E-01  0.283E-01    0.25       1.0  T
   3   -137.5818610 -0.197694E-01  0.825E-02    0.01       1.0  T
   4   -137.5792922  0.256882E-02  0.114E-01    0.05       1.0  T
   5   -137.5829463 -0.365409E-02  0.338E-02    0.02       1.0  T
   6   -137.5831543 -0.208000E-03  0.121E-02    0.02       1.0  T
   7   -137.5831753 -0.210131E-04  0.653E-03    0.03       1.5  T
   8   -137.5831811 -0.582465E-05  0.383E-03    0.03       2.6  T
   9   -137.5831840 -0.289811E-05  0.168E-03    0.03       5.9  T
  10   -137.5831845 -0.447811E-06  0.949E-04    0.03      10.4  T
  11   -137.5831846 -0.101886E-06  0.514E-04    0.03      19.3  T
     SCC iter.                  ...        0 min,  0.175 sec
     gradient                   ...        0 min,  0.018 sec
 * total energy  :  -135.7023748 Eh     change       -0.1776348E-03 Eh
   gradient norm :     0.0036444 Eh/α   predicted    -0.1470752E-03 ( -17.20%)
   displ. norm   :     0.3589916 α      lambda       -0.2313995E-03
   maximum displ.:     0.1714327 α      in ANC's #11, #6, #13, ...

........................................................................
.............................. CYCLE   12 ..............................
........................................................................

 iter      E             dE          RMSdq      gap      omega  full diag
   1   -137.5858185 -0.137586E+03  0.832E-02    0.02       0.0  T
   2   -137.5809216  0.489693E-02  0.140E-01    0.08       1.0  T
   3   -137.5746092  0.631243E-02  0.205E-01    0.04       1.0  T
   4   -137.5845497 -0.994057E-02  0.771E-02    0.04       1.0  T
   5   -137.5855273 -0.977576E-03  0.357E-02    0.04       1.0  T
   6   -137.5858298 -0.302468E-03  0.163E-02    0.03       1.0  T
   7   -137.5858673 -0.374783E-04  0.102E-02    0.03       1.0  T
   8   -137.5858915 -0.242277E-04  0.404E-03    0.03       2.5  T
   9   -137.5858953 -0.380750E-05  0.121E-03    0.03       8.2  T
  10   -137.5858954 -0.509588E-07  0.102E-03    0.03       9.7  T
  11   -137.5858955 -0.191204E-06  0.473E-04    0.03      20.9  T
  12   -137.5858956 -0.564337E-07  0.156E-04    0.03      63.6  T
     SCC iter.                  ...        0 min,  0.180 sec
     gradient                   ...        0 min,  0.022 sec
 * total energy  :  -135.7025334 Eh     change       -0.1586692E-03 Eh
   gradient norm :     0.0063724 Eh/α   predicted    -0.1306116E-03 ( -17.68%)
   displ. norm   :     0.3900120 α      lambda       -0.2350863E-03
   maximum displ.:     0.1821879 α      in ANC's #11, #6, #13, ...

........................................................................
.............................. CYCLE   13 ..............................
........................................................................

 iter      E             dE          RMSdq      gap      omega  full diag
   1   -137.5829257 -0.137583E+03  0.102E-01    0.01       0.0  T
   2   -137.5649109  0.180148E-01  0.264E-01    0.19       1.0  T
   3   -137.5823411 -0.174302E-01  0.800E-02    0.01       1.0  T
   4   -137.5805146  0.182648E-02  0.104E-01    0.05       1.0  T
   5   -137.5832740 -0.275932E-02  0.325E-02    0.03       1.0  T
   6   -137.5835672 -0.293255E-03  0.694E-03    0.03       1.4  T
   7   -137.5835731 -0.591938E-05  0.449E-03    0.02       2.2  T
   8   -137.5835775 -0.432524E-05  0.180E-03    0.03       5.5  T
   9   -137.5835775 -0.502693E-07  0.173E-03    0.03       5.7  T
  10   -137.5835778 -0.311103E-06  0.111E-03    0.03       8.9  T
  11   -137.5835781 -0.281192E-06  0.456E-04    0.03      21.7  T
  12   -137.5835781 -0.102953E-07  0.336E-04    0.03      29.5  T
     SCC iter.                  ...        0 min,  0.203 sec
     gradient                   ...        0 min,  0.018 sec
 * total energy  :  -135.7027134 Eh     change       -0.1799895E-03 Eh
   gradient norm :     0.0056581 Eh/α   predicted    -0.1354227E-03 ( -24.76%)
   displ. norm   :     0.4565173 α      lambda       -0.3059489E-03
   maximum displ.:     0.2269033 α      in ANC's #11, #6, #13, ...

........................................................................
.............................. CYCLE   14 ..............................
........................................................................

 iter      E             dE          RMSdq      gap      omega  full diag
   1   -137.5822785 -0.137582E+03  0.109E-01    0.01       0.0  T
   2   -137.5648984  0.173802E-01  0.259E-01    0.18       1.0  T
   3   -137.5796302 -0.147318E-01  0.118E-01    0.01       1.0  T
   4   -137.5790845  0.545693E-03  0.126E-01    0.05       1.0  T
   5   -137.5813165 -0.223202E-02  0.717E-02    0.05       1.0  T
   6   -137.5825906 -0.127414E-02  0.302E-02    0.03       1.0  T
   7   -137.5828288 -0.238176E-03  0.729E-03    0.03       1.4  T
   8   -137.5828408 -0.120250E-04  0.361E-03    0.02       2.7  T
   9   -137.5828416 -0.749766E-06  0.323E-03    0.03       3.1  T
  10   -137.5828425 -0.880963E-06  0.245E-03    0.03       4.0  T
  11   -137.5828440 -0.151579E-05  0.636E-04    0.02      15.6  T
  12   -137.5828439  0.302165E-07  0.615E-04    0.02      16.1  T
  13   -137.5828440 -0.825532E-07  0.319E-04    0.02      31.1  T
     SCC iter.                  ...        0 min,  0.183 sec
     gradient                   ...        0 min,  0.018 sec
 * total energy  :  -135.7029627 Eh     change       -0.2492460E-03 Eh
   gradient norm :     0.0058269 Eh/α   predicted    -0.1848607E-03 ( -25.83%)
   displ. norm   :     0.5232552 α      lambda       -0.3833558E-03
   maximum displ.:     0.2548184 α      in ANC's #11, #6, #13, ...

........................................................................
.............................. CYCLE   15 ..............................
........................................................................

 iter      E             dE          RMSdq      gap      omega  full diag
   1   -137.5811898 -0.137581E+03  0.119E-01    0.01       0.0  T
   2   -137.5635690  0.176208E-01  0.262E-01    0.18       1.0  T
   3   -137.5768104 -0.132414E-01  0.143E-01    0.01       1.0  T
   4   -137.5765674  0.243019E-03  0.149E-01    0.06       1.0  T
   5   -137.5794179 -0.285057E-02  0.887E-02    0.05       1.0  T
   6   -137.5813665 -0.194860E-02  0.371E-02    0.04       1.0  T
   7   -137.5817403 -0.373800E-03  0.654E-03    0.02       1.5  T
   8   -137.5817482 -0.785093E-05  0.363E-03    0.02       2.7  T
   9   -137.5817453  0.286116E-05  0.486E-03    0.03       2.0  T
  10   -137.5817492 -0.384648E-05  0.289E-03    0.02       3.4  T
  11   -137.5817512 -0.207750E-05  0.946E-04    0.02      10.5  T
  12   -137.5817513 -0.605189E-07  0.687E-04    0.02      14.4  T
  13   -137.5817514 -0.105266E-06  0.335E-04    0.02      29.5  T
     SCC iter.                  ...        0 min,  0.173 sec
     gradient                   ...        0 min,  0.018 sec
 * total energy  :  -135.7032647 Eh     change       -0.3019989E-03 Eh
   gradient norm :     0.0065292 Eh/α   predicted    -0.2441666E-03 ( -19.15%)
   displ. norm   :     0.5431625 α      lambda       -0.3694396E-03
   maximum displ.:     0.2646297 α      in ANC's #11, #6, #13, ...

........................................................................
.............................. CYCLE   16 ..............................
........................................................................

 iter      E             dE          RMSdq      gap      omega  full diag
   1   -137.5803146 -0.137580E+03  0.127E-01    0.01       0.0  T
   2   -137.5610089  0.193057E-01  0.275E-01    0.20       1.0  T
   3   -137.5757003 -0.146914E-01  0.148E-01    0.02       1.0  T
   4   -137.5754282  0.272103E-03  0.149E-01    0.06       1.0  T
   5   -137.5783557 -0.292756E-02  0.955E-02    0.06       1.0  T
   6   -137.5805185 -0.216281E-02  0.429E-02    0.04       1.0  T
   7   -137.5810171 -0.498586E-03  0.972E-03    0.02       1.0  T
   8   -137.5810405 -0.234039E-04  0.407E-03    0.02       2.4  T
   9   -137.5810316  0.898443E-05  0.667E-03    0.03       1.5  T
  10   -137.5810432 -0.116769E-04  0.143E-03    0.02       6.9  T
  11   -137.5810426  0.592506E-06  0.201E-03    0.02       4.9  T
  12   -137.5810436 -0.985692E-06  0.474E-04    0.02      20.9  T
  13   -137.5810437 -0.312418E-07  0.290E-04    0.02      34.1  T
     SCC iter.                  ...        0 min,  0.175 sec
     gradient                   ...        0 min,  0.019 sec
 * total energy  :  -135.7035600 Eh     change       -0.2952863E-03 Eh
   gradient norm :     0.0074911 Eh/α   predicted    -0.2392172E-03 ( -18.99%)
   displ. norm   :     0.5656814 α      lambda       -0.3824478E-03
   maximum displ.:     0.2802758 α      in ANC's #11, #6, #13, ...

........................................................................
.............................. CYCLE   17 ..............................
........................................................................

 iter      E             dE          RMSdq      gap      omega  full diag
   1   -137.5807323 -0.137581E+03  0.131E-01    0.01       0.0  T
   2   -137.5611152  0.196171E-01  0.278E-01    0.20       1.0  T
   3   -137.5741001 -0.129849E-01  0.172E-01    0.03       1.0  T
   4   -137.5738865  0.213534E-03  0.165E-01    0.07       1.0  T
   5   -137.5782179 -0.433138E-02  0.106E-01    0.06       1.0  T
   6   -137.5809262 -0.270823E-02  0.437E-02    0.04       1.0  T
   7   -137.5814411 -0.514996E-03  0.103E-02    0.02       1.0  T
   8   -137.5814596 -0.184756E-04  0.661E-03    0.02       1.5  T
   9   -137.5814560  0.359319E-05  0.705E-03    0.02       1.4  T
  10   -137.5814695 -0.134837E-04  0.132E-03    0.02       7.5  T
  11   -137.5814692  0.342002E-06  0.167E-03    0.02       5.9  T
  12   -137.5814698 -0.619166E-06  0.511E-04    0.02      19.4  T
  13   -137.5814698 -0.301712E-07  0.315E-04    0.02      31.4  T
     SCC iter.                  ...        0 min,  0.175 sec
     gradient                   ...        0 min,  0.018 sec
 * total energy  :  -135.7038826 Eh     change       -0.3226286E-03 Eh
   gradient norm :     0.0071968 Eh/α   predicted    -0.2524161E-03 ( -21.76%)
   displ. norm   :     0.6208852 α      lambda       -0.4475822E-03
   maximum displ.:     0.3134462 α      in ANC's #11, #6, #13, ...

........................................................................
.............................. CYCLE   18 ..............................
........................................................................

 iter      E             dE          RMSdq      gap      omega  full diag
   1   -137.5817726 -0.137582E+03  0.150E-01    0.00       0.0  T
   2   -137.5600880  0.216846E-01  0.296E-01    0.24       1.0  T
   3   -137.5735792 -0.134912E-01  0.192E-01    0.03       1.0  T
   4   -137.5703135  0.326574E-02  0.206E-01    0.10       1.0  T
   5   -137.5786338 -0.832036E-02  0.122E-01    0.06       1.0  T
   6   -137.5825800 -0.394622E-02  0.280E-02    0.03       1.0  T
   7   -137.5827635 -0.183418E-03  0.151E-02    0.03       1.0  T
   8   -137.5827535  0.993822E-05  0.153E-02    0.03       1.0  T
   9   -137.5828088 -0.553126E-04  0.546E-03    0.02       1.8  T
  10   -137.5828148 -0.592377E-05  0.260E-03    0.02       3.8  T
  11   -137.5828162 -0.145400E-05  0.104E-03    0.02       9.6  T
  12   -137.5828164 -0.138890E-06  0.658E-04    0.02      15.1  T
  13   -137.5828164 -0.801226E-07  0.270E-04    0.02      36.7  T
     SCC iter.                  ...        0 min,  0.192 sec
     gradient                   ...        0 min,  0.019 sec
 * total energy  :  -135.7042529 Eh     change       -0.3703463E-03 Eh
   gradient norm :     0.0061837 Eh/α   predicted    -0.3100642E-03 ( -16.28%)
   displ. norm   :     0.6832211 α      lambda       -0.4340913E-03
   maximum displ.:     0.3484281 α      in ANC's #11, #6, #13, ...

........................................................................
.............................. CYCLE   19 ..............................
........................................................................

 iter      E             dE          RMSdq      gap      omega  full diag
   1   -137.5819721 -0.137582E+03  0.161E-01    0.00       0.0  T
   2   -137.5581848  0.237873E-01  0.314E-01    0.28       1.0  T
   3   -137.5773036 -0.191188E-01  0.161E-01    0.02       1.0  T
   4   -137.5704184  0.688519E-02  0.206E-01    0.09       1.0  T
   5   -137.5814682 -0.110498E-01  0.852E-02    0.05       1.0  T
   6   -137.5833968 -0.192861E-02  0.180E-02    0.02       1.0  T
   7   -137.5834425 -0.456445E-04  0.891E-03    0.02       1.1  T
   8   -137.5834245  0.179709E-04  0.115E-02    0.02       1.0  T
   9   -137.5834582 -0.337168E-04  0.276E-03    0.02       3.6  T
  10   -137.5834584 -0.162269E-06  0.236E-03    0.02       4.2  T
  11   -137.5834595 -0.110677E-05  0.103E-03    0.02       9.7  T
  12   -137.5834596 -0.116691E-06  0.679E-04    0.02      14.6  T
  13   -137.5834597 -0.828733E-07  0.310E-04    0.02      31.9  T
     SCC iter.                  ...        0 min,  0.174 sec
     gradient                   ...        0 min,  0.018 sec
 * total energy  :  -135.7046190 Eh     change       -0.3661016E-03 Eh
   gradient norm :     0.0054655 Eh/α   predicted    -0.3183624E-03 ( -13.04%)
   displ. norm   :     0.7017722 α      lambda       -0.4042165E-03
   maximum displ.:     0.3559100 α      in ANC's #6, #11, #7, ...

........................................................................
.............................. CYCLE   20 ..............................
........................................................................

 iter      E             dE          RMSdq      gap      omega  full diag
   1   -137.5816577 -0.137582E+03  0.170E-01    0.01       0.0  T
   2   -137.5561870  0.254707E-01  0.329E-01    0.31       1.0  T
   3   -137.5797994 -0.236124E-01  0.134E-01    0.01       1.0  T
   4   -137.5731596  0.663980E-02  0.182E-01    0.06       1.0  T
   5   -137.5832315 -0.100720E-01  0.412E-02    0.02       1.0  T
   6   -137.5835240 -0.292432E-03  0.170E-02    0.02       1.0  T
   7   -137.5835670 -0.429914E-04  0.696E-03    0.02       1.4  T
   8   -137.5835659  0.110500E-05  0.640E-03    0.02       1.5  T
   9   -137.5835747 -0.881719E-05  0.278E-03    0.02       3.6  T
  10   -137.5835756 -0.975799E-06  0.170E-03    0.02       5.8  T
  11   -137.5835760 -0.387483E-06  0.106E-03    0.02       9.4  T
  12   -137.5835762 -0.158675E-06  0.686E-04    0.02      14.4  T
  13   -137.5835763 -0.996199E-07  0.213E-04    0.02      46.4  T
     SCC iter.                  ...        0 min,  0.171 sec
     gradient                   ...        0 min,  0.017 sec
 * total energy  :  -135.7049779 Eh     change       -0.3589038E-03 Eh
   gradient norm :     0.0055413 Eh/α   predicted    -0.3016494E-03 ( -15.95%)
   displ. norm   :     0.7118411 α      lambda       -0.4276060E-03
   maximum displ.:     0.3719206 α      in ANC's #6, #11, #7, ...
 * RMSD in coord.:     0.7541001 α      energy gain  -0.1581522E-01 Eh

generating ANC from exact Hessian ...
Using Lindh-Hessian (1995)
 Shifting diagonal of input Hessian by   1.030946182392295E-002
 Lowest  eigenvalues of input Hessian
    0.010000    0.010055    0.010113    0.010127    0.010307    0.000000
    0.000000    0.000000    0.000000    0.000000    0.000000    0.010322
    0.010331    0.010350    0.010367    0.010387    0.010505    0.010543
 Highest eigenvalues
    2.050778    2.051704    2.147750    2.165006    2.181011    2.184259
 

........................................................................
.............................. CYCLE   21 ..............................
........................................................................

 iter      E             dE          RMSdq      gap      omega  full diag
   1   -137.5831057 -0.137583E+03  0.166E-01    0.01       0.0  T
   2   -137.5568442  0.262615E-01  0.334E-01    0.31       1.0  T
   3   -137.5829406 -0.260964E-01  0.111E-01    0.00       1.0  T
   4   -137.5782293  0.471132E-02  0.150E-01    0.04       1.0  T
   5   -137.5846630 -0.643369E-02  0.452E-02    0.01       1.0  T
   6   -137.5850342 -0.371164E-03  0.155E-02    0.02       1.0  T
   7   -137.5850709 -0.367587E-04  0.654E-03    0.02       1.5  T
   8   -137.5850740 -0.311538E-05  0.437E-03    0.02       2.3  T
   9   -137.5850771 -0.309229E-05  0.246E-03    0.02       4.0  T
  10   -137.5850781 -0.918518E-06  0.134E-03    0.02       7.4  T
  11   -137.5850783 -0.234468E-06  0.841E-04    0.02      11.8  T
  12   -137.5850784 -0.833848E-07  0.582E-04    0.02      17.0  T
     SCC iter.                  ...        0 min,  0.166 sec
     gradient                   ...        0 min,  0.018 sec
 * total energy  :  -135.7053675 Eh     change       -0.3895028E-03 Eh
   gradient norm :     0.0056379 Eh/α   predicted     0.0000000E+00 (-100.00%)
   displ. norm   :     0.0794485 α      lambda       -0.1361172E-03
   maximum displ.:     0.0396834 α      in ANC's #7, #11, #19, ...

........................................................................
.............................. CYCLE   22 ..............................
........................................................................

 iter      E             dE          RMSdq      gap      omega  full diag
   1   -137.5863209 -0.137586E+03  0.244E-02    0.02       0.0  T
   2   -137.5859221  0.398718E-03  0.410E-02    0.03       1.0  T
   3   -137.5857084  0.213702E-03  0.483E-02    0.00       1.0  T
   4   -137.5861664 -0.457978E-03  0.290E-02    0.02       1.0  T
   5   -137.5863213 -0.154863E-03  0.467E-03    0.02       2.1  T
   6   -137.5863257 -0.438354E-05  0.198E-03    0.02       5.0  T
   7   -137.5863264 -0.766134E-06  0.102E-03    0.02       9.7  T
   8   -137.5863266 -0.211066E-06  0.483E-04    0.02      20.5  T
   9   -137.5863266 -0.289768E-08  0.382E-04    0.02      25.9  T
     SCC iter.                  ...        0 min,  0.117 sec
     gradient                   ...        0 min,  0.018 sec
 * total energy  :  -135.7054827 Eh     change       -0.1152336E-03 Eh
   gradient norm :     0.0029658 Eh/α   predicted    -0.6942936E-04 ( -39.75%)
   displ. norm   :     0.2946652 α      lambda       -0.3521826E-03
   maximum displ.:     0.1467969 α      in ANC's #7, #11, #19, ...

........................................................................
.............................. CYCLE   23 ..............................
........................................................................

 iter      E             dE          RMSdq      gap      omega  full diag
   1   -137.5882145 -0.137588E+03  0.836E-02    0.01       0.0  T
   2   -137.5822959  0.591864E-02  0.156E-01    0.07       1.0  T
   3   -137.5843162 -0.202037E-02  0.125E-01    0.02       1.0  T
   4   -137.5872703 -0.295408E-02  0.737E-02    0.02       1.0  T
   5   -137.5881881 -0.917754E-03  0.204E-02    0.02       1.0  T
   6   -137.5882593 -0.712300E-04  0.115E-02    0.02       1.0  T
   7   -137.5882848 -0.255470E-04  0.599E-03    0.02       1.7  T
   8   -137.5882939 -0.905755E-05  0.160E-03    0.02       6.2  T
   9   -137.5882924  0.154194E-05  0.271E-03    0.02       3.7  T
  10   -137.5882939 -0.149844E-05  0.131E-03    0.02       7.5  T
  11   -137.5882943 -0.468472E-06  0.300E-04    0.02      33.0  T
  12   -137.5882943 -0.118177E-07  0.199E-04    0.02      49.7  T
     SCC iter.                  ...        0 min,  0.161 sec
     gradient                   ...        0 min,  0.018 sec
 * total energy  :  -135.7056558 Eh     change       -0.1731640E-03 Eh
   gradient norm :     0.0060220 Eh/α   predicted    -0.1913956E-03 (  10.53%)
   displ. norm   :     0.2917927 α      lambda       -0.3200111E-03
   maximum displ.:     0.1460010 α      in ANC's #7, #11, #10, ...

........................................................................
.............................. CYCLE   24 ..............................
........................................................................

 iter      E             dE          RMSdq      gap      omega  full diag
   1   -137.5879496 -0.137588E+03  0.102E-01    0.02       0.0  T
   2   -137.5863462  0.160341E-02  0.100E-01    0.04       1.0  T
   3   -137.5597839  0.265623E-01  0.316E-01    0.10       1.0  T
   4   -137.5855773 -0.257935E-01  0.115E-01    0.03       1.0  T
   5   -137.5877764 -0.219907E-02  0.295E-02    0.01       1.0  T
   6   -137.5879587 -0.182296E-03  0.119E-02    0.01       1.0  T
   7   -137.5879928 -0.341023E-04  0.377E-03    0.02       2.6  T
   8   -137.5879932 -0.419363E-06  0.292E-03    0.02       3.4  T
   9   -137.5879944 -0.115771E-05  0.195E-03    0.02       5.1  T
  10   -137.5879952 -0.840280E-06  0.814E-04    0.02      12.2  T
  11   -137.5879953 -0.100360E-06  0.468E-04    0.02      21.2  T
     SCC iter.                  ...        0 min,  0.177 sec
     gradient                   ...        0 min,  0.020 sec
 * total energy  :  -135.7057583 Eh     change       -0.1024044E-03 Eh
   gradient norm :     0.0084236 Eh/α   predicted    -0.1736293E-03 (  69.55%)
   displ. norm   :     0.1046372 α      lambda       -0.1868780E-03
   maximum displ.:     0.0553249 α      in ANC's #7, #11, #10, ...

........................................................................
.............................. CYCLE   25 ..............................
........................................................................

 iter      E             dE          RMSdq      gap      omega  full diag
   1   -137.5875546 -0.137588E+03  0.423E-02    0.02       0.0  T
   2   -137.5868551  0.699424E-03  0.571E-02    0.03       1.0  T
   3   -137.5835944  0.326071E-02  0.121E-01    0.02       1.0  T
   4   -137.5872391 -0.364467E-02  0.385E-02    0.02       1.0  T
   5   -137.5875417 -0.302635E-03  0.995E-03    0.02       1.0  T
   6   -137.5875626 -0.208688E-04  0.400E-03    0.02       2.5  T
   7   -137.5875665 -0.394877E-05  0.145E-03    0.02       6.8  T
   8   -137.5875669 -0.324535E-06  0.700E-04    0.02      14.2  T
   9   -137.5875669  0.532862E-08  0.635E-04    0.02      15.6  T
     SCC iter.                  ...        0 min,  0.117 sec
     gradient                   ...        0 min,  0.019 sec
 * total energy  :  -135.7059054 Eh     change       -0.1471069E-03 Eh
   gradient norm :     0.0055244 Eh/α   predicted    -0.9446210E-04 ( -35.79%)
   displ. norm   :     0.2980747 α      lambda       -0.3269242E-03
   maximum displ.:     0.1619679 α      in ANC's #7, #11, #10, ...

........................................................................
.............................. CYCLE   26 ..............................
........................................................................

 iter      E             dE          RMSdq      gap      omega  full diag
   1   -137.5860357 -0.137586E+03  0.683E-02    0.01       0.0  T
   2   -137.5765046  0.953117E-02  0.192E-01    0.09       1.0  T
   3   -137.5848115 -0.830690E-02  0.792E-02    0.00       1.0  T
   4   -137.5854844 -0.672981E-03  0.597E-02    0.02       1.0  T
   5   -137.5860326 -0.548121E-03  0.261E-02    0.02       1.0  T
   6   -137.5861100 -0.774741E-04  0.170E-02    0.02       1.0  T
   7   -137.5861903 -0.802551E-04  0.370E-03    0.02       2.7  T
   8   -137.5861929 -0.261293E-05  0.128E-03    0.02       7.8  T
   9   -137.5861929 -0.257374E-07  0.107E-03    0.02       9.3  T
  10   -137.5861931 -0.160702E-06  0.561E-04    0.02      17.7  T
  11   -137.5861931 -0.370813E-07  0.345E-04    0.02      28.7  T
     SCC iter.                  ...        0 min,  0.150 sec
     gradient                   ...        0 min,  0.019 sec
 * total energy  :  -135.7061300 Eh     change       -0.2246685E-03 Eh
   gradient norm :     0.0033495 Eh/α   predicted    -0.1779879E-03 ( -20.78%)
   displ. norm   :     0.4177866 α      lambda       -0.2528811E-03
   maximum displ.:     0.2280060 α      in ANC's #7, #11, #10, ...

........................................................................
.............................. CYCLE   27 ..............................
........................................................................

 iter      E             dE          RMSdq      gap      omega  full diag
   1   -137.5840878 -0.137584E+03  0.830E-02    0.01       0.0  T
   2   -137.5671546  0.169332E-01  0.255E-01    0.14       1.0  T
   3   -137.5840790 -0.169244E-01  0.564E-02    0.01       1.0  T
   4   -137.5834654  0.613625E-03  0.689E-02    0.02       1.0  T
   5   -137.5843832 -0.917787E-03  0.185E-02    0.02       1.0  T
   6   -137.5844277 -0.445439E-04  0.112E-02    0.02       1.0  T
   7   -137.5844633 -0.355506E-04  0.303E-03    0.02       3.3  T
   8   -137.5844641 -0.863718E-06  0.193E-03    0.02       5.1  T
   9   -137.5844647 -0.562068E-06  0.101E-03    0.02       9.8  T
  10   -137.5844646  0.868877E-07  0.103E-03    0.02       9.6  T
  11   -137.5844648 -0.196606E-06  0.507E-04    0.02      19.5  T
  12   -137.5844649 -0.561724E-07  0.251E-04    0.02      39.4  T
     SCC iter.                  ...        0 min,  0.163 sec
     gradient                   ...        0 min,  0.019 sec
 * total energy  :  -135.7063443 Eh     change       -0.2142562E-03 Eh
   gradient norm :     0.0058677 Eh/α   predicted    -0.1485117E-03 ( -30.68%)
   displ. norm   :     0.5459808 α      lambda       -0.3333355E-03
   maximum displ.:     0.2994480 α      in ANC's #7, #11, #10, ...

........................................................................
.............................. CYCLE   28 ..............................
........................................................................

 iter      E             dE          RMSdq      gap      omega  full diag
   1   -137.5824344 -0.137582E+03  0.106E-01    0.00       0.0  T
   2   -137.5594633  0.229711E-01  0.301E-01    0.21       1.0  T
   3   -137.5830616 -0.235983E-01  0.587E-02    0.01       1.0  T
   4   -137.5815336  0.152806E-02  0.852E-02    0.01       1.0  T
   5   -137.5830949 -0.156138E-02  0.293E-02    0.01       1.0  T
   6   -137.5832871 -0.192192E-03  0.950E-03    0.02       1.0  T
   7   -137.5833030 -0.159059E-04  0.355E-03    0.02       2.8  T
   8   -137.5833033 -0.248513E-06  0.288E-03    0.02       3.4  T
   9   -137.5833049 -0.162836E-05  0.139E-03    0.02       7.1  T
  10   -137.5833051 -0.144292E-06  0.944E-04    0.02      10.5  T
  11   -137.5833052 -0.134956E-06  0.551E-04    0.02      18.0  T
     SCC iter.                  ...        0 min,  0.143 sec
     gradient                   ...        0 min,  0.017 sec
 * total energy  :  -135.7066479 Eh     change       -0.3035836E-03 Eh
   gradient norm :     0.0067743 Eh/α   predicted    -0.2163522E-03 ( -28.73%)
   displ. norm   :     0.6589831 α      lambda       -0.4433839E-03
   maximum displ.:     0.3678861 α      in ANC's #7, #11, #10, ...

........................................................................
.............................. CYCLE   29 ..............................
........................................................................

 iter      E             dE          RMSdq      gap      omega  full diag
   1   -137.5825948 -0.137583E+03  0.126E-01    0.01       0.0  T
   2   -137.5566018  0.259930E-01  0.324E-01    0.26       1.0  T
   3   -137.5837088 -0.271070E-01  0.669E-02    0.02       1.0  T
   4   -137.5814242  0.228459E-02  0.101E-01    0.01       1.0  T
   5   -137.5828784 -0.145420E-02  0.666E-02    0.00       1.0  T
   6   -137.5839750 -0.109661E-02  0.155E-02    0.01       1.0  T
   7   -137.5840208 -0.457641E-04  0.628E-03    0.02       1.6  T
   8   -137.5840228 -0.207084E-05  0.471E-03    0.02       2.1  T
   9   -137.5840281 -0.528085E-05  0.167E-03    0.01       5.9  T
  10   -137.5840281  0.459882E-07  0.157E-03    0.01       6.3  T
  11   -137.5840286 -0.500598E-06  0.634E-04    0.02      15.6  T
  12   -137.5840286 -0.372587E-07  0.505E-04    0.02      19.6  T
     SCC iter.                  ...        0 min,  0.162 sec
     gradient                   ...        0 min,  0.018 sec
 * total energy  :  -135.7070457 Eh     change       -0.3978251E-03 Eh
   gradient norm :     0.0054581 Eh/α   predicted    -0.3179700E-03 ( -20.07%)
   displ. norm   :     0.7215236 α      lambda       -0.4750653E-03
   maximum displ.:     0.4098164 α      in ANC's #7, #11, #10, ...

........................................................................
.............................. CYCLE   30 ..............................
........................................................................

 iter      E             dE          RMSdq      gap      omega  full diag
   1   -137.5841336 -0.137584E+03  0.143E-01    0.01       0.0  T
   2   -137.5568494  0.272842E-01  0.336E-01    0.28       1.0  T
   3   -137.5851313 -0.282819E-01  0.803E-02    0.01       1.0  T
   4   -137.5822009  0.293046E-02  0.115E-01    0.02       1.0  T
   5   -137.5849092 -0.270830E-02  0.617E-02    0.00       1.0  T
   6   -137.5857994 -0.890257E-03  0.144E-02    0.01       1.0  T
   7   -137.5858320 -0.325598E-04  0.664E-03    0.02       1.5  T
   8   -137.5858364 -0.441218E-05  0.410E-03    0.01       2.4  T
   9   -137.5858396 -0.319722E-05  0.207E-03    0.01       4.8  T
  10   -137.5858402 -0.619009E-06  0.125E-03    0.01       7.9  T
  11   -137.5858404 -0.214584E-06  0.699E-04    0.01      14.2  T
  12   -137.5858405 -0.596668E-07  0.511E-04    0.01      19.4  T
     SCC iter.                  ...        0 min,  0.183 sec
     gradient                   ...        0 min,  0.020 sec
 * total energy  :  -135.7074764 Eh     change       -0.4307268E-03 Eh
   gradient norm :     0.0042731 Eh/α   predicted    -0.3611973E-03 ( -16.14%)
   displ. norm   :     0.7558834 α      lambda       -0.4937378E-03
   maximum displ.:     0.4343286 α      in ANC's #7, #11, #10, ...

........................................................................
.............................. CYCLE   31 ..............................
........................................................................

 iter      E             dE          RMSdq      gap      omega  full diag
   1   -137.5862329 -0.137586E+03  0.141E-01    0.01       0.0  T
   2   -137.5580976  0.281353E-01  0.341E-01    0.29       1.0  T
   3   -137.5874567 -0.293591E-01  0.767E-02    0.01       1.0  T
   4   -137.5848484  0.260831E-02  0.110E-01    0.01       1.0  T
   5   -137.5864679 -0.161960E-02  0.797E-02    0.01       1.0  T
   6   -137.5880209 -0.155296E-02  0.158E-02    0.01       1.0  T
   7   -137.5880614 -0.404474E-04  0.750E-03    0.01       1.3  T
   8   -137.5880665 -0.516137E-05  0.495E-03    0.01       2.0  T
   9   -137.5880719 -0.537636E-05  0.204E-03    0.01       4.8  T
  10   -137.5880723 -0.385642E-06  0.150E-03    0.01       6.6  T
  11   -137.5880727 -0.415264E-06  0.700E-04    0.01      14.2  T
  12   -137.5880727 -0.231402E-07  0.619E-04    0.01      16.0  T
     SCC iter.                  ...        0 min,  0.160 sec
     gradient                   ...        0 min,  0.018 sec
 * total energy  :  -135.7079420 Eh     change       -0.4655921E-03 Eh
   gradient norm :     0.0049053 Eh/α   predicted    -0.3879207E-03 ( -16.68%)
   displ. norm   :     0.7902424 α      lambda       -0.5522994E-03
   maximum displ.:     0.4574802 α      in ANC's #7, #11, #10, ...

........................................................................
.............................. CYCLE   32 ..............................
........................................................................

 iter      E             dE          RMSdq      gap      omega  full diag
   1   -137.5883355 -0.137588E+03  0.153E-01    0.02       0.0  T
   2   -137.5593438  0.289917E-01  0.349E-01    0.30       1.0  T
   3   -137.5891207 -0.297769E-01  0.913E-02    0.00       1.0  T
   4   -137.5856606  0.346004E-02  0.126E-01    0.02       1.0  T
   5   -137.5891631 -0.350247E-02  0.695E-02    0.01       1.0  T
   6   -137.5902712 -0.110807E-02  0.146E-02    0.01       1.0  T
   7   -137.5903025 -0.313132E-04  0.700E-03    0.01       1.4  T
   8   -137.5903063 -0.387130E-05  0.474E-03    0.01       2.1  T
   9   -137.5903108 -0.442320E-05  0.228E-03    0.01       4.3  T
  10   -137.5903114 -0.673005E-06  0.142E-03    0.01       7.0  T
  11   -137.5903118 -0.319160E-06  0.792E-04    0.01      12.5  T
  12   -137.5903118 -0.748000E-07  0.569E-04    0.01      17.4  T
     SCC iter.                  ...        0 min,  0.155 sec
     gradient                   ...        0 min,  0.017 sec
 * total energy  :  -135.7084735 Eh     change       -0.5314647E-03 Eh
   gradient norm :     0.0061045 Eh/α   predicted    -0.4486043E-03 ( -15.59%)
   displ. norm   :     0.8283693 α      lambda       -0.6290539E-03
   maximum displ.:     0.4832992 α      in ANC's #7, #11, #10, ...

........................................................................
.............................. CYCLE   33 ..............................
........................................................................

 iter      E             dE          RMSdq      gap      omega  full diag
   1   -137.5896865 -0.137590E+03  0.156E-01    0.02       0.0  T
   2   -137.5596325  0.300540E-01  0.356E-01    0.31       1.0  T
   3   -137.5908084 -0.311760E-01  0.894E-02    0.00       1.0  T
   4   -137.5876746  0.313386E-02  0.123E-01    0.01       1.0  T
   5   -137.5899902 -0.231563E-02  0.871E-02    0.01       1.0  T
   6   -137.5918141 -0.182389E-02  0.158E-02    0.01       1.0  T
   7   -137.5918499 -0.358404E-04  0.798E-03    0.01       1.2  T
   8   -137.5918550 -0.511085E-05  0.544E-03    0.01       1.8  T
   9   -137.5918613 -0.626750E-05  0.235E-03    0.01       4.2  T
  10   -137.5918619 -0.626915E-06  0.159E-03    0.01       6.2  T
  11   -137.5918624 -0.455220E-06  0.775E-04    0.01      12.8  T
  12   -137.5918624 -0.103995E-07  0.726E-04    0.01      13.6  T
     SCC iter.                  ...        0 min,  0.155 sec
     gradient                   ...        0 min,  0.018 sec
 * total energy  :  -135.7090771 Eh     change       -0.6035962E-03 Eh
   gradient norm :     0.0068506 Eh/α   predicted    -0.5303593E-03 ( -12.13%)
   displ. norm   :     0.8498766 α      lambda       -0.6802160E-03
   maximum displ.:     0.5010788 α      in ANC's #7, #11, #10, ...

........................................................................
.............................. CYCLE   34 ..............................
........................................................................

 iter      E             dE          RMSdq      gap      omega  full diag
   1   -137.5898889 -0.137590E+03  0.164E-01    0.02       0.0  T
   2   -137.5586758  0.312131E-01  0.365E-01    0.33       1.0  T
   3   -137.5911270 -0.324512E-01  0.942E-02    0.00       1.0  T
   4   -137.5879454  0.318162E-02  0.126E-01    0.01       1.0  T
   5   -137.5899337 -0.198830E-02  0.978E-02    0.02       1.0  T
   6   -137.5922571 -0.232342E-02  0.166E-02    0.01       1.0  T
   7   -137.5922948 -0.376868E-04  0.886E-03    0.01       1.1  T
   8   -137.5923025 -0.771449E-05  0.568E-03    0.01       1.7  T
   9   -137.5923093 -0.683118E-05  0.246E-03    0.01       4.0  T
  10   -137.5923100 -0.720249E-06  0.164E-03    0.01       6.1  T
  11   -137.5923105 -0.476880E-06  0.797E-04    0.01      12.4  T
  12   -137.5923105  0.311062E-07  0.840E-04    0.01      11.8  T
     SCC iter.                  ...        0 min,  0.159 sec
     gradient                   ...        0 min,  0.019 sec
 * total energy  :  -135.7097261 Eh     change       -0.6490048E-03 Eh
   gradient norm :     0.0068131 Eh/α   predicted    -0.5857697E-03 (  -9.74%)
   displ. norm   :     0.8487940 α      lambda       -0.6997096E-03
   maximum displ.:     0.5079325 α      in ANC's #7, #11, #10, ...

........................................................................
.............................. CYCLE   35 ..............................
........................................................................

 iter      E             dE          RMSdq      gap      omega  full diag
   1   -137.5899241 -0.137590E+03  0.160E-01    0.02       0.0  T
   2   -137.5578087  0.321154E-01  0.369E-01    0.33       1.0  T
   3   -137.5915244 -0.337157E-01  0.879E-02    0.01       1.0  T
   4   -137.5890744  0.244997E-02  0.115E-01    0.01       1.0  T
   5   -137.5892823 -0.207838E-03  0.111E-01    0.02       1.0  T
   6   -137.5923471 -0.306480E-02  0.191E-02    0.00       1.0  T
   7   -137.5924060 -0.588731E-04  0.965E-03    0.01       1.0  T
   8   -137.5924164 -0.104155E-04  0.594E-03    0.01       1.7  T
   9   -137.5924245 -0.817335E-05  0.212E-03    0.01       4.7  T
  10   -137.5924247 -0.151974E-06  0.184E-03    0.01       5.4  T
  11   -137.5924253 -0.643501E-06  0.728E-04    0.01      13.6  T
  12   -137.5924252  0.131464E-06  0.985E-04    0.01      10.1  T
     SCC iter.                  ...        0 min,  0.156 sec
     gradient                   ...        0 min,  0.018 sec
 * total energy  :  -135.7103926 Eh     change       -0.6665305E-03 Eh
   gradient norm :     0.0065099 Eh/α   predicted    -0.6019083E-03 (  -9.70%)
   displ. norm   :     0.8383707 α      lambda       -0.7101128E-03
   maximum displ.:     0.5083711 α      in ANC's #7, #11, #10, ...

........................................................................
.............................. CYCLE   36 ..............................
........................................................................

 iter      E             dE          RMSdq      gap      omega  full diag
   1   -137.5887278 -0.137589E+03  0.160E-01    0.03       0.0  T
   2   -137.5555926  0.331351E-01  0.375E-01    0.33       1.0  T
   3   -137.5905380 -0.349453E-01  0.869E-02    0.01       1.0  T
   4   -137.5884639  0.207409E-02  0.111E-01    0.00       1.0  T
   5   -137.5874272  0.103668E-02  0.123E-01    0.03       1.0  T
   6   -137.5912220 -0.379477E-02  0.230E-02    0.00       1.0  T
   7   -137.5913239 -0.101930E-03  0.102E-02    0.01       1.0  T
   8   -137.5913370 -0.131092E-04  0.603E-03    0.01       1.6  T
   9   -137.5913458 -0.874593E-05  0.192E-03    0.01       5.2  T
  10   -137.5913454  0.328327E-06  0.213E-03    0.01       4.7  T
  11   -137.5913463 -0.885964E-06  0.648E-04    0.01      15.3  T
  12   -137.5913462  0.159699E-06  0.961E-04    0.01      10.3  T
     SCC iter.                  ...        0 min,  0.170 sec
     gradient                   ...        0 min,  0.020 sec
 * total energy  :  -135.7110677 Eh     change       -0.6750690E-03 Eh
   gradient norm :     0.0060310 Eh/α   predicted    -0.6046142E-03 ( -10.44%)
   displ. norm   :     0.8231345 α      lambda       -0.7214936E-03
   maximum displ.:     0.5093334 α      in ANC's #7, #11, #10, ...

........................................................................
.............................. CYCLE   37 ..............................
........................................................................

 iter      E             dE          RMSdq      gap      omega  full diag
   1   -137.5889393 -0.137589E+03  0.151E-01    0.03       0.0  T
   2   -137.5554161  0.335233E-01  0.374E-01    0.32       1.0  T
   3   -137.5906504 -0.352343E-01  0.821E-02    0.01       1.0  T
   4   -137.5889399  0.171043E-02  0.102E-01    0.00       1.0  T
   5   -137.5879302  0.100974E-02  0.116E-01    0.03       1.0  T
   6   -137.5912303 -0.330014E-02  0.249E-02    0.00       1.0  T
   7   -137.5913681 -0.137726E-03  0.903E-03    0.01       1.1  T
   8   -137.5913761 -0.800907E-05  0.608E-03    0.01       1.6  T
   9   -137.5913847 -0.866121E-05  0.215E-03    0.00       4.6  T
  10   -137.5913844  0.325844E-06  0.231E-03    0.00       4.3  T
  11   -137.5913856 -0.117532E-05  0.597E-04    0.00      16.6  T
  12   -137.5913855  0.568957E-07  0.693E-04    0.00      14.3  T
  13   -137.5913857 -0.114804E-06  0.187E-04    0.00      53.0  T
     SCC iter.                  ...        0 min,  0.204 sec
     gradient                   ...        0 min,  0.020 sec
 * total energy  :  -135.7117448 Eh     change       -0.6770787E-03 Eh
   gradient norm :     0.0062247 Eh/α   predicted    -0.6051740E-03 ( -10.62%)
   displ. norm   :     0.8229446 α      lambda       -0.7130298E-03
   maximum displ.:     0.5119387 α      in ANC's #7, #11, #10, ...

........................................................................
.............................. CYCLE   38 ..............................
........................................................................

 iter      E             dE          RMSdq      gap      omega  full diag
   1   -137.5861830 -0.137586E+03  0.160E-01    0.03       0.0  T
   2   -137.5506648  0.355182E-01  0.389E-01    0.35       1.0  T
   3   -137.5881769 -0.375122E-01  0.925E-02    0.02       1.0  T
   4   -137.5868742  0.130266E-02  0.104E-01    0.00       1.0  T
   5   -137.5831770  0.369729E-02  0.151E-01    0.04       1.0  T
   6   -137.5887925 -0.561551E-02  0.363E-02    0.01       1.0  T
   7   -137.5891067 -0.314261E-03  0.967E-03    0.01       1.0  T
   8   -137.5891159 -0.917517E-05  0.647E-03    0.00       1.5  T
   9   -137.5891247 -0.880378E-05  0.297E-03    0.00       3.3  T
  10   -137.5891255 -0.796579E-06  0.224E-03    0.00       4.4  T
  11   -137.5891266 -0.109373E-05  0.751E-04    0.00      13.2  T
  12   -137.5891266  0.561104E-08  0.685E-04    0.00      14.5  T
  13   -137.5891267 -0.963311E-07  0.251E-04    0.00      39.5  T
     SCC iter.                  ...        0 min,  0.185 sec
     gradient                   ...        0 min,  0.017 sec
 * total energy  :  -135.7124067 Eh     change       -0.6619332E-03 Eh
   gradient norm :     0.0060004 Eh/α   predicted    -0.5979638E-03 (  -9.66%)
   displ. norm   :     0.8044669 α      lambda       -0.6924293E-03
   maximum displ.:     0.5118756 α      in ANC's #7, #10, #11, ...

........................................................................
.............................. CYCLE   39 ..............................
........................................................................

 iter      E             dE          RMSdq      gap      omega  full diag
   1   -137.5890985 -0.137589E+03  0.141E-01    0.03       0.0  T
   2   -137.5553040  0.337945E-01  0.373E-01    0.28       1.0  T
   3   -137.5900757 -0.347717E-01  0.850E-02    0.01       1.0  T
   4   -137.5885128  0.156289E-02  0.104E-01    0.01       1.0  T
   5   -137.5897136 -0.120078E-02  0.778E-02    0.02       1.0  T
   6   -137.5910097 -0.129606E-02  0.210E-02    0.00       1.0  T
   7   -137.5911184 -0.108761E-03  0.596E-03    0.00       1.7  T
   8   -137.5911172  0.123602E-05  0.582E-03    0.00       1.7  T
   9   -137.5911249 -0.768997E-05  0.184E-03    0.00       5.4  T
  10   -137.5911246  0.308494E-06  0.183E-03    0.00       5.4  T
  11   -137.5911254 -0.838646E-06  0.726E-04    0.00      13.6  T
  12   -137.5911254 -0.360253E-07  0.531E-04    0.00      18.6  T
     SCC iter.                  ...        0 min,  0.160 sec
     gradient                   ...        0 min,  0.018 sec
 * total energy  :  -135.7130423 Eh     change       -0.6356353E-03 Eh
   gradient norm :     0.0066152 Eh/α   predicted    -0.5702735E-03 ( -10.28%)
   displ. norm   :     0.8037483 α      lambda       -0.6530859E-03
   maximum displ.:     0.5051102 α      in ANC's #7, #11, #10, ...

........................................................................
.............................. CYCLE   40 ..............................
........................................................................

 iter      E             dE          RMSdq      gap      omega  full diag
   1   -137.5861126 -0.137586E+03  0.156E-01    0.04       0.0  T
   2   -137.5487780  0.373346E-01  0.401E-01    0.35       1.0  T
   3   -137.5880039 -0.392259E-01  0.962E-02    0.02       1.0  T
   4   -137.5875095  0.494462E-03  0.927E-02    0.01       1.0  T
   5   -137.5822182  0.529124E-02  0.165E-01    0.05       1.0  T
   6   -137.5886274 -0.640913E-02  0.484E-02    0.01       1.0  T
   7   -137.5892115 -0.584191E-03  0.708E-03    0.00       1.4  T
   8   -137.5892111  0.419825E-06  0.641E-03    0.00       1.5  T
   9   -137.5892175 -0.634664E-05  0.405E-03    0.00       2.4  T
  10   -137.5892209 -0.341344E-05  0.169E-03    0.00       5.9  T
  11   -137.5892213 -0.398440E-06  0.113E-03    0.00       8.8  T
  12   -137.5892215 -0.227621E-06  0.438E-04    0.00      22.6  T
  13   -137.5892215 -0.224087E-07  0.252E-04    0.00      39.3  T
     SCC iter.                  ...        0 min,  0.171 sec
     gradient                   ...        0 min,  0.019 sec
 * total energy  :  -135.7136468 Eh     change       -0.6045261E-03 Eh
   gradient norm :     0.0052483 Eh/α   predicted    -0.5374941E-03 ( -11.09%)
   displ. norm   :     0.7790099 α      lambda       -0.6474273E-03
   maximum displ.:     0.5019851 α      in ANC's #7, #10, #11, ...

........................................................................
.............................. CYCLE   41 ..............................
........................................................................

 iter      E             dE          RMSdq      gap      omega  full diag
   1   -137.5913238 -0.137591E+03  0.137E-01    0.03       0.0  T
   2   -137.5578147  0.335092E-01  0.373E-01    0.24       1.0  T
   3   -137.5906274 -0.328127E-01  0.109E-01    0.02       1.0  T
   4   -137.5893624  0.126502E-02  0.119E-01    0.02       1.0  T
   5   -137.5924610 -0.309862E-02  0.489E-02    0.01       1.0  T
   6   -137.5928928 -0.431807E-03  0.156E-02    0.00       1.0  T
   7   -137.5929429 -0.500810E-04  0.664E-03    0.00       1.5  T
   8   -137.5929473 -0.443171E-05  0.452E-03    0.00       2.2  T
   9   -137.5929502 -0.295571E-05  0.282E-03    0.00       3.5  T
  10   -137.5929518 -0.154016E-05  0.120E-03    0.00       8.3  T
  11   -137.5929519 -0.149419E-06  0.700E-04    0.00      14.2  T
  12   -137.5929520 -0.766702E-07  0.386E-04    0.00      25.6  T
     SCC iter.                  ...        0 min,  0.158 sec
     gradient                   ...        0 min,  0.018 sec
 * total energy  :  -135.7142291 Eh     change       -0.5822241E-03 Eh
   gradient norm :     0.0053650 Eh/α   predicted    -0.5201676E-03 ( -10.66%)
   displ. norm   :     0.7798228 α      lambda       -0.6201653E-03
   maximum displ.:     0.4985501 α      in ANC's #7, #10, #11, ...

........................................................................
.............................. CYCLE   42 ..............................
........................................................................

 iter      E             dE          RMSdq      gap      omega  full diag
   1   -137.5909508 -0.137591E+03  0.149E-01    0.04       0.0  T
   2   -137.5532641  0.376867E-01  0.404E-01    0.32       1.0  T
   3   -137.5929199 -0.396558E-01  0.793E-02    0.01       1.0  T
   4   -137.5916535  0.126641E-02  0.931E-02    0.01       1.0  T
   5   -137.5890888  0.256476E-02  0.136E-01    0.05       1.0  T
   6   -137.5933707 -0.428191E-02  0.374E-02    0.01       1.0  T
   7   -137.5936920 -0.321302E-03  0.590E-03    0.01       1.7  T
   8   -137.5936800  0.119358E-04  0.839E-03    0.00       1.2  T
   9   -137.5936966 -0.165421E-04  0.309E-03    0.00       3.2  T
  10   -137.5936983 -0.168913E-05  0.129E-03    0.01       7.7  T
  11   -137.5936980  0.318606E-06  0.161E-03    0.01       6.1  T
  12   -137.5936985 -0.569296E-06  0.522E-04    0.01      19.0  T
  13   -137.5936986 -0.451833E-07  0.291E-04    0.01      34.0  T
     SCC iter.                  ...        0 min,  0.189 sec
     gradient                   ...        0 min,  0.020 sec
 * total energy  :  -135.7147966 Eh     change       -0.5675575E-03 Eh
   gradient norm :     0.0046048 Eh/α   predicted    -0.4986531E-03 ( -12.14%)
   displ. norm   :     0.7804981 α      lambda       -0.5859421E-03
   maximum displ.:     0.5056452 α      in ANC's #7, #10, #11, ...
 * RMSD in coord.:     1.3217274 α      energy gain  -0.9818684E-02 Eh

generating ANC from exact Hessian ...
Using Lindh-Hessian (1995)
 Shifting diagonal of input Hessian by   1.031242213694786E-002
 Lowest  eigenvalues of input Hessian
    0.010000    0.010050    0.010118    0.010145    0.010291    0.000000
    0.000000    0.000000    0.000000    0.000000    0.000000    0.010334
    0.010344    0.010370    0.010391    0.010491    0.010511    0.010556
 Highest eigenvalues
    2.049171    2.051622    2.135197    2.155913    2.181833    2.182871
 

........................................................................
.............................. CYCLE   43 ..............................
........................................................................

 iter      E             dE          RMSdq      gap      omega  full diag
   1   -137.5927882 -0.137593E+03  0.150E-01    0.04       0.0  T
   2   -137.5550263  0.377619E-01  0.405E-01    0.30       1.0  T
   3   -137.5943148 -0.392885E-01  0.824E-02    0.01       1.0  T
   4   -137.5921678  0.214695E-02  0.109E-01    0.01       1.0  T
   5   -137.5920815  0.863130E-04  0.115E-01    0.04       1.0  T
   6   -137.5951045 -0.302294E-02  0.302E-02    0.01       1.0  T
   7   -137.5952865 -0.182064E-03  0.821E-03    0.01       1.2  T
   8   -137.5952876 -0.110635E-05  0.787E-03    0.01       1.3  T
   9   -137.5953004 -0.127876E-04  0.361E-03    0.01       2.7  T
  10   -137.5953030 -0.253551E-05  0.149E-03    0.01       6.7  T
  11   -137.5953030 -0.693105E-07  0.136E-03    0.01       7.3  T
  12   -137.5953034 -0.344119E-06  0.483E-04    0.01      20.5  T
  13   -137.5953034 -0.715374E-08  0.407E-04    0.01      24.3  T
     SCC iter.                  ...        0 min,  0.170 sec
     gradient                   ...        0 min,  0.017 sec
 * total energy  :  -135.7153385 Eh     change       -0.5418305E-03 Eh
   gradient norm :     0.0048129 Eh/α   predicted     0.0000000E+00 (-100.00%)
   displ. norm   :     0.0786349 α      lambda       -0.1015169E-03
   maximum displ.:     0.0335217 α      in ANC's #8, #10, #5, ...

........................................................................
.............................. CYCLE   44 ..............................
........................................................................

 iter      E             dE          RMSdq      gap      omega  full diag
   1   -137.5961585 -0.137596E+03  0.215E-02    0.01       0.0  T
   2   -137.5959944  0.164110E-03  0.277E-02    0.01       1.0  T
   3   -137.5951954  0.799011E-03  0.608E-02    0.02       1.0  T
   4   -137.5959424 -0.746979E-03  0.316E-02    0.01       1.0  T
   5   -137.5961562 -0.213796E-03  0.620E-03    0.01       1.6  T
   6   -137.5961638 -0.768093E-05  0.187E-03    0.01       5.3  T
   7   -137.5961646 -0.727900E-06  0.772E-04    0.01      12.8  T
   8   -137.5961646 -0.410809E-07  0.555E-04    0.01      17.8  T
     SCC iter.                  ...        0 min,  0.103 sec
     gradient                   ...        0 min,  0.020 sec
 * total energy  :  -135.7154306 Eh     change       -0.9212366E-04 Eh
   gradient norm :     0.0026818 Eh/α   predicted    -0.5415959E-04 ( -41.21%)
   displ. norm   :     0.4092308 α      lambda       -0.4437738E-03
   maximum displ.:     0.1701046 α      in ANC's #8, #10, #5, ...

........................................................................
.............................. CYCLE   45 ..............................
........................................................................

 iter      E             dE          RMSdq      gap      omega  full diag
   1   -137.5978591 -0.137598E+03  0.117E-01    0.01       0.0  T
   2   -137.5963323  0.152683E-02  0.104E-01    0.02       1.0  T
   3   -137.5774608  0.188714E-01  0.293E-01    0.12       1.0  T
   4   -137.5859593 -0.849845E-02  0.198E-01    0.05       1.0  T
   5   -137.5972644 -0.113052E-01  0.537E-02    0.02       1.0  T
   6   -137.5977837 -0.519219E-03  0.263E-02    0.01       1.0  T
   7   -137.5979298 -0.146176E-03  0.113E-02    0.01       1.0  T
   8   -137.5979589 -0.290376E-04  0.304E-03    0.01       3.3  T
   9   -137.5979597 -0.803918E-06  0.190E-03    0.01       5.2  T
  10   -137.5979602 -0.538319E-06  0.854E-04    0.01      11.6  T
  11   -137.5979603 -0.562577E-07  0.585E-04    0.01      16.9  T
     SCC iter.                  ...        0 min,  0.146 sec
     gradient                   ...        0 min,  0.018 sec
 * total energy  :  -135.7155924 Eh     change       -0.1618307E-03 Eh
   gradient norm :     0.0080283 Eh/α   predicted    -0.2590478E-03 (  60.07%)
   displ. norm   :     0.2467669 α      lambda       -0.3470955E-03
   maximum displ.:     0.1090518 α      in ANC's #8, #10, #13, ...

........................................................................
.............................. CYCLE   46 ..............................
........................................................................

 iter      E             dE          RMSdq      gap      omega  full diag
   1   -137.5971601 -0.137597E+03  0.874E-02    0.01       0.0  T
   2   -137.5865781  0.105820E-01  0.214E-01    0.06       1.0  T
   3   -137.5931176 -0.653947E-02  0.133E-01    0.05       1.0  T
   4   -137.5928916  0.225954E-03  0.124E-01    0.02       1.0  T
   5   -137.5972117 -0.432013E-02  0.233E-02    0.01       1.0  T
   6   -137.5973107 -0.989196E-04  0.625E-03    0.01       1.6  T
   7   -137.5973173 -0.662889E-05  0.344E-03    0.01       2.9  T
   8   -137.5973190 -0.166992E-05  0.164E-03    0.01       6.0  T
   9   -137.5973188  0.172753E-06  0.160E-03    0.01       6.2  T
  10   -137.5973192 -0.432782E-06  0.919E-04    0.01      10.8  T
  11   -137.5973194 -0.162193E-06  0.375E-04    0.01      26.4  T
     SCC iter.                  ...        0 min,  0.148 sec
     gradient                   ...        0 min,  0.019 sec
 * total energy  :  -135.7157862 Eh     change       -0.1937553E-03 Eh
   gradient norm :     0.0077558 Eh/α   predicted    -0.1841171E-03 (  -4.97%)
   displ. norm   :     0.1811601 α      lambda       -0.1695623E-03
   maximum displ.:     0.0876319 α      in ANC's #8, #10, #11, ...

........................................................................
.............................. CYCLE   47 ..............................
........................................................................

 iter      E             dE          RMSdq      gap      omega  full diag
   1   -137.5972791 -0.137597E+03  0.338E-02    0.01       0.0  T
   2   -137.5938074  0.347168E-02  0.118E-01    0.03       1.0  T
   3   -137.5967022 -0.289484E-02  0.510E-02    0.02       1.0  T
   4   -137.5968657 -0.163412E-03  0.406E-02    0.01       1.0  T
   5   -137.5973036 -0.437929E-03  0.845E-03    0.01       1.2  T
   6   -137.5973182 -0.146645E-04  0.282E-03    0.01       3.5  T
   7   -137.5973199 -0.167621E-05  0.126E-03    0.01       7.8  T
   8   -137.5973201 -0.208362E-06  0.642E-04    0.01      15.4  T
   9   -137.5973201  0.186550E-07  0.585E-04    0.01      16.9  T
     SCC iter.                  ...        0 min,  0.123 sec
     gradient                   ...        0 min,  0.018 sec
 * total energy  :  -135.7159353 Eh     change       -0.1491142E-03 Eh
   gradient norm :     0.0053702 Eh/α   predicted    -0.8756424E-04 ( -41.28%)
   displ. norm   :     0.4830635 α      lambda       -0.4388045E-03
   maximum displ.:     0.2315560 α      in ANC's #8, #10, #12, ...

........................................................................
.............................. CYCLE   48 ..............................
........................................................................

 iter      E             dE          RMSdq      gap      omega  full diag
   1   -137.5968205 -0.137597E+03  0.930E-02    0.02       0.0  T
   2   -137.5755542  0.212662E-01  0.295E-01    0.11       1.0  T
   3   -137.5939091 -0.183549E-01  0.120E-01    0.04       1.0  T
   4   -137.5936124  0.296747E-03  0.110E-01    0.02       1.0  T
   5   -137.5969962 -0.338386E-02  0.293E-02    0.01       1.0  T
   6   -137.5971433 -0.147033E-03  0.136E-02    0.01       1.0  T
   7   -137.5971872 -0.439132E-04  0.439E-03    0.01       2.3  T
   8   -137.5971909 -0.374276E-05  0.157E-03    0.01       6.3  T
   9   -137.5971908  0.162310E-06  0.142E-03    0.01       7.0  T
  10   -137.5971910 -0.190652E-06  0.939E-04    0.01      10.5  T
  11   -137.5971912 -0.188822E-06  0.504E-04    0.01      19.6  T
     SCC iter.                  ...        0 min,  0.151 sec
     gradient                   ...        0 min,  0.019 sec
 * total energy  :  -135.7162687 Eh     change       -0.3334011E-03 Eh
   gradient norm :     0.0050463 Eh/α   predicted    -0.2706003E-03 ( -18.84%)
   displ. norm   :     0.6205534 α      lambda       -0.3879790E-03
   maximum displ.:     0.2972141 α      in ANC's #8, #10, #12, ...

........................................................................
.............................. CYCLE   49 ..............................
........................................................................

 iter      E             dE          RMSdq      gap      omega  full diag
   1   -137.5950220 -0.137595E+03  0.114E-01    0.03       0.0  T
   2   -137.5632757  0.317463E-01  0.363E-01    0.18       1.0  T
   3   -137.5932214 -0.299456E-01  0.113E-01    0.04       1.0  T
   4   -137.5919097  0.131168E-02  0.120E-01    0.02       1.0  T
   5   -137.5955371 -0.362739E-02  0.463E-02    0.01       1.0  T
   6   -137.5958804 -0.343276E-03  0.191E-02    0.01       1.0  T
   7   -137.5959695 -0.891875E-04  0.644E-03    0.01       1.5  T
   8   -137.5959773 -0.777375E-05  0.277E-03    0.01       3.6  T
   9   -137.5959782 -0.873802E-06  0.148E-03    0.01       6.7  T
  10   -137.5959777  0.476882E-06  0.173E-03    0.01       5.7  T
  11   -137.5959784 -0.724510E-06  0.544E-04    0.01      18.2  T
  12   -137.5959784 -0.307296E-08  0.491E-04    0.01      20.2  T
     SCC iter.                  ...        0 min,  0.177 sec
     gradient                   ...        0 min,  0.020 sec
 * total energy  :  -135.7166017 Eh     change       -0.3330630E-03 Eh
   gradient norm :     0.0072947 Eh/α   predicted    -0.2687018E-03 ( -19.32%)
   displ. norm   :     0.6805490 α      lambda       -0.4252308E-03
   maximum displ.:     0.3311758 α      in ANC's #8, #10, #12, ...

........................................................................
.............................. CYCLE   50 ..............................
........................................................................

 iter      E             dE          RMSdq      gap      omega  full diag
   1   -137.5948350 -0.137595E+03  0.113E-01    0.03       0.0  T
   2   -137.5629619  0.318731E-01  0.363E-01    0.18       1.0  T
   3   -137.5931731 -0.302112E-01  0.110E-01    0.04       1.0  T
   4   -137.5915916  0.158148E-02  0.120E-01    0.02       1.0  T
   5   -137.5954368 -0.384511E-02  0.398E-02    0.01       1.0  T
   6   -137.5957073 -0.270582E-03  0.159E-02    0.01       1.0  T
   7   -137.5957668 -0.594939E-04  0.555E-03    0.02       1.8  T
   8   -137.5957726 -0.580613E-05  0.225E-03    0.02       4.4  T
   9   -137.5957730 -0.397820E-06  0.141E-03    0.02       7.0  T
  10   -137.5957725  0.513830E-06  0.172E-03    0.01       5.7  T
  11   -137.5957733 -0.746846E-06  0.592E-04    0.02      16.7  T
  12   -137.5957733 -0.481045E-07  0.381E-04    0.02      26.0  T
     SCC iter.                  ...        0 min,  0.168 sec
     gradient                   ...        0 min,  0.018 sec
 * total energy  :  -135.7170011 Eh     change       -0.3993687E-03 Eh
   gradient norm :     0.0077540 Eh/α   predicted    -0.3110914E-03 ( -22.10%)
   displ. norm   :     0.7358059 α      lambda       -0.5449879E-03
   maximum displ.:     0.3647311 α      in ANC's #8, #10, #12, ...

........................................................................
.............................. CYCLE   51 ..............................
........................................................................

 iter      E             dE          RMSdq      gap      omega  full diag
   1   -137.5967056 -0.137597E+03  0.108E-01    0.03       0.0  T
   2   -137.5656297  0.310759E-01  0.357E-01    0.17       1.0  T
   3   -137.5950650 -0.294353E-01  0.109E-01    0.04       1.0  T
   4   -137.5940407  0.102431E-02  0.111E-01    0.02       1.0  T
   5   -137.5973072 -0.326652E-02  0.340E-02    0.02       1.0  T
   6   -137.5975290 -0.221792E-03  0.131E-02    0.02       1.0  T
   7   -137.5975670 -0.379309E-04  0.492E-03    0.02       2.0  T
   8   -137.5975716 -0.461554E-05  0.182E-03    0.02       5.4  T
   9   -137.5975716 -0.390818E-07  0.143E-03    0.02       6.9  T
  10   -137.5975714  0.243883E-06  0.154E-03    0.02       6.4  T
  11   -137.5975719 -0.538877E-06  0.754E-04    0.02      13.1  T
  12   -137.5975720 -0.102840E-06  0.286E-04    0.02      34.7  T
     SCC iter.                  ...        0 min,  0.165 sec
     gradient                   ...        0 min,  0.018 sec
 * total energy  :  -135.7174942 Eh     change       -0.4930349E-03 Eh
   gradient norm :     0.0053194 Eh/α   predicted    -0.4200305E-03 ( -14.81%)
   displ. norm   :     0.8062738 α      lambda       -0.5431975E-03
   maximum displ.:     0.4024335 α      in ANC's #8, #10, #12, ...

........................................................................
.............................. CYCLE   52 ..............................
........................................................................

 iter      E             dE          RMSdq      gap      omega  full diag
   1   -137.5965709 -0.137597E+03  0.122E-01    0.04       0.0  T
   2   -137.5598824  0.366885E-01  0.394E-01    0.23       1.0  T
   3   -137.5967759 -0.368935E-01  0.856E-02    0.03       1.0  T
   4   -137.5953998  0.137610E-02  0.995E-02    0.02       1.0  T
   5   -137.5974119 -0.201206E-02  0.552E-02    0.03       1.0  T
   6   -137.5980592 -0.647286E-03  0.132E-02    0.02       1.0  T
   7   -137.5980852 -0.260071E-04  0.697E-03    0.02       1.4  T
   8   -137.5980946 -0.939458E-05  0.331E-03    0.02       3.0  T
   9   -137.5980959 -0.132740E-05  0.210E-03    0.02       4.7  T
  10   -137.5980966 -0.749394E-06  0.877E-04    0.02      11.3  T
  11   -137.5980967 -0.484249E-07  0.668E-04    0.02      14.8  T
     SCC iter.                  ...        0 min,  0.153 sec
     gradient                   ...        0 min,  0.018 sec
 * total energy  :  -135.7179795 Eh     change       -0.4853331E-03 Eh
   gradient norm :     0.0033427 Eh/α   predicted    -0.4481593E-03 (  -7.66%)
   displ. norm   :     0.8177212 α      lambda       -0.4933355E-03
   maximum displ.:     0.4122439 α      in ANC's #8, #10, #12, ...

........................................................................
.............................. CYCLE   53 ..............................
........................................................................

 iter      E             dE          RMSdq      gap      omega  full diag
   1   -137.5976148 -0.137598E+03  0.114E-01    0.04       0.0  T
   2   -137.5628044  0.348104E-01  0.381E-01    0.20       1.0  T
   3   -137.5972746 -0.344703E-01  0.902E-02    0.03       1.0  T
   4   -137.5958095  0.146517E-02  0.103E-01    0.02       1.0  T
   5   -137.5985491 -0.273963E-02  0.367E-02    0.02       1.0  T
   6   -137.5988146 -0.265454E-03  0.102E-02    0.02       1.0  T
   7   -137.5988332 -0.186559E-04  0.488E-03    0.02       2.0  T
   8   -137.5988371 -0.386501E-05  0.273E-03    0.02       3.6  T
   9   -137.5988383 -0.124853E-05  0.141E-03    0.02       7.0  T
  10   -137.5988385 -0.155238E-06  0.816E-04    0.02      12.1  T
  11   -137.5988385 -0.481107E-07  0.621E-04    0.02      15.9  T
     SCC iter.                  ...        0 min,  0.165 sec
     gradient                   ...        0 min,  0.018 sec
 * total energy  :  -135.7184301 Eh     change       -0.4505928E-03 Eh
   gradient norm :     0.0039342 Eh/α   predicted    -0.4116092E-03 (  -8.65%)
   displ. norm   :     0.8156897 α      lambda       -0.4702941E-03
   maximum displ.:     0.4136364 α      in ANC's #8, #10, #12, ...

........................................................................
.............................. CYCLE   54 ..............................
........................................................................

 iter      E             dE          RMSdq      gap      omega  full diag
   1   -137.5975981 -0.137598E+03  0.114E-01    0.04       0.0  T
   2   -137.5609548  0.366434E-01  0.394E-01    0.22       1.0  T
   3   -137.5979780 -0.370232E-01  0.770E-02    0.03       1.0  T
   4   -137.5970712  0.906811E-03  0.861E-02    0.02       1.0  T
   5   -137.5984388 -0.136758E-02  0.520E-02    0.03       1.0  T
   6   -137.5990070 -0.568249E-03  0.138E-02    0.02       1.0  T
   7   -137.5990358 -0.288065E-04  0.687E-03    0.02       1.4  T
   8   -137.5990454 -0.958171E-05  0.319E-03    0.02       3.1  T
   9   -137.5990467 -0.128691E-05  0.209E-03    0.02       4.7  T
  10   -137.5990475 -0.790380E-06  0.755E-04    0.02      13.1  T
  11   -137.5990475 -0.153355E-08  0.645E-04    0.02      15.4  T
     SCC iter.                  ...        0 min,  0.153 sec
     gradient                   ...        0 min,  0.019 sec
 * total energy  :  -135.7188712 Eh     change       -0.4410823E-03 Eh
   gradient norm :     0.0042469 Eh/α   predicted    -0.3916029E-03 ( -11.22%)
   displ. norm   :     0.8182393 α      lambda       -0.4780779E-03
   maximum displ.:     0.4217149 α      in ANC's #8, #10, #12, ...

........................................................................
.............................. CYCLE   55 ..............................
........................................................................

 iter      E             dE          RMSdq      gap      omega  full diag
   1   -137.5986606 -0.137599E+03  0.106E-01    0.04       0.0  T
   2   -137.5642250  0.344356E-01  0.381E-01    0.19       1.0  T
   3   -137.5984587 -0.342337E-01  0.827E-02    0.03       1.0  T
   4   -137.5976483  0.810417E-03  0.884E-02    0.03       1.0  T
   5   -137.5994266 -0.177823E-02  0.416E-02    0.03       1.0  T
   6   -137.5997769 -0.350321E-03  0.100E-02    0.02       1.0  T
   7   -137.5997919 -0.149816E-04  0.530E-03    0.02       1.9  T
   8   -137.5997970 -0.514200E-05  0.239E-03    0.02       4.2  T
   9   -137.5997978 -0.760140E-06  0.139E-03    0.02       7.1  T
  10   -137.5997979 -0.125692E-06  0.888E-04    0.02      11.1  T
  11   -137.5997980 -0.933748E-07  0.613E-04    0.02      16.2  T
     SCC iter.                  ...        0 min,  0.193 sec
     gradient                   ...        0 min,  0.020 sec
 * total energy  :  -135.7193164 Eh     change       -0.4451947E-03 Eh
   gradient norm :     0.0039772 Eh/α   predicted    -0.3990852E-03 ( -10.36%)
   displ. norm   :     0.8157551 α      lambda       -0.4675868E-03
   maximum displ.:     0.4293609 α      in ANC's #8, #10, #12, ...

........................................................................
.............................. CYCLE   56 ..............................
........................................................................

 iter      E             dE          RMSdq      gap      omega  full diag
   1   -137.6003038 -0.137600E+03  0.967E-02    0.04       0.0  T
   2   -137.5707514  0.295524E-01  0.353E-01    0.15       1.0  T
   3   -137.5990497 -0.282983E-01  0.971E-02    0.04       1.0  T
   4   -137.5986631  0.386609E-03  0.916E-02    0.03       1.0  T
   5   -137.6008137 -0.215061E-02  0.344E-02    0.03       1.0  T
   6   -137.6010188 -0.205017E-03  0.115E-02    0.02       1.0  T
   7   -137.6010466 -0.278371E-04  0.468E-03    0.03       2.1  T
   8   -137.6010501 -0.354149E-05  0.186E-03    0.03       5.3  T
   9   -137.6010503 -0.124405E-06  0.144E-03    0.03       6.9  T
  10   -137.6010504 -0.113243E-06  0.116E-03    0.03       8.6  T
  11   -137.6010506 -0.217548E-06  0.679E-04    0.03      14.6  T
  12   -137.6010507 -0.855151E-07  0.294E-04    0.03      33.7  T
     SCC iter.                  ...        0 min,  0.165 sec
     gradient                   ...        0 min,  0.019 sec
 * total energy  :  -135.7197437 Eh     change       -0.4272993E-03 Eh
   gradient norm :     0.0035906 Eh/α   predicted    -0.3893751E-03 (  -8.88%)
   displ. norm   :     0.8029663 α      lambda       -0.4348451E-03
   maximum displ.:     0.4279658 α      in ANC's #8, #10, #12, ...

........................................................................
.............................. CYCLE   57 ..............................
........................................................................

 iter      E             dE          RMSdq      gap      omega  full diag
   1   -137.6000522 -0.137600E+03  0.967E-02    0.04       0.0  T
   2   -137.5714186  0.286336E-01  0.349E-01    0.14       1.0  T
   3   -137.5985423 -0.271237E-01  0.102E-01    0.04       1.0  T
   4   -137.5983891  0.153265E-03  0.920E-02    0.03       1.0  T
   5   -137.6004392 -0.205017E-02  0.406E-02    0.03       1.0  T
   6   -137.6007106 -0.271368E-03  0.131E-02    0.03       1.0  T
   7   -137.6007479 -0.373304E-04  0.535E-03    0.03       1.8  T
   8   -137.6007529 -0.498625E-05  0.196E-03    0.03       5.1  T
   9   -137.6007529  0.312016E-07  0.167E-03    0.03       5.9  T
  10   -137.6007532 -0.324913E-06  0.115E-03    0.03       8.6  T
  11   -137.6007534 -0.165742E-06  0.752E-04    0.03      13.2  T
  12   -137.6007535 -0.106979E-06  0.311E-04    0.03      31.8  T
     SCC iter.                  ...        0 min,  0.160 sec
     gradient                   ...        0 min,  0.021 sec
 * total energy  :  -135.7201359 Eh     change       -0.3922752E-03 Eh
   gradient norm :     0.0052032 Eh/α   predicted    -0.3576094E-03 (  -8.84%)
   displ. norm   :     0.7822746 α      lambda       -0.4201403E-03
   maximum displ.:     0.4276601 α      in ANC's #8, #10, #12, ...

........................................................................
.............................. CYCLE   58 ..............................
........................................................................

 iter      E             dE          RMSdq      gap      omega  full diag
   1   -137.6026383 -0.137603E+03  0.816E-02    0.03       0.0  T
   2   -137.5977468  0.489145E-02  0.149E-01    0.04       1.0  T
   3   -137.5962521  0.149474E-02  0.169E-01    0.07       1.0  T
   4   -137.6002913 -0.403923E-02  0.922E-02    0.03       1.0  T
   5   -137.6024368 -0.214552E-02  0.355E-02    0.03       1.0  T
   6   -137.6027056 -0.268778E-03  0.143E-02    0.03       1.0  T
   7   -137.6027410 -0.353572E-04  0.681E-03    0.03       1.5  T
   8   -137.6027512 -0.101906E-04  0.198E-03    0.03       5.0  T
   9   -137.6027513 -0.937604E-07  0.164E-03    0.03       6.0  T
  10   -137.6027516 -0.294836E-06  0.107E-03    0.03       9.3  T
  11   -137.6027518 -0.206790E-06  0.449E-04    0.03      22.1  T
  12   -137.6027518 -0.314223E-07  0.184E-04    0.03      53.8  T
     SCC iter.                  ...        0 min,  0.223 sec
     gradient                   ...        0 min,  0.020 sec
 * total energy  :  -135.7205035 Eh     change       -0.3675797E-03 Eh
   gradient norm :     0.0046267 Eh/α   predicted    -0.3386274E-03 (  -7.88%)
   displ. norm   :     0.7716376 α      lambda       -0.4096979E-03
   maximum displ.:     0.4210030 α      in ANC's #8, #10, #12, ...

........................................................................
.............................. CYCLE   59 ..............................
........................................................................

 iter      E             dE          RMSdq      gap      omega  full diag
   1   -137.6005618 -0.137601E+03  0.964E-02    0.04       0.0  T
   2   -137.5777669  0.227949E-01  0.315E-01    0.11       1.0  T
   3   -137.5976954 -0.199285E-01  0.124E-01    0.05       1.0  T
   4   -137.5984811 -0.785763E-03  0.967E-02    0.03       1.0  T
   5   -137.6007298 -0.224864E-02  0.423E-02    0.03       1.0  T
   6   -137.6010213 -0.291466E-03  0.126E-02    0.03       1.0  T
   7   -137.6010551 -0.338704E-04  0.523E-03    0.03       1.9  T
   8   -137.6010596 -0.448292E-05  0.222E-03    0.03       4.5  T
   9   -137.6010593  0.302992E-06  0.225E-03    0.03       4.4  T
  10   -137.6010602 -0.849876E-06  0.130E-03    0.03       7.6  T
  11   -137.6010604 -0.264979E-06  0.590E-04    0.03      16.8  T
  12   -137.6010605 -0.539969E-07  0.282E-04    0.03      35.1  T
     SCC iter.                  ...        0 min,  0.209 sec
     gradient                   ...        0 min,  0.023 sec
 * total energy  :  -135.7208597 Eh     change       -0.3562353E-03 Eh
   gradient norm :     0.0050263 Eh/α   predicted    -0.3268227E-03 (  -8.26%)
   displ. norm   :     0.7535551 α      lambda       -0.3952588E-03
   maximum displ.:     0.4207703 α      in ANC's #8, #10, #12, ...

........................................................................
.............................. CYCLE   60 ..............................
........................................................................

 iter      E             dE          RMSdq      gap      omega  full diag
   1   -137.6018384 -0.137602E+03  0.903E-02    0.03       0.0  T
   2   -137.6003793  0.145905E-02  0.958E-02    0.03       1.0  T
   3   -137.5909480  0.943130E-02  0.220E-01    0.10       1.0  T
   4   -137.5976171 -0.666911E-02  0.120E-01    0.03       1.0  T
   5   -137.6013955 -0.377841E-02  0.450E-02    0.04       1.0  T
   6   -137.6018167 -0.421132E-03  0.195E-02    0.03       1.0  T
   7   -137.6018882 -0.715412E-04  0.882E-03    0.03       1.1  T
   8   -137.6019051 -0.168549E-04  0.252E-03    0.03       3.9  T
   9   -137.6019056 -0.505927E-06  0.185E-03    0.03       5.3  T
  10   -137.6019061 -0.504642E-06  0.110E-03    0.03       9.0  T
  11   -137.6019062 -0.156081E-06  0.589E-04    0.03      16.8  T
  12   -137.6019063 -0.582324E-07  0.268E-04    0.03      37.0  T
     SCC iter.                  ...        0 min,  0.280 sec
     gradient                   ...        0 min,  0.035 sec
 * total energy  :  -135.7212050 Eh     change       -0.3452632E-03 Eh
   gradient norm :     0.0034553 Eh/α   predicted    -0.3098545E-03 ( -10.26%)
   displ. norm   :     0.7442178 α      lambda       -0.3613863E-03
   maximum displ.:     0.4157226 α      in ANC's #8, #10, #4, ...

........................................................................
.............................. CYCLE   61 ..............................
........................................................................

 iter      E             dE          RMSdq      gap      omega  full diag
   1   -137.6022208 -0.137602E+03  0.994E-02    0.03       0.0  T
   2   -137.6012833  0.937503E-03  0.881E-02    0.03       1.0  T
   3   -137.5891166  0.121667E-01  0.242E-01    0.10       1.0  T
   4   -137.5955781 -0.646157E-02  0.151E-01    0.04       1.0  T
   5   -137.6017191 -0.614097E-02  0.477E-02    0.04       1.0  T
   6   -137.6021827 -0.463563E-03  0.208E-02    0.03       1.0  T
   7   -137.6022643 -0.816709E-04  0.966E-03    0.03       1.0  T
   8   -137.6022839 -0.195198E-04  0.294E-03    0.03       3.4  T
   9   -137.6022845 -0.668187E-06  0.216E-03    0.03       4.6  T
  10   -137.6022854 -0.835598E-06  0.112E-03    0.03       8.9  T
  11   -137.6022855 -0.147237E-06  0.663E-04    0.03      14.9  T
  12   -137.6022856 -0.774033E-07  0.294E-04    0.03      33.6  T
     SCC iter.                  ...        0 min,  0.232 sec
     gradient                   ...        0 min,  0.022 sec
 * total energy  :  -135.7215215 Eh     change       -0.3164921E-03 Eh
   gradient norm :     0.0034277 Eh/α   predicted    -0.2807730E-03 ( -11.29%)
   displ. norm   :     0.7386305 α      lambda       -0.3296920E-03
   maximum displ.:     0.4106255 α      in ANC's #8, #10, #4, ...

........................................................................
.............................. CYCLE   62 ..............................
........................................................................

 iter      E             dE          RMSdq      gap      omega  full diag
   1   -137.6026275 -0.137603E+03  0.108E-01    0.03       0.0  T
   2   -137.6017616  0.865931E-03  0.902E-02    0.03       1.0  T
   3   -137.5866103  0.151512E-01  0.265E-01    0.12       1.0  T
   4   -137.5969405 -0.103302E-01  0.139E-01    0.04       1.0  T
   5   -137.6020283 -0.508772E-02  0.513E-02    0.04       1.0  T
   6   -137.6025559 -0.527598E-03  0.233E-02    0.03       1.0  T
   7   -137.6026564 -0.100519E-03  0.112E-02    0.03       1.0  T
   8   -137.6026826 -0.262443E-04  0.335E-03    0.03       3.0  T
   9   -137.6026839 -0.127406E-05  0.214E-03    0.03       4.6  T
  10   -137.6026846 -0.713688E-06  0.119E-03    0.03       8.3  T
  11   -137.6026847 -0.108806E-06  0.868E-04    0.03      11.4  T
  12   -137.6026849 -0.153151E-06  0.341E-04    0.03      29.0  T
     SCC iter.                  ...        0 min,  0.229 sec
     gradient                   ...        0 min,  0.021 sec
 * total energy  :  -135.7218115 Eh     change       -0.2899765E-03 Eh
   gradient norm :     0.0039234 Eh/α   predicted    -0.2547841E-03 ( -12.14%)
   displ. norm   :     0.7269890 α      lambda       -0.3134637E-03
   maximum displ.:     0.3981997 α      in ANC's #8, #10, #4, ...

........................................................................
.............................. CYCLE   63 ..............................
........................................................................

 iter      E             dE          RMSdq      gap      omega  full diag
   1   -137.6032083 -0.137603E+03  0.118E-01    0.03       0.0  T
   2   -137.6027683  0.439985E-03  0.852E-02    0.03       1.0  T
   3   -137.5811003  0.216681E-01  0.289E-01    0.10       1.0  T
   4   -137.5939069 -0.128066E-01  0.197E-01    0.07       1.0  T
   5   -137.6031209 -0.921397E-02  0.245E-02    0.03       1.0  T
   6   -137.6032472 -0.126292E-03  0.725E-03    0.03       1.4  T
   7   -137.6032548 -0.767109E-05  0.353E-03    0.03       2.8  T
   8   -137.6032566 -0.173853E-05  0.191E-03    0.03       5.2  T
   9   -137.6032561  0.514980E-06  0.223E-03    0.03       4.4  T
  10   -137.6032568 -0.741677E-06  0.133E-03    0.03       7.5  T
  11   -137.6032571 -0.334118E-06  0.508E-04    0.03      19.5  T
  12   -137.6032572 -0.427827E-07  0.166E-04    0.03      59.7  T
     SCC iter.                  ...        0 min,  0.245 sec
     gradient                   ...        0 min,  0.021 sec
 * total energy  :  -135.7220872 Eh     change       -0.2756926E-03 Eh
   gradient norm :     0.0043732 Eh/α   predicted    -0.2395699E-03 ( -13.10%)
   displ. norm   :     0.7060140 α      lambda       -0.3112286E-03
   maximum displ.:     0.3745333 α      in ANC's #8, #4, #10, ...

........................................................................
.............................. CYCLE   64 ..............................
........................................................................

 iter      E             dE          RMSdq      gap      omega  full diag
   1   -137.6042617 -0.137604E+03  0.128E-01    0.03       0.0  T
   2   -137.6035204  0.741296E-03  0.968E-02    0.04       1.0  T
   3   -137.5753464  0.281741E-01  0.341E-01    0.14       1.0  T
   4   -137.5991820 -0.238356E-01  0.141E-01    0.05       1.0  T
   5   -137.6040883 -0.490627E-02  0.326E-02    0.03       1.0  T
   6   -137.6042121 -0.123805E-03  0.193E-02    0.03       1.0  T
   7   -137.6042959 -0.838156E-04  0.701E-03    0.03       1.4  T
   8   -137.6043055 -0.963794E-05  0.225E-03    0.03       4.4  T
   9   -137.6043044  0.113477E-05  0.295E-03    0.03       3.4  T
  10   -137.6043061 -0.163808E-05  0.142E-03    0.03       7.0  T
  11   -137.6043064 -0.350476E-06  0.702E-04    0.03      14.1  T
  12   -137.6043065 -0.814475E-07  0.272E-04    0.03      36.5  T
     SCC iter.                  ...        0 min,  0.221 sec
     gradient                   ...        0 min,  0.020 sec
 * total energy  :  -135.7223593 Eh     change       -0.2720962E-03 Eh
   gradient norm :     0.0039828 Eh/α   predicted    -0.2331884E-03 ( -14.30%)
   displ. norm   :     0.6805089 α      lambda       -0.3125616E-03
   maximum displ.:     0.3369974 α      in ANC's #8, #4, #10, ...

........................................................................
.............................. CYCLE   65 ..............................
........................................................................

 iter      E             dE          RMSdq      gap      omega  full diag
   1   -137.6049322 -0.137605E+03  0.137E-01    0.03       0.0  T
   2   -137.6011599  0.377229E-02  0.151E-01    0.06       1.0  T
   3   -137.5813990  0.197609E-01  0.318E-01    0.12       1.0  T
   4   -137.6014694 -0.200704E-01  0.113E-01    0.03       1.0  T
   5   -137.6048486 -0.337917E-02  0.277E-02    0.03       1.0  T
   6   -137.6049278 -0.791936E-04  0.186E-02    0.03       1.0  T
   7   -137.6050044 -0.766324E-04  0.730E-03    0.03       1.4  T
   8   -137.6050150 -0.106166E-04  0.216E-03    0.03       4.6  T
   9   -137.6050139  0.108225E-05  0.275E-03    0.03       3.6  T
  10   -137.6050154 -0.146248E-05  0.127E-03    0.03       7.8  T
  11   -137.6050156 -0.172354E-06  0.831E-04    0.03      11.9  T
  12   -137.6050157 -0.922580E-07  0.497E-04    0.03      19.9  T
     SCC iter.                  ...        0 min,  0.179 sec
     gradient                   ...        0 min,  0.021 sec
 * total energy  :  -135.7226289 Eh     change       -0.2696811E-03 Eh
   gradient norm :     0.0040913 Eh/α   predicted    -0.2286556E-03 ( -15.21%)
   displ. norm   :     0.6635380 α      lambda       -0.3085097E-03
   maximum displ.:     0.3018254 α      in ANC's #8, #4, #2, ...

........................................................................
.............................. CYCLE   66 ..............................
........................................................................

 iter      E             dE          RMSdq      gap      omega  full diag
   1   -137.6057490 -0.137606E+03  0.142E-01    0.03       0.0  T
   2   -137.6026052  0.314376E-02  0.145E-01    0.05       1.0  T
   3   -137.5796215  0.229838E-01  0.336E-01    0.13       1.0  T
   4   -137.6031717 -0.235503E-01  0.954E-02    0.03       1.0  T
   5   -137.6055227 -0.235092E-02  0.359E-02    0.02       1.0  T
   6   -137.6057019 -0.179222E-03  0.218E-02    0.02       1.0  T
   7   -137.6058000 -0.980912E-04  0.871E-03    0.03       1.1  T
   8   -137.6058163 -0.162858E-04  0.184E-03    0.03       5.4  T
   9   -137.6058154  0.886138E-06  0.235E-03    0.03       4.2  T
  10   -137.6058165 -0.110870E-05  0.109E-03    0.03       9.1  T
  11   -137.6058165 -0.180833E-07  0.943E-04    0.03      10.5  T
  12   -137.6058166 -0.116484E-06  0.554E-04    0.03      17.9  T
     SCC iter.                  ...        0 min,  0.200 sec
     gradient                   ...        0 min,  0.030 sec
 * total energy  :  -135.7228939 Eh     change       -0.2649534E-03 Eh
   gradient norm :     0.0041888 Eh/α   predicted    -0.2221768E-03 ( -16.14%)
   displ. norm   :     0.6571324 α      lambda       -0.3119613E-03
   maximum displ.:     0.2816053 α      in ANC's #4, #8, #2, ...
 * RMSD in coord.:     1.3136572 α      energy gain  -0.8097270E-02 Eh

generating ANC from exact Hessian ...
Using Lindh-Hessian (1995)
 Shifting diagonal of input Hessian by   1.028782492413043E-002
 Lowest  eigenvalues of input Hessian
    0.010000    0.010052    0.010084    0.010158    0.010264    0.000000
    0.000000    0.000000    0.000000    0.000000    0.000000    0.010313
    0.010336    0.010416    0.010472    0.010483    0.010542    0.010642
 Highest eigenvalues
    2.047764    2.053734    2.121601    2.164641    2.183421    2.188350
 

........................................................................
.............................. CYCLE   67 ..............................
........................................................................

 iter      E             dE          RMSdq      gap      omega  full diag
   1   -137.6053519 -0.137605E+03  0.141E-01    0.02       0.0  T
   2   -137.6025315  0.282039E-02  0.141E-01    0.05       1.0  T
   3   -137.5792371  0.232944E-01  0.337E-01    0.13       1.0  T
   4   -137.6028719 -0.236348E-01  0.905E-02    0.03       1.0  T
   5   -137.6051244 -0.225249E-02  0.354E-02    0.02       1.0  T
   6   -137.6053057 -0.181309E-03  0.213E-02    0.02       1.0  T
   7   -137.6053959 -0.902008E-04  0.912E-03    0.02       1.1  T
   8   -137.6054139 -0.179812E-04  0.177E-03    0.03       5.6  T
   9   -137.6054133  0.600844E-06  0.208E-03    0.03       4.8  T
  10   -137.6054142 -0.878916E-06  0.912E-04    0.03      10.9  T
  11   -137.6054141  0.562974E-07  0.895E-04    0.03      11.1  T
     SCC iter.                  ...        0 min,  0.244 sec
     gradient                   ...        0 min,  0.026 sec
 * total energy  :  -135.7231671 Eh     change       -0.2731580E-03 Eh
   gradient norm :     0.0050052 Eh/α   predicted     0.0000000E+00 (-100.00%)
   displ. norm   :     0.0814947 α      lambda       -0.1214991E-03
   maximum displ.:     0.0298124 α      in ANC's #4, #2, #8, ...

........................................................................
.............................. CYCLE   68 ..............................
........................................................................

 iter      E             dE          RMSdq      gap      omega  full diag
   1   -137.6058140 -0.137606E+03  0.242E-02    0.03       0.0  T
   2   -137.6053117  0.502386E-03  0.471E-02    0.02       1.0  T
   3   -137.6052929  0.187655E-04  0.497E-02    0.03       1.0  T
   4   -137.6057269 -0.433996E-03  0.205E-02    0.03       1.0  T
   5   -137.6058172 -0.902923E-04  0.553E-03    0.03       1.8  T
   6   -137.6058222 -0.505937E-05  0.263E-03    0.03       3.8  T
   7   -137.6058237 -0.147871E-05  0.107E-03    0.03       9.3  T
   8   -137.6058239 -0.228590E-06  0.510E-04    0.03      19.4  T
   9   -137.6058240 -0.334098E-07  0.313E-04    0.03      31.6  T
     SCC iter.                  ...        0 min,  0.150 sec
     gradient                   ...        0 min,  0.021 sec
 * total energy  :  -135.7232741 Eh     change       -0.1070811E-03 Eh
   gradient norm :     0.0027618 Eh/α   predicted    -0.6266440E-04 ( -41.48%)
   displ. norm   :     0.3550777 α      lambda       -0.3996483E-03
   maximum displ.:     0.1293645 α      in ANC's #4, #8, #2, ...

........................................................................
.............................. CYCLE   69 ..............................
........................................................................

 iter      E             dE          RMSdq      gap      omega  full diag
   1   -137.6059637 -0.137606E+03  0.108E-01    0.03       0.0  T
   2   -137.5886029  0.173609E-01  0.272E-01    0.09       1.0  T
   3   -137.6010124 -0.124096E-01  0.163E-01    0.07       1.0  T
   4   -137.6044745 -0.346206E-02  0.906E-02    0.03       1.0  T
   5   -137.6062102 -0.173571E-02  0.181E-02    0.02       1.0  T
   6   -137.6062767 -0.665219E-04  0.723E-03    0.03       1.4  T
   7   -137.6062867 -0.994251E-05  0.350E-03    0.03       2.8  T
   8   -137.6062881 -0.140014E-05  0.246E-03    0.03       4.0  T
   9   -137.6062887 -0.693269E-06  0.162E-03    0.03       6.1  T
  10   -137.6062889 -0.159382E-06  0.114E-03    0.03       8.7  T
  11   -137.6062892 -0.278848E-06  0.369E-04    0.03      26.8  T
  12   -137.6062892 -0.213296E-07  0.176E-04    0.03      56.2  T
     SCC iter.                  ...        0 min,  0.186 sec
     gradient                   ...        0 min,  0.021 sec
 * total energy  :  -135.7234694 Eh     change       -0.1952670E-03 Eh
   gradient norm :     0.0063857 Eh/α   predicted    -0.2250450E-03 (  15.25%)
   displ. norm   :     0.3368998 α      lambda       -0.3677106E-03
   maximum displ.:     0.1392187 α      in ANC's #2, #4, #8, ...

........................................................................
.............................. CYCLE   70 ..............................
........................................................................

 iter      E             dE          RMSdq      gap      omega  full diag
   1   -137.6056659 -0.137606E+03  0.124E-01    0.03       0.0  T
   2   -137.5882277  0.174382E-01  0.277E-01    0.09       1.0  T
   3   -137.5989208 -0.106931E-01  0.187E-01    0.08       1.0  T
   4   -137.6044244 -0.550359E-02  0.870E-02    0.03       1.0  T
   5   -137.6059031 -0.147866E-02  0.183E-02    0.02       1.0  T
   6   -137.6059555 -0.524785E-04  0.773E-03    0.02       1.3  T
   7   -137.6059686 -0.130636E-04  0.377E-03    0.03       2.6  T
   8   -137.6059706 -0.200925E-05  0.203E-03    0.02       4.9  T
   9   -137.6059703  0.328120E-06  0.194E-03    0.02       5.1  T
  10   -137.6059708 -0.525937E-06  0.101E-03    0.02       9.8  T
  11   -137.6059710 -0.215150E-06  0.400E-04    0.02      24.7  T
  12   -137.6059711 -0.335297E-07  0.197E-04    0.02      50.2  T
     SCC iter.                  ...        0 min,  0.175 sec
     gradient                   ...        0 min,  0.020 sec
 * total energy  :  -135.7235692 Eh     change       -0.9978909E-04 Eh
   gradient norm :     0.0091494 Eh/α   predicted    -0.2047320E-03 ( 105.16%)
   displ. norm   :     0.0938932 α      lambda       -0.2193181E-03
   maximum displ.:     0.0366518 α      in ANC's #4, #12, #2, ...

........................................................................
.............................. CYCLE   71 ..............................
........................................................................

 iter      E             dE          RMSdq      gap      omega  full diag
   1   -137.6065683 -0.137607E+03  0.441E-02    0.03       0.0  T
   2   -137.6062338  0.334557E-03  0.452E-02    0.02       1.0  T
   3   -137.6024187  0.381510E-02  0.134E-01    0.06       1.0  T
   4   -137.6065002 -0.408149E-02  0.203E-02    0.03       1.0  T
   5   -137.6065691 -0.689715E-04  0.563E-03    0.03       1.8  T
   6   -137.6065728 -0.366393E-05  0.334E-03    0.03       3.0  T
   7   -137.6065752 -0.241134E-05  0.149E-03    0.03       6.6  T
   8   -137.6065756 -0.342874E-06  0.671E-04    0.02      14.7  T
   9   -137.6065756 -0.406821E-07  0.434E-04    0.02      22.8  T
     SCC iter.                  ...        0 min,  0.128 sec
     gradient                   ...        0 min,  0.021 sec
 * total energy  :  -135.7237410 Eh     change       -0.1717929E-03 Eh
   gradient norm :     0.0058607 Eh/α   predicted    -0.1106275E-03 ( -35.60%)
   displ. norm   :     0.3415202 α      lambda       -0.3633470E-03
   maximum displ.:     0.1438336 α      in ANC's #4, #2, #12, ...

........................................................................
.............................. CYCLE   72 ..............................
........................................................................

 iter      E             dE          RMSdq      gap      omega  full diag
   1   -137.6069124 -0.137607E+03  0.901E-02    0.03       0.0  T
   2   -137.5997993  0.711310E-02  0.177E-01    0.05       1.0  T
   3   -137.6010636 -0.126428E-02  0.168E-01    0.07       1.0  T
   4   -137.6060383 -0.497465E-02  0.654E-02    0.03       1.0  T
   5   -137.6069529 -0.914597E-03  0.179E-02    0.03       1.0  T
   6   -137.6070005 -0.476790E-04  0.976E-03    0.03       1.0  T
   7   -137.6070188 -0.182250E-04  0.454E-03    0.03       2.2  T
   8   -137.6070222 -0.338992E-05  0.220E-03    0.03       4.5  T
   9   -137.6070226 -0.491807E-06  0.136E-03    0.03       7.3  T
  10   -137.6070228 -0.162942E-06  0.807E-04    0.02      12.3  T
  11   -137.6070229 -0.134575E-06  0.389E-04    0.02      25.4  T
     SCC iter.                  ...        0 min,  0.174 sec
     gradient                   ...        0 min,  0.019 sec
 * total energy  :  -135.7239975 Eh     change       -0.2565281E-03 Eh
   gradient norm :     0.0036104 Eh/α   predicted    -0.2028635E-03 ( -20.92%)
   displ. norm   :     0.5167840 α      lambda       -0.3183698E-03
   maximum displ.:     0.2249460 α      in ANC's #2, #4, #12, ...

........................................................................
.............................. CYCLE   73 ..............................
........................................................................

 iter      E             dE          RMSdq      gap      omega  full diag
   1   -137.6058647 -0.137606E+03  0.132E-01    0.03       0.0  T
   2   -137.5908318  0.150329E-01  0.257E-01    0.08       1.0  T
   3   -137.5964594 -0.562760E-02  0.217E-01    0.09       1.0  T
   4   -137.6042548 -0.779540E-02  0.859E-02    0.03       1.0  T
   5   -137.6060036 -0.174881E-02  0.232E-02    0.03       1.0  T
   6   -137.6060682 -0.646279E-04  0.141E-02    0.03       1.0  T
   7   -137.6061012 -0.330151E-04  0.755E-03    0.03       1.3  T
   8   -137.6061110 -0.982407E-05  0.384E-03    0.03       2.6  T
   9   -137.6061123 -0.125144E-05  0.248E-03    0.03       4.0  T
  10   -137.6061132 -0.943590E-06  0.124E-03    0.02       8.0  T
  11   -137.6061135 -0.317663E-06  0.478E-04    0.02      20.7  T
  12   -137.6061135 -0.109955E-07  0.334E-04    0.02      29.7  T
     SCC iter.                  ...        0 min,  0.179 sec
     gradient                   ...        0 min,  0.021 sec
 * total energy  :  -135.7242608 Eh     change       -0.2632665E-03 Eh
   gradient norm :     0.0066236 Eh/α   predicted    -0.2016982E-03 ( -23.39%)
   displ. norm   :     0.6588133 α      lambda       -0.4114202E-03
   maximum displ.:     0.2965434 α      in ANC's #2, #4, #12, ...

........................................................................
.............................. CYCLE   74 ..............................
........................................................................

 iter      E             dE          RMSdq      gap      omega  full diag
   1   -137.6045861 -0.137605E+03  0.156E-01    0.03       0.0  T
   2   -137.5904968  0.140893E-01  0.253E-01    0.07       1.0  T
   3   -137.5905035 -0.665168E-05  0.264E-01    0.12       1.0  T
   4   -137.6007517 -0.102483E-01  0.125E-01    0.05       1.0  T
   5   -137.6041452 -0.339346E-02  0.554E-02    0.04       1.0  T
   6   -137.6045780 -0.432794E-03  0.333E-02    0.03       1.0  T
   7   -137.6047565 -0.178489E-03  0.183E-02    0.03       1.0  T
   8   -137.6048106 -0.540920E-04  0.101E-02    0.03       1.0  T
   9   -137.6048222 -0.116585E-04  0.648E-03    0.03       1.5  T
  10   -137.6048278 -0.561915E-05  0.392E-03    0.02       2.5  T
  11   -137.6048310 -0.315472E-05  0.157E-03    0.02       6.3  T
  12   -137.6048314 -0.369187E-06  0.624E-04    0.02      15.9  T
  13   -137.6048314 -0.894468E-07  0.221E-04    0.02      44.7  T
     SCC iter.                  ...        0 min,  0.241 sec
     gradient                   ...        0 min,  0.020 sec
 * total energy  :  -135.7246359 Eh     change       -0.3751660E-03 Eh
   gradient norm :     0.0081677 Eh/α   predicted    -0.2949971E-03 ( -21.37%)
   displ. norm   :     0.7062913 α      lambda       -0.5416680E-03
   maximum displ.:     0.3237782 α      in ANC's #2, #4, #12, ...

........................................................................
.............................. CYCLE   75 ..............................
........................................................................

 iter      E             dE          RMSdq      gap      omega  full diag
   1   -137.6043335 -0.137604E+03  0.168E-01    0.03       0.0  T
   2   -137.5999020  0.443156E-02  0.163E-01    0.03       1.0  T
   3   -137.5799408  0.199612E-01  0.329E-01    0.19       1.0  T
   4   -137.5984997 -0.185589E-01  0.154E-01    0.06       1.0  T
   5   -137.6026220 -0.412226E-02  0.871E-02    0.04       1.0  T
   6   -137.6041203 -0.149837E-02  0.360E-02    0.03       1.0  T
   7   -137.6044129 -0.292569E-03  0.130E-02    0.03       1.0  T
   8   -137.6044366 -0.237120E-04  0.737E-03    0.02       1.3  T
   9   -137.6044407 -0.408155E-05  0.608E-03    0.02       1.6  T
  10   -137.6044476 -0.693984E-05  0.197E-03    0.02       5.0  T
  11   -137.6044484 -0.716494E-06  0.104E-03    0.02       9.5  T
  12   -137.6044485 -0.162727E-06  0.505E-04    0.02      19.6  T
  13   -137.6044486 -0.424484E-07  0.171E-04    0.02      58.0  T
     SCC iter.                  ...        0 min,  0.172 sec
     gradient                   ...        0 min,  0.017 sec
 * total energy  :  -135.7251135 Eh     change       -0.4775553E-03 Eh
   gradient norm :     0.0064189 Eh/α   predicted    -0.4059415E-03 ( -15.00%)
   displ. norm   :     0.7592468 α      lambda       -0.5636781E-03
   maximum displ.:     0.3493716 α      in ANC's #2, #4, #12, ...

........................................................................
.............................. CYCLE   76 ..............................
........................................................................

 iter      E             dE          RMSdq      gap      omega  full diag
   1   -137.6043553 -0.137604E+03  0.188E-01    0.02       0.0  T
   2   -137.6036878  0.667486E-03  0.123E-01    0.02       1.0  T
   3   -137.5677849  0.359029E-01  0.362E-01    0.16       1.0  T
   4   -137.5976180 -0.298331E-01  0.178E-01    0.04       1.0  T
   5   -137.6032551 -0.563700E-02  0.751E-02    0.04       1.0  T
   6   -137.6041579 -0.902836E-03  0.364E-02    0.03       1.0  T
   7   -137.6043740 -0.216063E-03  0.190E-02    0.03       1.0  T
   8   -137.6044408 -0.668165E-04  0.737E-03    0.02       1.3  T
   9   -137.6044501 -0.931188E-05  0.289E-03    0.02       3.4  T
  10   -137.6044505 -0.410700E-06  0.219E-03    0.02       4.5  T
  11   -137.6044514 -0.869582E-06  0.102E-03    0.02       9.7  T
  12   -137.6044515 -0.137427E-06  0.468E-04    0.02      21.1  T
  13   -137.6044515 -0.394312E-07  0.228E-04    0.02      43.5  T
     SCC iter.                  ...        0 min,  0.171 sec
     gradient                   ...        0 min,  0.018 sec
 * total energy  :  -135.7256060 Eh     change       -0.4925404E-03 Eh
   gradient norm :     0.0052812 Eh/α   predicted    -0.4443081E-03 (  -9.79%)
   displ. norm   :     0.7683251 α      lambda       -0.5580246E-03
   maximum displ.:     0.3523788 α      in ANC's #2, #4, #12, ...

........................................................................
.............................. CYCLE   77 ..............................
........................................................................

 iter      E             dE          RMSdq      gap      omega  full diag
   1   -137.6052393 -0.137605E+03  0.189E-01    0.02       0.0  T
   2   -137.6043609  0.878404E-03  0.134E-01    0.04       1.0  T
   3   -137.5771841  0.271768E-01  0.368E-01    0.15       1.0  T
   4   -137.5899455 -0.127614E-01  0.232E-01    0.08       1.0  T
   5   -137.6049007 -0.149551E-01  0.452E-02    0.02       1.0  T
   6   -137.6052737 -0.373027E-03  0.191E-02    0.02       1.0  T
   7   -137.6053382 -0.644753E-04  0.745E-03    0.02       1.3  T
   8   -137.6053494 -0.111903E-04  0.274E-03    0.02       3.6  T
   9   -137.6053495 -0.153159E-06  0.255E-03    0.02       3.9  T
  10   -137.6053502 -0.688323E-06  0.146E-03    0.02       6.8  T
  11   -137.6053505 -0.318456E-06  0.819E-04    0.02      12.1  T
  12   -137.6053506 -0.116951E-06  0.495E-04    0.02      20.0  T
     SCC iter.                  ...        0 min,  0.277 sec
     gradient                   ...        0 min,  0.020 sec
 * total energy  :  -135.7260933 Eh     change       -0.4872610E-03 Eh
   gradient norm :     0.0062511 Eh/α   predicted    -0.4437294E-03 (  -8.93%)
   displ. norm   :     0.7547948 α      lambda       -0.5601785E-03
   maximum displ.:     0.3446719 α      in ANC's #2, #4, #12, ...

........................................................................
.............................. CYCLE   78 ..............................
........................................................................

 iter      E             dE          RMSdq      gap      omega  full diag
   1   -137.6070084 -0.137607E+03  0.202E-01    0.02       0.0  T
   2   -137.6040198  0.298863E-02  0.173E-01    0.05       1.0  T
   3   -137.5751514  0.288684E-01  0.389E-01    0.18       1.0  T
   4   -137.5955560 -0.204046E-01  0.194E-01    0.04       1.0  T
   5   -137.6055309 -0.997494E-02  0.870E-02    0.02       1.0  T
   6   -137.6066974 -0.116646E-02  0.459E-02    0.02       1.0  T
   7   -137.6070740 -0.376568E-03  0.195E-02    0.02       1.0  T
   8   -137.6071570 -0.830354E-04  0.391E-03    0.02       2.5  T
   9   -137.6071589 -0.188210E-05  0.217E-03    0.02       4.6  T
  10   -137.6071594 -0.527673E-06  0.127E-03    0.02       7.8  T
  11   -137.6071591  0.334208E-06  0.152E-03    0.02       6.5  T
  12   -137.6071596 -0.522696E-06  0.510E-04    0.02      19.4  T
  13   -137.6071596 -0.469958E-07  0.227E-04    0.02      43.7  T
     SCC iter.                  ...        0 min,  0.218 sec
     gradient                   ...        0 min,  0.021 sec
 * total energy  :  -135.7265678 Eh     change       -0.4745060E-03 Eh
   gradient norm :     0.0068445 Eh/α   predicted    -0.4396612E-03 (  -7.34%)
   displ. norm   :     0.7210654 α      lambda       -0.4821508E-03
   maximum displ.:     0.3317669 α      in ANC's #2, #4, #12, ...

........................................................................
.............................. CYCLE   79 ..............................
........................................................................

 iter      E             dE          RMSdq      gap      omega  full diag
   1   -137.6075603 -0.137608E+03  0.183E-01    0.02       0.0  T
   2   -137.6064916  0.106871E-02  0.133E-01    0.04       1.0  T
   3   -137.5785777  0.279139E-01  0.371E-01    0.16       1.0  T
   4   -137.5960475 -0.174698E-01  0.202E-01    0.06       1.0  T
   5   -137.6070242 -0.109767E-01  0.549E-02    0.01       1.0  T
   6   -137.6074552 -0.431016E-03  0.301E-02    0.01       1.0  T
   7   -137.6076244 -0.169212E-03  0.121E-02    0.02       1.0  T
   8   -137.6076556 -0.311950E-04  0.291E-03    0.02       3.4  T
   9   -137.6076560 -0.422714E-06  0.261E-03    0.02       3.8  T
  10   -137.6076569 -0.914837E-06  0.121E-03    0.02       8.2  T
  11   -137.6076568  0.148295E-06  0.135E-03    0.02       7.3  T
  12   -137.6076572 -0.392914E-06  0.532E-04    0.02      18.6  T
  13   -137.6076572 -0.495092E-07  0.210E-04    0.02      47.1  T
     SCC iter.                  ...        0 min,  0.284 sec
     gradient                   ...        0 min,  0.021 sec
 * total energy  :  -135.7269625 Eh     change       -0.3946738E-03 Eh
   gradient norm :     0.0055740 Eh/α   predicted    -0.3664268E-03 (  -7.16%)
   displ. norm   :     0.6363403 α      lambda       -0.3806092E-03
   maximum displ.:     0.2904332 α      in ANC's #2, #4, #12, ...

........................................................................
.............................. CYCLE   80 ..............................
........................................................................

 iter      E             dE          RMSdq      gap      omega  full diag
   1   -137.6102310 -0.137610E+03  0.164E-01    0.02       0.0  T
   2   -137.6096851  0.545827E-03  0.111E-01    0.03       1.0  T
   3   -137.5903814  0.193037E-01  0.302E-01    0.09       1.0  T
   4   -137.5948381 -0.445677E-02  0.247E-01    0.09       1.0  T
   5   -137.6102091 -0.153709E-01  0.223E-02    0.02       1.0  T
   6   -137.6103046 -0.954831E-04  0.825E-03    0.02       1.2  T
   7   -137.6103167 -0.121475E-04  0.356E-03    0.02       2.8  T
   8   -137.6103178 -0.111655E-05  0.255E-03    0.02       3.9  T
   9   -137.6103182 -0.386883E-06  0.194E-03    0.02       5.1  T
  10   -137.6103181  0.118624E-06  0.160E-03    0.02       6.2  T
  11   -137.6103187 -0.630342E-06  0.563E-04    0.02      17.6  T
  12   -137.6103188 -0.598173E-07  0.260E-04    0.02      38.1  T
     SCC iter.                  ...        0 min,  0.194 sec
     gradient                   ...        0 min,  0.023 sec
 * total energy  :  -135.7272417 Eh     change       -0.2792156E-03 Eh
   gradient norm :     0.0041180 Eh/α   predicted    -0.2673656E-03 (  -4.24%)
   displ. norm   :     0.6098237 α      lambda       -0.2559535E-03
   maximum displ.:     0.2868897 α      in ANC's #2, #4, #12, ...

........................................................................
.............................. CYCLE   81 ..............................
........................................................................

 iter      E             dE          RMSdq      gap      omega  full diag
   1   -137.6064637 -0.137606E+03  0.147E-01    0.02       0.0  T
   2   -137.6047938  0.166997E-02  0.118E-01    0.02       1.0  T
   3   -137.5816226  0.231711E-01  0.332E-01    0.17       1.0  T
   4   -137.6044306 -0.228080E-01  0.926E-02    0.02       1.0  T
   5   -137.6055849 -0.115430E-02  0.648E-02    0.03       1.0  T
   6   -137.6063011 -0.716176E-03  0.323E-02    0.02       1.0  T
   7   -137.6064866 -0.185497E-03  0.149E-02    0.02       1.0  T
   8   -137.6065297 -0.430793E-04  0.558E-03    0.02       1.8  T
   9   -137.6065336 -0.396578E-05  0.330E-03    0.02       3.0  T
  10   -137.6065338 -0.162827E-06  0.282E-03    0.02       3.5  T
  11   -137.6065353 -0.149389E-05  0.144E-03    0.02       6.9  T
  12   -137.6065356 -0.355747E-06  0.451E-04    0.02      21.9  T
  13   -137.6065357 -0.334957E-07  0.273E-04    0.02      36.3  T
     SCC iter.                  ...        0 min,  0.193 sec
     gradient                   ...        0 min,  0.020 sec
 * total energy  :  -135.7274018 Eh     change       -0.1601454E-03 Eh
   gradient norm :     0.0046671 Eh/α   predicted    -0.1755725E-03 (   9.63%)
   displ. norm   :     0.3919644 α      lambda       -0.2698636E-03
   maximum displ.:     0.1547289 α      in ANC's #5, #4, #2, ...

........................................................................
.............................. CYCLE   82 ..............................
........................................................................

 iter      E             dE          RMSdq      gap      omega  full diag
   1   -137.6130911 -0.137613E+03  0.963E-02    0.02       0.0  T
   2   -137.6120432  0.104791E-02  0.886E-02    0.01       1.0  T
   3   -137.6013172  0.107261E-01  0.229E-01    0.09       1.0  T
   4   -137.6095463 -0.822918E-02  0.122E-01    0.02       1.0  T
   5   -137.6129098 -0.336347E-02  0.330E-02    0.02       1.0  T
   6   -137.6131264 -0.216591E-03  0.127E-02    0.02       1.0  T
   7   -137.6131481 -0.216715E-04  0.751E-03    0.02       1.3  T
   8   -137.6131582 -0.100820E-04  0.304E-03    0.02       3.3  T
   9   -137.6131594 -0.127062E-05  0.151E-03    0.02       6.6  T
  10   -137.6131598 -0.348323E-06  0.987E-04    0.02      10.0  T
  11   -137.6131599 -0.146210E-06  0.483E-04    0.02      20.5  T
     SCC iter.                  ...        0 min,  0.151 sec
     gradient                   ...        0 min,  0.019 sec
 * total energy  :  -135.7275369 Eh     change       -0.1350641E-03 Eh
   gradient norm :     0.0065158 Eh/α   predicted    -0.1556632E-03 (  15.25%)
   displ. norm   :     0.3057699 α      lambda       -0.2021996E-03
   maximum displ.:     0.1364162 α      in ANC's #2, #4, #5, ...

........................................................................
.............................. CYCLE   83 ..............................
........................................................................

 iter      E             dE          RMSdq      gap      omega  full diag
   1   -137.6116261 -0.137612E+03  0.862E-02    0.02       0.0  T
   2   -137.6071245  0.450157E-02  0.148E-01    0.03       1.0  T
   3   -137.6066524  0.472097E-03  0.159E-01    0.06       1.0  T
   4   -137.6100411 -0.338863E-02  0.832E-02    0.02       1.0  T
   5   -137.6115908 -0.154971E-02  0.226E-02    0.02       1.0  T
   6   -137.6116948 -0.103990E-03  0.904E-03    0.02       1.1  T
   7   -137.6117044 -0.962620E-05  0.556E-03    0.02       1.8  T
   8   -137.6117106 -0.618359E-05  0.185E-03    0.02       5.4  T
   9   -137.6117109 -0.367877E-06  0.974E-04    0.02      10.2  T
  10   -137.6117110 -0.869580E-07  0.709E-04    0.02      14.0  T
     SCC iter.                  ...        0 min,  0.146 sec
     gradient                   ...        0 min,  0.022 sec
 * total energy  :  -135.7276687 Eh     change       -0.1317591E-03 Eh
   gradient norm :     0.0054845 Eh/α   predicted    -0.1105544E-03 ( -16.09%)
   displ. norm   :     0.2903153 α      lambda       -0.1874301E-03
   maximum displ.:     0.1223645 α      in ANC's #5, #4, #2, ...

........................................................................
.............................. CYCLE   84 ..............................
........................................................................

 iter      E             dE          RMSdq      gap      omega  full diag
   1   -137.6104490 -0.137610E+03  0.731E-02    0.02       0.0  T
   2   -137.6080913  0.235766E-02  0.108E-01    0.02       1.0  T
   3   -137.6059408  0.215060E-02  0.147E-01    0.06       1.0  T
   4   -137.6090291 -0.308834E-02  0.749E-02    0.02       1.0  T
   5   -137.6104179 -0.138880E-02  0.202E-02    0.02       1.0  T
   6   -137.6104901 -0.722048E-04  0.743E-03    0.02       1.3  T
   7   -137.6104990 -0.893760E-05  0.365E-03    0.02       2.7  T
   8   -137.6105016 -0.259342E-05  0.121E-03    0.02       8.2  T
   9   -137.6105014  0.263635E-06  0.142E-03    0.02       7.0  T
  10   -137.6105018 -0.389858E-06  0.623E-04    0.02      15.9  T
  11   -137.6105018 -0.672067E-07  0.276E-04    0.02      35.9  T
     SCC iter.                  ...        0 min,  0.221 sec
     gradient                   ...        0 min,  0.022 sec
 * total energy  :  -135.7277816 Eh     change       -0.1128852E-03 Eh
   gradient norm :     0.0052429 Eh/α   predicted    -0.1016187E-03 (  -9.98%)
   displ. norm   :     0.3194506 α      lambda       -0.2004984E-03
   maximum displ.:     0.1308070 α      in ANC's #5, #2, #4, ...

........................................................................
.............................. CYCLE   85 ..............................
........................................................................

 iter      E             dE          RMSdq      gap      omega  full diag
   1   -137.6091640 -0.137609E+03  0.910E-02    0.02       0.0  T
   2   -137.5996539  0.951017E-02  0.211E-01    0.05       1.0  T
   3   -137.6062525 -0.659866E-02  0.129E-01    0.05       1.0  T
   4   -137.6073327 -0.108019E-02  0.928E-02    0.01       1.0  T
   5   -137.6092434 -0.191071E-02  0.212E-02    0.02       1.0  T
   6   -137.6093327 -0.892442E-04  0.642E-03    0.02       1.5  T
   7   -137.6093390 -0.633076E-05  0.346E-03    0.02       2.9  T
   8   -137.6093410 -0.197889E-05  0.166E-03    0.02       6.0  T
   9   -137.6093411 -0.139856E-06  0.116E-03    0.02       8.6  T
  10   -137.6093412 -0.564632E-07  0.952E-04    0.02      10.4  T
  11   -137.6093414 -0.206967E-06  0.408E-04    0.02      24.3  T
     SCC iter.                  ...        0 min,  0.216 sec
     gradient                   ...        0 min,  0.020 sec
 * total energy  :  -135.7278683 Eh     change       -0.8676830E-04 Eh
   gradient norm :     0.0054549 Eh/α   predicted    -0.1104815E-03 (  27.33%)
   displ. norm   :     0.1879685 α      lambda       -0.1141878E-03
   maximum displ.:     0.0840319 α      in ANC's #5, #4, #2, ...

........................................................................
.............................. CYCLE   86 ..............................
........................................................................

 iter      E             dE          RMSdq      gap      omega  full diag
   1   -137.6107727 -0.137611E+03  0.441E-02    0.02       0.0  T
   2   -137.6106272  0.145471E-03  0.339E-02    0.01       1.0  T
   3   -137.6085407  0.208646E-02  0.937E-02    0.04       1.0  T
   4   -137.6089923 -0.451530E-03  0.941E-02    0.02       1.0  T
   5   -137.6107571 -0.176485E-02  0.123E-02    0.02       1.0  T
   6   -137.6107878 -0.306546E-04  0.260E-03    0.02       3.8  T
   7   -137.6107890 -0.117783E-05  0.135E-03    0.02       7.3  T
   8   -137.6107892 -0.274640E-06  0.725E-04    0.02      13.7  T
   9   -137.6107892 -0.163979E-07  0.543E-04    0.02      18.2  T
     SCC iter.                  ...        0 min,  0.178 sec
     gradient                   ...        0 min,  0.020 sec
 * total energy  :  -135.7279595 Eh     change       -0.9119966E-04 Eh
   gradient norm :     0.0038514 Eh/α   predicted    -0.5911539E-04 ( -35.18%)
   displ. norm   :     0.3246044 α      lambda       -0.1708099E-03
   maximum displ.:     0.1472830 α      in ANC's #5, #4, #7, ...

........................................................................
.............................. CYCLE   87 ..............................
........................................................................

 iter      E             dE          RMSdq      gap      omega  full diag
   1   -137.6128026 -0.137613E+03  0.663E-02    0.02       0.0  T
   2   -137.6118344  0.968165E-03  0.702E-02    0.01       1.0  T
   3   -137.6071349  0.469955E-02  0.158E-01    0.06       1.0  T
   4   -137.6108835 -0.374865E-02  0.969E-02    0.01       1.0  T
   5   -137.6127697 -0.188615E-02  0.211E-02    0.02       1.0  T
   6   -137.6128550 -0.853086E-04  0.683E-03    0.02       1.5  T
   7   -137.6128624 -0.741886E-05  0.350E-03    0.02       2.8  T
   8   -137.6128645 -0.215421E-05  0.124E-03    0.02       8.0  T
   9   -137.6128645  0.745518E-07  0.113E-03    0.02       8.8  T
  10   -137.6128647 -0.274586E-06  0.453E-04    0.02      21.9  T
  11   -137.6128648 -0.306271E-07  0.187E-04    0.02      53.1  T
     SCC iter.                  ...        0 min,  0.195 sec
     gradient                   ...        0 min,  0.021 sec
 * total energy  :  -135.7280835 Eh     change       -0.1239957E-03 Eh
   gradient norm :     0.0036401 Eh/α   predicted    -0.9440682E-04 ( -23.86%)
   displ. norm   :     0.3980085 α      lambda       -0.1328914E-03
   maximum displ.:     0.1844126 α      in ANC's #5, #4, #7, ...

........................................................................
.............................. CYCLE   88 ..............................
........................................................................

 iter      E             dE          RMSdq      gap      omega  full diag
   1   -137.6122579 -0.137612E+03  0.764E-02    0.02       0.0  T
   2   -137.6080942  0.416375E-02  0.136E-01    0.03       1.0  T
   3   -137.6083730 -0.278787E-03  0.140E-01    0.06       1.0  T
   4   -137.6101672 -0.179424E-02  0.948E-02    0.01       1.0  T
   5   -137.6122700 -0.210273E-02  0.234E-02    0.02       1.0  T
   6   -137.6123676 -0.976520E-04  0.741E-03    0.02       1.3  T
   7   -137.6123761 -0.852549E-05  0.399E-03    0.02       2.5  T
   8   -137.6123787 -0.256945E-05  0.169E-03    0.02       5.9  T
   9   -137.6123790 -0.261031E-06  0.957E-04    0.02      10.3  T
  10   -137.6123791 -0.101762E-06  0.624E-04    0.02      15.9  T
     SCC iter.                  ...        0 min,  0.194 sec
     gradient                   ...        0 min,  0.022 sec
 * total energy  :  -135.7281898 Eh     change       -0.1063030E-03 Eh
   gradient norm :     0.0040657 Eh/α   predicted    -0.7697593E-04 ( -27.59%)
   displ. norm   :     0.4376312 α      lambda       -0.1490329E-03
   maximum displ.:     0.2037506 α      in ANC's #5, #7, #4, ...

........................................................................
.............................. CYCLE   89 ..............................
........................................................................

 iter      E             dE          RMSdq      gap      omega  full diag
   1   -137.6115507 -0.137612E+03  0.809E-02    0.02       0.0  T
   2   -137.6040741  0.747659E-02  0.180E-01    0.04       1.0  T
   3   -137.6086393 -0.456520E-02  0.127E-01    0.05       1.0  T
   4   -137.6092453 -0.605943E-03  0.985E-02    0.02       1.0  T
   5   -137.6116296 -0.238430E-02  0.225E-02    0.02       1.0  T
   6   -137.6117223 -0.927391E-04  0.580E-03    0.02       1.7  T
   7   -137.6117275 -0.515183E-05  0.323E-03    0.02       3.1  T
   8   -137.6117288 -0.133106E-05  0.173E-03    0.02       5.7  T
   9   -137.6117290 -0.225795E-06  0.105E-03    0.02       9.4  T
  10   -137.6117291 -0.937373E-07  0.723E-04    0.02      13.7  T
  11   -137.6117292 -0.106726E-06  0.347E-04    0.02      28.5  T
     SCC iter.                  ...        0 min,  0.215 sec
     gradient                   ...        0 min,  0.018 sec
 * total energy  :  -135.7283133 Eh     change       -0.1234439E-03 Eh
   gradient norm :     0.0039676 Eh/α   predicted    -0.8878864E-04 ( -28.07%)
   displ. norm   :     0.5017621 α      lambda       -0.1766033E-03
   maximum displ.:     0.2386901 α      in ANC's #5, #7, #4, ...

........................................................................
.............................. CYCLE   90 ..............................
........................................................................

 iter      E             dE          RMSdq      gap      omega  full diag
   1   -137.6102628 -0.137610E+03  0.891E-02    0.02       0.0  T
   2   -137.6040938  0.616900E-02  0.164E-01    0.04       1.0  T
   3   -137.6053191 -0.122530E-02  0.160E-01    0.07       1.0  T
   4   -137.6073872 -0.206812E-02  0.109E-01    0.01       1.0  T
   5   -137.6103028 -0.291560E-02  0.261E-02    0.02       1.0  T
   6   -137.6104190 -0.116253E-03  0.936E-03    0.02       1.1  T
   7   -137.6104326 -0.135108E-04  0.510E-03    0.02       1.9  T
   8   -137.6104363 -0.371644E-05  0.255E-03    0.02       3.9  T
   9   -137.6104371 -0.786281E-06  0.126E-03    0.02       7.8  T
  10   -137.6104372 -0.152874E-06  0.781E-04    0.02      12.7  T
  11   -137.6104373 -0.111930E-06  0.390E-04    0.02      25.4  T
     SCC iter.                  ...        0 min,  0.195 sec
     gradient                   ...        0 min,  0.020 sec
 * total energy  :  -135.7284608 Eh     change       -0.1475318E-03 Eh
   gradient norm :     0.0037953 Eh/α   predicted    -0.1105387E-03 ( -25.07%)
   displ. norm   :     0.5555616 α      lambda       -0.2058106E-03
   maximum displ.:     0.2638454 α      in ANC's #5, #7, #4, ...

........................................................................
.............................. CYCLE   91 ..............................
........................................................................

 iter      E             dE          RMSdq      gap      omega  full diag
   1   -137.6094179 -0.137609E+03  0.107E-01    0.02       0.0  T
   2   -137.5972754  0.121425E-01  0.232E-01    0.06       1.0  T
   3   -137.6047897 -0.751422E-02  0.161E-01    0.07       1.0  T
   4   -137.6051406 -0.350913E-03  0.129E-01    0.02       1.0  T
   5   -137.6095830 -0.444244E-02  0.239E-02    0.02       1.0  T
   6   -137.6096825 -0.995062E-04  0.697E-03    0.02       1.4  T
   7   -137.6096900 -0.751881E-05  0.381E-03    0.02       2.6  T
   8   -137.6096915 -0.144495E-05  0.239E-03    0.02       4.1  T
   9   -137.6096918 -0.298985E-06  0.161E-03    0.02       6.1  T
  10   -137.6096921 -0.324960E-06  0.828E-04    0.02      12.0  T
  11   -137.6096922 -0.124644E-06  0.402E-04    0.02      24.6  T
     SCC iter.                  ...        0 min,  0.197 sec
     gradient                   ...        0 min,  0.020 sec
 * total energy  :  -135.7286332 Eh     change       -0.1724245E-03 Eh
   gradient norm :     0.0050297 Eh/α   predicted    -0.1346727E-03 ( -21.89%)
   displ. norm   :     0.5966226 α      lambda       -0.2365261E-03
   maximum displ.:     0.2857476 α      in ANC's #5, #7, #4, ...

........................................................................
.............................. CYCLE   92 ..............................
........................................................................

 iter      E             dE          RMSdq      gap      omega  full diag
   1   -137.6096721 -0.137610E+03  0.114E-01    0.02       0.0  T
   2   -137.6030290  0.664305E-02  0.176E-01    0.04       1.0  T
   3   -137.6009491  0.207997E-02  0.210E-01    0.09       1.0  T
   4   -137.6047184 -0.376930E-02  0.135E-01    0.02       1.0  T
   5   -137.6096133 -0.489495E-02  0.340E-02    0.02       1.0  T
   6   -137.6097804 -0.167050E-03  0.174E-02    0.02       1.0  T
   7   -137.6098268 -0.464249E-04  0.951E-03    0.02       1.0  T
   8   -137.6098392 -0.124270E-04  0.535E-03    0.02       1.9  T
   9   -137.6098438 -0.452520E-05  0.246E-03    0.02       4.0  T
  10   -137.6098443 -0.589190E-06  0.124E-03    0.02       8.0  T
  11   -137.6098446 -0.265885E-06  0.559E-04    0.02      17.7  T
  12   -137.6098447 -0.489818E-07  0.306E-04    0.02      32.4  T
     SCC iter.                  ...        0 min,  0.224 sec
     gradient                   ...        0 min,  0.019 sec
 * total energy  :  -135.7288341 Eh     change       -0.2008621E-03 Eh
   gradient norm :     0.0060513 Eh/α   predicted    -0.1603628E-03 ( -20.16%)
   displ. norm   :     0.6271029 α      lambda       -0.2708910E-03
   maximum displ.:     0.2979105 α      in ANC's #5, #7, #4, ...
 * RMSD in coord.:     0.9236872 α      energy gain  -0.5940183E-02 Eh

generating ANC from exact Hessian ...
Using Lindh-Hessian (1995)
 Shifting diagonal of input Hessian by   1.022317021199085E-002
 Lowest  eigenvalues of input Hessian
    0.010000    0.010012    0.010096    0.010196    0.000000    0.000000
    0.000000    0.000000    0.000000    0.000000    0.010257    0.010288
    0.010327    0.010430    0.010440    0.010457    0.010554    0.010780
 Highest eigenvalues
    2.047456    2.049603    2.130993    2.160058    2.181538    2.182677
 

........................................................................
.............................. CYCLE   93 ..............................
........................................................................

 iter      E             dE          RMSdq      gap      omega  full diag
   1   -137.6099801 -0.137610E+03  0.130E-01    0.02       0.0  T
   2   -137.5962466  0.137335E-01  0.251E-01    0.07       1.0  T
   3   -137.6030215 -0.677490E-02  0.195E-01    0.08       1.0  T
   4   -137.6049393 -0.191783E-02  0.135E-01    0.02       1.0  T
   5   -137.6101691 -0.522977E-02  0.234E-02    0.02       1.0  T
   6   -137.6102532 -0.840565E-04  0.975E-03    0.02       1.0  T
   7   -137.6102674 -0.141942E-04  0.546E-03    0.02       1.8  T
   8   -137.6102704 -0.309311E-05  0.354E-03    0.02       2.8  T
   9   -137.6102718 -0.133709E-05  0.203E-03    0.02       4.9  T
  10   -137.6102722 -0.468956E-06  0.865E-04    0.02      11.4  T
  11   -137.6102724 -0.145792E-06  0.330E-04    0.02      30.0  T
     SCC iter.                  ...        0 min,  0.256 sec
     gradient                   ...        0 min,  0.023 sec
 * total energy  :  -135.7290647 Eh     change       -0.2306416E-03 Eh
   gradient norm :     0.0054307 Eh/α   predicted     0.0000000E+00 (-100.00%)
   displ. norm   :     0.0625703 α      lambda       -0.1030331E-03
   maximum displ.:     0.0228592 α      in ANC's #4, #7, #6, ...

........................................................................
.............................. CYCLE   94 ..............................
........................................................................

 iter      E             dE          RMSdq      gap      omega  full diag
   1   -137.6117021 -0.137612E+03  0.348E-02    0.02       0.0  T
   2   -137.6116862  0.158532E-04  0.232E-02    0.02       1.0  T
   3   -137.6104054  0.128083E-02  0.784E-02    0.04       1.0  T
   4   -137.6111018 -0.696439E-03  0.505E-02    0.01       1.0  T
   5   -137.6116932 -0.591415E-03  0.694E-03    0.02       1.4  T
   6   -137.6117038 -0.105238E-04  0.207E-03    0.02       4.8  T
   7   -137.6117045 -0.710899E-06  0.103E-03    0.02       9.6  T
   8   -137.6117046 -0.709768E-07  0.682E-04    0.02      14.5  T
   9   -137.6117046 -0.544686E-07  0.392E-04    0.02      25.3  T
     SCC iter.                  ...        0 min,  0.193 sec
     gradient                   ...        0 min,  0.020 sec
 * total energy  :  -135.7291326 Eh     change       -0.6787064E-04 Eh
   gradient norm :     0.0032020 Eh/α   predicted    -0.5179382E-04 ( -23.69%)
   displ. norm   :     0.1581684 α      lambda       -0.1771797E-03
   maximum displ.:     0.0559856 α      in ANC's #4, #6, #16, ...

........................................................................
.............................. CYCLE   95 ..............................
........................................................................

 iter      E             dE          RMSdq      gap      omega  full diag
   1   -137.6142772 -0.137614E+03  0.653E-02    0.02       0.0  T
   2   -137.6142260  0.512251E-04  0.435E-02    0.02       1.0  T
   3   -137.6130492  0.117682E-02  0.747E-02    0.02       1.0  T
   4   -137.6141429 -0.109378E-02  0.247E-02    0.02       1.0  T
   5   -137.6141419  0.105757E-05  0.256E-02    0.01       1.0  T
   6   -137.6142872 -0.145331E-03  0.487E-03    0.02       2.0  T
   7   -137.6142909 -0.372663E-05  0.192E-03    0.02       5.1  T
   8   -137.6142911 -0.192107E-06  0.135E-03    0.02       7.3  T
   9   -137.6142913 -0.162229E-06  0.863E-04    0.02      11.5  T
  10   -137.6142914 -0.938123E-07  0.512E-04    0.02      19.3  T
     SCC iter.                  ...        0 min,  0.193 sec
     gradient                   ...        0 min,  0.018 sec
 * total energy  :  -135.7291896 Eh     change       -0.5701851E-04 Eh
   gradient norm :     0.0046314 Eh/α   predicted    -0.9081244E-04 (  59.27%)
   displ. norm   :     0.0676417 α      lambda       -0.8518290E-04
   maximum displ.:     0.0296451 α      in ANC's #4, #6, #7, ...

........................................................................
.............................. CYCLE   96 ..............................
........................................................................

 iter      E             dE          RMSdq      gap      omega  full diag
   1   -137.6135712 -0.137614E+03  0.367E-02    0.02       0.0  T
   2   -137.6135056  0.655781E-04  0.283E-02    0.01       1.0  T
   3   -137.6104122  0.309342E-02  0.120E-01    0.05       1.0  T
   4   -137.6134471 -0.303487E-02  0.250E-02    0.01       1.0  T
   5   -137.6135673 -0.120186E-03  0.525E-03    0.02       1.9  T
   6   -137.6135731 -0.581017E-05  0.182E-03    0.02       5.4  T
   7   -137.6135734 -0.313999E-06  0.125E-03    0.02       7.9  T
   8   -137.6135737 -0.304013E-06  0.486E-04    0.02      20.4  T
   9   -137.6135737 -0.114120E-07  0.354E-04    0.02      28.0  T
     SCC iter.                  ...        0 min,  0.174 sec
     gradient                   ...        0 min,  0.018 sec
 * total energy  :  -135.7292479 Eh     change       -0.5823687E-04 Eh
   gradient norm :     0.0032562 Eh/α   predicted    -0.4278664E-04 ( -26.53%)
   displ. norm   :     0.1110593 α      lambda       -0.6691746E-04
   maximum displ.:     0.0515807 α      in ANC's #4, #6, #16, ...

........................................................................
.............................. CYCLE   97 ..............................
........................................................................

 iter      E             dE          RMSdq      gap      omega  full diag
   1   -137.6124186 -0.137612E+03  0.388E-02    0.02       0.0  T
   2   -137.6123300  0.885992E-04  0.311E-02    0.01       1.0  T
   3   -137.6092503  0.307974E-02  0.119E-01    0.05       1.0  T
   4   -137.6121806 -0.293030E-02  0.326E-02    0.01       1.0  T
   5   -137.6124083 -0.227678E-03  0.756E-03    0.02       1.3  T
   6   -137.6124225 -0.141754E-04  0.235E-03    0.02       4.2  T
   7   -137.6124232 -0.769974E-06  0.126E-03    0.02       7.8  T
   8   -137.6124234 -0.182517E-06  0.692E-04    0.02      14.3  T
   9   -137.6124235 -0.575735E-07  0.393E-04    0.02      25.2  T
     SCC iter.                  ...        0 min,  0.173 sec
     gradient                   ...        0 min,  0.018 sec
 * total energy  :  -135.7292984 Eh     change       -0.5052188E-04 Eh
   gradient norm :     0.0019903 Eh/α   predicted    -0.3387222E-04 ( -32.96%)
   displ. norm   :     0.3178426 α      lambda       -0.8283282E-04
   maximum displ.:     0.1468562 α      in ANC's #4, #6, #16, ...

........................................................................
.............................. CYCLE   98 ..............................
........................................................................

 iter      E             dE          RMSdq      gap      omega  full diag
   1   -137.6109652 -0.137611E+03  0.940E-02    0.02       0.0  T
   2   -137.6103263  0.638942E-03  0.789E-02    0.01       1.0  T
   3   -137.5988815  0.114448E-01  0.231E-01    0.11       1.0  T
   4   -137.6096855 -0.108040E-01  0.730E-02    0.01       1.0  T
   5   -137.6108639 -0.117842E-02  0.249E-02    0.02       1.0  T
   6   -137.6109668 -0.102843E-03  0.120E-02    0.02       1.0  T
   7   -137.6109913 -0.245630E-04  0.555E-03    0.02       1.8  T
   8   -137.6109968 -0.546229E-05  0.166E-03    0.02       5.9  T
   9   -137.6109967  0.957118E-07  0.152E-03    0.02       6.5  T
  10   -137.6109971 -0.382769E-06  0.910E-04    0.02      10.9  T
  11   -137.6109972 -0.152210E-06  0.401E-04    0.02      24.7  T
     SCC iter.                  ...        0 min,  0.312 sec
     gradient                   ...        0 min,  0.025 sec
 * total energy  :  -135.7293690 Eh     change       -0.7062566E-04 Eh
   gradient norm :     0.0039347 Eh/α   predicted    -0.4327691E-04 ( -38.72%)
   displ. norm   :     0.1501368 α      lambda       -0.5673995E-04
   maximum displ.:     0.0718331 α      in ANC's #4, #6, #5, ...

........................................................................
.............................. CYCLE   99 ..............................
........................................................................

 iter      E             dE          RMSdq      gap      omega  full diag
   1   -137.6116541 -0.137612E+03  0.500E-02    0.02       0.0  T
   2   -137.6115328  0.121341E-03  0.381E-02    0.01       1.0  T
   3   -137.6063433  0.518946E-02  0.151E-01    0.07       1.0  T
   4   -137.6110427 -0.469934E-02  0.501E-02    0.01       1.0  T
   5   -137.6116484 -0.605730E-03  0.801E-03    0.02       1.2  T
   6   -137.6116591 -0.107219E-04  0.291E-03    0.02       3.4  T
   7   -137.6116602 -0.105878E-05  0.181E-03    0.02       5.5  T
   8   -137.6116606 -0.450915E-06  0.848E-04    0.02      11.7  T
   9   -137.6116607 -0.672411E-07  0.589E-04    0.02      16.8  T
     SCC iter.                  ...        0 min,  0.210 sec
     gradient                   ...        0 min,  0.021 sec
 * total energy  :  -135.7294111 Eh     change       -0.4208057E-04 Eh
   gradient norm :     0.0033615 Eh/α   predicted    -0.2901045E-04 ( -31.06%)
   displ. norm   :     0.2586440 α      lambda       -0.9098167E-04
   maximum displ.:     0.1271387 α      in ANC's #4, #5, #6, ...

........................................................................
.............................. CYCLE  100 ..............................
........................................................................

 iter      E             dE          RMSdq      gap      omega  full diag
   1   -137.6134539 -0.137613E+03  0.700E-02    0.02       0.0  T
   2   -137.6132645  0.189414E-03  0.511E-02    0.01       1.0  T
   3   -137.6079402  0.532427E-02  0.146E-01    0.05       1.0  T
   4   -137.6092261 -0.128593E-02  0.141E-01    0.03       1.0  T
   5   -137.6134358 -0.420963E-02  0.149E-02    0.02       1.0  T
   6   -137.6134745 -0.386956E-04  0.323E-03    0.02       3.1  T
   7   -137.6134755 -0.101378E-05  0.228E-03    0.02       4.3  T
   8   -137.6134760 -0.558067E-06  0.146E-03    0.02       6.8  T
   9   -137.6134764 -0.350836E-06  0.744E-04    0.02      13.3  T
  10   -137.6134764 -0.389490E-07  0.542E-04    0.02      18.3  T
     SCC iter.                  ...        0 min,  0.222 sec
     gradient                   ...        0 min,  0.018 sec
 * total energy  :  -135.7294794 Eh     change       -0.6835352E-04 Eh
   gradient norm :     0.0023391 Eh/α   predicted    -0.4853718E-04 ( -28.99%)
   displ. norm   :     0.2982451 α      lambda       -0.8115077E-04
   maximum displ.:     0.1503671 α      in ANC's #4, #5, #6, ...

........................................................................
.............................. CYCLE  101 ..............................
........................................................................

 iter      E             dE          RMSdq      gap      omega  full diag
   1   -137.6144954 -0.137614E+03  0.762E-02    0.02       0.0  T
   2   -137.6137761  0.719245E-03  0.716E-02    0.01       1.0  T
   3   -137.6069607  0.681544E-02  0.182E-01    0.08       1.0  T
   4   -137.6119623 -0.500162E-02  0.105E-01    0.01       1.0  T
   5   -137.6144821 -0.251975E-02  0.173E-02    0.02       1.0  T
   6   -137.6145217 -0.396385E-04  0.781E-03    0.02       1.3  T
   7   -137.6145298 -0.812108E-05  0.477E-03    0.02       2.1  T
   8   -137.6145335 -0.370710E-05  0.209E-03    0.02       4.7  T
   9   -137.6145342 -0.701907E-06  0.899E-04    0.02      11.0  T
  10   -137.6145343 -0.877292E-07  0.586E-04    0.02      16.9  T
     SCC iter.                  ...        0 min,  0.211 sec
     gradient                   ...        0 min,  0.020 sec
 * total energy  :  -135.7295447 Eh     change       -0.6530641E-04 Eh
   gradient norm :     0.0030286 Eh/α   predicted    -0.4418720E-04 ( -32.34%)
   displ. norm   :     0.3426608 α      lambda       -0.9425694E-04
   maximum displ.:     0.1731572 α      in ANC's #4, #5, #6, ...

........................................................................
.............................. CYCLE  102 ..............................
........................................................................

 iter      E             dE          RMSdq      gap      omega  full diag
   1   -137.6147923 -0.137615E+03  0.859E-02    0.02       0.0  T
   2   -137.6131691  0.162321E-02  0.972E-02    0.02       1.0  T
   3   -137.6075588  0.561034E-02  0.183E-01    0.08       1.0  T
   4   -137.6118184 -0.425968E-02  0.110E-01    0.01       1.0  T
   5   -137.6147824 -0.296393E-02  0.204E-02    0.02       1.0  T
   6   -137.6148360 -0.535771E-04  0.995E-03    0.02       1.0  T
   7   -137.6148487 -0.127823E-04  0.618E-03    0.02       1.6  T
   8   -137.6148550 -0.625099E-05  0.268E-03    0.02       3.7  T
   9   -137.6148561 -0.109918E-05  0.121E-03    0.02       8.2  T
  10   -137.6148563 -0.184680E-06  0.703E-04    0.02      14.1  T
  11   -137.6148563 -0.764364E-07  0.306E-04    0.02      32.3  T
     SCC iter.                  ...        0 min,  0.223 sec
     gradient                   ...        0 min,  0.018 sec
 * total energy  :  -135.7296238 Eh     change       -0.7903716E-04 Eh
   gradient norm :     0.0036007 Eh/α   predicted    -0.5266432E-04 ( -33.37%)
   displ. norm   :     0.4236056 α      lambda       -0.1200944E-03
   maximum displ.:     0.2133204 α      in ANC's #4, #5, #6, ...

........................................................................
.............................. CYCLE  103 ..............................
........................................................................

 iter      E             dE          RMSdq      gap      omega  full diag
   1   -137.6141450 -0.137614E+03  0.982E-02    0.02       0.0  T
   2   -137.6102045  0.394056E-02  0.142E-01    0.03       1.0  T
   3   -137.6079736  0.223083E-02  0.176E-01    0.07       1.0  T
   4   -137.6102892 -0.231553E-02  0.122E-01    0.01       1.0  T
   5   -137.6141724 -0.388326E-02  0.225E-02    0.02       1.0  T
   6   -137.6142413 -0.689205E-04  0.101E-02    0.02       1.0  T
   7   -137.6142543 -0.129421E-04  0.657E-03    0.02       1.5  T
   8   -137.6142609 -0.659456E-05  0.310E-03    0.02       3.2  T
   9   -137.6142622 -0.130183E-05  0.157E-03    0.02       6.3  T
  10   -137.6142625 -0.295224E-06  0.951E-04    0.02      10.4  T
  11   -137.6142626 -0.141790E-06  0.382E-04    0.02      25.9  T
     SCC iter.                  ...        0 min,  0.265 sec
     gradient                   ...        0 min,  0.019 sec
 * total energy  :  -135.7297225 Eh     change       -0.9870580E-04 Eh
   gradient norm :     0.0033843 Eh/α   predicted    -0.7082536E-04 ( -28.25%)
   displ. norm   :     0.4914569 α      lambda       -0.1316590E-03
   maximum displ.:     0.2472669 α      in ANC's #4, #5, #6, ...

........................................................................
.............................. CYCLE  104 ..............................
........................................................................

 iter      E             dE          RMSdq      gap      omega  full diag
   1   -137.6128575 -0.137613E+03  0.114E-01    0.02       0.0  T
   2   -137.6063937  0.646383E-02  0.180E-01    0.04       1.0  T
   3   -137.6060993  0.294312E-03  0.188E-01    0.08       1.0  T
   4   -137.6077937 -0.169433E-02  0.136E-01    0.01       1.0  T
   5   -137.6129138 -0.512015E-02  0.246E-02    0.02       1.0  T
   6   -137.6129953 -0.814557E-04  0.112E-02    0.02       1.0  T
   7   -137.6130110 -0.156907E-04  0.718E-03    0.02       1.4  T
   8   -137.6130180 -0.704749E-05  0.388E-03    0.02       2.6  T
   9   -137.6130198 -0.181636E-05  0.215E-03    0.02       4.6  T
  10   -137.6130204 -0.581809E-06  0.117E-03    0.02       8.5  T
  11   -137.6130206 -0.209865E-06  0.518E-04    0.02      19.1  T
  12   -137.6130207 -0.388654E-07  0.253E-04    0.02      39.1  T
     SCC iter.                  ...        0 min,  0.273 sec
     gradient                   ...        0 min,  0.019 sec
 * total energy  :  -135.7298286 Eh     change       -0.1061462E-03 Eh
   gradient norm :     0.0029900 Eh/α   predicted    -0.8173312E-04 ( -23.00%)
   displ. norm   :     0.5251964 α      lambda       -0.1346585E-03
   maximum displ.:     0.2708915 α      in ANC's #5, #4, #6, ...

........................................................................
.............................. CYCLE  105 ..............................
........................................................................

 iter      E             dE          RMSdq      gap      omega  full diag
   1   -137.6117934 -0.137612E+03  0.104E-01    0.02       0.0  T
   2   -137.6043126  0.748084E-02  0.190E-01    0.05       1.0  T
   3   -137.6069623 -0.264972E-02  0.162E-01    0.07       1.0  T
   4   -137.6074069 -0.444592E-03  0.125E-01    0.02       1.0  T
   5   -137.6118797 -0.447282E-02  0.223E-02    0.02       1.0  T
   6   -137.6119630 -0.832708E-04  0.737E-03    0.02       1.3  T
   7   -137.6119710 -0.801705E-05  0.438E-03    0.02       2.3  T
   8   -137.6119730 -0.202344E-05  0.264E-03    0.02       3.7  T
   9   -137.6119737 -0.713936E-06  0.160E-03    0.02       6.2  T
  10   -137.6119740 -0.251016E-06  0.107E-03    0.02       9.2  T
  11   -137.6119742 -0.189782E-06  0.452E-04    0.02      21.9  T
  12   -137.6119742 -0.356094E-07  0.171E-04    0.02      57.8  T
     SCC iter.                  ...        0 min,  0.286 sec
     gradient                   ...        0 min,  0.022 sec
 * total energy  :  -135.7299403 Eh     change       -0.1116425E-03 Eh
   gradient norm :     0.0033824 Eh/α   predicted    -0.8590566E-04 ( -23.05%)
   displ. norm   :     0.4902391 α      lambda       -0.1399563E-03
   maximum displ.:     0.2568973 α      in ANC's #5, #4, #6, ...

........................................................................
.............................. CYCLE  106 ..............................
........................................................................

 iter      E             dE          RMSdq      gap      omega  full diag
   1   -137.6117480 -0.137612E+03  0.904E-02    0.02       0.0  T
   2   -137.6057920  0.595599E-02  0.169E-01    0.04       1.0  T
   3   -137.6078826 -0.209061E-02  0.145E-01    0.06       1.0  T
   4   -137.6086478 -0.765129E-03  0.104E-01    0.02       1.0  T
   5   -137.6118084 -0.316059E-02  0.193E-02    0.02       1.0  T
   6   -137.6118723 -0.639720E-04  0.603E-03    0.02       1.6  T
   7   -137.6118777 -0.538580E-05  0.340E-03    0.02       2.9  T
   8   -137.6118789 -0.117830E-05  0.207E-03    0.02       4.8  T
   9   -137.6118793 -0.442040E-06  0.126E-03    0.02       7.9  T
  10   -137.6118795 -0.129878E-06  0.888E-04    0.02      11.2  T
  11   -137.6118796 -0.132935E-06  0.390E-04    0.02      25.4  T
     SCC iter.                  ...        0 min,  0.252 sec
     gradient                   ...        0 min,  0.021 sec
 * total energy  :  -135.7300630 Eh     change       -0.1227308E-03 Eh
   gradient norm :     0.0039805 Eh/α   predicted    -0.8680216E-04 ( -29.27%)
   displ. norm   :     0.5137231 α      lambda       -0.1719960E-03
   maximum displ.:     0.2693650 α      in ANC's #5, #4, #6, ...

........................................................................
.............................. CYCLE  107 ..............................
........................................................................

 iter      E             dE          RMSdq      gap      omega  full diag
   1   -137.6125731 -0.137613E+03  0.828E-02    0.03       0.0  T
   2   -137.6065274  0.604571E-02  0.169E-01    0.04       1.0  T
   3   -137.6094817 -0.295427E-02  0.130E-01    0.06       1.0  T
   4   -137.6101036 -0.621894E-03  0.918E-02    0.02       1.0  T
   5   -137.6126275 -0.252390E-02  0.191E-02    0.02       1.0  T
   6   -137.6126976 -0.700887E-04  0.527E-03    0.02       1.9  T
   7   -137.6127017 -0.411762E-05  0.263E-03    0.02       3.8  T
   8   -137.6127021 -0.402587E-06  0.185E-03    0.02       5.4  T
   9   -137.6127025 -0.380839E-06  0.113E-03    0.02       8.7  T
  10   -137.6127026 -0.855854E-07  0.837E-04    0.02      11.8  T
  11   -137.6127027 -0.123819E-06  0.366E-04    0.02      27.0  T
     SCC iter.                  ...        0 min,  0.286 sec
     gradient                   ...        0 min,  0.021 sec
 * total energy  :  -135.7302135 Eh     change       -0.1505044E-03 Eh
   gradient norm :     0.0041362 Eh/α   predicted    -0.1087008E-03 ( -27.78%)
   displ. norm   :     0.5872792 α      lambda       -0.1959777E-03
   maximum displ.:     0.3072208 α      in ANC's #5, #4, #6, ...

........................................................................
.............................. CYCLE  108 ..............................
........................................................................

 iter      E             dE          RMSdq      gap      omega  full diag
   1   -137.6131841 -0.137613E+03  0.913E-02    0.03       0.0  T
   2   -137.6065795  0.660465E-02  0.178E-01    0.05       1.0  T
   3   -137.6091997 -0.262021E-02  0.147E-01    0.06       1.0  T
   4   -137.6101342 -0.934496E-03  0.101E-01    0.02       1.0  T
   5   -137.6132405 -0.310632E-02  0.216E-02    0.02       1.0  T
   6   -137.6133268 -0.862989E-04  0.663E-03    0.02       1.5  T
   7   -137.6133331 -0.632695E-05  0.353E-03    0.02       2.8  T
   8   -137.6133342 -0.104519E-05  0.230E-03    0.02       4.3  T
   9   -137.6133347 -0.578977E-06  0.140E-03    0.02       7.1  T
  10   -137.6133349 -0.152962E-06  0.952E-04    0.02      10.4  T
  11   -137.6133351 -0.157736E-06  0.414E-04    0.02      23.9  T
     SCC iter.                  ...        0 min,  0.247 sec
     gradient                   ...        0 min,  0.022 sec
 * total energy  :  -135.7303853 Eh     change       -0.1717645E-03 Eh
   gradient norm :     0.0038253 Eh/α   predicted    -0.1317937E-03 ( -23.27%)
   displ. norm   :     0.6729823 α      lambda       -0.2141024E-03
   maximum displ.:     0.3526437 α      in ANC's #5, #4, #6, ...

........................................................................
.............................. CYCLE  109 ..............................
........................................................................

 iter      E             dE          RMSdq      gap      omega  full diag
   1   -137.6135160 -0.137614E+03  0.987E-02    0.03       0.0  T
   2   -137.6067797  0.673630E-02  0.179E-01    0.05       1.0  T
   3   -137.6084535 -0.167382E-02  0.165E-01    0.07       1.0  T
   4   -137.6096576 -0.120415E-02  0.113E-01    0.02       1.0  T
   5   -137.6135760 -0.391834E-02  0.250E-02    0.02       1.0  T
   6   -137.6136796 -0.103627E-03  0.908E-03    0.02       1.1  T
   7   -137.6136913 -0.116856E-04  0.515E-03    0.02       1.9  T
   8   -137.6136943 -0.296020E-05  0.304E-03    0.02       3.3  T
   9   -137.6136954 -0.112551E-05  0.173E-03    0.02       5.7  T
  10   -137.6136956 -0.259632E-06  0.108E-03    0.02       9.2  T
  11   -137.6136958 -0.200874E-06  0.470E-04    0.02      21.1  T
  12   -137.6136959 -0.425647E-07  0.198E-04    0.02      49.9  T
     SCC iter.                  ...        0 min,  0.324 sec
     gradient                   ...        0 min,  0.020 sec
 * total energy  :  -135.7305771 Eh     change       -0.1918013E-03 Eh
   gradient norm :     0.0035203 Eh/α   predicted    -0.1555410E-03 ( -18.91%)
   displ. norm   :     0.7488194 α      lambda       -0.2393750E-03
   maximum displ.:     0.3937395 α      in ANC's #5, #4, #6, ...

........................................................................
.............................. CYCLE  110 ..............................
........................................................................

 iter      E             dE          RMSdq      gap      omega  full diag
   1   -137.6136292 -0.137614E+03  0.109E-01    0.03       0.0  T
   2   -137.6081406  0.548858E-02  0.164E-01    0.04       1.0  T
   3   -137.6061910  0.194959E-02  0.196E-01    0.09       1.0  T
   4   -137.6087904 -0.259934E-02  0.127E-01    0.02       1.0  T
   5   -137.6136503 -0.485990E-02  0.311E-02    0.03       1.0  T
   6   -137.6137757 -0.125415E-03  0.153E-02    0.03       1.0  T
   7   -137.6138094 -0.337645E-04  0.885E-03    0.03       1.1  T
   8   -137.6138202 -0.107961E-04  0.466E-03    0.02       2.1  T
   9   -137.6138232 -0.294421E-05  0.248E-03    0.02       4.0  T
  10   -137.6138239 -0.732426E-06  0.121E-03    0.02       8.2  T
  11   -137.6138241 -0.233704E-06  0.601E-04    0.02      16.5  T
  12   -137.6138242 -0.566251E-07  0.302E-04    0.02      32.8  T
     SCC iter.                  ...        0 min,  0.203 sec
     gradient                   ...        0 min,  0.022 sec
 * total energy  :  -135.7307960 Eh     change       -0.2189168E-03 Eh
   gradient norm :     0.0036311 Eh/α   predicted    -0.1868103E-03 ( -14.67%)
   displ. norm   :     0.7749352 α      lambda       -0.2660916E-03
   maximum displ.:     0.4067928 α      in ANC's #5, #4, #6, ...

........................................................................
.............................. CYCLE  111 ..............................
........................................................................

 iter      E             dE          RMSdq      gap      omega  full diag
   1   -137.6140893 -0.137614E+03  0.111E-01    0.03       0.0  T
   2   -137.6112830  0.280633E-02  0.123E-01    0.03       1.0  T
   3   -137.6041857  0.709724E-02  0.219E-01    0.10       1.0  T
   4   -137.6080564 -0.387064E-02  0.150E-01    0.02       1.0  T
   5   -137.6140196 -0.596319E-02  0.376E-02    0.03       1.0  T
   6   -137.6141915 -0.171953E-03  0.194E-02    0.03       1.0  T
   7   -137.6142492 -0.576387E-04  0.109E-02    0.03       1.0  T
   8   -137.6142668 -0.176733E-04  0.531E-03    0.03       1.9  T
   9   -137.6142711 -0.427198E-05  0.243E-03    0.03       4.1  T
  10   -137.6142718 -0.715481E-06  0.120E-03    0.02       8.2  T
  11   -137.6142720 -0.195975E-06  0.711E-04    0.02      13.9  T
  12   -137.6142721 -0.735291E-07  0.345E-04    0.02      28.7  T
     SCC iter.                  ...        0 min,  0.218 sec
     gradient                   ...        0 min,  0.021 sec
 * total energy  :  -135.7310388 Eh     change       -0.2427843E-03 Eh
   gradient norm :     0.0041000 Eh/α   predicted    -0.2129510E-03 ( -12.29%)
   displ. norm   :     0.7868857 α      lambda       -0.2783883E-03
   maximum displ.:     0.4092393 α      in ANC's #5, #4, #6, ...

........................................................................
.............................. CYCLE  112 ..............................
........................................................................

 iter      E             dE          RMSdq      gap      omega  full diag
   1   -137.6140591 -0.137614E+03  0.116E-01    0.02       0.0  T
   2   -137.6125446  0.151452E-02  0.998E-02    0.02       1.0  T
   3   -137.6052759  0.726870E-02  0.192E-01    0.07       1.0  T
   4   -137.5993880  0.588790E-02  0.254E-01    0.07       1.0  T
   5   -137.6140239 -0.146359E-01  0.342E-02    0.03       1.0  T
   6   -137.6142343 -0.210371E-03  0.658E-03    0.03       1.5  T
   7   -137.6142405 -0.621015E-05  0.367E-03    0.03       2.7  T
   8   -137.6142408 -0.380080E-06  0.300E-03    0.03       3.3  T
   9   -137.6142417 -0.862254E-06  0.200E-03    0.03       5.0  T
  10   -137.6142419 -0.161491E-06  0.139E-03    0.03       7.1  T
  11   -137.6142423 -0.401258E-06  0.458E-04    0.03      21.6  T
  12   -137.6142423 -0.363939E-07  0.232E-04    0.03      42.6  T
     SCC iter.                  ...        0 min,  0.189 sec
     gradient                   ...        0 min,  0.020 sec
 * total energy  :  -135.7312910 Eh     change       -0.2521913E-03 Eh
   gradient norm :     0.0043187 Eh/α   predicted    -0.2253908E-03 ( -10.63%)
   displ. norm   :     0.7968558 α      lambda       -0.2819971E-03
   maximum displ.:     0.4126678 α      in ANC's #4, #5, #6, ...

........................................................................
.............................. CYCLE  113 ..............................
........................................................................

 iter      E             dE          RMSdq      gap      omega  full diag
   1   -137.6138710 -0.137614E+03  0.113E-01    0.02       0.0  T
   2   -137.6125139  0.135708E-02  0.968E-02    0.03       1.0  T
   3   -137.6098265  0.268748E-02  0.126E-01    0.02       1.0  T
   4   -137.6132926 -0.346617E-02  0.585E-02    0.02       1.0  T
   5   -137.6134890 -0.196328E-03  0.517E-02    0.04       1.0  T
   6   -137.6140330 -0.544078E-03  0.106E-02    0.02       1.0  T
   7   -137.6140554 -0.223255E-04  0.251E-03    0.03       4.0  T
   8   -137.6140549  0.460288E-06  0.277E-03    0.03       3.6  T
   9   -137.6140553 -0.403675E-06  0.236E-03    0.03       4.2  T
  10   -137.6140559 -0.568688E-06  0.138E-03    0.03       7.2  T
  11   -137.6140563 -0.393542E-06  0.490E-04    0.03      20.2  T
  12   -137.6140563 -0.501780E-07  0.181E-04    0.03      54.7  T
     SCC iter.                  ...        0 min,  0.188 sec
     gradient                   ...        0 min,  0.018 sec
 * total energy  :  -135.7315442 Eh     change       -0.2532607E-03 Eh
   gradient norm :     0.0042802 Eh/α   predicted    -0.2305388E-03 (  -8.97%)
   displ. norm   :     0.7961298 α      lambda       -0.2808597E-03
   maximum displ.:     0.4154812 α      in ANC's #4, #5, #6, ...

........................................................................
.............................. CYCLE  114 ..............................
........................................................................

 iter      E             dE          RMSdq      gap      omega  full diag
   1   -137.6132556 -0.137613E+03  0.113E-01    0.02       0.0  T
   2   -137.6119961  0.125945E-02  0.951E-02    0.03       1.0  T
   3   -137.6090843  0.291181E-02  0.129E-01    0.02       1.0  T
   4   -137.6125578 -0.347347E-02  0.691E-02    0.04       1.0  T
   5   -137.6127247 -0.166951E-03  0.554E-02    0.02       1.0  T
   6   -137.6134185 -0.693766E-03  0.627E-03    0.03       1.6  T
   7   -137.6134241 -0.561367E-05  0.265E-03    0.03       3.7  T
   8   -137.6134242 -0.116809E-06  0.257E-03    0.03       3.9  T
   9   -137.6134244 -0.195429E-06  0.233E-03    0.03       4.3  T
  10   -137.6134249 -0.501828E-06  0.144E-03    0.03       6.9  T
  11   -137.6134253 -0.395981E-06  0.579E-04    0.03      17.1  T
  12   -137.6134254 -0.636595E-07  0.226E-04    0.03      43.8  T
     SCC iter.                  ...        0 min,  0.197 sec
     gradient                   ...        0 min,  0.020 sec
 * total energy  :  -135.7317965 Eh     change       -0.2523085E-03 Eh
   gradient norm :     0.0037090 Eh/α   predicted    -0.2294457E-03 (  -9.06%)
   displ. norm   :     0.7928769 α      lambda       -0.2811832E-03
   maximum displ.:     0.4172477 α      in ANC's #4, #5, #6, ...

........................................................................
.............................. CYCLE  115 ..............................
........................................................................

 iter      E             dE          RMSdq      gap      omega  full diag
   1   -137.6135986 -0.137614E+03  0.103E-01    0.02       0.0  T
   2   -137.6125244  0.107415E-02  0.864E-02    0.03       1.0  T
   3   -137.6092805  0.324395E-02  0.131E-01    0.04       1.0  T
   4   -137.6027201  0.656038E-02  0.221E-01    0.06       1.0  T
   5   -137.6135475 -0.108275E-01  0.319E-02    0.03       1.0  T
   6   -137.6137306 -0.183090E-03  0.726E-03    0.03       1.4  T
   7   -137.6137394 -0.879010E-05  0.307E-03    0.03       3.2  T
   8   -137.6137405 -0.105380E-05  0.203E-03    0.03       4.9  T
   9   -137.6137407 -0.253869E-06  0.156E-03    0.03       6.4  T
  10   -137.6137409 -0.138339E-06  0.110E-03    0.03       9.0  T
  11   -137.6137411 -0.216344E-06  0.486E-04    0.03      20.4  T
  12   -137.6137411 -0.493451E-07  0.191E-04    0.03      51.8  T
     SCC iter.                  ...        0 min,  0.192 sec
     gradient                   ...        0 min,  0.020 sec
 * total energy  :  -135.7320509 Eh     change       -0.2543975E-03 Eh
   gradient norm :     0.0036250 Eh/α   predicted    -0.2289839E-03 (  -9.99%)
   displ. norm   :     0.8025401 α      lambda       -0.2792196E-03
   maximum displ.:     0.4258217 α      in ANC's #4, #5, #6, ...

........................................................................
.............................. CYCLE  116 ..............................
........................................................................

 iter      E             dE          RMSdq      gap      omega  full diag
   1   -137.6137659 -0.137614E+03  0.100E-01    0.03       0.0  T
   2   -137.6123838  0.138215E-02  0.921E-02    0.02       1.0  T
   3   -137.6054556  0.692820E-02  0.195E-01    0.08       1.0  T
   4   -137.6061336 -0.678066E-03  0.179E-01    0.04       1.0  T
   5   -137.6137377 -0.760411E-02  0.291E-02    0.03       1.0  T
   6   -137.6138616 -0.123897E-03  0.120E-02    0.03       1.0  T
   7   -137.6138853 -0.236724E-04  0.664E-03    0.03       1.5  T
   8   -137.6138908 -0.548641E-05  0.356E-03    0.03       2.8  T
   9   -137.6138924 -0.164668E-05  0.192E-03    0.03       5.2  T
  10   -137.6138928 -0.398617E-06  0.102E-03    0.03       9.8  T
  11   -137.6138930 -0.174058E-06  0.501E-04    0.03      19.7  T
  12   -137.6138931 -0.426814E-07  0.245E-04    0.03      40.5  T
     SCC iter.                  ...        0 min,  0.210 sec
     gradient                   ...        0 min,  0.020 sec
 * total energy  :  -135.7323067 Eh     change       -0.2557223E-03 Eh
   gradient norm :     0.0038378 Eh/α   predicted    -0.2295426E-03 ( -10.24%)
   displ. norm   :     0.7974134 α      lambda       -0.2785430E-03
   maximum displ.:     0.4256251 α      in ANC's #4, #5, #6, ...

........................................................................
.............................. CYCLE  117 ..............................
........................................................................

 iter      E             dE          RMSdq      gap      omega  full diag
   1   -137.6155892 -0.137616E+03  0.957E-02    0.03       0.0  T
   2   -137.6141527  0.143654E-02  0.918E-02    0.02       1.0  T
   3   -137.6074805  0.667219E-02  0.196E-01    0.09       1.0  T
   4   -137.6100834 -0.260299E-02  0.148E-01    0.02       1.0  T
   5   -137.6155486 -0.546512E-02  0.289E-02    0.03       1.0  T
   6   -137.6156575 -0.108914E-03  0.140E-02    0.03       1.0  T
   7   -137.6156903 -0.328073E-04  0.753E-03    0.03       1.3  T
   8   -137.6156981 -0.776581E-05  0.369E-03    0.03       2.7  T
   9   -137.6157000 -0.191378E-05  0.179E-03    0.03       5.5  T
  10   -137.6157003 -0.369033E-06  0.926E-04    0.03      10.7  T
  11   -137.6157005 -0.136621E-06  0.484E-04    0.03      20.4  T
     SCC iter.                  ...        0 min,  0.158 sec
     gradient                   ...        0 min,  0.019 sec
 * total energy  :  -135.7325596 Eh     change       -0.2529635E-03 Eh
   gradient norm :     0.0038172 Eh/α   predicted    -0.2278437E-03 (  -9.93%)
   displ. norm   :     0.8198107 α      lambda       -0.2677489E-03
   maximum displ.:     0.4385820 α      in ANC's #4, #5, #6, ...

........................................................................
.............................. CYCLE  118 ..............................
........................................................................

 iter      E             dE          RMSdq      gap      omega  full diag
   1   -137.6146465 -0.137615E+03  0.977E-02    0.03       0.0  T
   2   -137.6113143  0.333221E-02  0.130E-01    0.03       1.0  T
   3   -137.6078978  0.341652E-02  0.187E-01    0.09       1.0  T
   4   -137.6103944 -0.249663E-02  0.122E-01    0.02       1.0  T
   5   -137.6146388 -0.424445E-02  0.300E-02    0.03       1.0  T
   6   -137.6147479 -0.109033E-03  0.159E-02    0.03       1.0  T
   7   -137.6147868 -0.389848E-04  0.889E-03    0.03       1.1  T
   8   -137.6147980 -0.111818E-04  0.436E-03    0.03       2.3  T
   9   -137.6148009 -0.283969E-05  0.203E-03    0.03       4.9  T
  10   -137.6148013 -0.438305E-06  0.105E-03    0.03       9.4  T
  11   -137.6148015 -0.171407E-06  0.581E-04    0.03      17.0  T
  12   -137.6148015 -0.431242E-07  0.312E-04    0.03      31.7  T
     SCC iter.                  ...        0 min,  0.191 sec
     gradient                   ...        0 min,  0.022 sec
 * total energy  :  -135.7328061 Eh     change       -0.2464745E-03 Eh
   gradient norm :     0.0034435 Eh/α   predicted    -0.2238642E-03 (  -9.17%)
   displ. norm   :     0.7376547 α      lambda       -0.2624141E-03
   maximum displ.:     0.3951215 α      in ANC's #4, #6, #5, ...

........................................................................
.............................. CYCLE  119 ..............................
........................................................................

 iter      E             dE          RMSdq      gap      omega  full diag
   1   -137.6204551 -0.137620E+03  0.859E-02    0.03       0.0  T
   2   -137.6197470  0.708096E-03  0.697E-02    0.03       1.0  T
   3   -137.6146016  0.514546E-02  0.161E-01    0.07       1.0  T
   4   -137.6136902  0.911358E-03  0.171E-01    0.04       1.0  T
   5   -137.6203867 -0.669643E-02  0.281E-02    0.03       1.0  T
   6   -137.6205238 -0.137109E-03  0.744E-03    0.03       1.3  T
   7   -137.6205338 -0.100073E-04  0.392E-03    0.03       2.5  T
   8   -137.6205351 -0.129824E-05  0.256E-03    0.03       3.9  T
   9   -137.6205359 -0.831694E-06  0.146E-03    0.03       6.8  T
  10   -137.6205361 -0.159417E-06  0.962E-04    0.03      10.3  T
  11   -137.6205362 -0.161947E-06  0.409E-04    0.03      24.2  T
     SCC iter.                  ...        0 min,  0.179 sec
     gradient                   ...        0 min,  0.019 sec
 * total energy  :  -135.7330285 Eh     change       -0.2224031E-03 Eh
   gradient norm :     0.0034357 Eh/α   predicted    -0.2026103E-03 (  -8.90%)
   displ. norm   :     0.7885534 α      lambda       -0.2507251E-03
   maximum displ.:     0.4231481 α      in ANC's #4, #5, #6, ...

........................................................................
.............................. CYCLE  120 ..............................
........................................................................

 iter      E             dE          RMSdq      gap      omega  full diag
   1   -137.6162039 -0.137616E+03  0.948E-02    0.03       0.0  T
   2   -137.6119155  0.428842E-02  0.146E-01    0.03       1.0  T
   3   -137.6109338  0.981687E-03  0.169E-01    0.08       1.0  T
   4   -137.6123568 -0.142301E-02  0.115E-01    0.02       1.0  T
   5   -137.6162238 -0.386704E-02  0.304E-02    0.03       1.0  T
   6   -137.6163604 -0.136579E-03  0.133E-02    0.03       1.0  T
   7   -137.6163857 -0.252699E-04  0.778E-03    0.03       1.3  T
   8   -137.6163934 -0.772872E-05  0.417E-03    0.03       2.4  T
   9   -137.6163962 -0.277186E-05  0.187E-03    0.03       5.3  T
  10   -137.6163965 -0.300927E-06  0.107E-03    0.03       9.3  T
  11   -137.6163967 -0.198547E-06  0.534E-04    0.03      18.6  T
  12   -137.6163967 -0.359502E-07  0.306E-04    0.03      32.3  T
     SCC iter.                  ...        0 min,  0.177 sec
     gradient                   ...        0 min,  0.021 sec
 * total energy  :  -135.7332499 Eh     change       -0.2214432E-03 Eh
   gradient norm :     0.0031328 Eh/α   predicted    -0.2033245E-03 (  -8.18%)
   displ. norm   :     0.6163600 α      lambda       -0.1890408E-03
   maximum displ.:     0.3332985 α      in ANC's #4, #6, #5, ...

   *** FAILED TO CONVERGE GEOMETRY OPTIMIZATION IN 120 ITERATIONS ***


 ANCopt (total)                0 d,  0 h,  0 min, 27.313 sec
 optimizer setup                ...        0 min,  0.000 sec (  0.000%)
 model hessian                  ...        0 min,  0.170 sec (  0.622%)
 ANC generation                 ...        0 min,  0.059 sec (  0.216%)
 coordinate transformation      ...        0 min,  0.011 sec (  0.040%)
 single point calculation       ...        0 min, 26.733 sec ( 97.876%)
 optimization log               ...        0 min,  0.172 sec (  0.630%)
 hessian update                 ...        0 min,  0.116 sec (  0.425%)
 rational function              ...        0 min,  0.029 sec (  0.106%)

================
 final structure:
================
102
 xtb: 6.7.1pre (5071a88)
C            4.67259334274688        1.22954209395746       11.38693008048303
O            5.13260485275733        1.69068612734409       10.14188118303814
C            4.59496820277494        1.14301712444220        9.01439039038707
C            3.64309881071582        0.14350795093792        8.99034585293956
C            3.12583631999553       -0.36116342548807        7.78547802982916
C            2.11304079320089       -1.37973953957471        7.84565460781445
C            1.45980876203596       -1.94764515545951        6.80714951423035
C            0.40126246730008       -2.91481264984404        7.01831039222206
O            0.02060507001625       -3.30013859025610        8.11557003836619
C           -0.29586074526452       -3.34699816693595        5.73252882117413
C           -0.88751863397404       -2.04716897709064        5.22773255550326
O           -0.35009541102505       -1.42294939298049        4.30135140943462
C           -2.01312539382907       -1.55878892754704        5.96875027093474
C           -2.63919454805292       -0.39900141719442        5.63568288832490
C           -3.70184410451079        0.24713087600901        6.34747210671349
C           -4.18025246524111       -0.21339316750936        7.57728361989465
C           -5.16787612971471        0.47947282493532        8.24741058799758
C           -5.70892864315048        1.64257058146365        7.72300600653620
O           -6.67405535226872        2.35392858542470        8.37158807655510
C           -5.24948325579299        2.12115422026048        6.47882157182983
O           -5.83500052638260        3.26913120785985        6.03616473946278
C           -5.36394897837567        3.82929609060174        4.83620945753885
C           -4.26122372340581        1.42291933773318        5.81455150458575
C            3.60697697586479        0.17128104065004        6.58703178129214
C            4.56709320926040        1.16431500096440        6.60028035171846
C            5.06880122504236        1.66302688291064        7.79286331461831
O            6.00695349896495        2.65038757539215        7.83195579039182
H            5.20651356482896        1.81667622749869       12.13281743204802
H            3.59547184426603        1.38944254874751       11.50405740947589
H            4.89910904771292        0.16809201489000       11.53346447493177
H            3.26877182035445       -0.27102282121988        9.91285565247843
H            1.82295496324493       -1.70803454217829        8.83599870156179
H            1.67660774825190       -1.68597855980367        5.78469443023402
H           -1.06685465546764       -4.08035708844711        5.96269799377174
H            0.41953758455873       -3.74183580079200        5.01323513307349
H           -2.32028023089672       -2.14095239778291        6.82149015276775
H           -2.28100313909966        0.10577915744204        4.74669686767748
H           -3.76821607480528       -1.10454133110228        8.02061042259850
H           -5.52376107652866        0.12003634544813        9.20467743056629
H           -6.87557075911554        1.91958460665609        9.20904888292946
H           -5.94704957842966        4.73613546361141        4.68636101441807
H           -5.51428724470288        3.15774395897055        3.98538248225621
H           -4.30308786034124        4.09051319360907        4.91113958335050
H           -3.89615092252492        1.77142854071167        4.86171209766875
H            3.23413130458255       -0.19714371681269        5.64615287392063
H            4.94349874330472        1.56922120111095        5.66908096349680
H            6.24208490453947        2.90475498602459        6.93168372775237
B           -4.54317897060821       -2.79354575469007        2.26416555093874
B           -4.21922518642283       -1.91100523489083        0.98882138279697
B           -3.97071765356497       -1.26866473667942       -0.53263432902368
B           -3.03405643003917       -3.03303784255409        1.74262571046513
B           -2.60185914969021       -0.69600546362198       -0.05813521012958
B           -4.08110905797328       -0.15886525768856        0.88204198526458
B           -4.85163735310280        1.16972244667632        1.33674467145173
B           -4.45788106721335        2.69736311319986        0.88020784364307
B           -2.56072473452560        0.18663353242597        1.35592949441704
B           -3.16732814323242        3.35804994214049        1.62198607085983
B           -1.81036190341644       -4.02769335919422        2.24512465937199
B           -1.49130444787325       -2.74578398021335        1.35613979814851
B           -1.32679987454981       -1.17131258510236        0.87775286643361
B           -0.21611327958273       -3.53350219176470        1.93126828290916
B            0.07829393371610       -0.48777802655741        1.33028634027136
B           -1.21817058516171        0.01912165294921        2.25091489999911
B           -1.58806360883943        1.50311980319210        1.57135447942801
B           -1.75320335347492        2.96901070753393        0.98248883627614
B           -0.07698228197928        1.09992613618528        2.18804351465290
B           -0.58838879606802        3.86850242040664        0.27703147016329
B            1.16892230917841       -4.30223893476367        2.47813826603530
B            1.31325213842104       -2.81732453706125        1.90747205022879
B            1.53370036966607       -1.27670318860730        1.52391873956871
B            2.47413313546359       -3.39436108430332        2.93773017460646
B            2.87583143134531       -0.39589567978005        1.72483882739951
B            1.44108844561115        0.37854561607693        1.78415465539122
B            1.25271428691149        2.05640987384306        1.89367656248998
B            0.68363831632015        3.14228084334550        0.85971204393439
B            2.69403115032358        1.41004560753337        1.31569286860779
B            1.50515206918321        2.17685426756297       -0.23884014812916
B            3.44066692089120       -3.56224569712331        4.27879905473547
B            3.82421748301624       -2.48005851561483        3.12395559320654
B            4.26031306446007       -1.15920072476138        2.29294337788398
B            4.63056242813982       -2.48252963713649        4.47315777967515
B            5.66128689618667       -0.45674704325735        1.73030186714416
B            4.31642737426233        0.43806351611004        1.82469973624964
B            4.22743172294907        2.08010481120859        1.04902764706695
B            3.10713453777611        2.29389566292549       -0.17723405280325
B            5.64127719801232        1.28950533268056        1.43403234219648
B            4.55902200955652        2.81338874202608       -0.32467355096252
H           -5.09116790539906       -3.02214220369619        3.27089635354053
H           -5.35799337204493       -2.55943072845383        1.27795063625880
H           -4.67653387878575       -1.44103629280396       -1.45892168830353
H           -5.68568544418530        1.08729062533498        2.17847585819949
H           -5.14533495219782        3.28659394387026        0.12479156899549
H           -3.32618428391201        3.94987908008733        2.62887664937704
H           -1.99478996547278       -5.05411475804791        2.77376552263740
H           -0.71333902133058        4.72104923591068       -0.52371732703448
H            1.15228750655984       -5.46609333790611        2.61208901522114
H            0.94038110606979        1.45300760568793       -0.98504480681449
H            3.22396151559020       -4.31949491639751        5.14181451491130
H            5.45623470166492       -2.05783090835155        5.17090035912916
H            6.73393684407811       -0.92218552771128        1.70987760083407
H            6.68196829451628        1.80522980379262        1.58877140975119
H            5.40995590580394        3.34857772987566       -0.91523549036902
 
 Bond Distances (Angstroems)
 ---------------------------
C1-O2=1.4051         C1-H28=1.0891        C1-H29=1.0952        C1-H30=1.0952        O2-C1=1.4051         O2-C3=1.3639         
C3-O2=1.3639         C3-C4=1.3805         C3-C26=1.4096        C4-C3=1.3805         C4-C5=1.4050         C4-H31=1.0784        
C5-C4=1.4050         C5-C6=1.4377         C5-C24=1.3969        C6-C5=1.4377         C6-C7=1.3519         C6-H32=1.0829        
C7-C6=1.3519         C7-C8=1.4493         C7-H33=1.0774        C8-C7=1.4493         C8-O9=1.2237         C8-C10=1.5251        
O9-C8=1.2237         C10-C8=1.5251        C10-C11=1.5147       C10-H34=1.0887       C10-H35=1.0886       C11-C10=1.5147       
C11-O12=1.2396       C11-C13=1.4334       O12-C11=1.2396       C13-C11=1.4334       C13-C14=1.3594       C13-H36=1.0772       
C14-C13=1.3594       C14-C15=1.4330       C14-H37=1.0832       C15-C14=1.4330       C15-C16=1.3976       C15-C23=1.4069       
C16-C15=1.3976       C16-C17=1.3800       C16-H38=1.0772       C17-C16=1.3800       C17-C18=1.3858       C17-H39=1.0827       
C18-C17=1.3858       C18-O19=1.3631       C18-C20=1.4100       O19-C18=1.3631       O19-H40=0.9647       C20-C18=1.4100       
C20-O21=1.3626       C20-C23=1.3804       O21-C20=1.3626       O21-C22=1.4055       C22-O21=1.4055       C22-H41=1.0885       
C22-H42=1.0943       C22-H43=1.0951       C23-C15=1.4069       C23-C20=1.3804       C23-H44=1.0783       C24-C5=1.3969        
C24-C25=1.3813       C24-H45=1.0770       C25-C24=1.3813       C25-C26=1.3866       C25-H46=1.0829       C26-C3=1.4096        
C26-C25=1.3866       C26-O27=1.3625       O27-C26=1.3625       O27-H47=0.9646       H28-C1=1.0891        H29-C1=1.0952        
H30-C1=1.0952        H31-C4=1.0784        H32-C6=1.0829        H33-C7=1.0774        H34-C10=1.0887       H35-C10=1.0886       
H36-C13=1.0772       H37-C14=1.0832       H38-C16=1.0772       H39-C17=1.0827       H40-O19=0.9647       H41-C22=1.0885       
H42-C22=1.0943       H43-C22=1.0951       H44-C23=1.0783       H45-C24=1.0770       H46-C25=1.0829       H47-O27=0.9646       
B48-B49=1.5844       B48-B51=1.6146       B48-H88=1.1688       B48-H89=1.3005       B49-B48=1.5844       B49-B50=1.6701       
B49-B51=1.7977       B49-B53=1.7608       B49-H89=1.3420       B50-B49=1.6701       B50-B52=1.5578       B50-B53=1.8014       
B50-H90=1.1772       B51-B48=1.6146       B51-B49=1.7977       B51-B58=1.6551       B51-B59=1.6162       B52-B50=1.5578       
B52-B53=1.8332       B52-B56=1.6674       B52-B60=1.6515       B53-B49=1.7608       B53-B50=1.8014       B53-B52=1.8332       
B53-B54=1.6018       B53-B56=1.6296       B54-B53=1.6018       B54-B55=1.6423       B54-H91=1.1878       B55-B54=1.6423       
B55-B57=1.6286       B55-H92=1.1792       B56-B52=1.6674       B56-B53=1.6296       B56-B60=1.8961       B56-B63=1.6222       
B56-B64=1.6509       B57-B55=1.6286       B57-B65=1.6000       B57-H93=1.1787       B58-B51=1.6551       B58-B59=1.5923       
B58-B61=1.6983       B58-H94=1.1692       B59-B51=1.6162       B59-B58=1.5923       B59-B60=1.6537       B59-B61=1.6054       
B60-B52=1.6515       B60-B56=1.8961       B60-B59=1.6537       B60-B62=1.6267       B60-B63=1.8206       B61-B58=1.6983       
B61-B59=1.6054       B61-B68=1.6758       B61-B69=1.6889       B62-B60=1.6267       B62-B63=1.6689       B62-B66=1.8113       
B62-B70=1.6668       B62-B73=1.6774       B63-B56=1.6222       B63-B60=1.8206       B63-B62=1.6689       B63-B64=1.6736       
B63-B66=1.5730       B64-B56=1.6509       B64-B63=1.6736       B64-B65=1.5884       B64-B66=1.6811       B65-B57=1.6000       
B65-B64=1.5884       B65-B67=1.6320       B66-B62=1.8113       B66-B63=1.5730       B66-B64=1.6811       B66-B73=1.7286       
B66-B74=1.6642       B67-B65=1.6320       B67-B75=1.5764       B67-H95=1.1763       B68-B61=1.6758       B68-B69=1.5973       
B68-B71=1.6550       B68-H96=1.1717       B69-B61=1.6889       B69-B68=1.5973       B69-B70=1.6029       B69-B71=1.6559       
B70-B62=1.6668       B70-B69=1.6029       B70-B72=1.6179       B70-B73=1.6781       B71-B68=1.6550       B71-B69=1.6559       
B71-B78=1.6616       B71-B79=1.6411       B72-B70=1.6179       B72-B73=1.6315       B72-B76=1.8606       B72-B80=1.6799       
B72-B83=1.6676       B73-B62=1.6774       B73-B66=1.7286       B73-B70=1.6781       B73-B72=1.6315       B73-B74=1.6920       
B73-B76=1.6892       B74-B66=1.6642       B74-B73=1.6920       B74-B75=1.6038       B74-B76=1.6820       B74-B77=2.1508       
B75-B67=1.5764       B75-B74=1.6038       B75-B77=1.6774       B76-B72=1.8606       B76-B73=1.6892       B76-B74=1.6820       
B76-B77=2.1019       B76-B83=1.9586       B76-B84=1.6945       B76-B85=1.7834       B77-B74=2.1508       B77-B75=1.6774       
B77-B76=2.1019       B77-B85=1.6074       B77-H97=1.1831       B78-B71=1.6616       B78-B79=1.6285       B78-B81=1.6185       
B78-H98=1.1684       B79-B71=1.6411       B79-B78=1.6285       B79-B80=1.6203       B79-B81=1.5718       B80-B72=1.6799       
B80-B79=1.6203       B80-B82=1.6652       B80-B83=1.6654       B81-B78=1.6185       B81-B79=1.5718       B81-H99=1.1614       
B82-B80=1.6652       B82-B83=1.6181       B82-B86=1.7713       B82-H100=1.1695      B83-B72=1.6676       B83-B76=1.9586       
B83-B80=1.6654       B83-B82=1.6181       B83-B84=1.8182       B83-B86=1.6226       B84-B76=1.6945       B84-B83=1.8182       
B84-B85=1.6747       B84-B86=1.6650       B84-B87=1.5921       B85-B76=1.7834       B85-B77=1.6074       B85-B84=1.6747       
B85-B87=1.5491       B86-B82=1.7713       B86-B83=1.6226       B86-B84=1.6650       B86-H101=1.1717      B87-B84=1.5921       
B87-B85=1.5491       B87-H102=1.1659      H88-B48=1.1688       H89-B48=1.3005       H89-B49=1.3420       H90-B50=1.1772       
H91-B54=1.1878       H92-B55=1.1792       H93-B57=1.1787       H94-B58=1.1692       H95-B67=1.1763       H96-B68=1.1717       
H97-B77=1.1831       H98-B78=1.1684       H99-B81=1.1614       H100-B82=1.1695      H101-B86=1.1717      H102-B87=1.1659      
 B  H  Rav=1.1920 sigma=0.0498  Rmin=1.1614  Rmax=1.3420    16
 B  B  Rav=1.6813 sigma=0.1074  Rmin=1.5491  Rmax=2.1508    77
 C  H  Rav=1.0851 sigma=0.0067  Rmin=1.0770  Rmax=1.0952    18
 C  C  Rav=1.4113 sigma=0.0439  Rmin=1.3519  Rmax=1.5251    20
 O  H  Rav=0.9646 sigma=0.0000  Rmin=0.9646  Rmax=0.9647     2
 O  C  Rav=1.3408 sigma=0.0655  Rmin=1.2237  Rmax=1.4055     8
 
 selected bond angles (degree)
 --------------------
H28-C1-O2=105.63               H29-C1-O2=111.64               H29-C1-H28=109.28              H30-C1-O2=111.65               
H30-C1-H28=109.24              H30-C1-H29=109.31              C3-O2-C1=118.14                C4-C3-O2=125.24                
C26-C3-O2=115.83               C26-C3-C4=118.93               C5-C4-C3=121.93                H31-C4-C3=120.18               
H31-C4-C5=117.89               C6-C5-C4=118.55                C24-C5-C4=118.17               C24-C5-C6=123.27               
C7-C6-C5=127.29                H32-C6-C5=116.22               H32-C6-C7=116.47               C8-C7-C6=121.42                
H33-C7-C6=121.99               H33-C7-C8=116.57               O9-C8-C7=124.61                C10-C8-C7=113.59               
C10-C8-O9=121.64               C11-C10-C8=102.49              H34-C10-C8=109.66              H34-C10-C11=111.83             
H35-C10-C8=111.07              H35-C10-C11=110.35             H35-C10-H34=111.15             
 
 selected dihedral angles (degree)
 ---------------------------------
C3-O2-C1-H28=181.71           C3-O2-C1-H29=300.39           C3-O2-C1-H30= 63.08           C4-C3-O2-C1=358.69            
C26-C3-O2-C1=178.58           C5-C4-C3-O2=179.32            C5-C4-C3-C26=359.44           H31-C4-C3-O2=359.69           
H31-C4-C3-C26=179.81          C6-C5-C4-C3=181.49            C6-C5-C4-H31=  1.13           C24-C5-C4-C3=  0.38           
C24-C5-C4-H31=180.02          C7-C6-C5-C4=177.16            C7-C6-C5-C24=358.33           H32-C6-C5-C4=358.99           
H32-C6-C5-C24=180.16          C8-C7-C6-C5=183.59            C8-C7-C6-H32=  1.76           H33-C7-C6-C5=  1.76           
H33-C7-C6-H32=179.93          O9-C8-C7-C6=359.48            O9-C8-C7-H33=181.22           C10-C8-C7-C6=174.85           
C10-C8-C7-H33=356.58          C11-C10-C8-C7=298.17          C11-C10-C8-O9=113.70          H34-C10-C8-C7=179.25          
H34-C10-C8-O9=354.78          H35-C10-C8-C7= 56.02          H35-C10-C8-O9=231.54          
 
 CMA Distance (Angstroems)
 ---------------------------
R(CMA):  5.7329
           -------------------------------------------------
          |                Final Singlepoint                |
           -------------------------------------------------

          ...................................................
          :                      SETUP                      :
          :.................................................:
          :  # basis functions                 303          :
          :  # atomic orbitals                 303          :
          :  # shells                          169          :
          :  # electrons                       275          :
          :  max. iterations                   500          :
          :  Hamiltonian                  GFN2-xTB          :
          :  restarted?                      false          :
          :  GBSA solvation                  false          :
          :  PC potential                    false          :
          :  electronic temp.          300.0000000     K    :
          :  accuracy                    1.0000000          :
          :  -> integral cutoff          0.2500000E+02      :
          :  -> integral neglect         0.1000000E-07      :
          :  -> SCF convergence          0.1000000E-05 Eh   :
          :  -> wf. convergence          0.1000000E-03 e    :
          :  Broyden damping             0.4000000          :
          :  net charge                          0          :
          :  unpaired electrons                  0          :
          ...................................................

 iter      E             dE          RMSdq      gap      omega  full diag
   1   -137.6166355 -0.137617E+03  0.705E-02    0.03       0.0  T
   2   -137.6157596  0.875976E-03  0.698E-02    0.03       1.0  T
   3   -137.6129236  0.283598E-02  0.135E-01    0.07       1.0  T
   4   -137.6129228  0.826057E-06  0.122E-01    0.02       1.0  T
   5   -137.6166069 -0.368414E-02  0.240E-02    0.03       1.0  T
   6   -137.6167073 -0.100371E-03  0.768E-03    0.03       1.3  T
   7   -137.6167167 -0.938379E-05  0.420E-03    0.03       2.4  T
   8   -137.6167186 -0.194869E-05  0.242E-03    0.03       4.1  T
   9   -137.6167196 -0.953860E-06  0.115E-03    0.03       8.6  T
  10   -137.6167197 -0.104304E-06  0.695E-04    0.03      14.3  T
  11   -137.6167197 -0.911240E-07  0.278E-04    0.03      35.6  T

   *** convergence criteria satisfied after 11 iterations ***

         #    Occupation            Energy/Eh            Energy/eV
      -------------------------------------------------------------
         1        2.0000           -0.7022976             -19.1105
       ...           ...                  ...                  ...
       132        2.0000           -0.3057455              -8.3198
       133        2.0000           -0.2996442              -8.1537
       134        2.0000           -0.2956953              -8.0463
       135        2.0000           -0.2939719              -7.9994
       136        2.0000           -0.2896074              -7.8806
       137        1.9999           -0.2849560              -7.7540
       138        0.6380           -0.2673508              -7.2750 (HOMO)
       139        0.3620           -0.2662743              -7.2457 (LUMO)
       140        0.0000           -0.2569496              -6.9920
       141        0.0000           -0.2536949              -6.9034
       142                         -0.2379964              -6.4762
       143                         -0.2293360              -6.2406
       ...                                ...                  ...
       303                          1.0402067              28.3055
      -------------------------------------------------------------
                  HL-Gap            0.0010766 Eh            0.0293 eV
             Fermi-level           -0.2715475 Eh           -7.3892 eV

 SCC (total)                   0 d,  0 h,  0 min,  0.209 sec
 SCC setup                      ...        0 min,  0.001 sec (  0.479%)
 Dispersion                     ...        0 min,  0.001 sec (  0.478%)
 classical contributions        ...        0 min,  0.000 sec (  0.000%)
 integral evaluation            ...        0 min,  0.006 sec (  2.871%)
 iterations                     ...        0 min,  0.176 sec ( 84.210%)
 molecular gradient             ...        0 min,  0.021 sec ( 10.048%)
 printout                       ...        0 min,  0.004 sec (  1.914%)

         :::::::::::::::::::::::::::::::::::::::::::::::::::::
         ::                     SUMMARY                     ::
         :::::::::::::::::::::::::::::::::::::::::::::::::::::
         :: total energy            -135.733425559181 Eh    ::
         :: gradient norm              0.002905363362 Eh/a0 ::
         :: HOMO-LUMO gap              0.029295300002 eV    ::
         ::.................................................::
         :: SCC energy              -137.611837292470 Eh    ::
         :: -> isotropic ES            0.328735826798 Eh    ::
         :: -> anisotropic ES          0.006035031356 Eh    ::
         :: -> anisotropic XC         -0.000127246446 Eh    ::
         :: -> dispersion             -0.137866052402 Eh    ::
         :: repulsion energy           1.878411733289 Eh    ::
         :: add. restraining           0.000000000000 Eh    ::
         :: total charge              -0.000000000000 e     ::
         :::::::::::::::::::::::::::::::::::::::::::::::::::::

           -------------------------------------------------
          |                Property Printout                |
           -------------------------------------------------

    * Orbital Energies and Occupations

         #    Occupation            Energy/Eh            Energy/eV
      -------------------------------------------------------------
         1        2.0000           -0.7022976             -19.1105
       ...           ...                  ...                  ...
       126        2.0000           -0.3232051              -8.7949
       127        2.0000           -0.3190588              -8.6820
       128        2.0000           -0.3180787              -8.6554
       129        2.0000           -0.3173782              -8.6363
       130        2.0000           -0.3119781              -8.4894
       131        2.0000           -0.3097084              -8.4276
       132        2.0000           -0.3057455              -8.3198
       133        2.0000           -0.2996442              -8.1537
       134        2.0000           -0.2956953              -8.0463
       135        2.0000           -0.2939719              -7.9994
       136        2.0000           -0.2896074              -7.8806
       137        1.9999           -0.2849560              -7.7540
       138        0.6380           -0.2673508              -7.2750 (HOMO)
       139        0.3620           -0.2662743              -7.2457 (LUMO)
       140        0.0000           -0.2569496              -6.9920
       141        0.0000           -0.2536949              -6.9034
       142                         -0.2379964              -6.4762
       143                         -0.2293360              -6.2406
       144                         -0.2261903              -6.1550
       145                         -0.2160052              -5.8778
       146                         -0.2085661              -5.6754
       147                         -0.2066810              -5.6241
       148                         -0.2040743              -5.5531
       149                         -0.1994862              -5.4283
       ...                                ...                  ...
       303                          1.0402067              28.3055
      -------------------------------------------------------------
                  HL-Gap            0.0010766 Eh            0.0293 eV
             Fermi-level           -0.2715475 Eh           -7.3892 eV

     #   Z          covCN         q      C6AA      α(0)
     1   6 C        3.646     0.034    20.335     6.481
     2   8 O        1.705    -0.257    18.260     5.769
     3   6 C        2.861     0.123    25.293     8.243
     4   6 C        2.927    -0.080    30.005     8.983
     5   6 C        2.968     0.001    28.007     8.681
     6   6 C        2.908    -0.033    28.833     8.805
     7   6 C        2.895    -0.088    30.205     9.011
     8   6 C        2.843     0.216    23.442     7.935
     9   8 O        0.857    -0.426    22.208     6.318
    10   6 C        3.811    -0.123    22.850     6.804
    11   6 C        2.845     0.194    23.860     8.005
    12   8 O        0.857    -0.484    23.440     6.491
    13   6 C        2.896    -0.088    30.208     9.011
    14   6 C        2.909    -0.048    29.192     8.859
    15   6 C        2.968    -0.002    28.077     8.692
    16   6 C        2.921    -0.051    29.278     8.873
    17   6 C        2.915    -0.076    29.902     8.967
    18   6 C        2.845     0.119    25.378     8.256
    19   8 O        1.659    -0.384    20.534     6.117
    20   6 C        2.862     0.122    25.307     8.246
    21   8 O        1.705    -0.260    18.310     5.777
    22   6 C        3.647     0.025    20.479     6.503
    23   6 C        2.926    -0.090    30.270     9.023
    24   6 C        2.921    -0.061    29.508     8.908
    25   6 C        2.915    -0.083    30.079     8.993
    26   6 C        2.845     0.119    25.377     8.256
    27   8 O        1.659    -0.384    20.549     6.120
    28   1 H        0.925     0.062     2.178     2.308
    29   1 H        0.924     0.041     2.436     2.441
    30   1 H        0.924     0.041     2.437     2.441
    31   1 H        0.926     0.045     2.379     2.412
    32   1 H        0.925     0.056     2.243     2.342
    33   1 H        0.926     0.047     2.356     2.400
    34   1 H        0.925     0.055     2.260     2.351
    35   1 H        0.925     0.069     2.096     2.264
    36   1 H        0.926     0.041     2.439     2.442
    37   1 H        0.925     0.052     2.297     2.370
    38   1 H        0.926     0.045     2.377     2.411
    39   1 H        0.925     0.029     2.603     2.523
    40   1 H        0.805     0.299     0.724     1.336
    41   1 H        0.925     0.061     2.185     2.311
    42   1 H        0.924     0.053     2.278     2.360
    43   1 H        0.924     0.042     2.429     2.437
    44   1 H        0.926     0.048     2.347     2.396
    45   1 H        0.926     0.046     2.364     2.405
    46   1 H        0.925     0.028     2.612     2.527
    47   1 H        0.805     0.300     0.720     1.333
    48   5 B        3.713     0.076    21.239     7.452
    49   5 B        4.616     0.065    21.571     7.483
    50   5 B        3.756     0.032    22.082     7.584
    51   5 B        3.790     0.048    21.829     7.535
    52   5 B        3.873     0.059    21.661     7.500
    53   5 B        4.596     0.030    22.199     7.592
    54   5 B        2.879     0.058    20.423     7.543
    55   5 B        2.867     0.084    20.000     7.466
    56   5 B        4.644     0.035    22.101     7.575
    57   5 B        2.898     0.072    20.186     7.498
    58   5 B        3.821     0.066    21.542     7.482
    59   5 B        3.874     0.029    22.199     7.593
    60   5 B        4.537     0.005    22.660     7.670
    61   5 B        3.826     0.076    21.358     7.450
    62   5 B        4.719     0.072    21.456     7.463
    63   5 B        4.726     0.105    20.883     7.363
    64   5 B        3.871     0.044    21.927     7.546
    65   5 B        2.932     0.026    20.955     7.638
    66   5 B        4.705     0.033    22.143     7.582
    67   5 B        2.878     0.059    20.415     7.542
    68   5 B        3.827     0.070    21.461     7.467
    69   5 B        3.856     0.038    22.044     7.567
    70   5 B        3.854     0.013    22.491     7.643
    71   5 B        3.847     0.061    21.634     7.496
    72   5 B        4.673     0.022    22.330     7.614
    73   5 B        5.714     0.119    20.651     7.322
    74   5 B        4.136     0.025    22.276     7.605
    75   5 B        2.927     0.031    20.861     7.621
    76   5 B        5.648     0.061    21.638     7.495
    77   5 B        3.555     0.068    20.581     7.492
    78   5 B        3.835     0.062    21.612     7.493
    79   5 B        3.875     0.027    22.233     7.599
    80   5 B        3.844     0.031    22.157     7.587
    81   5 B        2.888     0.113    19.534     7.377
    82   5 B        3.777     0.067    21.490     7.478
    83   5 B        5.399     0.106    20.878     7.362
    84   5 B        4.708     0.045    21.928     7.545
    85   5 B        3.804     0.016    22.415     7.634
    86   5 B        3.779     0.079    21.291     7.443
    87   5 B        2.893     0.053    20.494     7.555
    88   1 H        0.939    -0.106     5.765     3.754
    89   1 H        1.589     0.047     2.345     2.390
    90   1 H        0.936    -0.138     7.084     4.161
    91   1 H        0.932    -0.134     6.921     4.113
    92   1 H        0.936    -0.114     6.090     3.858
    93   1 H        0.936    -0.119     6.283     3.919
    94   1 H        0.939    -0.097     5.450     3.650
    95   1 H        0.937    -0.129     6.679     4.041
    96   1 H        0.938    -0.090     5.234     3.577
    97   1 H        0.934    -0.146     7.480     4.276
    98   1 H        0.940    -0.078     4.831     3.436
    99   1 H        0.942    -0.120     6.309     3.927
   100   1 H        0.939    -0.107     5.806     3.767
   101   1 H        0.938    -0.110     5.917     3.803
   102   1 H        0.940    -0.135     6.954     4.123

 Mol. C6AA /au·bohr⁶  :     149186.423118
 Mol. C8AA /au·bohr⁸  :    4417979.389973
 Mol. α(0) /au        :        615.687762


Wiberg/Mayer (AO) data.
largest (>0.10) Wiberg bond orders for each atom

 ---------------------------------------------------------------------------
     #   Z sym  total        # sym  WBO       # sym  WBO       # sym  WBO
 ---------------------------------------------------------------------------
     1   6 C    3.948 --     2 O    0.989    28 H    0.979    30 H    0.976
                            29 H    0.976
     2   8 O    2.235 --     3 C    1.059     1 C    0.989
     3   6 C    3.935 --     4 C    1.429    26 C    1.263     2 O    1.059
     4   6 C    3.961 --     3 C    1.429     5 C    1.320    31 H    0.963
     5   6 C    3.981 --    24 C    1.352     4 C    1.320     6 C    1.152
     6   6 C    3.917 --     7 C    1.669     5 C    1.152    32 H    0.960
     7   6 C    3.955 --     6 C    1.669     8 C    1.116    33 H    0.960
     8   6 C    3.895 --     9 O    1.704     7 C    1.116    10 C    0.948
     9   8 O    1.966 --     8 C    1.704
    10   6 C    3.988 --    34 H    0.969    11 C    0.965    35 H    0.952
                             8 C    0.948
    11   6 C    3.882 --    12 O    1.600    13 C    1.167    10 C    0.965
    12   8 O    1.898 --    11 C    1.600
    13   6 C    3.952 --    14 C    1.618    11 C    1.167    36 H    0.963
    14   6 C    3.889 --    13 C    1.618    15 C    1.169    37 H    0.954
    15   6 C    3.981 --    16 C    1.344    23 C    1.311    14 C    1.169
    16   6 C    3.958 --    17 C    1.451    15 C    1.344    38 H    0.965
    17   6 C    3.984 --    16 C    1.451    18 C    1.386    39 H    0.965
    18   6 C    3.896 --    17 C    1.386    20 C    1.261    19 O    1.069
    19   8 O    2.107 --    18 C    1.069    40 H    0.890
    20   6 C    3.936 --    23 C    1.432    18 C    1.261    21 O    1.061
    21   8 O    2.234 --    20 C    1.061    22 C    0.986
    22   6 C    3.944 --    21 O    0.986    41 H    0.980    43 H    0.975
                            42 H    0.973
    23   6 C    3.954 --    20 C    1.432    15 C    1.311    44 H    0.962
    24   6 C    3.967 --    25 C    1.446     5 C    1.352    45 H    0.963
    25   6 C    3.982 --    24 C    1.446    26 C    1.388    46 H    0.965
    26   6 C    3.903 --    25 C    1.388     3 C    1.263    27 O    1.069
    27   8 O    2.108 --    26 C    1.069    47 H    0.889
    28   1 H    0.996 --     1 C    0.979
    29   1 H    0.998 --     1 C    0.976
    30   1 H    0.998 --     1 C    0.976
    31   1 H    0.998 --     4 C    0.963
    32   1 H    0.996 --     6 C    0.960
    33   1 H    0.998 --     7 C    0.960
    34   1 H    0.994 --    10 C    0.969
    35   1 H    0.992 --    10 C    0.952
    36   1 H    0.998 --    13 C    0.963
    37   1 H    0.997 --    14 C    0.954
    38   1 H    0.998 --    16 C    0.965
    39   1 H    0.998 --    17 C    0.965
    40   1 H    0.911 --    19 O    0.890
    41   1 H    0.996 --    22 C    0.980
    42   1 H    0.997 --    22 C    0.973
    43   1 H    0.998 --    22 C    0.975
    44   1 H    0.998 --    23 C    0.962
    45   1 H    0.998 --    24 C    0.963
    46   1 H    0.998 --    25 C    0.965
    47   1 H    0.910 --    27 O    0.889
    48   5 B    3.558 --    88 H    0.954    49 B    0.899    51 B    0.895
                            89 H    0.515
    49   5 B    3.551 --    48 B    0.899    50 B    0.746    51 B    0.560
                            53 B    0.551    89 H    0.447    52 B    0.147
    50   5 B    3.562 --    52 B    1.137    90 H    0.953    49 B    0.746
                            53 B    0.437
    51   5 B    3.562 --    48 B    0.895    58 B    0.866    59 B    0.853
                            49 B    0.560    61 B    0.124
    52   5 B    3.394 --    50 B    1.137    60 B    0.814    56 B    0.609
                            53 B    0.420    49 B    0.147
    53   5 B    3.591 --    54 B    1.066    56 B    0.790    49 B    0.551
                            50 B    0.437    52 B    0.420
    54   5 B    3.419 --    53 B    1.066    55 B    1.003    91 H    0.915
                            56 B    0.151
    55   5 B    3.257 --    57 B    1.013    54 B    1.003    92 H    0.937
                            65 B    0.113
    56   5 B    3.672 --    53 B    0.790    64 B    0.760    63 B    0.709
                            52 B    0.609    60 B    0.371    54 B    0.151
    57   5 B    3.401 --    55 B    1.013    65 B    1.001    93 H    0.922
                            64 B    0.173
    58   5 B    3.623 --    94 H    0.928    51 B    0.866    59 B    0.833
                            61 B    0.770
    59   5 B    3.610 --    61 B    0.884    51 B    0.853    58 B    0.833
                            60 B    0.768
    60   5 B    3.631 --    62 B    0.842    52 B    0.814    59 B    0.768
                            63 B    0.443    56 B    0.371
    61   5 B    3.555 --    59 B    0.884    58 B    0.770    68 B    0.758
                            69 B    0.684    51 B    0.124
    62   5 B    3.556 --    60 B    0.842    70 B    0.681    63 B    0.611
                            73 B    0.562    66 B    0.463
    63   5 B    3.575 --    66 B    0.891    56 B    0.709    62 B    0.611
                            64 B    0.593    60 B    0.443
    64   5 B    3.550 --    65 B    0.963    56 B    0.760    66 B    0.704
                            63 B    0.593    57 B    0.173
    65   5 B    3.453 --    57 B    1.001    64 B    0.963    67 B    0.945
                            75 B    0.187    55 B    0.113
    66   5 B    3.635 --    63 B    0.891    74 B    0.731    64 B    0.704
                            73 B    0.495    62 B    0.463
    67   5 B    3.424 --    75 B    1.142    95 H    0.955    65 B    0.945
                            77 B    0.120
    68   5 B    3.579 --    96 H    0.925    69 B    0.836    71 B    0.817
                            61 B    0.758
    69   5 B    3.589 --    70 B    0.988    68 B    0.836    71 B    0.734
                            61 B    0.684
    70   5 B    3.606 --    69 B    0.988    72 B    0.899    62 B    0.681
                            73 B    0.594
    71   5 B    3.587 --    68 B    0.817    78 B    0.812    79 B    0.796
                            69 B    0.734    81 B    0.157
    72   5 B    3.670 --    70 B    0.899    80 B    0.703    73 B    0.669
                            83 B    0.602    76 B    0.428
    73   5 B    3.659 --    72 B    0.669    70 B    0.594    62 B    0.562
                            74 B    0.545    76 B    0.538    66 B    0.495
    74   5 B    3.517 --    75 B    0.988    76 B    0.758    66 B    0.731
                            73 B    0.545    77 B    0.196
    75   5 B    3.409 --    67 B    1.142    74 B    0.988    77 B    0.767
                            65 B    0.187
    76   5 B    3.629 --    74 B    0.758    84 B    0.623    73 B    0.538
                            85 B    0.492    72 B    0.428    83 B    0.321
                            77 B    0.251
    77   5 B    3.480 --    85 B    0.988    97 H    0.941    75 B    0.767
                            76 B    0.251    74 B    0.196    67 B    0.120
    78   5 B    3.589 --    81 B    0.951    98 H    0.908    71 B    0.812
                            79 B    0.759
    79   5 B    3.614 --    81 B    0.983    80 B    0.886    71 B    0.796
                            78 B    0.759
    80   5 B    3.591 --    79 B    0.886    82 B    0.867    72 B    0.703
                            83 B    0.652    81 B    0.183
    81   5 B    3.430 --    79 B    0.983    99 H    0.977    78 B    0.951
                            80 B    0.183    71 B    0.157
    82   5 B    3.513 --   100 H    0.954    80 B    0.867    83 B    0.777
                            86 B    0.698
    83   5 B    3.654 --    82 B    0.777    86 B    0.757    80 B    0.652
                            72 B    0.602    84 B    0.412    76 B    0.321
    84   5 B    3.628 --    87 B    0.971    86 B    0.755    85 B    0.705
                            76 B    0.623    83 B    0.412
    85   5 B    3.571 --    87 B    1.152    77 B    0.988    84 B    0.705
                            76 B    0.492
    86   5 B    3.538 --   101 H    0.955    83 B    0.757    84 B    0.755
                            82 B    0.698    87 B    0.166
    87   5 B    3.513 --    85 B    1.152    84 B    0.971   102 H    0.971
                            86 B    0.166
    88   1 H    0.983 --    48 B    0.954
    89   1 H    0.994 --    48 B    0.515    49 B    0.447
    90   1 H    0.979 --    50 B    0.953
    91   1 H    0.979 --    54 B    0.915
    92   1 H    0.985 --    55 B    0.937
    93   1 H    0.982 --    57 B    0.922
    94   1 H    0.979 --    58 B    0.928
    95   1 H    0.980 --    67 B    0.955
    96   1 H    0.979 --    68 B    0.925
    97   1 H    0.977 --    77 B    0.941
    98   1 H    0.984 --    78 B    0.908
    99   1 H    0.985 --    81 B    0.977
   100   1 H    0.985 --    82 B    0.954
   101   1 H    0.984 --    86 B    0.955
   102   1 H    0.980 --    87 B    0.971
 ---------------------------------------------------------------------------

Topologies differ in total number of bonds
Writing topology from bond orders to xtbtopo.mol

molecular dipole:
                 x           y           z       tot (Debye)
 q only:        1.484      -0.408      -4.442
   full:        0.814      -1.099      -2.919       8.193
molecular quadrupole (traceless):
                xx          xy          yy          xz          yz          zz
 q only:       15.740       6.683      37.729       6.303      29.431     -53.470
  q+dip:       26.482      16.367      22.639      -0.072      14.297     -49.121
   full:       18.495      11.347      22.657      -1.493      22.061     -41.152

           -------------------------------------------------
          |                Geometry Summary                 |
           -------------------------------------------------

      molecular mass/u    :      815.9409317
   center of mass at/Å    :        0.0385855       0.0013249       4.1011644
  moments of inertia/u·Å² :        0.1180660E+05   0.1509388E+05   0.1901143E+05
rotational constants/cm⁻¹ :        0.1427815E-02   0.1116852E-02   0.8867105E-03

 * 124 selected distances

     #   Z          #   Z                                           value/Å
     1   6 C        2   8 O                                       1.4051375
     2   8 O        3   6 C                                       1.3639026
     3   6 C        4   6 C                                       1.3804537
     4   6 C        5   6 C                                       1.4049771
     6   6 C        7   6 C                                       1.3519327
     8   6 C        9   8 O                                       1.2236646
    11   6 C       12   8 O                                       1.2396193
    13   6 C       14   6 C                                       1.3594131
    14   6 C       15   6 C                                       1.4329533
    15   6 C       16   6 C                                       1.3976386
    16   6 C       17   6 C                                       1.3800487
    17   6 C       18   6 C                                       1.3858336
    18   6 C       19   8 O                                       1.3631430
    18   6 C       20   6 C                                       1.4100098
    20   6 C       21   8 O                                       1.3625810
    21   8 O       22   6 C                                       1.4055488
    15   6 C       23   6 C                                       1.4069075
    20   6 C       23   6 C                                       1.3803782
     5   6 C       24   6 C                                       1.3968777
    24   6 C       25   6 C                                       1.3813455
     3   6 C       26   6 C                                       1.4096300
    25   6 C       26   6 C                                       1.3866070
    26   6 C       27   8 O                                       1.3625489
     1   6 C       28   1 H                                       1.0891031
     1   6 C       29   1 H                                       1.0952068
     1   6 C       30   1 H                                       1.0951978
     4   6 C       31   1 H                                       1.0784160
     6   6 C       32   1 H                                       1.0829169
     7   6 C       33   1 H                                       1.0774441
    10   6 C       34   1 H                                       1.0886804
    10   6 C       35   1 H                                       1.0886116
    13   6 C       36   1 H                                       1.0772297
    14   6 C       37   1 H                                       1.0832363
    16   6 C       38   1 H                                       1.0772455
    17   6 C       39   1 H                                       1.0826859
    19   8 O       40   1 H                                       0.9646781
    22   6 C       41   1 H                                       1.0884938
    22   6 C       42   1 H                                       1.0942991
    22   6 C       43   1 H                                       1.0951143
    23   6 C       44   1 H                                       1.0782578
    24   6 C       45   1 H                                       1.0770348
    25   6 C       46   1 H                                       1.0829417
    27   8 O       47   1 H                                       0.9646137 (min)
    48   5 B       49   5 B                                       1.5844012
    49   5 B       50   5 B                                       1.6700854
    48   5 B       51   5 B                                       1.6145624
    50   5 B       52   5 B                                       1.5578389
    49   5 B       53   5 B                                       1.7608160
    53   5 B       54   5 B                                       1.6017535
    54   5 B       55   5 B                                       1.6423022
    52   5 B       56   5 B                                       1.6674301
    53   5 B       56   5 B                                       1.6295729
    55   5 B       57   5 B                                       1.6285789
    51   5 B       58   5 B                                       1.6550751
    51   5 B       59   5 B                                       1.6161591
    58   5 B       59   5 B                                       1.5922889
    52   5 B       60   5 B                                       1.6515387
    59   5 B       60   5 B                                       1.6537462
    58   5 B       61   5 B                                       1.6983404
    59   5 B       61   5 B                                       1.6054239
    60   5 B       62   5 B                                       1.6267437
    56   5 B       63   5 B                                       1.6221933
    62   5 B       63   5 B                                       1.6689293
    56   5 B       64   5 B                                       1.6509434
    63   5 B       64   5 B                                       1.6735813
    57   5 B       65   5 B                                       1.6000180
    64   5 B       65   5 B                                       1.5883546
    63   5 B       66   5 B                                       1.5730233
    64   5 B       66   5 B                                       1.6811418
    65   5 B       67   5 B                                       1.6320383
    61   5 B       68   5 B                                       1.6758124
    61   5 B       69   5 B                                       1.6889156
    68   5 B       69   5 B                                       1.5973297
    62   5 B       70   5 B                                       1.6667648
    69   5 B       70   5 B                                       1.6028803
    68   5 B       71   5 B                                       1.6550054
    69   5 B       71   5 B                                       1.6559131
    70   5 B       72   5 B                                       1.6178711
    62   5 B       73   5 B                                       1.6774154
    66   5 B       73   5 B                                       1.7285992
    70   5 B       73   5 B                                       1.6781385
    72   5 B       73   5 B                                       1.6314918
    66   5 B       74   5 B                                       1.6642135
    73   5 B       74   5 B                                       1.6919542
    67   5 B       75   5 B                                       1.5763781
    74   5 B       75   5 B                                       1.6037601
    73   5 B       76   5 B                                       1.6891757
    74   5 B       76   5 B                                       1.6820365
    75   5 B       77   5 B                                       1.6774238
    71   5 B       78   5 B                                       1.6615773
    71   5 B       79   5 B                                       1.6411451
    78   5 B       79   5 B                                       1.6284668
    72   5 B       80   5 B                                       1.6799307
    79   5 B       80   5 B                                       1.6203168
    78   5 B       81   5 B                                       1.6184603
    79   5 B       81   5 B                                       1.5717968
    80   5 B       82   5 B                                       1.6651531
    72   5 B       83   5 B                                       1.6675663
    80   5 B       83   5 B                                       1.6654292
    82   5 B       83   5 B                                       1.6180990
    76   5 B       84   5 B                                       1.6945228
    76   5 B       85   5 B                                       1.7834452 (max)
    77   5 B       85   5 B                                       1.6074335
    84   5 B       85   5 B                                       1.6746613
    83   5 B       86   5 B                                       1.6225911
    84   5 B       86   5 B                                       1.6650032
    84   5 B       87   5 B                                       1.5920782
    85   5 B       87   5 B                                       1.5490607
    48   5 B       88   1 H                                       1.1687837
    48   5 B       89   1 H                                       1.3005201
    49   5 B       89   1 H                                       1.3419555
    50   5 B       90   1 H                                       1.1772413
    54   5 B       91   1 H                                       1.1878312
    55   5 B       92   1 H                                       1.1791691
    57   5 B       93   1 H                                       1.1786967
    58   5 B       94   1 H                                       1.1691946
    67   5 B       95   1 H                                       1.1762855
    68   5 B       96   1 H                                       1.1716556
    77   5 B       97   1 H                                       1.1831069
    78   5 B       98   1 H                                       1.1684107
    81   5 B       99   1 H                                       1.1614425
    82   5 B      100   1 H                                       1.1694564
    86   5 B      101   1 H                                       1.1717313
    87   5 B      102   1 H                                       1.1658814

 * 6 distinct bonds (by element types)

   Z      Z             #   av. dist./Å        max./Å        min./Å
   1 H    5 B          16     1.1919602     1.3419555     1.1614425
   5 B    5 B          65     1.6436107     1.7834452     1.5490607
   1 H    6 C          18     1.0851175     1.0952068     1.0770348
   6 C    6 C          15     1.3910004     1.4329533     1.3519327
   1 H    8 O           2     0.9646459     0.9646781     0.9646137
   6 C    8 O           8     1.3407682     1.4055488     1.2236646


optimized geometry written to: xtbopt.xyz


           -------------------------------------------------
          | TOTAL ENERGY             -135.733425559181 Eh   |
          | GRADIENT NORM               0.002905363362 Eh/α |
          | HOMO-LUMO GAP               0.029295300002 eV   |
           -------------------------------------------------

------------------------------------------------------------------------
 * finished run on 2026/09/01 at 20:30:42.630     
------------------------------------------------------------------------
 total:
 * wall-time:     0 d,  0 h,  0 min, 28.342 sec
 *  cpu-time:     0 d,  0 h,  4 min, 41.047 sec
 * ratio c/w:     9.916 speedup
 SCF:
 * wall-time:     0 d,  0 h,  0 min,  0.753 sec
 *  cpu-time:     0 d,  0 h,  0 min,  8.922 sec
 * ratio c/w:    11.848 speedup
 ANC optimizer:
 * wall-time:     0 d,  0 h,  0 min, 27.533 sec
 *  cpu-time:     0 d,  0 h,  4 min, 31.531 sec
 * ratio c/w:     9.862 speedup

