107
Drug@B48H12 complex
C      5.500859      1.639429      7.000102
O      6.274763      1.527556      5.814764
C      5.791505      0.723944      4.815630
C      4.601223     -0.009565      4.878263
C      4.181978     -0.801071      3.795488
C      2.936402     -1.570854      3.926994
C      2.082179     -1.795249      2.917709
C      0.830368     -2.568406      3.156433
O      0.503767     -2.941792      4.281457
C     -0.036935     -2.850310      1.963310
C     -0.885123     -1.667269      1.594234
O     -0.553317     -0.906061      0.687463
C     -2.124123     -1.445310      2.392611
C     -2.962459     -0.449525      2.069637
C     -4.194103     -0.137787      2.809365
C     -5.012891     -1.136264      3.351647
C     -6.189160     -0.800011      4.023989
C     -6.554728      0.539333      4.146324
O     -7.708469      0.870519      4.805830
C     -5.762034      1.557231      3.600225
O     -6.218343      2.837643      3.773218
C     -5.429166      3.893346      3.244862
C     -4.585723      1.206550      2.927882
C      4.986877     -0.872108      2.651578
C      6.176833     -0.146089      2.576617
C      6.569978      0.646601      3.653430
O      7.737169      1.359469      3.581054
H      6.025093      2.318754      7.679201
H      4.517274      2.072786      6.790880
H      5.408605      0.671854      7.504315
H      3.974824      0.026559      5.764158
H      2.713971     -1.944850      4.925767
H      2.245842     -1.419018      1.914168
H     -0.673876     -3.717464      2.171424
H      0.584978     -3.135219      1.107148
H     -2.291572     -2.104385      3.237011
H     -2.736253      0.205460      1.228969
H     -4.754312     -2.187095      3.248662
H     -6.806898     -1.590678      4.438056
H     -8.135704      0.062077      5.127128
H     -5.932395      4.836585      3.478399
H     -5.350176      3.820168      2.155207
H     -4.439713      3.920105      3.713135
H     -3.948949      1.969950      2.491730
H      4.706574     -1.500580      1.810050
H      6.783415     -0.214859      1.679100
H      8.151943      1.205899      2.718662
B     -7.500000     -4.500000      0.000000
B     -4.500000     -4.500000      0.000000
B     -1.500000     -4.500000      0.000000
B      1.500000     -4.500000      0.000000
B      4.500000     -4.500000      0.000000
B      7.500000     -4.500000      0.000000
B     -7.500000     -3.000000      0.000000
B     -4.500000     -3.000000      0.000000
B     -1.500000     -3.000000      0.000000
B      1.500000     -3.000000      0.000000
B      4.500000     -3.000000      0.000000
B      7.500000     -3.000000      0.000000
B     -7.500000     -1.500000      0.000000
B     -4.500000     -1.500000      0.000000
B     -1.500000     -1.500000      0.000000
B      1.500000     -1.500000      0.000000
B      4.500000     -1.500000      0.000000
B      7.500000     -1.500000      0.000000
B     -7.500000      0.000000      0.000000
B     -4.500000      0.000000      0.000000
B     -1.500000      0.000000      0.000000
B      1.500000      0.000000      0.000000
B      4.500000      0.000000      0.000000
B      7.500000      0.000000      0.000000
B     -7.500000      1.500000      0.000000
B     -4.500000      1.500000      0.000000
B     -1.500000      1.500000      0.000000
B      1.500000      1.500000      0.000000
B      4.500000      1.500000      0.000000
B      7.500000      1.500000      0.000000
B     -7.500000      3.000000      0.000000
B     -4.500000      3.000000      0.000000
B     -1.500000      3.000000      0.000000
B      1.500000      3.000000      0.000000
B      4.500000      3.000000      0.000000
B      7.500000      3.000000      0.000000
B     -7.500000      4.500000      0.000000
B     -4.500000      4.500000      0.000000
B     -1.500000      4.500000      0.000000
B      1.500000      4.500000      0.000000
B      4.500000      4.500000      0.000000
B      7.500000      4.500000      0.000000
B     -6.000000     -3.750000      0.000000
B     -3.000000     -3.750000      0.000000
B      0.000000     -3.750000      0.000000
B      3.000000     -3.750000      0.000000
B      6.000000     -3.750000      0.000000
B     -6.000000      3.750000      0.000000
B     -3.000000      3.750000      0.000000
B      0.000000      3.750000      0.000000
B      3.000000      3.750000      0.000000
B      6.000000      3.750000      0.000000
B     -6.000000      0.000000      0.000000
H     -8.600000     -4.500000      0.000000
H     -8.600000     -1.500000      0.000000
H     -8.600000      1.500000      0.000000
H     -8.600000      4.500000      0.000000
H      8.600000     -4.500000      0.000000
H      8.600000     -1.500000      0.000000
H      8.600000      1.500000      0.000000
