102
 energy: -135.767546874906 gnorm: 0.005288118035 xtb: 6.7.1pre (5071a88)
C           -0.68590335655100       -5.68691352472280       10.87561590166112
O            0.20832714882294       -5.86710059827722        9.80749347581627
C            0.18930192759373       -4.96070907523289        8.79021285522664
C           -0.63337696633714       -3.85410987200640        8.72443154446228
C           -0.60137599811517       -2.96887411843856        7.63409596420261
C           -1.48813408162145       -1.83662591574604        7.64990121438480
C           -1.68622979091926       -0.92163717188730        6.67581273649138
C           -2.65643613404305        0.14220214615256        6.85640294769023
O           -3.25928888804501        0.35110378867767        7.89989633355591
C           -2.81443674337695        1.06232651730401        5.65077386277681
C           -1.50611356409136        1.79364098855178        5.62540084354216
O           -0.61973741186811        1.57267955925314        4.64045002658721
C           -1.16138299420964        2.66420178691185        6.64586792427757
C           -0.02831740710669        3.45448131607298        6.63729038063593
C            0.34506509711145        4.40301060885381        7.62859979470838
C           -0.29034771697454        4.50699762537331        8.87397799460360
C            0.10913392861090        5.45777532272945        9.78937871880516
C            1.14020400725295        6.34127454489140        9.50827440020454
O            1.54675275789624        7.29636223647904       10.39710444110898
C            1.79601745668783        6.25883565697668        8.26412598754122
O            2.79384347779736        7.17371224782595        8.06350158319611
C            3.43920414608372        7.18961040284513        6.81800910313477
C            1.40263147583512        5.29732137631207        7.35841151688240
C            0.29627811757686       -3.22902471349475        6.59753212276625
C            1.13311573963111       -4.32710221244625        6.65709959446295
C            1.09545440736481       -5.19824835085211        7.73504681333963
O            1.90766237547452       -6.28760017246834        7.81546708713054
H           -0.50382826225245       -6.51783710102224       11.55576519507063
H           -0.50386481688167       -4.74363847197009       11.40234521983155
H           -1.72792063147348       -5.71743325029986       10.53918256473267
H           -1.32946023305359       -3.64761929798610        9.52189519615113
H           -2.07266510923599       -1.70134698926615        8.55173711670303
H           -1.16432772676086       -0.97170540240014        5.73359687813161
H           -3.65379902624249        1.73847693517071        5.81783598719457
H           -2.97303453990466        0.49016866890304        4.73700517654975
H           -1.86764490362491        2.74176541226473        7.45762055782741
H            0.61429726808285        3.38345418309449        5.77001009160007
H           -1.08997879167160        3.83237135877227        9.13176182026774
H           -0.38819331746765        5.52356260416964       10.74926649523679
H            1.00855036624467        7.22818113311319       11.19454210470793
H            4.15097742088439        8.01274542312355        6.86670257730410
H            2.73272678904287        7.37000737458290        5.99950859085274
H            3.98109036107328        6.25608404728697        6.62879750818780
H            1.89458098093189        5.22047482704850        6.40109597793929
H            0.35316050896612       -2.57063519934262        5.74672149078093
H            1.83336149622818       -4.51502823961536        5.85398847166037
H            2.48426234460978       -6.31196070137683        7.04056287317772
B           -4.51412540686303       -2.93794594842157       -0.01005063134569
B           -3.94364699670132       -1.48202585832620       -0.41070016504844
B           -3.06317030458907       -0.35186910424603       -1.25367275112086
B           -2.92654915306368       -2.84916064053303       -0.07008266676159
B           -2.17483711495619       -0.05317853512183       -0.01883998836981
B           -4.01054454529554        0.04528959004017        0.34015259270307
B           -5.13037180349533        1.19528020727663        0.53885510705669
B           -4.59472731357095        2.71740601401334        0.45767961638050
B           -2.84116300442305        0.15059253015608        1.49675776858999
B           -3.80663554256468        3.37713747327047        1.71072692194523
B           -1.64064100493427       -3.87357820409455       -0.21494266606480
B           -1.43723573969685       -2.49403875139359        0.59404708847649
B           -1.41812868200304       -0.96386388164966        1.12904303272137
B           -0.39904103420888       -3.72422807428966        0.88882071030584
B           -0.37874260642658       -0.92926653690595        2.49337851126241
B           -1.75076332033992       -0.21963024371941        2.67611979869107
B           -2.18620120187073        1.39139121439044        2.34618251651144
B           -2.31039740625616        2.82697129744670        1.70270934700181
B           -0.80392075915418        1.20416276814184        3.31039941704302
B           -0.96434356766567        3.62327734282508        1.08334661950586
B            0.89092526247269       -4.69840580642200        1.19499198128429
B            0.71008533865344       -3.30649531485532        2.00488088223736
B            1.03010683991886       -1.83363251193429        2.51222264802187
B            2.12882241032732       -4.21800369073354        2.17579866374084
B            2.47416818628206       -1.11980904031694        2.20717429578525
B            1.16357972166185       -0.21951187530635        2.35416197032313
B            0.63515735442522        1.41612583848112        2.38518988077529
B            0.17785533777685        2.60782761054120        1.40035117506122
B            1.99753532647897        0.96649044679552        1.62262679979661
B            0.74450679160655        1.55752968926060        0.26474120023008
B            3.21069895816486       -4.65267909449041        3.36970355285380
B            3.63949457917732       -3.58980288547409        2.17538083647897
B            3.80762500920825       -2.06325003571507        1.72107239896076
B            4.55558054133727       -3.79748113147534        3.45005400304917
B            4.96601313358756       -1.27233256113534        0.79869954480161
B            3.93431089016401       -0.43781447440336        1.74264637602534
B            3.56375901038661        1.15196308313766        1.07393909420536
B            2.33341910604797        1.51604011709449        0.00608195689031
B            5.05604891465692        0.46835834988402        0.92867444073304
B            3.80385078560540        1.45847360052518       -0.50219259042130
H           -5.32953966377591       -3.57083676967011        0.54347098339557
H           -5.02086993961342       -2.14859023807165       -0.90567243277385
H           -3.25285187788315       -0.07448471718668       -2.37994876101958
H           -6.25594319513651        0.92384793622902        0.77411067794553
H           -4.75342756076148        3.34429993139916       -0.52815673265453
H           -4.33820409087885        4.08218918736118        2.48578879586645
H           -1.63538965194075       -4.70433078552035       -1.04226842425878
H           -1.02186856109760        4.60574081065645        0.44084246042021
H            1.01996224838897       -5.78789101924078        0.79534900660981
H            0.02466968501149        0.90578909316278       -0.40363756948637
H            2.99525630888613       -5.64690064482615        3.95098826676833
H            5.53556546672809       -3.51985452620438        4.01860633587871
H            5.77960890370671       -1.82941821655752        0.17539508600673
H            6.09976942415460        0.99518689783328        1.05401279281054
H            4.51204932628698        1.66571937446676       -1.40592183942938
