      -----------------------------------------------------------      
     |                   =====================                   |     
     |                           x T B                           |     
     |                   =====================                   |     
     |                         S. Grimme                         |     
     |          Mulliken Center for Theoretical Chemistry        |     
     |                    University of Bonn                     |     
      -----------------------------------------------------------      

   * xtb version 6.7.1pre (5071a88) compiled by 'Marcel@Raven' on 2024-07-23

   xtb is free software: you can redistribute it and/or modify it under
   the terms of the GNU Lesser General Public License as published by
   the Free Software Foundation, either version 3 of the License, or
   (at your option) any later version.
   
   xtb is distributed in the hope that it will be useful,
   but WITHOUT ANY WARRANTY; without even the implied warranty of
   MERCHANTABILITY or FITNESS FOR A PARTICULAR PURPOSE.  See the
   GNU Lesser General Public License for more details.
   
   Cite this work as:
   * C. Bannwarth, E. Caldeweyher, S. Ehlert, A. Hansen, P. Pracht,
     J. Seibert, S. Spicher, S. Grimme, WIREs Comput. Mol. Sci., 2020, 11,
     e01493. DOI: 10.1002/wcms.1493
   
   for GFN2-xTB:
   * C. Bannwarth, S. Ehlert and S. Grimme., J. Chem. Theory Comput., 2019,
     15, 1652-1671. DOI: 10.1021/acs.jctc.8b01176
   for GFN1-xTB:
   * S. Grimme, C. Bannwarth, P. Shushkov, J. Chem. Theory Comput., 2017,
     13, 1989-2009. DOI: 10.1021/acs.jctc.7b00118
   for GFN0-xTB:
   * P. Pracht, E. Caldeweyher, S. Ehlert, S. Grimme, ChemRxiv, 2019, preprint.
     DOI: 10.26434/chemrxiv.8326202.v1
   for GFN-FF:
   * S. Spicher and S. Grimme, Angew. Chem. Int. Ed., 2020, 59, 15665-15673.
     DOI: 10.1002/anie.202004239
   
   for ALPB and GBSA implicit solvation:
   * S. Ehlert, M. Stahn, S. Spicher, S. Grimme, J. Chem. Theory Comput.,
     2021, 17, 4250-4261. DOI: 10.1021/acs.jctc.1c00471
   
   for ddCOSMO and CPCM-X implicit solvation:
   * M. Stahn, S. Ehlert, S. Grimme, J. Phys. Chem. A,
     2023, XX, XXXX-XXXX. DOI: 10.1021/acs.jpca.3c04382
   
   for DFT-D4:
   * E. Caldeweyher, C. Bannwarth and S. Grimme, J. Chem. Phys., 2017,
     147, 034112. DOI: 10.1063/1.4993215
   * E. Caldeweyher, S. Ehlert, A. Hansen, H. Neugebauer, S. Spicher,
     C. Bannwarth and S. Grimme, J. Chem. Phys., 2019, 150, 154122.
     DOI: 10.1063/1.5090222
   * E. Caldeweyher, J.-M. Mewes, S. Ehlert and S. Grimme, Phys. Chem. Chem. Phys.
     2020, 22, 8499-8512. DOI: 10.1039/D0CP00502A
   
   for sTDA-xTB:
   * S. Grimme and C. Bannwarth, J. Chem. Phys., 2016, 145, 054103.
     DOI: 10.1063/1.4959605
   
   in the mass-spec context:
   * V. Asgeirsson, C. Bauer and S. Grimme, Chem. Sci., 2017, 8, 4879.
     DOI: 10.1039/c7sc00601b
   * J. Koopman and S. Grimme, ACS Omega 2019, 4, 12, 15120-15133.
     DOI: 10.1021/acsomega.9b02011
   
   for metadynamics refer to:
   * S. Grimme, J. Chem. Theory Comput., 2019, 155, 2847-2862
     DOI: 10.1021/acs.jctc.9b00143
   
   for SPH calculations refer to:
   * S. Spicher and S. Grimme, J. Chem. Theory Comput., 2021, 17, 1701-1714
     DOI: 10.1021/acs.jctc.0c01306
   
   for ONIOM refer to:
   * C. Plett, A. Katbashev, S. Ehlert, S. Grimme, M. Bursch,
     Phys. Chem. Chem. Phys., 2023, 25, 17860-17868. DOI: 10.1039/D3CP02178E
   
   for DIPRO refer to:
   * J. Kohn, N. Gildemeister, S. Grimme, D. Fazzi, A. Hansen,
     J. Chem. Phys., 2023, just accepted.
   
   for PTB refer to:
   * S. Grimme, M. Mueller, A. Hansen, J. Chem. Phys., 2023, 158, 124111.
     DOI: 10.1063/5.0137838
   
   with help from (in alphabetical order)
   P. Atkinson, C. Bannwarth, F. Bohle, G. Brandenburg, E. Caldeweyher
   M. Checinski, S. Dohm, S. Ehlert, S. Ehrlich, I. Gerasimov, C. Hölzer
   A. Katbashev, J. Kohn, J. Koopman, C. Lavigne, S. Lehtola, F. März, M. Müller,
   F. Musil, H. Neugebauer, J. Pisarek, C. Plett, P. Pracht, F. Pultar,
   J. Seibert, P. Shushkov, S. Spicher, M. Stahn, M. Steiner, T. Strunk,
   J. Stückrath, T. Rose, and J. Unsleber
   
 * started run on 2026/08/31 at 21:15:24.949     
   ID    Z sym.   atoms
    1    6 C      1, 3-8, 10, 11, 13-18, 20, 22-26
    2    8 O      2, 9, 12, 19, 21, 27
    3    1 H      28-47, 101-107
    4    5 B      48-100

           -------------------------------------------------
          |                Calculation Setup                |
           -------------------------------------------------

          program call               : "c:\Users\Andre\Proyectos doctorado\kras-pancreatic-gC3N4-ai\tools\xtb\xtb-6.7.1\bin\xtb.exe" "c:\Users\Andre\Proyectos doctorado\borophene-alzheimer-tau-ai\calculations\tau\Curcumin\Curcumin_B48H12_phys_complex.xyz" --gfn 2 --sp --chrg 0 --uhf 0 --etemp 300 --iterations 500 --norestart
          coordinate file            : c:\Users\Andre\Proyectos doctorado\borophene-alzheimer-tau-ai\calculations\tau\Curcumin\Curcumin_B48H12_phys_complex.xyz
          omp threads                :                    16


           -------------------------------------------------
          |                 G F N 2 - x T B                 |
           -------------------------------------------------

        Reference                      10.1021/acs.jctc.8b01176
      * Hamiltonian:
        H0-scaling (s, p, d)           1.850000    2.230000    2.230000
        zeta-weighting                 0.500000
      * Dispersion:
        s8                             2.700000
        a1                             0.520000
        a2                             5.000000
        s9                             5.000000
      * Repulsion:
        kExp                           1.500000    1.000000
        rExp                           1.000000
      * Coulomb:
        alpha                          2.000000
        third order                    shell-resolved
        anisotropic                    true
        a3                             3.000000
        a5                             4.000000
        cn-shift                       1.200000
        cn-exp                         4.000000
        max-rad                        5.000000


          ...................................................
          :                      SETUP                      :
          :.................................................:
          :  # basis functions                 347          :
          :  # atomic orbitals                 347          :
          :  # shells                          187          :
          :  # electrons                       306          :
          :  max. iterations                   500          :
          :  Hamiltonian                  GFN2-xTB          :
          :  restarted?                      false          :
          :  GBSA solvation                  false          :
          :  PC potential                    false          :
          :  electronic temp.          300.0000000     K    :
          :  accuracy                    1.0000000          :
          :  -> integral cutoff          0.2500000E+02      :
          :  -> integral neglect         0.1000000E-07      :
          :  -> SCF convergence          0.1000000E-05 Eh   :
          :  -> wf. convergence          0.1000000E-03 e    :
          :  Broyden damping             0.4000000          :
          :  net charge                          0          :
          :  unpaired electrons                  0          :
          ...................................................

 iter      E             dE          RMSdq      gap      omega  full diag
   1   -147.5285658 -0.147529E+03  0.145E+01    0.31       0.0  T
   2   -135.1871469  0.123414E+02  0.111E+01    0.16       1.0  T
   3      8.2858430  0.143473E+03  0.173E+01    0.13       1.0  T
   4     45.8721174  0.375863E+02  0.166E+01    0.06       1.0  T
   5    -84.3121107 -0.130184E+03  0.108E+01    0.06       1.0  T
   6    -91.7998369 -0.748773E+01  0.953E+00    0.20       1.0  T
   7    -61.3311299  0.304687E+02  0.109E+01    0.06       1.0  T
   8   -138.0757067 -0.767446E+02  0.515E+00    0.07       1.0  T
   9   -144.5343475 -0.645864E+01  0.423E+00    0.04       1.0  T
  10   -147.4262560 -0.289191E+01  0.335E+00    0.09       1.0  T
  11   -148.4954584 -0.106920E+01  0.300E+00    0.08       1.0  T
  12   -148.7143018 -0.218843E+00  0.259E+00    0.11       1.0  T
  13   -148.8246982 -0.110396E+00  0.246E+00    0.05       1.0  T
  14   -148.6571827  0.167515E+00  0.237E+00    0.16       1.0  T
  15   -148.6495516  0.763112E-02  0.210E+00    0.20       1.0  T
  16   -148.8962923 -0.246741E+00  0.134E+00    0.02       1.0  T
  17   -148.9541530 -0.578608E-01  0.132E+00    0.16       1.0  T
  18   -149.1565702 -0.202417E+00  0.918E-01    0.10       1.0  T
  19   -149.1674020 -0.108318E-01  0.873E-01    0.10       1.0  T
  20   -149.1698066 -0.240459E-02  0.868E-01    0.10       1.0  T
  21   -149.1676600  0.214653E-02  0.847E-01    0.10       1.0  T
  22   -149.1803059 -0.126458E-01  0.800E-01    0.10       1.0  T
  23   -149.1788288  0.147708E-02  0.677E-01    0.12       1.0  T
  24   -149.2258196 -0.469909E-01  0.430E-01    0.12       1.0  T
  25   -149.2307611 -0.494143E-02  0.349E-01    0.12       1.0  T
  26   -149.2331983 -0.243719E-02  0.320E-01    0.12       1.0  T
  27   -149.2337842 -0.585936E-03  0.295E-01    0.12       1.0  T
  28   -149.2372946 -0.351036E-02  0.218E-01    0.11       1.0  T
  29   -149.2397810 -0.248641E-02  0.149E-01    0.10       1.0  T
  30   -149.2411873 -0.140629E-02  0.118E-01    0.10       1.0  T
  31   -149.2416965 -0.509194E-03  0.986E-02    0.10       1.0  T
  32   -149.2422483 -0.551882E-03  0.755E-02    0.10       1.0  T
  33   -149.2422659 -0.175734E-04  0.717E-02    0.11       1.0  T
  34   -149.2423243 -0.584212E-04  0.625E-02    0.11       1.0  T
  35   -149.2423214  0.296516E-05  0.396E-02    0.11       1.0  T
  36   -149.2424267 -0.105299E-03  0.324E-02    0.11       1.0  T
  37   -149.2424829 -0.562279E-04  0.277E-02    0.11       1.0  T
  38   -149.2425201 -0.372246E-04  0.237E-02    0.11       1.0  T
  39   -149.2425541 -0.339613E-04  0.175E-02    0.11       1.0  T
  40   -149.2425605 -0.640579E-05  0.120E-02    0.11       1.0  T
  41   -149.2425718 -0.112602E-04  0.878E-03    0.11       1.1  T
  42   -149.2425777 -0.590674E-05  0.642E-03    0.11       1.5  T
  43   -149.2425802 -0.251318E-05  0.537E-03    0.11       1.8  T
  44   -149.2425802 -0.408967E-07  0.497E-03    0.11       1.9  T
  45   -149.2425823 -0.213629E-05  0.342E-03    0.11       2.8  T
  46   -149.2425838 -0.140569E-05  0.177E-03    0.11       5.5  T
  47   -149.2425841 -0.338928E-06  0.103E-03    0.11       9.4  T
  48   -149.2425842 -0.655908E-07  0.819E-04    0.11      11.8  T
  49   -149.2425842 -0.511812E-07  0.591E-04    0.11      16.4  T

   *** convergence criteria satisfied after 49 iterations ***

         #    Occupation            Energy/Eh            Energy/eV
      -------------------------------------------------------------
         1        2.0000           -0.7246159             -19.7178
       ...           ...                  ...                  ...
       147        2.0000           -0.2818707              -7.6701
       148        2.0000           -0.2805397              -7.6339
       149        2.0000           -0.2741377              -7.4597
       150        2.0000           -0.2736335              -7.4459
       151        2.0000           -0.2692773              -7.3274
       152        2.0000           -0.2621615              -7.1338
       153        1.7807           -0.2500966              -6.8055 (HOMO)
       154        0.2133           -0.2460876              -6.6964 (LUMO)
       155        0.0047           -0.2423482              -6.5946
       156        0.0013           -0.2411682              -6.5625
       157        0.0000           -0.2370968              -6.4517
       158                         -0.2290260              -6.2321
       ...                                ...                  ...
       347                          2.0583029              56.0093
      -------------------------------------------------------------
                  HL-Gap            0.0040089 Eh            0.1091 eV
             Fermi-level           -0.2481069 Eh           -6.7513 eV

 SCC (total)                   0 d,  0 h,  0 min,  1.061 sec
 SCC setup                      ...        0 min,  0.001 sec (  0.094%)
 Dispersion                     ...        0 min,  0.002 sec (  0.189%)
 classical contributions        ...        0 min,  0.000 sec (  0.000%)
 integral evaluation            ...        0 min,  0.008 sec (  0.754%)
 iterations                     ...        0 min,  1.024 sec ( 96.513%)
 molecular gradient             ...        0 min,  0.024 sec (  2.262%)
 printout                       ...        0 min,  0.002 sec (  0.189%)

         :::::::::::::::::::::::::::::::::::::::::::::::::::::
         ::                     SUMMARY                     ::
         :::::::::::::::::::::::::::::::::::::::::::::::::::::
         :: total energy            -146.978154144205 Eh    ::
         :: gradient norm              0.821560125927 Eh/a0 ::
         :: HOMO-LUMO gap              0.109088176447 eV    ::
         ::.................................................::
         :: SCC energy              -149.238156784925 Eh    ::
         :: -> isotropic ES            0.344132524824 Eh    ::
         :: -> anisotropic ES          0.010022586512 Eh    ::
         :: -> anisotropic XC         -0.037086427814 Eh    ::
         :: -> dispersion             -0.140387082055 Eh    ::
         :: repulsion energy           2.260002640720 Eh    ::
         :: add. restraining           0.000000000000 Eh    ::
         :: total charge              -0.000000000002 e     ::
         :::::::::::::::::::::::::::::::::::::::::::::::::::::

           -------------------------------------------------
          |                Property Printout                |
           -------------------------------------------------

    * Orbital Energies and Occupations

         #    Occupation            Energy/Eh            Energy/eV
      -------------------------------------------------------------
         1        2.0000           -0.7246159             -19.7178
       ...           ...                  ...                  ...
       141        2.0000           -0.2961181              -8.0578
       142        2.0000           -0.2954535              -8.0397
       143        2.0000           -0.2893317              -7.8731
       144        2.0000           -0.2876547              -7.8275
       145        2.0000           -0.2864922              -7.7959
       146        2.0000           -0.2828311              -7.6962
       147        2.0000           -0.2818707              -7.6701
       148        2.0000           -0.2805397              -7.6339
       149        2.0000           -0.2741377              -7.4597
       150        2.0000           -0.2736335              -7.4459
       151        2.0000           -0.2692773              -7.3274
       152        2.0000           -0.2621615              -7.1338
       153        1.7807           -0.2500966              -6.8055 (HOMO)
       154        0.2133           -0.2460876              -6.6964 (LUMO)
       155        0.0047           -0.2423482              -6.5946
       156        0.0013           -0.2411682              -6.5625
       157        0.0000           -0.2370968              -6.4517
       158                         -0.2290260              -6.2321
       159                         -0.2271717              -6.1817
       160                         -0.2248977              -6.1198
       161                         -0.2229865              -6.0678
       162                         -0.2162851              -5.8854
       163                         -0.2106748              -5.7328
       164                         -0.2068866              -5.6297
       ...                                ...                  ...
       347                          2.0583029              56.0093
      -------------------------------------------------------------
                  HL-Gap            0.0040089 Eh            0.1091 eV
             Fermi-level           -0.2481069 Eh           -6.7513 eV

     #   Z          covCN         q      C6AA      α(0)
     1   6 C        3.641     0.032    20.380     6.492
     2   8 O        1.703    -0.262    18.348     5.783
     3   6 C        2.854     0.121    25.341     8.251
     4   6 C        2.919    -0.083    30.078     8.994
     5   6 C        2.965    -0.004    28.124     8.699
     6   6 C        2.901    -0.041    29.014     8.832
     7   6 C        2.891    -0.092    30.317     9.027
     8   6 C        2.822     0.188    23.980     8.024
     9   8 O        0.857    -0.449    22.680     6.385
    10   6 C        3.806    -0.117    22.739     6.788
    11   6 C        3.146     0.008    27.570     8.590
    12   8 O        2.082    -0.081    15.543     5.325
    13   6 C        2.891    -0.092    30.317     9.027
    14   6 C        2.901    -0.115    30.907     9.116
    15   6 C        2.965    -0.007    28.200     8.710
    16   6 C        2.915    -0.064    29.587     8.920
    17   6 C        2.908    -0.082    30.043     8.988
    18   6 C        2.843     0.110    25.558     8.285
    19   8 O        1.658    -0.401    20.865     6.166
    20   6 C        2.854     0.116    25.451     8.269
    21   8 O        1.703    -0.269    18.459     5.801
    22   6 C        3.641     0.027    20.479     6.507
    23   6 C        2.919    -0.099    30.487     9.054
    24   6 C        2.915    -0.064    29.582     8.919
    25   6 C        2.908    -0.086    30.158     9.005
    26   6 C        2.843     0.115    25.464     8.270
    27   8 O        1.658    -0.395    20.746     6.149
    28   1 H        0.924     0.058     2.223     2.331
    29   1 H        0.924     0.042     2.422     2.434
    30   1 H        0.924     0.044     2.399     2.422
    31   1 H        0.925     0.042     2.423     2.434
    32   1 H        0.925     0.054     2.269     2.356
    33   1 H        0.925     0.017     2.782     2.608
    34   1 H        0.924     0.054     2.274     2.358
    35   1 H        0.924     0.057     2.231     2.336
    36   1 H        0.925     0.028     2.618     2.530
    37   1 H        0.925     0.020     2.740     2.588
    38   1 H        0.925     0.030     2.585     2.514
    39   1 H        0.925     0.021     2.720     2.579
    40   1 H        0.804     0.293     0.743     1.354
    41   1 H        0.924     0.055     2.255     2.348
    42   1 H        0.924     0.046     2.373     2.409
    43   1 H        0.924     0.040     2.448     2.447
    44   1 H        0.925     0.032     2.555     2.500
    45   1 H        0.925     0.033     2.543     2.494
    46   1 H        0.925     0.026     2.647     2.544
    47   1 H        0.804     0.297     0.731     1.343
    48   5 B        2.872     0.049    20.577     7.572
    49   5 B        3.645     0.033    21.729     7.590
    50   5 B        3.704     0.019    22.221     7.627
    51   5 B        3.599     0.007    21.904     7.677
    52   5 B        3.804     0.016    22.417     7.634
    53   5 B        3.812     0.039    22.006     7.563
    54   5 B        4.425     0.064    21.582     7.485
    55   5 B        3.843     0.018    22.389     7.626
    56   5 B        5.105     0.066    21.561     7.482
    57   5 B        5.523     0.093    21.097     7.401
    58   5 B        3.792     0.006    22.601     7.666
    59   5 B        4.799     0.087    21.197     7.418
    60   5 B        4.746     0.065    21.577     7.484
    61   5 B        3.691     0.007    22.404     7.667
    62   5 B        4.844     0.206    19.280     7.075
    63   5 B        4.170    -0.023    23.174     7.757
    64   5 B        3.938     0.011    22.534     7.649
    65   5 B        3.779     0.075    21.353     7.454
    66   5 B        3.808     0.064    21.569     7.488
    67   5 B        3.812    -0.010    22.913     7.717
    68   5 B        4.101     0.071    21.473     7.466
    69   5 B        3.825    -0.015    23.015     7.733
    70   5 B        4.691     0.054    21.757     7.516
    71   5 B        4.735     0.048    21.864     7.534
    72   5 B        3.813     0.073    21.406     7.459
    73   5 B        2.071    -0.000    43.030    13.721
    74   5 B        3.706     0.000    22.573     7.686
    75   5 B        4.547     0.011    22.540     7.650
    76   5 B        4.200     0.036    22.082     7.571
    77   5 B        3.748     0.071    21.388     7.466
    78   5 B        3.840    -0.001    22.755     7.689
    79   5 B        3.769     0.016    22.391     7.634
    80   5 B        4.530     0.060    21.655     7.498
    81   5 B        5.624     0.104    20.904     7.367
    82   5 B        3.805     0.024    22.282     7.611
    83   5 B        3.825     0.018    22.398     7.629
    84   5 B        2.886     0.073    20.174     7.497
    85   5 B        2.918     0.047    20.597     7.573
    86   5 B        2.913     0.022    21.015     7.650
    87   5 B        3.630     0.007    22.107     7.673
    88   5 B        3.792     0.017    22.394     7.631
    89   5 B        2.860    -0.001    21.442     7.731
    90   5 B        2.920    -0.028    21.910     7.811
    91   5 B        3.825     0.026    22.243     7.602
    92   5 B        2.901    -0.021    21.780     7.789
    93   5 B        4.532     0.043    21.967     7.552
    94   5 B        3.896     0.044    21.943     7.548
    95   5 B        3.818     0.017    22.414     7.632
    96   5 B        3.778    -0.036    23.387     7.801
    97   5 B        3.628    -0.016    22.507     7.744
    98   5 B        4.556     0.021    22.353     7.618
    99   5 B        3.280     0.021    21.020     7.646
   100   5 B        4.869     0.088    21.172     7.414
   101   1 H        0.937    -0.165     8.498     4.558
   102   1 H        0.935    -0.138     7.088     4.163
   103   1 H        0.936    -0.133     6.880     4.101
   104   1 H        0.939    -0.146     7.502     4.282
   105   1 H        0.936    -0.132     6.824     4.084
   106   1 H        0.937    -0.137     7.070     4.157
   107   1 H        0.934    -0.135     6.937     4.118

 Mol. C6AA /au·bohr⁶  :     188104.068027
 Mol. C8AA /au·bohr⁸  :    6001316.441255
 Mol. α(0) /au        :        696.940674


Wiberg/Mayer (AO) data.
largest (>0.10) Wiberg bond orders for each atom

 ---------------------------------------------------------------------------
     #   Z sym  total        # sym  WBO       # sym  WBO       # sym  WBO
 ---------------------------------------------------------------------------
     1   6 C    3.948 --     2 O    0.986    28 H    0.980    29 H    0.977
                            30 H    0.977
     2   8 O    2.226 --     3 C    1.055     1 C    0.986
     3   6 C    3.933 --     4 C    1.405    26 C    1.286     2 O    1.055
     4   6 C    3.951 --     3 C    1.405     5 C    1.343    31 H    0.965
     5   6 C    3.967 --    24 C    1.367     4 C    1.343     6 C    1.102
     6   6 C    3.902 --     7 C    1.705     5 C    1.102    32 H    0.957
     7   6 C    3.955 --     6 C    1.705     8 C    1.086    33 H    0.967
     8   6 C    3.893 --     9 O    1.679     7 C    1.086    10 C    0.966
     9   8 O    1.948 --     8 C    1.679
    10   6 C    3.978 --     8 C    0.966    11 C    0.963    34 H    0.963
                            35 H    0.932
    11   6 C    3.738 --    13 C    1.253    12 O    1.070    10 C    0.963
    12   8 O    2.701 --    62 B    1.209    11 C    1.070    68 B    0.188
    13   6 C    3.964 --    14 C    1.579    11 C    1.253    36 H    0.967
    14   6 C    3.864 --    13 C    1.579    15 C    1.115    37 H    0.945
    15   6 C    3.976 --    16 C    1.360    23 C    1.338    14 C    1.115
    16   6 C    3.959 --    17 C    1.441    15 C    1.360    38 H    0.970
    17   6 C    3.981 --    16 C    1.441    18 C    1.386    39 H    0.966
    18   6 C    3.897 --    17 C    1.386    20 C    1.290    19 O    1.048
    19   8 O    2.086 --    18 C    1.048    40 H    0.893
    20   6 C    3.928 --    23 C    1.405    18 C    1.290    21 O    1.045
    21   8 O    2.215 --    20 C    1.045    22 C    0.989
    22   6 C    3.951 --    21 O    0.989    41 H    0.980    43 H    0.978
                            42 H    0.977
    23   6 C    3.951 --    20 C    1.405    15 C    1.338    44 H    0.966
    24   6 C    3.960 --    25 C    1.437     5 C    1.367    45 H    0.970
    25   6 C    3.980 --    24 C    1.437    26 C    1.387    46 H    0.966
    26   6 C    3.900 --    25 C    1.387     3 C    1.286    27 O    1.056
    27   8 O    2.095 --    26 C    1.056    47 H    0.891
    28   1 H    0.996 --     1 C    0.980
    29   1 H    0.998 --     1 C    0.977
    30   1 H    0.998 --     1 C    0.977
    31   1 H    0.998 --     4 C    0.965
    32   1 H    0.996 --     6 C    0.957
    33   1 H    1.000 --     7 C    0.967
    34   1 H    0.991 --    10 C    0.963
    35   1 H    0.993 --    10 C    0.932
    36   1 H    0.997 --    13 C    0.967
    37   1 H    0.999 --    14 C    0.945
    38   1 H    0.999 --    16 C    0.970
    39   1 H    0.998 --    17 C    0.966
    40   1 H    0.914 --    19 O    0.893
    41   1 H    0.996 --    22 C    0.980
    42   1 H    0.998 --    22 C    0.977
    43   1 H    0.998 --    22 C    0.978
    44   1 H    0.998 --    23 C    0.966
    45   1 H    0.999 --    24 C    0.970
    46   1 H    0.998 --    25 C    0.966
    47   1 H    0.911 --    27 O    0.891
    48   5 B    3.458 --    90 B    1.417   101 H    0.962    54 B    0.822
    49   5 B    3.494 --    90 B    1.149    91 B    0.961    55 B    0.536
                            54 B    0.528
    50   5 B    3.492 --    92 B    1.249    91 B    1.006    56 B    0.482
                            57 B    0.467
    51   5 B    3.471 --    92 B    1.297    52 B    1.017    57 B    0.541
                            93 B    0.348
    52   5 B    3.536 --    94 B    1.090    51 B    1.017    58 B    0.684
                            93 B    0.482
    53   5 B    3.587 --   105 H    0.942    94 B    0.853    65 B    0.807
                            59 B    0.799
    54   5 B    3.611 --    60 B    0.832    48 B    0.822    90 B    0.769
                            49 B    0.528    61 B    0.394
    55   5 B    3.571 --    61 B    1.102    56 B    0.756    91 B    0.727
                            49 B    0.536
    56   5 B    3.580 --    55 B    0.756    62 B    0.645    91 B    0.580
                            57 B    0.567    50 B    0.482    63 B    0.247
    57   5 B    3.611 --    63 B    0.633    93 B    0.615    56 B    0.567
                            92 B    0.567    51 B    0.541    50 B    0.467
    58   5 B    3.592 --    64 B    1.099    93 B    0.919    52 B    0.684
                            94 B    0.505
    59   5 B    3.595 --    65 B    0.845    53 B    0.799    71 B    0.689
                            94 B    0.592    64 B    0.515
    60   5 B    3.615 --    54 B    0.832    66 B    0.747    61 B    0.702
                            67 B    0.559   100 B    0.493
    61   5 B    3.551 --    55 B    1.102    67 B    0.938    60 B    0.702
                            54 B    0.394
    62   5 B    3.458 --    12 O    1.209    56 B    0.645    68 B    0.537
                            69 B    0.492    63 B    0.289
    63   5 B    3.558 --    69 B    1.096    93 B    0.944    57 B    0.633
                            62 B    0.289    56 B    0.247
    64   5 B    3.546 --    58 B    1.099    70 B    0.838    71 B    0.611
                            59 B    0.515    94 B    0.176
    65   5 B    3.510 --   106 H    0.954    59 B    0.845    53 B    0.807
                            71 B    0.679
    66   5 B    3.528 --   102 H    0.941    72 B    0.834    60 B    0.747
                           100 B    0.734
    67   5 B    3.619 --    73 B    1.259    61 B    0.938    60 B    0.559
                           100 B    0.541
    68   5 B    3.345 --    74 B    1.221    69 B    0.588    62 B    0.537
                            75 B    0.444    12 O    0.188
    69   5 B    3.528 --    63 B    1.096    75 B    0.987    68 B    0.588
                            62 B    0.492
    70   5 B    3.575 --    76 B    0.859    64 B    0.838    83 B    0.561
                            71 B    0.537    77 B    0.502
    71   5 B    3.597 --    77 B    0.862    59 B    0.689    65 B    0.679
                            64 B    0.611    70 B    0.537
    72   5 B    3.567 --   103 H    0.943    66 B    0.834   100 B    0.779
                            78 B    0.717
    73   5 B    3.409 --    79 B    1.335    67 B    1.259   100 B    0.201
                            95 B    0.159
    74   5 B    3.475 --    68 B    1.221    80 B    1.031    81 B    0.502
                            75 B    0.450
    75   5 B    3.601 --    69 B    0.987    98 B    0.787    81 B    0.620
                            74 B    0.450    68 B    0.444
    76   5 B    3.552 --    82 B    1.025    70 B    0.859    83 B    0.626
                            89 B    0.519    99 B    0.326
    77   5 B    3.406 --   107 H    0.925    83 B    0.893    71 B    0.862
                            70 B    0.502
    78   5 B    3.602 --    84 B    1.225    72 B    0.717    95 B    0.713
                           100 B    0.692
    79   5 B    3.567 --    73 B    1.335    85 B    0.685    95 B    0.604
                            96 B    0.571
    80   5 B    3.523 --    74 B    1.031    86 B    0.652    96 B    0.582
                            81 B    0.527    97 B    0.449
    81   5 B    3.599 --    98 B    0.621    75 B    0.620    87 B    0.541
                            80 B    0.527    97 B    0.527    74 B    0.502
    82   5 B    3.528 --    76 B    1.025    98 B    1.019    88 B    0.622
                            99 B    0.512
    83   5 B    3.490 --    89 B    1.217    77 B    0.893    76 B    0.626
                            70 B    0.561
    84   5 B    3.455 --    78 B    1.225   104 H    0.959    95 B    0.849
                            85 B    0.149
    85   5 B    3.402 --    96 B    1.156    95 B    1.111    79 B    0.685
                            84 B    0.149
    86   5 B    3.337 --    97 B    1.193    96 B    1.141    80 B    0.652
    87   5 B    3.407 --    97 B    1.123    88 B    1.087    81 B    0.541
                            98 B    0.395
    88   5 B    3.478 --    87 B    1.087    99 B    1.033    82 B    0.622
                            98 B    0.503
    89   5 B    3.332 --    99 B    1.296    83 B    1.217    76 B    0.519
    90   5 B    3.522 --    48 B    1.417    49 B    1.149    54 B    0.769
    91   5 B    3.508 --    50 B    1.006    49 B    0.961    55 B    0.727
                            56 B    0.580
    92   5 B    3.432 --    51 B    1.297    50 B    1.249    57 B    0.567
    93   5 B    3.576 --    63 B    0.944    58 B    0.919    57 B    0.615
                            52 B    0.482    51 B    0.348
    94   5 B    3.476 --    52 B    1.090    53 B    0.853    59 B    0.592
                            58 B    0.505    64 B    0.176
    95   5 B    3.635 --    85 B    1.111    84 B    0.849    78 B    0.713
                            79 B    0.604    73 B    0.159
    96   5 B    3.634 --    85 B    1.156    86 B    1.141    80 B    0.582
                            79 B    0.571
    97   5 B    3.514 --    86 B    1.193    87 B    1.123    81 B    0.527
                            80 B    0.449
    98   5 B    3.609 --    82 B    1.019    75 B    0.787    81 B    0.621
                            88 B    0.503    87 B    0.395
    99   5 B    3.372 --    89 B    1.296    88 B    1.033    82 B    0.512
                            76 B    0.326
   100   5 B    3.628 --    72 B    0.779    66 B    0.734    78 B    0.692
                            67 B    0.541    60 B    0.493    73 B    0.201
   101   1 H    0.971 --    48 B    0.962
   102   1 H    0.975 --    66 B    0.941
   103   1 H    0.976 --    72 B    0.943
   104   1 H    0.975 --    84 B    0.959
   105   1 H    0.971 --    53 B    0.942
   106   1 H    0.977 --    65 B    0.954
   107   1 H    0.975 --    77 B    0.925
 ---------------------------------------------------------------------------

Topologies differ in total number of bonds
Writing topology from bond orders to xtbtopo.mol

molecular dipole:
                 x           y           z       tot (Debye)
 q only:        2.629       1.961      -5.566
   full:        2.549       1.160      -5.070      14.723
molecular quadrupole (traceless):
                xx          xy          yy          xz          yz          zz
 q only:      -43.776      24.194     100.968      -4.276      25.008     -57.192
  q+dip:      -13.778       7.010      58.338     -11.275      26.542     -44.560
   full:      -28.125      10.653      51.194      -6.677      27.206     -23.069


           -------------------------------------------------
          | TOTAL ENERGY             -146.978154144205 Eh   |
          | GRADIENT NORM               0.821560125927 Eh/α |
          | HOMO-LUMO GAP               0.109088176447 eV   |
           -------------------------------------------------

------------------------------------------------------------------------
 * finished run on 2026/08/31 at 21:15:26.060     
------------------------------------------------------------------------
 total:
 * wall-time:     0 d,  0 h,  0 min,  1.109 sec
 *  cpu-time:     0 d,  0 h,  0 min, 11.219 sec
 * ratio c/w:    10.116 speedup
 SCF:
 * wall-time:     0 d,  0 h,  0 min,  1.062 sec
 *  cpu-time:     0 d,  0 h,  0 min, 10.844 sec
 * ratio c/w:    10.211 speedup

normal termination of xtb
