102
 energy: -135.731631314197 gnorm: 0.001806439065 xtb: 6.7.1pre (5071a88)
C           -1.28155568891015        4.94239723434362       10.37394784028661
O           -1.65887754575891        5.27674158332004        9.06348781735138
C           -0.97938632177980        4.70154430468643        8.02991247845470
C            0.05352546376744        3.79382133984866        8.16320339532037
C            0.68844796542360        3.22987102045065        7.04491434455992
C            1.71584573974868        2.24114286677274        7.24285779066961
C            2.22945875855509        1.42465434153035        6.29546588829210
C            3.21523636994872        0.41027701050333        6.60631925009024
O            3.71145816997059        0.23686566034971        7.71117591190374
C            3.52403075729266       -0.51978100556956        5.43708290043869
C            2.20697860267122       -1.24480076079521        5.20607585745257
O            1.50852332471697       -0.99249055173324        4.21773536816805
C            1.82825093111189       -2.13789004332959        6.26279519034428
C            0.65196936784774       -2.81837575500512        6.24575891715375
C            0.14095244625585       -3.68460941557282        7.26792302496258
C            0.85865084026761       -4.01061629030744        8.42230200728012
C            0.30382770199108       -4.83083560157583        9.38323418672580
C           -0.97382738225572       -5.34823609742742        9.23667985801730
O           -1.54584678214122       -6.15498272801143       10.17465738636978
C           -1.71805524163380       -5.03319286995008        8.08181505935151
O           -2.96861114943322       -5.57652401974576        8.01815967024744
C           -3.77807782509128       -5.25530966851904        6.91697474164925
C           -1.15231640246217       -4.21913936225665        7.12196543276681
C            0.27523444200442        3.63834424809560        5.77696764273887
C           -0.74651086909253        4.55369510340956        5.63109197361956
C           -1.39363450408583        5.08203724889788        6.73634597639365
O           -2.42193171738894        5.96475588247991        6.61467260581437
H           -1.94234217273020        5.51273254358114       11.02522179967549
H           -1.41401317077019        3.87333268833492       10.57293992367402
H           -0.24227584116809        5.22252372344979       10.57888016851584
H            0.38092596989908        3.48399611377779        9.14302437546154
H            2.07928612749534        2.11017731848824        8.25424555041888
H            1.88188975064586        1.46446912062551        5.27566242830095
H            4.31265191595542       -1.21405423281906        5.72077486479982
H            3.81183291505930        0.04161601005939        4.54899954589060
H            2.51129525128797       -2.21886886210706        7.09282546001766
H            0.01900486087283       -2.67107977328688        5.37905843353928
H            1.85169789607350       -3.62114233874138        8.57213959311336
H            0.86748926406458       -5.07609274873449       10.27437488547948
H           -0.92770684062629       -6.27761062733355       10.90512503274835
H           -4.72290945839287       -5.76865378083033        7.08937140136749
H           -3.34097929251389       -5.60838165444467        5.97683338506393
H           -3.95887646418287       -4.17691170334822        6.85077245032705
H           -1.70653136874941       -3.96650253903245        6.23162735056690
H            0.75522603940861        3.25366286239861        4.89341275772322
H           -1.05301279416431        4.85542011139686        4.63909889434376
H           -2.61799263214241        6.08653846633206        5.67727615689786
B           -4.83493256944943       -2.42138766294773        1.29005785622414
B           -4.49746038671287       -1.11858833878808        0.45713790017716
B           -4.24028784872483        0.05133031303741       -0.70553634069757
B           -3.32340248996256       -2.46990580473548        0.72629203745860
B           -2.86386264483918        0.39018097730895       -0.06192374151122
B           -4.32449944580239        0.54349830031968        1.02430880825897
B           -5.09370229183111        1.60954568257318        1.93782143062174
B           -4.67998526908323        3.18850561969046        2.11206592509481
B           -2.79345314864996        0.67235152506773        1.57957389108515
B           -3.37842153666095        3.46681014645034        3.05197746205948
B           -2.10017625153835       -3.57985657359497        0.82493525918333
B           -1.77901636947605       -2.05849052307918        0.48601851496704
B           -1.60312381631759       -0.42284935016829        0.62253642728849
B           -0.49738575304892       -3.00549983082266        0.72044067004917
B           -0.16761379728690        0.03744726466697        1.24456009422104
B           -1.41951282339866        0.20555046898719        2.32068345661773
B           -1.80852762739234        1.82307183654871        2.23748536815592
B           -1.98040236199088        3.40096490475070        2.27620392595174
B           -0.26052640918016        1.22322208653381        2.60489878975072
B           -0.83084023822028        4.51467472478075        1.93286302302563
B            0.89165434297420       -3.90685954266846        0.96882967328975
B            1.02910422281832       -2.31752739832503        0.86212598359945
B            1.27765789091477       -0.73920691721581        1.00307862201478
B            2.25971157043515       -3.18323016796746        1.55400449942900
B            2.65367574438341        0.03429090995199        1.35523973988132
B            1.24487736602736        0.73013253487465        1.81266278616529
B            1.06082780841844        2.22249783565586        2.58245698857321
B            0.46151700526137        3.62410754108554        2.06381859642485
B            2.44840667000730        1.87733222343679        1.69382848070244
B            1.19113246625380        3.14415575663726        0.64028913581934
B            3.34673139103786       -3.73473420601626        2.69123705313956
B            3.65965575058968       -2.39019838529414        1.82996156164219
B            4.07147755931006       -0.86542095755811        1.47649884305580
B            4.61454057475652       -2.79020490549744        3.01572701880890
B            5.42531294025262        0.02544599309449        1.09483351003259
B            4.11055297125723        0.78595002946582        1.66263563847175
B            3.98133646500838        2.58714727059588        1.60266054361554
B            2.79614870547466        3.26842100420879        0.63755570984586
B            5.41226713161864        1.74587438622199        1.52684530197050
B            4.25254904090775        3.78576465235589        0.58386789924383
H           -5.39858040240177       -3.00597031891883        2.13322767538197
H           -5.63690910729949       -1.82435660063160        0.45712677259824
H           -4.94976920816604        0.25023530225242       -1.62384302131943
H           -5.94265327877603        1.23209430957578        2.67676253967575
H           -5.35415823855920        4.04102477858532        1.65599393812501
H           -3.53720544908916        3.55697473547521        4.21736842119839
H           -2.28388301959946       -4.73033351674980        0.92611617647590
H           -0.99120495630783        5.62873690758433        1.58615037027201
H            0.86392568636897       -5.05903038715847        0.76388490679504
H            0.57121549858346        2.74843161791879       -0.28725995530313
H            3.15815543637487       -4.70436162425416        3.31436012117297
H            5.55665958410292       -2.60463785186677        3.67025176182179
H            6.47830734852145       -0.37304335471202        0.77923002039447
H            6.47021950861444        2.17117741373547        1.79227593481803
H            5.08280365249763        4.49866379296254        0.18181402024960
