      -----------------------------------------------------------      
     |                   =====================                   |     
     |                           x T B                           |     
     |                   =====================                   |     
     |                         S. Grimme                         |     
     |          Mulliken Center for Theoretical Chemistry        |     
     |                    University of Bonn                     |     
      -----------------------------------------------------------      

   * xtb version 6.7.1pre (5071a88) compiled by 'Marcel@Raven' on 2024-07-23

   xtb is free software: you can redistribute it and/or modify it under
   the terms of the GNU Lesser General Public License as published by
   the Free Software Foundation, either version 3 of the License, or
   (at your option) any later version.
   
   xtb is distributed in the hope that it will be useful,
   but WITHOUT ANY WARRANTY; without even the implied warranty of
   MERCHANTABILITY or FITNESS FOR A PARTICULAR PURPOSE.  See the
   GNU Lesser General Public License for more details.
   
   Cite this work as:
   * C. Bannwarth, E. Caldeweyher, S. Ehlert, A. Hansen, P. Pracht,
     J. Seibert, S. Spicher, S. Grimme, WIREs Comput. Mol. Sci., 2020, 11,
     e01493. DOI: 10.1002/wcms.1493
   
   for GFN2-xTB:
   * C. Bannwarth, S. Ehlert and S. Grimme., J. Chem. Theory Comput., 2019,
     15, 1652-1671. DOI: 10.1021/acs.jctc.8b01176
   for GFN1-xTB:
   * S. Grimme, C. Bannwarth, P. Shushkov, J. Chem. Theory Comput., 2017,
     13, 1989-2009. DOI: 10.1021/acs.jctc.7b00118
   for GFN0-xTB:
   * P. Pracht, E. Caldeweyher, S. Ehlert, S. Grimme, ChemRxiv, 2019, preprint.
     DOI: 10.26434/chemrxiv.8326202.v1
   for GFN-FF:
   * S. Spicher and S. Grimme, Angew. Chem. Int. Ed., 2020, 59, 15665-15673.
     DOI: 10.1002/anie.202004239
   
   for ALPB and GBSA implicit solvation:
   * S. Ehlert, M. Stahn, S. Spicher, S. Grimme, J. Chem. Theory Comput.,
     2021, 17, 4250-4261. DOI: 10.1021/acs.jctc.1c00471
   
   for ddCOSMO and CPCM-X implicit solvation:
   * M. Stahn, S. Ehlert, S. Grimme, J. Phys. Chem. A,
     2023, XX, XXXX-XXXX. DOI: 10.1021/acs.jpca.3c04382
   
   for DFT-D4:
   * E. Caldeweyher, C. Bannwarth and S. Grimme, J. Chem. Phys., 2017,
     147, 034112. DOI: 10.1063/1.4993215
   * E. Caldeweyher, S. Ehlert, A. Hansen, H. Neugebauer, S. Spicher,
     C. Bannwarth and S. Grimme, J. Chem. Phys., 2019, 150, 154122.
     DOI: 10.1063/1.5090222
   * E. Caldeweyher, J.-M. Mewes, S. Ehlert and S. Grimme, Phys. Chem. Chem. Phys.
     2020, 22, 8499-8512. DOI: 10.1039/D0CP00502A
   
   for sTDA-xTB:
   * S. Grimme and C. Bannwarth, J. Chem. Phys., 2016, 145, 054103.
     DOI: 10.1063/1.4959605
   
   in the mass-spec context:
   * V. Asgeirsson, C. Bauer and S. Grimme, Chem. Sci., 2017, 8, 4879.
     DOI: 10.1039/c7sc00601b
   * J. Koopman and S. Grimme, ACS Omega 2019, 4, 12, 15120-15133.
     DOI: 10.1021/acsomega.9b02011
   
   for metadynamics refer to:
   * S. Grimme, J. Chem. Theory Comput., 2019, 155, 2847-2862
     DOI: 10.1021/acs.jctc.9b00143
   
   for SPH calculations refer to:
   * S. Spicher and S. Grimme, J. Chem. Theory Comput., 2021, 17, 1701-1714
     DOI: 10.1021/acs.jctc.0c01306
   
   for ONIOM refer to:
   * C. Plett, A. Katbashev, S. Ehlert, S. Grimme, M. Bursch,
     Phys. Chem. Chem. Phys., 2023, 25, 17860-17868. DOI: 10.1039/D3CP02178E
   
   for DIPRO refer to:
   * J. Kohn, N. Gildemeister, S. Grimme, D. Fazzi, A. Hansen,
     J. Chem. Phys., 2023, just accepted.
   
   for PTB refer to:
   * S. Grimme, M. Mueller, A. Hansen, J. Chem. Phys., 2023, 158, 124111.
     DOI: 10.1063/5.0137838
   
   with help from (in alphabetical order)
   P. Atkinson, C. Bannwarth, F. Bohle, G. Brandenburg, E. Caldeweyher
   M. Checinski, S. Dohm, S. Ehlert, S. Ehrlich, I. Gerasimov, C. Hölzer
   A. Katbashev, J. Kohn, J. Koopman, C. Lavigne, S. Lehtola, F. März, M. Müller,
   F. Musil, H. Neugebauer, J. Pisarek, C. Plett, P. Pracht, F. Pultar,
   J. Seibert, P. Shushkov, S. Spicher, M. Stahn, M. Steiner, T. Strunk,
   J. Stückrath, T. Rose, and J. Unsleber
   
 * started run on 2026/09/01 at 16:34:33.976     
   ID    Z sym.   atoms
    1    6 C      1, 3-8, 10, 11, 13-18, 20, 22-26
    2    8 O      2, 9, 12, 19, 21, 27
    3    1 H      28-47, 96-107
    4    5 B      48-95

           -------------------------------------------------
          |                Calculation Setup                |
           -------------------------------------------------

          program call               : "c:\Users\Andre\Proyectos doctorado\kras-pancreatic-gC3N4-ai\tools\xtb\xtb-6.7.1\bin\xtb.exe" "c:\Users\Andre\Proyectos doctorado\borophene-alzheimer-tau-ai\calculations\tau\Curcumin\Curcumin_B48H12_clean_complex.xyz" --gfn 2 --sp --chrg 0 --uhf 0 --etemp 300 --iterations 500 --norestart
          coordinate file            : c:\Users\Andre\Proyectos doctorado\borophene-alzheimer-tau-ai\calculations\tau\Curcumin\Curcumin_B48H12_clean_complex.xyz
          omp threads                :                    16


molecular fragmentation (1/2 indicates fragments):
111111111111111111111111111111111111111111111112222222222222222222222222
22222222222222222222222222222222222
# atoms in fragment 1/2:    47    60
 fragment masses (1/2) :      368.38      531.02
CMA distance (Bohr)    :  14.740
constraining FC (au)   :  0.0500

           -------------------------------------------------
          |                 G F N 2 - x T B                 |
           -------------------------------------------------

        Reference                      10.1021/acs.jctc.8b01176
      * Hamiltonian:
        H0-scaling (s, p, d)           1.850000    2.230000    2.230000
        zeta-weighting                 0.500000
      * Dispersion:
        s8                             2.700000
        a1                             0.520000
        a2                             5.000000
        s9                             5.000000
      * Repulsion:
        kExp                           1.500000    1.000000
        rExp                           1.000000
      * Coulomb:
        alpha                          2.000000
        third order                    shell-resolved
        anisotropic                    true
        a3                             3.000000
        a5                             4.000000
        cn-shift                       1.200000
        cn-exp                         4.000000
        max-rad                        5.000000


          ...................................................
          :                      SETUP                      :
          :.................................................:
          :  # basis functions                 332          :
          :  # atomic orbitals                 332          :
          :  # shells                          182          :
          :  # electrons                       296          :
          :  max. iterations                   500          :
          :  Hamiltonian                  GFN2-xTB          :
          :  restarted?                      false          :
          :  GBSA solvation                  false          :
          :  PC potential                    false          :
          :  electronic temp.          300.0000000     K    :
          :  accuracy                    1.0000000          :
          :  -> integral cutoff          0.2500000E+02      :
          :  -> integral neglect         0.1000000E-07      :
          :  -> SCF convergence          0.1000000E-05 Eh   :
          :  -> wf. convergence          0.1000000E-03 e    :
          :  Broyden damping             0.4000000          :
          :  net charge                          0          :
          :  unpaired electrons                  0          :
          ...................................................

 iter      E             dE          RMSdq      gap      omega  full diag
   1   -144.9486040 -0.144949E+03  0.142E+01    0.08       0.0  T
   2   -142.7969175  0.215169E+01  0.935E+00    0.14       1.0  T
   3    -60.9000040  0.818969E+02  0.148E+01    0.09       1.0  T
   4    -93.9749736 -0.330750E+02  0.107E+01    0.13       1.0  T
   5   -136.9816851 -0.430067E+02  0.541E+00    0.02       1.0  T
   6   -143.0672989 -0.608561E+01  0.341E+00    0.13       1.0  T
   7   -143.4474065 -0.380108E+00  0.287E+00    0.25       1.0  T
   8   -145.2126492 -0.176524E+01  0.188E+00    0.14       1.0  T
   9   -145.7015068 -0.488858E+00  0.155E+00    0.50       1.0  T
  10   -145.7470902 -0.455834E-01  0.132E+00    0.24       1.0  T
  11   -145.7537027 -0.661246E-02  0.123E+00    0.36       1.0  T
  12   -145.6720370  0.816657E-01  0.107E+00    0.04       1.0  T
  13   -145.7619727 -0.899357E-01  0.708E-01    0.32       1.0  T
  14   -145.4310702  0.330902E+00  0.133E+00    0.29       1.0  T
  15   -145.4835953 -0.525251E-01  0.123E+00    0.23       1.0  T
  16   -145.4874589 -0.386359E-02  0.122E+00    0.20       1.0  T
  17   -145.7845451 -0.297086E+00  0.528E-01    0.15       1.0  T
  18   -145.8022734 -0.177282E-01  0.455E-01    0.08       1.0  T
  19   -145.8018715  0.401838E-03  0.382E-01    0.13       1.0  T
  20   -145.7986074  0.326413E-02  0.322E-01    0.16       1.0  T
  21   -145.8064226 -0.781523E-02  0.249E-01    0.13       1.0  T
  22   -145.8129262 -0.650362E-02  0.188E-01    0.08       1.0  T
  23   -145.8141244 -0.119814E-02  0.173E-01    0.07       1.0  T
  24   -145.8094924  0.463203E-02  0.179E-01    0.12       1.0  T
  25   -145.8169428 -0.745047E-02  0.915E-02    0.06       1.0  T
  26   -145.8173690 -0.426201E-03  0.696E-02    0.06       1.0  T
  27   -145.8172434  0.125636E-03  0.641E-02    0.06       1.0  T
  28   -145.8177721 -0.528747E-03  0.354E-02    0.07       1.0  T
  29   -145.8177637  0.848137E-05  0.366E-02    0.07       1.0  T
  30   -145.8175383  0.225385E-03  0.435E-02    0.08       1.0  T
  31   -145.8176446 -0.106332E-03  0.381E-02    0.07       1.0  T
  32   -145.8178567 -0.212085E-03  0.219E-02    0.07       1.0  T
  33   -145.8179012 -0.445155E-04  0.139E-02    0.07       1.0  T
  34   -145.8179311 -0.298620E-04  0.785E-03    0.07       1.2  T
  35   -145.8179383 -0.723659E-05  0.487E-03    0.07       2.0  T
  36   -145.8179412 -0.293176E-05  0.234E-03    0.07       4.1  T
  37   -145.8179420 -0.791052E-06  0.860E-04    0.07      11.2  T
  38   -145.8179403  0.176149E-05  0.259E-03    0.07       3.7  T
  39   -145.8179413 -0.106846E-05  0.181E-03    0.07       5.3  T
  40   -145.8179419 -0.615110E-06  0.931E-04    0.07      10.4  T

   *** convergence criteria satisfied after 40 iterations ***

         #    Occupation            Energy/Eh            Energy/eV
      -------------------------------------------------------------
         1        2.0000           -0.7015703             -19.0907
       ...           ...                  ...                  ...
       142        2.0000           -0.2912253              -7.9246
       143        2.0000           -0.2878052              -7.8316
       144        2.0000           -0.2872094              -7.8154
       145        2.0000           -0.2834840              -7.7140
       146        2.0000           -0.2802943              -7.6272
       147        2.0000           -0.2774436              -7.5496
       148        1.5725           -0.2661180              -7.2414 (HOMO)
       149        0.4275           -0.2636433              -7.1741 (LUMO)
       150        0.0000           -0.2536774              -6.9029
       151        0.0000           -0.2530578              -6.8861
       152                         -0.2391093              -6.5065
       153                         -0.2354812              -6.4078
       ...                                ...                  ...
       332                          1.2050937              32.7923
      -------------------------------------------------------------
                  HL-Gap            0.0024748 Eh            0.0673 eV
             Fermi-level           -0.2648807 Eh           -7.2078 eV

 SCC (total)                   0 d,  0 h,  0 min,  1.066 sec
 SCC setup                      ...        0 min,  0.001 sec (  0.094%)
 Dispersion                     ...        0 min,  0.002 sec (  0.188%)
 classical contributions        ...        0 min,  0.000 sec (  0.000%)
 integral evaluation            ...        0 min,  0.009 sec (  0.844%)
 iterations                     ...        0 min,  1.028 sec ( 96.435%)
 molecular gradient             ...        0 min,  0.024 sec (  2.251%)
 printout                       ...        0 min,  0.002 sec (  0.188%)

         :::::::::::::::::::::::::::::::::::::::::::::::::::::
         ::                     SUMMARY                     ::
         :::::::::::::::::::::::::::::::::::::::::::::::::::::
         :: total energy            -143.772945272089 Eh    ::
         :: gradient norm              0.081109359876 Eh/a0 ::
         :: HOMO-LUMO gap              0.067341958500 eV    ::
         ::.................................................::
         :: SCC energy              -145.816593892610 Eh    ::
         :: -> isotropic ES            0.404230678806 Eh    ::
         :: -> anisotropic ES          0.009427433876 Eh    ::
         :: -> anisotropic XC         -0.019474535345 Eh    ::
         :: -> dispersion             -0.116024598464 Eh    ::
         :: repulsion energy           2.043648620521 Eh    ::
         :: add. restraining           0.000000000000 Eh    ::
         :: total charge               0.000000000000 e     ::
         :::::::::::::::::::::::::::::::::::::::::::::::::::::

           -------------------------------------------------
          |                Property Printout                |
           -------------------------------------------------

    * Orbital Energies and Occupations

         #    Occupation            Energy/Eh            Energy/eV
      -------------------------------------------------------------
         1        2.0000           -0.7015703             -19.0907
       ...           ...                  ...                  ...
       136        2.0000           -0.3095309              -8.4228
       137        2.0000           -0.3067869              -8.3481
       138        2.0000           -0.3034337              -8.2569
       139        2.0000           -0.3032525              -8.2519
       140        2.0000           -0.2992142              -8.1420
       141        2.0000           -0.2962873              -8.0624
       142        2.0000           -0.2912253              -7.9246
       143        2.0000           -0.2878052              -7.8316
       144        2.0000           -0.2872094              -7.8154
       145        2.0000           -0.2834840              -7.7140
       146        2.0000           -0.2802943              -7.6272
       147        2.0000           -0.2774436              -7.5496
       148        1.5725           -0.2661180              -7.2414 (HOMO)
       149        0.4275           -0.2636433              -7.1741 (LUMO)
       150        0.0000           -0.2536774              -6.9029
       151        0.0000           -0.2530578              -6.8861
       152                         -0.2391093              -6.5065
       153                         -0.2354812              -6.4078
       154                         -0.2324860              -6.3263
       155                         -0.2263377              -6.1590
       156                         -0.2128461              -5.7918
       157                         -0.2123183              -5.7775
       158                         -0.2111723              -5.7463
       159                         -0.2086725              -5.6783
       ...                                ...                  ...
       332                          1.2050937              32.7923
      -------------------------------------------------------------
                  HL-Gap            0.0024748 Eh            0.0673 eV
             Fermi-level           -0.2648807 Eh           -7.2078 eV

     #   Z          covCN         q      C6AA      α(0)
     1   6 C        3.641     0.033    20.376     6.491
     2   8 O        1.703    -0.258    18.272     5.771
     3   6 C        2.854     0.124    25.269     8.239
     4   6 C        2.919    -0.077    29.922     8.970
     5   6 C        2.965     0.002    27.985     8.677
     6   6 C        2.901    -0.023    28.583     8.766
     7   6 C        2.891    -0.075    29.860     8.959
     8   6 C        2.822     0.218    23.406     7.927
     9   8 O        0.857    -0.412    21.929     6.278
    10   6 C        3.806    -0.102    22.443     6.744
    11   6 C        2.822     0.213    23.508     7.944
    12   8 O        0.857    -0.437    22.438     6.351
    13   6 C        2.891    -0.075    29.882     8.962
    14   6 C        2.901    -0.032    28.802     8.800
    15   6 C        2.965    -0.001    28.039     8.685
    16   6 C        2.915    -0.051    29.261     8.870
    17   6 C        2.908    -0.076    29.908     8.967
    18   6 C        2.843     0.122    25.324     8.247
    19   8 O        1.658    -0.387    20.607     6.128
    20   6 C        2.854     0.122    25.308     8.245
    21   8 O        1.703    -0.259    18.293     5.775
    22   6 C        3.641     0.030    20.417     6.498
    23   6 C        2.919    -0.082    30.046     8.989
    24   6 C        2.915    -0.052    29.303     8.877
    25   6 C        2.908    -0.080    29.988     8.979
    26   6 C        2.843     0.123    25.302     8.244
    27   8 O        1.658    -0.387    20.599     6.127
    28   1 H        0.924     0.060     2.198     2.318
    29   1 H        0.924     0.043     2.407     2.426
    30   1 H        0.924     0.043     2.404     2.425
    31   1 H        0.925     0.045     2.385     2.415
    32   1 H        0.925     0.062     2.179     2.309
    33   1 H        0.925     0.046     2.373     2.409
    34   1 H        0.924     0.057     2.233     2.337
    35   1 H        0.924     0.055     2.259     2.350
    36   1 H        0.925     0.047     2.355     2.400
    37   1 H        0.925     0.053     2.280     2.361
    38   1 H        0.925     0.041     2.436     2.441
    39   1 H        0.925     0.034     2.530     2.487
    40   1 H        0.804     0.300     0.720     1.333
    41   1 H        0.924     0.061     2.190     2.314
    42   1 H        0.924     0.041     2.433     2.439
    43   1 H        0.924     0.044     2.392     2.419
    44   1 H        0.925     0.041     2.431     2.438
    45   1 H        0.925     0.039     2.457     2.451
    46   1 H        0.925     0.036     2.497     2.471
    47   1 H        0.804     0.302     0.715     1.328
    48   5 B        2.839     0.116    19.499     7.374
    49   5 B        3.803     0.035    22.083     7.577
    50   5 B        3.718    -0.013    22.854     7.728
    51   5 B        2.746     0.024    21.125     7.694
    52   5 B        2.911    -0.039    22.104     7.846
    53   5 B        3.855     0.017    22.418     7.631
    54   5 B        2.869     0.064    20.323     7.526
    55   5 B        2.921     0.005    21.311     7.703
    56   5 B        3.823     0.062    21.606     7.493
    57   5 B        3.767     0.031    22.119     7.588
    58   5 B        3.849     0.007    22.593     7.661
    59   5 B        4.346     0.056    21.721     7.509
    60   5 B        4.682     0.090    21.146     7.409
    61   5 B        3.801     0.068    21.484     7.474
    62   5 B        3.829     0.063    21.585     7.489
    63   5 B        3.950     0.050    21.837     7.530
    64   5 B        4.552     0.064    21.590     7.487
    65   5 B        5.635     0.113    20.760     7.341
    66   5 B        4.742     0.047    21.891     7.539
    67   5 B        3.678     0.053    21.532     7.525
    68   5 B        4.781     0.083    21.264     7.430
    69   5 B        4.465     0.030    22.195     7.591
    70   5 B        3.855     0.047    21.870     7.537
    71   5 B        3.833     0.042    21.954     7.552
    72   5 B        3.834     0.014    22.468     7.640
    73   5 B        3.803    -0.016    23.013     7.735
    74   5 B        3.806     0.013    22.477     7.644
    75   5 B        4.226    -0.008    22.896     7.710
    76   5 B        3.802     0.024    22.269     7.609
    77   5 B        3.878     0.033    22.137     7.582
    78   5 B        2.888     0.105    19.660     7.401
    79   5 B        3.778     0.081    21.249     7.435
    80   5 B        3.898     0.055    21.742     7.514
    81   5 B        3.709     0.041    21.841     7.559
    82   5 B        3.761     0.033    22.078     7.582
    83   5 B        3.854     0.045    21.915     7.545
    84   5 B        4.286     0.050    21.831     7.528
    85   5 B        2.876     0.087    19.949     7.455
    86   5 B        3.771     0.082    21.232     7.434
    87   5 B        3.795     0.011    22.503     7.649
    88   5 B        2.925     0.014    21.156     7.675
    89   5 B        3.663     0.009    22.241     7.661
    90   5 B        2.926     0.028    20.916     7.631
    91   5 B        3.840     0.003    22.683     7.676
    92   5 B        3.860     0.019    22.386     7.625
    93   5 B        2.912     0.008    21.261     7.694
    94   5 B        2.915     0.010    21.221     7.687
    95   5 B        2.842     0.139    19.145     7.307
    96   1 H        0.935    -0.133     6.861     4.095
    97   1 H        0.939    -0.101     5.577     3.692
    98   1 H        0.934    -0.129     6.702     4.048
    99   1 H        0.932    -0.146     7.468     4.273
   100   1 H        0.938    -0.126     6.546     4.000
   101   1 H        0.940    -0.139     7.127     4.174
   102   1 H        0.936    -0.111     5.964     3.818
   103   1 H        0.939    -0.146     7.481     4.276
   104   1 H        0.938    -0.124     6.485     3.981
   105   1 H        0.936    -0.136     7.014     4.141
   106   1 H        0.935    -0.134     6.906     4.109
   107   1 H        0.933    -0.145     7.434     4.263

 Mol. C6AA /au·bohr⁶  :     175353.526208
 Mol. C8AA /au·bohr⁸  :    5391098.667766
 Mol. α(0) /au        :        669.466137


Wiberg/Mayer (AO) data.
largest (>0.10) Wiberg bond orders for each atom

 ---------------------------------------------------------------------------
     #   Z sym  total        # sym  WBO       # sym  WBO       # sym  WBO
 ---------------------------------------------------------------------------
     1   6 C    3.947 --     2 O    0.985    28 H    0.980    29 H    0.977
                            30 H    0.977
     2   8 O    2.231 --     3 C    1.060     1 C    0.985
     3   6 C    3.936 --     4 C    1.402    26 C    1.286     2 O    1.060
     4   6 C    3.967 --     3 C    1.402     5 C    1.353    31 H    0.964
     5   6 C    3.981 --    24 C    1.376     4 C    1.353     6 C    1.093
     6   6 C    3.912 --     7 C    1.745     5 C    1.093    32 H    0.956
     7   6 C    3.955 --     6 C    1.745     8 C    1.073    33 H    0.965
     8   6 C    3.868 --     9 O    1.727     7 C    1.073    10 C    0.966
     9   8 O    1.965 --     8 C    1.727
    10   6 C    3.992 --    11 C    0.969     8 C    0.966    35 H    0.962
                            34 H    0.961
    11   6 C    3.848 --    12 O    1.693    13 C    1.084    10 C    0.969
    12   8 O    1.924 --    11 C    1.693
    13   6 C    3.944 --    14 C    1.726    11 C    1.084    36 H    0.965
    14   6 C    3.889 --    13 C    1.726    15 C    1.096    37 H    0.957
    15   6 C    3.978 --    16 C    1.373    23 C    1.351    14 C    1.096
    16   6 C    3.969 --    17 C    1.439    15 C    1.373    38 H    0.969
    17   6 C    3.983 --    16 C    1.439    18 C    1.388    39 H    0.966
    18   6 C    3.915 --    17 C    1.388    20 C    1.286    19 O    1.065
    19   8 O    2.106 --    18 C    1.065    40 H    0.889
    20   6 C    3.935 --    23 C    1.403    18 C    1.286    21 O    1.057
    21   8 O    2.228 --    20 C    1.057    22 C    0.986
    22   6 C    3.948 --    21 O    0.986    41 H    0.980    42 H    0.977
                            43 H    0.977
    23   6 C    3.961 --    20 C    1.403    15 C    1.351    44 H    0.965
    24   6 C    3.974 --    25 C    1.437     5 C    1.376    45 H    0.969
    25   6 C    3.982 --    24 C    1.437    26 C    1.389    46 H    0.965
    26   6 C    3.920 --    25 C    1.389     3 C    1.286    27 O    1.067
    27   8 O    2.108 --    26 C    1.067    47 H    0.888
    28   1 H    0.996 --     1 C    0.980
    29   1 H    0.998 --     1 C    0.977
    30   1 H    0.998 --     1 C    0.977
    31   1 H    0.997 --     4 C    0.964
    32   1 H    0.995 --     6 C    0.956
    33   1 H    0.998 --     7 C    0.965
    34   1 H    0.992 --    10 C    0.961
    35   1 H    0.992 --    10 C    0.962
    36   1 H    0.998 --    13 C    0.965
    37   1 H    0.996 --    14 C    0.957
    38   1 H    0.998 --    16 C    0.969
    39   1 H    0.998 --    17 C    0.966
    40   1 H    0.909 --    19 O    0.889
    41   1 H    0.996 --    22 C    0.980
    42   1 H    0.998 --    22 C    0.977
    43   1 H    0.998 --    22 C    0.977
    44   1 H    0.998 --    23 C    0.965
    45   1 H    0.998 --    24 C    0.969
    46   1 H    0.998 --    25 C    0.965
    47   1 H    0.908 --    27 O    0.888
    48   5 B    3.278 --    55 B    1.203   107 H    0.944    99 H    0.941
    49   5 B    3.543 --    50 B    1.199    55 B    0.852    56 B    0.529
                            64 B    0.485    63 B    0.140
    50   5 B    3.572 --    49 B    1.199    57 B    1.121    65 B    0.463
                            64 B    0.453
    51   5 B    3.358 --    52 B    1.365    58 B    1.084    67 B    0.428
                            68 B    0.104
    52   5 B    3.522 --    51 B    1.365    59 B    1.117    68 B    0.624
    53   5 B    3.566 --    54 B    1.305    59 B    0.751    60 B    0.686
                            61 B    0.680
    54   5 B    3.385 --    53 B    1.305   103 H    0.969    61 B    0.816
                            60 B    0.129
    55   5 B    3.390 --    48 B    1.203    56 B    1.067    49 B    0.852
    56   5 B    3.500 --    55 B    1.067    62 B    0.818    63 B    0.709
                            49 B    0.529
    57   5 B    3.433 --    50 B    1.121    58 B    0.995    66 B    0.543
                            65 B    0.442
    58   5 B    3.538 --    51 B    1.084    57 B    0.995    67 B    0.642
                            66 B    0.616
    59   5 B    3.527 --    52 B    1.117    53 B    0.751    68 B    0.637
                            60 B    0.459    69 B    0.320
    60   5 B    3.622 --    61 B    0.902    70 B    0.691    53 B    0.686
                            69 B    0.574    59 B    0.459    54 B    0.129
    61   5 B    3.566 --   105 H    0.938    60 B    0.902    54 B    0.816
                            53 B    0.680
    62   5 B    3.565 --   102 H    0.923    72 B    0.830    56 B    0.818
                            63 B    0.802
    63   5 B    3.646 --    72 B    0.850    64 B    0.810    62 B    0.802
                            56 B    0.709    49 B    0.140
    64   5 B    3.551 --    63 B    0.810    73 B    0.794    65 B    0.647
                            49 B    0.485    50 B    0.453
    65   5 B    3.668 --    73 B    0.727    74 B    0.705    64 B    0.647
                            66 B    0.517    50 B    0.463    57 B    0.442
    66   5 B    3.553 --    67 B    0.944    74 B    0.715    58 B    0.616
                            57 B    0.543    65 B    0.517
    67   5 B    3.486 --    75 B    1.034    66 B    0.944    58 B    0.642
                            51 B    0.428
    68   5 B    3.614 --    76 B    0.682    69 B    0.643    75 B    0.640
                            59 B    0.637    52 B    0.624    51 B    0.104
    69   5 B    3.599 --    76 B    1.022    70 B    0.773    68 B    0.643
                            60 B    0.574    59 B    0.320
    70   5 B    3.670 --    77 B    0.832    71 B    0.805    69 B    0.773
                            60 B    0.691    78 B    0.161
    71   5 B    3.625 --    78 B    1.014    97 H    0.909    70 B    0.805
                            77 B    0.737
    72   5 B    3.568 --    80 B    0.879    63 B    0.850    62 B    0.830
                            79 B    0.720
    73   5 B    3.621 --    81 B    1.105    64 B    0.794    65 B    0.727
                            74 B    0.598
    74   5 B    3.508 --    82 B    1.088    66 B    0.715    65 B    0.705
                            73 B    0.598
    75   5 B    3.593 --    67 B    1.034    83 B    0.900    68 B    0.640
                            76 B    0.462    84 B    0.267
    76   5 B    3.577 --    69 B    1.022    84 B    0.967    68 B    0.682
                            75 B    0.462
    77   5 B    3.600 --    78 B    0.960    85 B    0.898    70 B    0.832
                            71 B    0.737
    78   5 B    3.428 --    71 B    1.014   101 H    0.972    77 B    0.960
                            85 B    0.182    70 B    0.161
    79   5 B    3.542 --   104 H    0.955    86 B    0.861    80 B    0.826
                            72 B    0.720
    80   5 B    3.638 --    72 B    0.879    86 B    0.875    79 B    0.826
                            87 B    0.766
    81   5 B    3.594 --    73 B    1.105    88 B    0.829    87 B    0.687
                            89 B    0.550
    82   5 B    3.603 --    74 B    1.088    90 B    0.860    91 B    0.698
                            89 B    0.584
    83   5 B    3.550 --    75 B    0.900    91 B    0.786    92 B    0.708
                            84 B    0.661
    84   5 B    3.571 --    76 B    0.967    93 B    0.749    92 B    0.682
                            83 B    0.661    75 B    0.267
    85   5 B    3.435 --    94 B    0.990    98 H    0.934    77 B    0.898
                            78 B    0.182    95 B    0.158
    86   5 B    3.538 --   100 H    0.957    80 B    0.875    79 B    0.861
                            87 B    0.658
    87   5 B    3.576 --    88 B    1.259    80 B    0.766    81 B    0.687
                            86 B    0.658
    88   5 B    3.543 --    87 B    1.259    89 B    1.113    81 B    0.829
    89   5 B    3.546 --    88 B    1.113    90 B    1.113    82 B    0.584
                            81 B    0.550
    90   5 B    3.515 --    91 B    1.163    89 B    1.113    82 B    0.860
    91   5 B    3.591 --    90 B    1.163    83 B    0.786    92 B    0.737
                            82 B    0.698
    92   5 B    3.573 --    93 B    1.196    91 B    0.737    83 B    0.708
                            84 B    0.682
    93   5 B    3.513 --    92 B    1.196    94 B    1.061    84 B    0.749
                            95 B    0.120
    94   5 B    3.390 --    93 B    1.061    95 B    1.061    85 B    0.990
    95   5 B    3.277 --    94 B    1.061    96 H    0.953   106 H    0.952
                            85 B    0.158    93 B    0.120
    96   1 H    0.980 --    95 B    0.953
    97   1 H    0.984 --    71 B    0.909
    98   1 H    0.981 --    85 B    0.934
    99   1 H    0.970 --    48 B    0.941
   100   1 H    0.981 --    86 B    0.957
   101   1 H    0.980 --    78 B    0.972
   102   1 H    0.977 --    62 B    0.923
   103   1 H    0.977 --    54 B    0.969
   104   1 H    0.979 --    79 B    0.955
   105   1 H    0.973 --    61 B    0.938
   106   1 H    0.979 --    95 B    0.952
   107   1 H    0.971 --    48 B    0.944
 ---------------------------------------------------------------------------

Topologies differ in total number of bonds
Writing topology from bond orders to xtbtopo.mol

molecular dipole:
                 x           y           z       tot (Debye)
 q only:       -1.297       1.164      -5.429
   full:       -0.891       1.587      -4.758      12.947
molecular quadrupole (traceless):
                xx          xy          yy          xz          yz          zz
 q only:      -36.538     -26.197      45.583       3.765       9.881      -9.045
  q+dip:       11.027     -24.650      26.182      -7.250       2.087     -37.209
   full:       -7.256     -26.581      16.715      -3.383       5.032      -9.459


           -------------------------------------------------
          | TOTAL ENERGY             -143.772945272089 Eh   |
          | GRADIENT NORM               0.081109359876 Eh/α |
          | HOMO-LUMO GAP               0.067341958500 eV   |
           -------------------------------------------------

------------------------------------------------------------------------
 * finished run on 2026/09/01 at 16:34:35.091     
------------------------------------------------------------------------
 total:
 * wall-time:     0 d,  0 h,  0 min,  1.113 sec
 *  cpu-time:     0 d,  0 h,  0 min,  8.469 sec
 * ratio c/w:     7.609 speedup
 SCF:
 * wall-time:     0 d,  0 h,  0 min,  1.067 sec
 *  cpu-time:     0 d,  0 h,  0 min,  8.078 sec
 * ratio c/w:     7.571 speedup

normal termination of xtb
