      -----------------------------------------------------------      
     |                   =====================                   |     
     |                           x T B                           |     
     |                   =====================                   |     
     |                         S. Grimme                         |     
     |          Mulliken Center for Theoretical Chemistry        |     
     |                    University of Bonn                     |     
      -----------------------------------------------------------      

   * xtb version 6.7.1pre (5071a88) compiled by 'Marcel@Raven' on 2024-07-23

   xtb is free software: you can redistribute it and/or modify it under
   the terms of the GNU Lesser General Public License as published by
   the Free Software Foundation, either version 3 of the License, or
   (at your option) any later version.
   
   xtb is distributed in the hope that it will be useful,
   but WITHOUT ANY WARRANTY; without even the implied warranty of
   MERCHANTABILITY or FITNESS FOR A PARTICULAR PURPOSE.  See the
   GNU Lesser General Public License for more details.
   
   Cite this work as:
   * C. Bannwarth, E. Caldeweyher, S. Ehlert, A. Hansen, P. Pracht,
     J. Seibert, S. Spicher, S. Grimme, WIREs Comput. Mol. Sci., 2020, 11,
     e01493. DOI: 10.1002/wcms.1493
   
   for GFN2-xTB:
   * C. Bannwarth, S. Ehlert and S. Grimme., J. Chem. Theory Comput., 2019,
     15, 1652-1671. DOI: 10.1021/acs.jctc.8b01176
   for GFN1-xTB:
   * S. Grimme, C. Bannwarth, P. Shushkov, J. Chem. Theory Comput., 2017,
     13, 1989-2009. DOI: 10.1021/acs.jctc.7b00118
   for GFN0-xTB:
   * P. Pracht, E. Caldeweyher, S. Ehlert, S. Grimme, ChemRxiv, 2019, preprint.
     DOI: 10.26434/chemrxiv.8326202.v1
   for GFN-FF:
   * S. Spicher and S. Grimme, Angew. Chem. Int. Ed., 2020, 59, 15665-15673.
     DOI: 10.1002/anie.202004239
   
   for ALPB and GBSA implicit solvation:
   * S. Ehlert, M. Stahn, S. Spicher, S. Grimme, J. Chem. Theory Comput.,
     2021, 17, 4250-4261. DOI: 10.1021/acs.jctc.1c00471
   
   for ddCOSMO and CPCM-X implicit solvation:
   * M. Stahn, S. Ehlert, S. Grimme, J. Phys. Chem. A,
     2023, XX, XXXX-XXXX. DOI: 10.1021/acs.jpca.3c04382
   
   for DFT-D4:
   * E. Caldeweyher, C. Bannwarth and S. Grimme, J. Chem. Phys., 2017,
     147, 034112. DOI: 10.1063/1.4993215
   * E. Caldeweyher, S. Ehlert, A. Hansen, H. Neugebauer, S. Spicher,
     C. Bannwarth and S. Grimme, J. Chem. Phys., 2019, 150, 154122.
     DOI: 10.1063/1.5090222
   * E. Caldeweyher, J.-M. Mewes, S. Ehlert and S. Grimme, Phys. Chem. Chem. Phys.
     2020, 22, 8499-8512. DOI: 10.1039/D0CP00502A
   
   for sTDA-xTB:
   * S. Grimme and C. Bannwarth, J. Chem. Phys., 2016, 145, 054103.
     DOI: 10.1063/1.4959605
   
   in the mass-spec context:
   * V. Asgeirsson, C. Bauer and S. Grimme, Chem. Sci., 2017, 8, 4879.
     DOI: 10.1039/c7sc00601b
   * J. Koopman and S. Grimme, ACS Omega 2019, 4, 12, 15120-15133.
     DOI: 10.1021/acsomega.9b02011
   
   for metadynamics refer to:
   * S. Grimme, J. Chem. Theory Comput., 2019, 155, 2847-2862
     DOI: 10.1021/acs.jctc.9b00143
   
   for SPH calculations refer to:
   * S. Spicher and S. Grimme, J. Chem. Theory Comput., 2021, 17, 1701-1714
     DOI: 10.1021/acs.jctc.0c01306
   
   for ONIOM refer to:
   * C. Plett, A. Katbashev, S. Ehlert, S. Grimme, M. Bursch,
     Phys. Chem. Chem. Phys., 2023, 25, 17860-17868. DOI: 10.1039/D3CP02178E
   
   for DIPRO refer to:
   * J. Kohn, N. Gildemeister, S. Grimme, D. Fazzi, A. Hansen,
     J. Chem. Phys., 2023, just accepted.
   
   for PTB refer to:
   * S. Grimme, M. Mueller, A. Hansen, J. Chem. Phys., 2023, 158, 124111.
     DOI: 10.1063/5.0137838
   
   with help from (in alphabetical order)
   P. Atkinson, C. Bannwarth, F. Bohle, G. Brandenburg, E. Caldeweyher
   M. Checinski, S. Dohm, S. Ehlert, S. Ehrlich, I. Gerasimov, C. Hölzer
   A. Katbashev, J. Kohn, J. Koopman, C. Lavigne, S. Lehtola, F. März, M. Müller,
   F. Musil, H. Neugebauer, J. Pisarek, C. Plett, P. Pracht, F. Pultar,
   J. Seibert, P. Shushkov, S. Spicher, M. Stahn, M. Steiner, T. Strunk,
   J. Stückrath, T. Rose, and J. Unsleber
   
 * started run on 2026/09/01 at 20:28:38.653     
   ID    Z sym.   atoms
    1    6 C      1, 3-8, 10, 11, 13-18, 20, 22-26
    2    8 O      2, 9, 12, 19, 21, 27
    3    1 H      28-47, 88-102
    4    5 B      48-87

           -------------------------------------------------
          |                Calculation Setup                |
           -------------------------------------------------

          program call               : "c:\Users\Andre\Proyectos doctorado\nano-qsar-ai-papers\kras-pancreatic-gC3N4-ai\tools\xtb\xtb-6.7.1\bin\xtb.exe" "c:\Users\Andre\Proyectos doctorado\borophene-alzheimer-tau-ai\calculations\tau\Curcumin\Curcumin_B40H15_clean_complex.xyz" --gfn 2 --sp --chrg 0 --uhf 0 --iterations 500 --norestart
          coordinate file            : c:\Users\Andre\Proyectos doctorado\borophene-alzheimer-tau-ai\calculations\tau\Curcumin\Curcumin_B40H15_clean_complex.xyz
          omp threads                :                    16


molecular fragmentation (1/2 indicates fragments):
111111111111111111111111111111111111111111111112222222222222222222222222
222222222222222222222222222222
# atoms in fragment 1/2:    47    55
 fragment masses (1/2) :      368.38      447.56
CMA distance (Bohr)    :  17.117
constraining FC (au)   :  0.0500

           -------------------------------------------------
          |                 G F N 2 - x T B                 |
           -------------------------------------------------

        Reference                      10.1021/acs.jctc.8b01176
      * Hamiltonian:
        H0-scaling (s, p, d)           1.850000    2.230000    2.230000
        zeta-weighting                 0.500000
      * Dispersion:
        s8                             2.700000
        a1                             0.520000
        a2                             5.000000
        s9                             5.000000
      * Repulsion:
        kExp                           1.500000    1.000000
        rExp                           1.000000
      * Coulomb:
        alpha                          2.000000
        third order                    shell-resolved
        anisotropic                    true
        a3                             3.000000
        a5                             4.000000
        cn-shift                       1.200000
        cn-exp                         4.000000
        max-rad                        5.000000


          ...................................................
          :                      SETUP                      :
          :.................................................:
          :  # basis functions                 303          :
          :  # atomic orbitals                 303          :
          :  # shells                          169          :
          :  # electrons                       275          :
          :  max. iterations                   500          :
          :  Hamiltonian                  GFN2-xTB          :
          :  restarted?                      false          :
          :  GBSA solvation                  false          :
          :  PC potential                    false          :
          :  electronic temp.          300.0000000     K    :
          :  accuracy                    1.0000000          :
          :  -> integral cutoff          0.2500000E+02      :
          :  -> integral neglect         0.1000000E-07      :
          :  -> SCF convergence          0.1000000E-05 Eh   :
          :  -> wf. convergence          0.1000000E-03 e    :
          :  Broyden damping             0.4000000          :
          :  net charge                          0          :
          :  unpaired electrons                  0          :
          ...................................................

 iter      E             dE          RMSdq      gap      omega  full diag
   1   -136.3156641 -0.136316E+03  0.128E+01    0.10       0.0  T
   2   -130.8713245  0.544434E+01  0.927E+00    0.05       1.0  T
   3     32.3918624  0.163263E+03  0.140E+01    0.04       1.0  T
   4    137.2777173  0.104886E+03  0.195E+01    0.13       1.0  T
   5   -101.9345099 -0.239212E+03  0.963E+00    0.16       1.0  T
   6    -10.2511732  0.916833E+02  0.125E+01    0.08       1.0  T
   7   -119.6492657 -0.109398E+03  0.616E+00    0.08       1.0  T
   8   -120.4224383 -0.773173E+00  0.581E+00    0.05       1.0  T
   9   -129.9316339 -0.950920E+01  0.379E+00    0.12       1.0  T
  10   -134.2880314 -0.435640E+01  0.302E+00    0.01       1.0  T
  11   -135.8981951 -0.161016E+01  0.242E+00    0.16       1.0  T
  12   -136.9262672 -0.102807E+01  0.206E+00    0.29       1.0  T
  13   -137.1375425 -0.211275E+00  0.190E+00    0.36       1.0  T
  14   -137.1123483  0.251941E-01  0.173E+00    0.27       1.0  T
  15   -137.1153476 -0.299926E-02  0.148E+00    0.52       1.0  T
  16   -137.3599177 -0.244570E+00  0.964E-01    0.28       1.0  T
  17   -137.4127634 -0.528457E-01  0.840E-01    0.49       1.0  T
  18   -137.4458368 -0.330735E-01  0.684E-01    0.44       1.0  T
  19   -137.4605998 -0.147629E-01  0.589E-01    0.45       1.0  T
  20   -137.4723636 -0.117638E-01  0.490E-01    0.44       1.0  T
  21   -137.4834604 -0.110968E-01  0.390E-01    0.43       1.0  T
  22   -137.4934683 -0.100080E-01  0.304E-01    0.43       1.0  T
  23   -137.4971134 -0.364510E-02  0.248E-01    0.35       1.0  T
  24   -137.5080333 -0.109199E-01  0.187E-01    0.12       1.0  T
  25   -137.5111304 -0.309705E-02  0.208E-01    0.06       1.0  T
  26   -137.5103093  0.821103E-03  0.238E-01    0.05       1.0  T
  27   -137.5111127 -0.803471E-03  0.186E-01    0.06       1.0  T
  28   -137.5099786  0.113417E-02  0.134E-01    0.12       1.0  T
  29   -137.5112102 -0.123169E-02  0.132E-01    0.10       1.0  T
  30   -137.5118638 -0.653533E-03  0.114E-01    0.10       1.0  T
  31   -137.5137063 -0.184255E-02  0.988E-02    0.09       1.0  T
  32   -137.5142568 -0.550500E-03  0.100E-01    0.08       1.0  T
  33   -137.5140435  0.213349E-03  0.100E-01    0.08       1.0  T
  34   -137.5149440 -0.900503E-03  0.917E-02    0.07       1.0  T
  35   -137.5162373 -0.129331E-02  0.819E-02    0.05       1.0  T
  36   -137.5166463 -0.409047E-03  0.676E-02    0.05       1.0  T
  37   -137.5169436 -0.297266E-03  0.606E-02    0.05       1.0  T
  38   -137.5172391 -0.295532E-03  0.395E-02    0.05       1.0  T
  39   -137.5173724 -0.133261E-03  0.448E-02    0.04       1.0  T
  40   -137.5175716 -0.199240E-03  0.200E-02    0.04       1.0  T
  41   -137.5176080 -0.363750E-04  0.963E-03    0.04       1.0  T
  42   -137.5176138 -0.580998E-05  0.788E-03    0.04       1.3  T
  43   -137.5176169 -0.312132E-05  0.735E-03    0.04       1.3  T
  44   -137.5176191 -0.220404E-05  0.575E-03    0.04       1.7  T
  45   -137.5176243 -0.519859E-05  0.232E-03    0.04       4.3  T
  46   -137.5176244 -0.103876E-06  0.134E-03    0.04       7.4  T
  47   -137.5176244  0.583105E-07  0.191E-03    0.04       5.2  T
  48   -137.5176247 -0.273088E-06  0.637E-04    0.04      15.5  T
  49   -137.5176247 -0.876157E-07  0.500E-04    0.04      19.8  T

   *** convergence criteria satisfied after 49 iterations ***

         #    Occupation            Energy/Eh            Energy/eV
      -------------------------------------------------------------
         1        2.0000           -0.7020965             -19.1050
       ...           ...                  ...                  ...
       132        2.0000           -0.3037307              -8.2649
       133        2.0000           -0.2968671              -8.0782
       134        2.0000           -0.2937143              -7.9924
       135        2.0000           -0.2908503              -7.9144
       136        2.0000           -0.2860305              -7.7833
       137        1.9988           -0.2826870              -7.6923
       138        0.6907           -0.2697259              -7.3396 (HOMO)
       139        0.3105           -0.2682083              -7.2983 (LUMO)
       140        0.0000           -0.2581316              -7.0241
       141                         -0.2535363              -6.8991
       142                         -0.2359430              -6.4203
       143                         -0.2294251              -6.2430
       ...                                ...                  ...
       303                          1.0599354              28.8423
      -------------------------------------------------------------
                  HL-Gap            0.0015176 Eh            0.0413 eV
             Fermi-level           -0.2726237 Eh           -7.4185 eV

 SCC (total)                   0 d,  0 h,  0 min,  0.757 sec
 SCC setup                      ...        0 min,  0.000 sec (  0.000%)
 Dispersion                     ...        0 min,  0.003 sec (  0.396%)
 classical contributions        ...        0 min,  0.000 sec (  0.000%)
 integral evaluation            ...        0 min,  0.006 sec (  0.793%)
 iterations                     ...        0 min,  0.724 sec ( 95.641%)
 molecular gradient             ...        0 min,  0.019 sec (  2.510%)
 printout                       ...        0 min,  0.005 sec (  0.661%)

         :::::::::::::::::::::::::::::::::::::::::::::::::::::
         ::                     SUMMARY                     ::
         :::::::::::::::::::::::::::::::::::::::::::::::::::::
         :: total energy            -135.689162722508 Eh    ::
         :: gradient norm              0.078901085961 Eh/a0 ::
         :: HOMO-LUMO gap              0.041296943761 eV    ::
         ::.................................................::
         :: SCC energy              -137.516183797884 Eh    ::
         :: -> isotropic ES            0.329059610302 Eh    ::
         :: -> anisotropic ES          0.013613832533 Eh    ::
         :: -> anisotropic XC          0.003932475691 Eh    ::
         :: -> dispersion             -0.117068836160 Eh    ::
         :: repulsion energy           1.827021075376 Eh    ::
         :: add. restraining           0.000000000000 Eh    ::
         :: total charge              -0.000000000011 e     ::
         :::::::::::::::::::::::::::::::::::::::::::::::::::::

           -------------------------------------------------
          |                Property Printout                |
           -------------------------------------------------

    * Orbital Energies and Occupations

         #    Occupation            Energy/Eh            Energy/eV
      -------------------------------------------------------------
         1        2.0000           -0.7020965             -19.1050
       ...           ...                  ...                  ...
       126        2.0000           -0.3198204              -8.7028
       127        2.0000           -0.3161352              -8.6025
       128        2.0000           -0.3145845              -8.5603
       129        2.0000           -0.3135216              -8.5314
       130        2.0000           -0.3077527              -8.3744
       131        2.0000           -0.3063464              -8.3361
       132        2.0000           -0.3037307              -8.2649
       133        2.0000           -0.2968671              -8.0782
       134        2.0000           -0.2937143              -7.9924
       135        2.0000           -0.2908503              -7.9144
       136        2.0000           -0.2860305              -7.7833
       137        1.9988           -0.2826870              -7.6923
       138        0.6907           -0.2697259              -7.3396 (HOMO)
       139        0.3105           -0.2682083              -7.2983 (LUMO)
       140        0.0000           -0.2581316              -7.0241
       141                         -0.2535363              -6.8991
       142                         -0.2359430              -6.4203
       143                         -0.2294251              -6.2430
       144                         -0.2223810              -6.0513
       145                         -0.2146908              -5.8420
       146                         -0.2126939              -5.7877
       147                         -0.2118470              -5.7647
       148                         -0.2055184              -5.5924
       149                         -0.2020937              -5.4992
       ...                                ...                  ...
       303                          1.0599354              28.8423
      -------------------------------------------------------------
                  HL-Gap            0.0015176 Eh            0.0413 eV
             Fermi-level           -0.2726237 Eh           -7.4185 eV

     #   Z          covCN         q      C6AA      α(0)
     1   6 C        3.641     0.033    20.371     6.490
     2   8 O        1.703    -0.257    18.259     5.769
     3   6 C        2.854     0.125    25.251     8.236
     4   6 C        2.919    -0.076    29.886     8.965
     5   6 C        2.965     0.003    27.960     8.673
     6   6 C        2.901    -0.020    28.495     8.753
     7   6 C        2.891    -0.071    29.779     8.947
     8   6 C        2.822     0.221    23.342     7.916
     9   8 O        0.857    -0.406    21.798     6.260
    10   6 C        3.806    -0.100    22.412     6.739
    11   6 C        2.822     0.219    23.381     7.923
    12   8 O        0.857    -0.421    22.099     6.303
    13   6 C        2.891    -0.072    29.788     8.948
    14   6 C        2.901    -0.022    28.561     8.763
    15   6 C        2.965     0.002    27.969     8.675
    16   6 C        2.915    -0.048    29.187     8.859
    17   6 C        2.908    -0.075    29.873     8.962
    18   6 C        2.843     0.124    25.268     8.238
    19   8 O        1.658    -0.385    20.552     6.120
    20   6 C        2.854     0.125    25.253     8.236
    21   8 O        1.703    -0.257    18.259     5.769
    22   6 C        3.641     0.031    20.405     6.496
    23   6 C        2.919    -0.077    29.924     8.971
    24   6 C        2.915    -0.050    29.231     8.866
    25   6 C        2.908    -0.077    29.921     8.969
    26   6 C        2.843     0.124    25.281     8.240
    27   8 O        1.658    -0.385    20.565     6.122
    28   1 H        0.924     0.061     2.190     2.314
    29   1 H        0.924     0.044     2.401     2.423
    30   1 H        0.924     0.044     2.402     2.424
    31   1 H        0.925     0.046     2.371     2.408
    32   1 H        0.925     0.063     2.159     2.298
    33   1 H        0.925     0.047     2.354     2.399
    34   1 H        0.924     0.060     2.204     2.322
    35   1 H        0.924     0.057     2.234     2.337
    36   1 H        0.925     0.050     2.323     2.383
    37   1 H        0.925     0.063     2.168     2.302
    38   1 H        0.925     0.041     2.442     2.444
    39   1 H        0.925     0.034     2.527     2.486
    40   1 H        0.804     0.300     0.720     1.333
    41   1 H        0.924     0.061     2.186     2.312
    42   1 H        0.924     0.045     2.383     2.414
    43   1 H        0.924     0.044     2.399     2.422
    44   1 H        0.925     0.046     2.366     2.405
    45   1 H        0.925     0.040     2.446     2.446
    46   1 H        0.925     0.034     2.530     2.487
    47   1 H        0.804     0.301     0.720     1.332
    48   5 B        3.729     0.067    21.422     7.478
    49   5 B        4.543     0.069    21.494     7.470
    50   5 B        3.764     0.032    22.106     7.586
    51   5 B        3.812     0.044    21.913     7.547
    52   5 B        3.866     0.059    21.660     7.500
    53   5 B        4.607     0.027    22.254     7.601
    54   5 B        2.881     0.054    20.491     7.556
    55   5 B        2.866     0.088    19.935     7.454
    56   5 B        4.657     0.034    22.116     7.577
    57   5 B        2.924     0.073    20.167     7.493
    58   5 B        3.820     0.056    21.709     7.511
    59   5 B        3.871     0.024    22.292     7.609
    60   5 B        4.530    -0.002    22.788     7.692
    61   5 B        3.833     0.050    21.825     7.530
    62   5 B        4.711     0.060    21.664     7.499
    63   5 B        4.714     0.056    21.728     7.511
    64   5 B        3.891     0.049    21.846     7.532
    65   5 B        2.930     0.026    20.954     7.638
    66   5 B        4.652     0.026    22.273     7.604
    67   5 B        2.877     0.058    20.429     7.545
    68   5 B        3.828     0.067    21.526     7.479
    69   5 B        3.859     0.025    22.272     7.606
    70   5 B        3.858    -0.005    22.829     7.700
    71   5 B        3.841     0.053    21.770     7.520
    72   5 B        4.594     0.026    22.256     7.601
    73   5 B        5.681     0.107    20.852     7.358
    74   5 B        4.131     0.019    22.395     7.625
    75   5 B        2.924     0.033    20.824     7.614
    76   5 B        5.586     0.063    21.613     7.491
    77   5 B        3.637     0.066    21.104     7.489
    78   5 B        3.826     0.047    21.862     7.537
    79   5 B        3.877     0.032    22.153     7.585
    80   5 B        3.870     0.022    22.333     7.616
    81   5 B        2.915     0.094    19.830     7.431
    82   5 B        3.773     0.075    21.356     7.455
    83   5 B        5.329     0.100    20.965     7.378
    84   5 B        4.732     0.046    21.902     7.541
    85   5 B        3.808     0.015    22.435     7.637
    86   5 B        3.784     0.078    21.302     7.444
    87   5 B        2.896     0.053    20.493     7.555
    88   1 H        0.938    -0.115     6.106     3.863
    89   1 H        1.528     0.035     2.505     2.471
    90   1 H        0.935    -0.144     7.358     4.241
    91   1 H        0.931    -0.132     6.841     4.090
    92   1 H        0.935    -0.119     6.284     3.919
    93   1 H        0.934    -0.115     6.112     3.865
    94   1 H        0.938    -0.103     5.673     3.724
    95   1 H        0.936    -0.133     6.886     4.103
    96   1 H        0.938    -0.089     5.198     3.565
    97   1 H        0.933    -0.150     7.708     4.341
    98   1 H        0.938    -0.094     5.343     3.614
    99   1 H        0.940    -0.132     6.841     4.089
   100   1 H        0.939    -0.110     5.934     3.809
   101   1 H        0.938    -0.112     5.991     3.827
   102   1 H        0.940    -0.139     7.162     4.184

 Mol. C6AA /au·bohr⁶  :     149475.438703
 Mol. C8AA /au·bohr⁸  :    4424923.488656
 Mol. α(0) /au        :        616.199209


Wiberg/Mayer (AO) data.
largest (>0.10) Wiberg bond orders for each atom

 ---------------------------------------------------------------------------
     #   Z sym  total        # sym  WBO       # sym  WBO       # sym  WBO
 ---------------------------------------------------------------------------
     1   6 C    3.946 --     2 O    0.985    28 H    0.980    29 H    0.977
                            30 H    0.977
     2   8 O    2.233 --     3 C    1.061     1 C    0.985
     3   6 C    3.936 --     4 C    1.401    26 C    1.286     2 O    1.061
     4   6 C    3.971 --     3 C    1.401     5 C    1.354    31 H    0.964
     5   6 C    3.983 --    24 C    1.376     4 C    1.354     6 C    1.093
     6   6 C    3.928 --     7 C    1.752     5 C    1.093    32 H    0.956
     7   6 C    3.962 --     6 C    1.752     8 C    1.072    33 H    0.965
     8   6 C    3.884 --     9 O    1.738     7 C    1.072    10 C    0.967
     9   8 O    1.986 --     8 C    1.738
    10   6 C    3.993 --    11 C    0.969     8 C    0.967    35 H    0.961
                            34 H    0.961
    11   6 C    3.878 --    12 O    1.722    13 C    1.076    10 C    0.969
    12   8 O    1.968 --    11 C    1.722
    13   6 C    3.961 --    14 C    1.746    11 C    1.076    36 H    0.965
    14   6 C    3.924 --    13 C    1.746    15 C    1.094    37 H    0.956
    15   6 C    3.983 --    16 C    1.376    23 C    1.354    14 C    1.094
    16   6 C    3.976 --    17 C    1.437    15 C    1.376    38 H    0.969
    17   6 C    3.983 --    16 C    1.437    18 C    1.389    39 H    0.966
    18   6 C    3.923 --    17 C    1.389    20 C    1.285    19 O    1.067
    19   8 O    2.111 --    18 C    1.067    40 H    0.889
    20   6 C    3.936 --    23 C    1.402    18 C    1.285    21 O    1.061
    21   8 O    2.232 --    20 C    1.061    22 C    0.985
    22   6 C    3.946 --    21 O    0.985    41 H    0.980    43 H    0.977
                            42 H    0.977
    23   6 C    3.970 --    20 C    1.402    15 C    1.354    44 H    0.964
    24   6 C    3.977 --    25 C    1.437     5 C    1.376    45 H    0.969
    25   6 C    3.983 --    24 C    1.437    26 C    1.389    46 H    0.966
    26   6 C    3.923 --    25 C    1.389     3 C    1.286    27 O    1.067
    27   8 O    2.110 --    26 C    1.067    47 H    0.889
    28   1 H    0.996 --     1 C    0.980
    29   1 H    0.998 --     1 C    0.977
    30   1 H    0.998 --     1 C    0.977
    31   1 H    0.997 --     4 C    0.964
    32   1 H    0.995 --     6 C    0.956
    33   1 H    0.998 --     7 C    0.965
    34   1 H    0.993 --    10 C    0.961
    35   1 H    0.993 --    10 C    0.961
    36   1 H    0.998 --    13 C    0.965
    37   1 H    0.995 --    14 C    0.956
    38   1 H    0.998 --    16 C    0.969
    39   1 H    0.998 --    17 C    0.966
    40   1 H    0.909 --    19 O    0.889
    41   1 H    0.996 --    22 C    0.980
    42   1 H    0.998 --    22 C    0.977
    43   1 H    0.998 --    22 C    0.977
    44   1 H    0.997 --    23 C    0.964
    45   1 H    0.998 --    24 C    0.969
    46   1 H    0.998 --    25 C    0.966
    47   1 H    0.909 --    27 O    0.889
    48   5 B    3.566 --    88 H    0.952    51 B    0.911    49 B    0.880
                            89 H    0.538
    49   5 B    3.535 --    48 B    0.880    50 B    0.752    51 B    0.603
                            53 B    0.545    89 H    0.425    52 B    0.133
    50   5 B    3.572 --    52 B    1.120    90 H    0.949    49 B    0.752
                            53 B    0.453
    51   5 B    3.553 --    48 B    0.911    58 B    0.843    59 B    0.817
                            49 B    0.603    61 B    0.111
    52   5 B    3.391 --    50 B    1.120    60 B    0.804    56 B    0.633
                            53 B    0.431    49 B    0.133
    53   5 B    3.595 --    54 B    1.078    56 B    0.765    49 B    0.545
                            50 B    0.453    52 B    0.431
    54   5 B    3.425 --    53 B    1.078    55 B    0.993    91 H    0.912
                            56 B    0.155
    55   5 B    3.248 --    57 B    1.015    54 B    0.993    92 H    0.940
                            65 B    0.108
    56   5 B    3.676 --    64 B    0.779    53 B    0.765    63 B    0.698
                            52 B    0.633    60 B    0.374    54 B    0.155
    57   5 B    3.405 --    55 B    1.015    65 B    0.984    93 H    0.924
                            64 B    0.191
    58   5 B    3.628 --    94 H    0.927    59 B    0.843    51 B    0.843
                            61 B    0.793
    59   5 B    3.608 --    61 B    0.863    58 B    0.843    51 B    0.817
                            60 B    0.801
    60   5 B    3.634 --    62 B    0.837    52 B    0.804    59 B    0.801
                            63 B    0.437    56 B    0.374
    61   5 B    3.575 --    59 B    0.863    58 B    0.793    68 B    0.773
                            69 B    0.714    51 B    0.111
    62   5 B    3.584 --    60 B    0.837    70 B    0.680    63 B    0.637
                            73 B    0.567    66 B    0.459
    63   5 B    3.598 --    66 B    0.947    56 B    0.698    62 B    0.637
                            64 B    0.594    60 B    0.437
    64   5 B    3.548 --    65 B    0.968    56 B    0.779    66 B    0.666
                            63 B    0.594    57 B    0.191
    65   5 B    3.447 --    57 B    0.984    64 B    0.968    67 B    0.960
                            75 B    0.182    55 B    0.108
    66   5 B    3.637 --    63 B    0.947    74 B    0.773    64 B    0.666
                            62 B    0.459    73 B    0.438
    67   5 B    3.414 --    75 B    1.139    65 B    0.960    95 H    0.953
                            77 B    0.112
    68   5 B    3.564 --    96 H    0.921    71 B    0.838    69 B    0.803
                            61 B    0.773
    69   5 B    3.586 --    70 B    1.009    68 B    0.803    61 B    0.714
                            71 B    0.699
    70   5 B    3.629 --    69 B    1.009    72 B    0.894    62 B    0.680
                            73 B    0.607
    71   5 B    3.584 --    79 B    0.845    68 B    0.838    78 B    0.760
                            69 B    0.699    81 B    0.148
    72   5 B    3.667 --    70 B    0.894    80 B    0.701    73 B    0.682
                            83 B    0.614    76 B    0.392
    73   5 B    3.669 --    72 B    0.682    70 B    0.607    76 B    0.586
                            62 B    0.567    74 B    0.523    66 B    0.438
    74   5 B    3.521 --    75 B    0.965    66 B    0.773    76 B    0.772
                            73 B    0.523    77 B    0.196
    75   5 B    3.403 --    67 B    1.139    74 B    0.965    77 B    0.780
                            65 B    0.182
    76   5 B    3.633 --    74 B    0.772    84 B    0.618    73 B    0.586
                            85 B    0.486    72 B    0.392    83 B    0.292
                            77 B    0.266
    77   5 B    3.504 --    85 B    0.972    97 H    0.940    75 B    0.780
                            76 B    0.266    74 B    0.196    67 B    0.112
    78   5 B    3.599 --    81 B    1.016    98 H    0.919    71 B    0.760
                            79 B    0.752
    79   5 B    3.598 --    81 B    0.927    80 B    0.889    71 B    0.845
                            78 B    0.752
    80   5 B    3.609 --    79 B    0.889    82 B    0.862    72 B    0.701
                            83 B    0.635    81 B    0.228
    81   5 B    3.453 --    78 B    1.016    99 H    0.973    79 B    0.927
                            80 B    0.228    71 B    0.148
    82   5 B    3.512 --   100 H    0.953    80 B    0.862    83 B    0.765
                            86 B    0.687
    83   5 B    3.651 --    82 B    0.765    86 B    0.763    80 B    0.635
                            72 B    0.614    84 B    0.440    76 B    0.292
    84   5 B    3.633 --    87 B    0.950    86 B    0.762    85 B    0.706
                            76 B    0.618    83 B    0.440
    85   5 B    3.568 --    87 B    1.165    77 B    0.972    84 B    0.706
                            76 B    0.486
    86   5 B    3.552 --   101 H    0.954    83 B    0.763    84 B    0.762
                            82 B    0.687    87 B    0.186
    87   5 B    3.509 --    85 B    1.165   102 H    0.969    84 B    0.950
                            86 B    0.186
    88   1 H    0.981 --    48 B    0.952
    89   1 H    0.995 --    48 B    0.538    49 B    0.425
    90   1 H    0.977 --    50 B    0.949
    91   1 H    0.979 --    54 B    0.912
    92   1 H    0.983 --    55 B    0.940
    93   1 H    0.983 --    57 B    0.924
    94   1 H    0.977 --    58 B    0.927
    95   1 H    0.979 --    67 B    0.953
    96   1 H    0.980 --    68 B    0.921
    97   1 H    0.976 --    77 B    0.940
    98   1 H    0.981 --    78 B    0.919
    99   1 H    0.982 --    81 B    0.973
   100   1 H    0.984 --    82 B    0.953
   101   1 H    0.983 --    86 B    0.954
   102   1 H    0.979 --    87 B    0.969
 ---------------------------------------------------------------------------

Topologies differ in total number of bonds
Writing topology from bond orders to xtbtopo.mol

molecular dipole:
                 x           y           z       tot (Debye)
 q only:        0.805      -0.419      -4.953
   full:        0.347      -1.451      -4.114      11.123
molecular quadrupole (traceless):
                xx          xy          yy          xz          yz          zz
 q only:       15.839       9.626      34.439      -1.781      28.126     -50.277
  q+dip:       38.148      19.753      29.853      -7.797      16.647     -68.000
   full:       28.392      14.692      27.502      -7.065      18.455     -55.893


           -------------------------------------------------
          | TOTAL ENERGY             -135.689162722508 Eh   |
          | GRADIENT NORM               0.078901085961 Eh/α |
          | HOMO-LUMO GAP               0.041296943761 eV   |
           -------------------------------------------------

------------------------------------------------------------------------
 * finished run on 2026/09/01 at 20:28:39.462     
------------------------------------------------------------------------
 total:
 * wall-time:     0 d,  0 h,  0 min,  0.807 sec
 *  cpu-time:     0 d,  0 h,  0 min,  9.062 sec
 * ratio c/w:    11.230 speedup
 SCF:
 * wall-time:     0 d,  0 h,  0 min,  0.759 sec
 *  cpu-time:     0 d,  0 h,  0 min,  8.703 sec
 * ratio c/w:    11.467 speedup

