      -----------------------------------------------------------      
     |                   =====================                   |     
     |                           x T B                           |     
     |                   =====================                   |     
     |                         S. Grimme                         |     
     |          Mulliken Center for Theoretical Chemistry        |     
     |                    University of Bonn                     |     
      -----------------------------------------------------------      

   * xtb version 6.7.1pre (5071a88) compiled by 'Marcel@Raven' on 2024-07-23

   xtb is free software: you can redistribute it and/or modify it under
   the terms of the GNU Lesser General Public License as published by
   the Free Software Foundation, either version 3 of the License, or
   (at your option) any later version.
   
   xtb is distributed in the hope that it will be useful,
   but WITHOUT ANY WARRANTY; without even the implied warranty of
   MERCHANTABILITY or FITNESS FOR A PARTICULAR PURPOSE.  See the
   GNU Lesser General Public License for more details.
   
   Cite this work as:
   * C. Bannwarth, E. Caldeweyher, S. Ehlert, A. Hansen, P. Pracht,
     J. Seibert, S. Spicher, S. Grimme, WIREs Comput. Mol. Sci., 2020, 11,
     e01493. DOI: 10.1002/wcms.1493
   
   for GFN2-xTB:
   * C. Bannwarth, S. Ehlert and S. Grimme., J. Chem. Theory Comput., 2019,
     15, 1652-1671. DOI: 10.1021/acs.jctc.8b01176
   for GFN1-xTB:
   * S. Grimme, C. Bannwarth, P. Shushkov, J. Chem. Theory Comput., 2017,
     13, 1989-2009. DOI: 10.1021/acs.jctc.7b00118
   for GFN0-xTB:
   * P. Pracht, E. Caldeweyher, S. Ehlert, S. Grimme, ChemRxiv, 2019, preprint.
     DOI: 10.26434/chemrxiv.8326202.v1
   for GFN-FF:
   * S. Spicher and S. Grimme, Angew. Chem. Int. Ed., 2020, 59, 15665-15673.
     DOI: 10.1002/anie.202004239
   
   for ALPB and GBSA implicit solvation:
   * S. Ehlert, M. Stahn, S. Spicher, S. Grimme, J. Chem. Theory Comput.,
     2021, 17, 4250-4261. DOI: 10.1021/acs.jctc.1c00471
   
   for ddCOSMO and CPCM-X implicit solvation:
   * M. Stahn, S. Ehlert, S. Grimme, J. Phys. Chem. A,
     2023, XX, XXXX-XXXX. DOI: 10.1021/acs.jpca.3c04382
   
   for DFT-D4:
   * E. Caldeweyher, C. Bannwarth and S. Grimme, J. Chem. Phys., 2017,
     147, 034112. DOI: 10.1063/1.4993215
   * E. Caldeweyher, S. Ehlert, A. Hansen, H. Neugebauer, S. Spicher,
     C. Bannwarth and S. Grimme, J. Chem. Phys., 2019, 150, 154122.
     DOI: 10.1063/1.5090222
   * E. Caldeweyher, J.-M. Mewes, S. Ehlert and S. Grimme, Phys. Chem. Chem. Phys.
     2020, 22, 8499-8512. DOI: 10.1039/D0CP00502A
   
   for sTDA-xTB:
   * S. Grimme and C. Bannwarth, J. Chem. Phys., 2016, 145, 054103.
     DOI: 10.1063/1.4959605
   
   in the mass-spec context:
   * V. Asgeirsson, C. Bauer and S. Grimme, Chem. Sci., 2017, 8, 4879.
     DOI: 10.1039/c7sc00601b
   * J. Koopman and S. Grimme, ACS Omega 2019, 4, 12, 15120-15133.
     DOI: 10.1021/acsomega.9b02011
   
   for metadynamics refer to:
   * S. Grimme, J. Chem. Theory Comput., 2019, 155, 2847-2862
     DOI: 10.1021/acs.jctc.9b00143
   
   for SPH calculations refer to:
   * S. Spicher and S. Grimme, J. Chem. Theory Comput., 2021, 17, 1701-1714
     DOI: 10.1021/acs.jctc.0c01306
   
   for ONIOM refer to:
   * C. Plett, A. Katbashev, S. Ehlert, S. Grimme, M. Bursch,
     Phys. Chem. Chem. Phys., 2023, 25, 17860-17868. DOI: 10.1039/D3CP02178E
   
   for DIPRO refer to:
   * J. Kohn, N. Gildemeister, S. Grimme, D. Fazzi, A. Hansen,
     J. Chem. Phys., 2023, just accepted.
   
   for PTB refer to:
   * S. Grimme, M. Mueller, A. Hansen, J. Chem. Phys., 2023, 158, 124111.
     DOI: 10.1063/5.0137838
   
   with help from (in alphabetical order)
   P. Atkinson, C. Bannwarth, F. Bohle, G. Brandenburg, E. Caldeweyher
   M. Checinski, S. Dohm, S. Ehlert, S. Ehrlich, I. Gerasimov, C. Hölzer
   A. Katbashev, J. Kohn, J. Koopman, C. Lavigne, S. Lehtola, F. März, M. Müller,
   F. Musil, H. Neugebauer, J. Pisarek, C. Plett, P. Pracht, F. Pultar,
   J. Seibert, P. Shushkov, S. Spicher, M. Stahn, M. Steiner, T. Strunk,
   J. Stückrath, T. Rose, and J. Unsleber
   
 * started run on 2026/08/31 at 22:06:32.385     
   ID    Z sym.   atoms
    1    6 C      1, 3-8, 10, 11, 13-18, 20, 22-26
    2    8 O      2, 9, 12, 19, 21, 27
    3    1 H      28-47, 101-107
    4    5 B      48-100

           -------------------------------------------------
          |                Calculation Setup                |
           -------------------------------------------------

          program call               : "c:\Users\Andre\Proyectos doctorado\kras-pancreatic-gC3N4-ai\tools\xtb\xtb-6.7.1\bin\xtb.exe" "c:\Users\Andre\Proyectos doctorado\borophene-alzheimer-tau-ai\calculations\tau\Curcumin\Curcumin_opt_180deg.xyz" --opt vloose --gfn 2 --chrg 0 --uhf 0 --etemp 300 --iterations 500 --cycles 15 --norestart
          coordinate file            : c:\Users\Andre\Proyectos doctorado\borophene-alzheimer-tau-ai\calculations\tau\Curcumin\Curcumin_opt_180deg.xyz
          omp threads                :                    16


molecular fragmentation (1/2 indicates fragments):
111111111111111111111111111111111111111111111112222222222222222222222222
22222222222222222222222222222222222
# atoms in fragment 1/2:    47    60
 fragment masses (1/2) :      368.38      580.04
CMA distance (Bohr)    :  15.183
constraining FC (au)   :  0.0500

           -------------------------------------------------
          |                 G F N 2 - x T B                 |
           -------------------------------------------------

        Reference                      10.1021/acs.jctc.8b01176
      * Hamiltonian:
        H0-scaling (s, p, d)           1.850000    2.230000    2.230000
        zeta-weighting                 0.500000
      * Dispersion:
        s8                             2.700000
        a1                             0.520000
        a2                             5.000000
        s9                             5.000000
      * Repulsion:
        kExp                           1.500000    1.000000
        rExp                           1.000000
      * Coulomb:
        alpha                          2.000000
        third order                    shell-resolved
        anisotropic                    true
        a3                             3.000000
        a5                             4.000000
        cn-shift                       1.200000
        cn-exp                         4.000000
        max-rad                        5.000000


          ...................................................
          :                      SETUP                      :
          :.................................................:
          :  # basis functions                 347          :
          :  # atomic orbitals                 347          :
          :  # shells                          187          :
          :  # electrons                       306          :
          :  max. iterations                   500          :
          :  Hamiltonian                  GFN2-xTB          :
          :  restarted?                      false          :
          :  GBSA solvation                  false          :
          :  PC potential                    false          :
          :  electronic temp.          300.0000000     K    :
          :  accuracy                    1.0000000          :
          :  -> integral cutoff          0.2500000E+02      :
          :  -> integral neglect         0.1000000E-07      :
          :  -> SCF convergence          0.1000000E-05 Eh   :
          :  -> wf. convergence          0.1000000E-03 e    :
          :  Broyden damping             0.4000000          :
          :  net charge                          0          :
          :  unpaired electrons                  0          :
          ...................................................

 iter      E             dE          RMSdq      gap      omega  full diag
   1   -148.1011600 -0.148101E+03  0.145E+01    0.14       0.0  T
   2   -138.2224355  0.987872E+01  0.103E+01    0.08       1.0  T
   3     76.6106115  0.214833E+03  0.180E+01    0.07       1.0  T
   4     57.1568664 -0.194537E+02  0.169E+01    0.09       1.0  T
   5   -111.4700676 -0.168627E+03  0.926E+00    0.03       1.0  T
   6    -77.7358458  0.337342E+02  0.107E+01    0.03       1.0  T
   7   -136.7024229 -0.589666E+02  0.581E+00    0.04       1.0  T
   8   -131.9371233  0.476530E+01  0.565E+00    0.07       1.0  T
   9   -146.4068624 -0.144697E+02  0.382E+00    0.10       1.0  T
  10   -148.5153145 -0.210845E+01  0.294E+00    0.23       1.0  T
  11   -149.0174150 -0.502100E+00  0.255E+00    0.35       1.0  T
  12   -149.1180197 -0.100605E+00  0.233E+00    0.39       1.0  T
  13   -149.1183693 -0.349652E-03  0.208E+00    0.34       1.0  T
  14   -149.0834018  0.349675E-01  0.161E+00    0.29       1.0  T
  15   -149.0520024  0.313994E-01  0.124E+00    0.01       1.0  T
  16   -149.1803260 -0.128324E+00  0.997E-01    0.39       1.0  T
  17   -149.0771982  0.103128E+00  0.116E+00    0.04       1.0  T
  18   -149.2013954 -0.124197E+00  0.937E-01    0.03       1.0  T
  19   -149.0020981  0.199297E+00  0.125E+00    0.10       1.0  T
  20   -148.9991646  0.293354E-02  0.126E+00    0.10       1.0  T
  21   -149.1975876 -0.198423E+00  0.849E-01    0.01       1.0  T
  22   -149.2749828 -0.773951E-01  0.441E-01    0.04       1.0  T
  23   -149.2777273 -0.274456E-02  0.379E-01    0.04       1.0  T
  24   -149.2850226 -0.729527E-02  0.275E-01    0.08       1.0  T
  25   -149.2535509  0.314717E-01  0.401E-01    0.01       1.0  T
  26   -149.2741434 -0.205925E-01  0.266E-01    0.14       1.0  T
  27   -149.2768425 -0.269915E-02  0.233E-01    0.13       1.0  T
  28   -149.2758866  0.955939E-03  0.232E-01    0.14       1.0  T
  29   -149.2796730 -0.378645E-02  0.201E-01    0.12       1.0  T
  30   -149.2903034 -0.106304E-01  0.865E-02    0.07       1.0  T
  31   -149.2920363 -0.173289E-02  0.522E-02    0.06       1.0  T
  32   -149.2921497 -0.113406E-03  0.487E-02    0.06       1.0  T
  33   -149.2922609 -0.111219E-03  0.418E-02    0.06       1.0  T
  34   -149.2923086 -0.477196E-04  0.307E-02    0.05       1.0  T
  35   -149.2921836  0.125055E-03  0.324E-02    0.05       1.0  T
  36   -149.2924133 -0.229775E-03  0.154E-02    0.05       1.0  T
  37   -149.2924756 -0.622304E-04  0.116E-02    0.05       1.0  T
  38   -149.2924830 -0.743028E-05  0.956E-03    0.06       1.0  T
  39   -149.2924873 -0.424671E-05  0.842E-03    0.06       1.1  T
  40   -149.2924864  0.807550E-06  0.815E-03    0.06       1.2  T
  41   -149.2924941 -0.764960E-05  0.581E-03    0.05       1.7  T
  42   -149.2924986 -0.451809E-05  0.334E-03    0.05       2.9  T
  43   -149.2924996 -0.994195E-06  0.224E-03    0.05       4.3  T
  44   -149.2924998 -0.210561E-06  0.159E-03    0.05       6.1  T
  45   -149.2925001 -0.330640E-06  0.896E-04    0.05      10.8  T
  46   -149.2925002 -0.531241E-07  0.581E-04    0.05      16.6  T

   *** convergence criteria satisfied after 46 iterations ***

         #    Occupation            Energy/Eh            Energy/eV
      -------------------------------------------------------------
         1        2.0000           -0.6949403             -18.9103
       ...           ...                  ...                  ...
       147        2.0000           -0.2778206              -7.5599
       148        2.0000           -0.2722636              -7.4087
       149        2.0000           -0.2718935              -7.3986
       150        2.0000           -0.2675740              -7.2811
       151        1.9999           -0.2633091              -7.1650
       152        1.9983           -0.2609400              -7.1005
       153        1.4798           -0.2552179              -6.9448 (HOMO)
       154        0.5220           -0.2532360              -6.8909 (LUMO)
       155        0.0000           -0.2434551              -6.6248
       156        0.0000           -0.2383718              -6.4864
       157                         -0.2348246              -6.3899
       158                         -0.2311224              -6.2892
       ...                                ...                  ...
       347                          1.1837832              32.2124
      -------------------------------------------------------------
                  HL-Gap            0.0019818 Eh            0.0539 eV
             Fermi-level           -0.2542247 Eh           -6.9178 eV

 SCC (total)                   0 d,  0 h,  0 min,  1.606 sec
 SCC setup                      ...        0 min,  0.001 sec (  0.062%)
 Dispersion                     ...        0 min,  0.004 sec (  0.249%)
 classical contributions        ...        0 min,  0.000 sec (  0.000%)
 integral evaluation            ...        0 min,  0.012 sec (  0.747%)
 iterations                     ...        0 min,  1.558 sec ( 97.011%)
 molecular gradient             ...        0 min,  0.029 sec (  1.806%)
 printout                       ...        0 min,  0.002 sec (  0.125%)

         :::::::::::::::::::::::::::::::::::::::::::::::::::::
         ::                     SUMMARY                     ::
         :::::::::::::::::::::::::::::::::::::::::::::::::::::
         :: total energy            -147.170178539518 Eh    ::
         :: gradient norm              0.083947583142 Eh/a0 ::
         :: HOMO-LUMO gap              0.053928871995 eV    ::
         ::.................................................::
         :: SCC energy              -149.290298939299 Eh    ::
         :: -> isotropic ES            0.365309263963 Eh    ::
         :: -> anisotropic ES          0.009162711406 Eh    ::
         :: -> anisotropic XC         -0.033782456199 Eh    ::
         :: -> dispersion             -0.125569283173 Eh    ::
         :: repulsion energy           2.120120399781 Eh    ::
         :: add. restraining           0.000000000000 Eh    ::
         :: total charge               0.000000000001 e     ::
         :::::::::::::::::::::::::::::::::::::::::::::::::::::

      ----------------------------------------------------------- 
     |                   =====================                   |
     |                        A N C O P T                        |
     |                   =====================                   |
     |               Approximate Normal Coordinate               |
     |                Rational Function Optimizer                |
      ----------------------------------------------------------- 
      ----------------------------------------------------------- 
     |                   =====================                   |
     |                        A N C O P T                        |
     |                   =====================                   |
     |               Approximate Normal Coordinate               |
     |                Rational Function Optimizer                |
      ----------------------------------------------------------- 

          ...................................................
          :                      SETUP                      :
          :.................................................:
          :   optimization level            normal          :
          :   max. optcycles                    15          :
          :   ANC micro-cycles                  15          :
          :   degrees of freedom               315          :
          :.................................................:
          :   RF solver                   davidson          :
          :   write xtbopt.log                true          :
          :   linear?                        false          :
          :   energy convergence         0.5000000E-05 Eh   :
          :   grad. convergence          0.1000000E-02 Eh/α :
          :   maxmium RF displ.          1.0000000          :
          :   Hlow (freq-cutoff)         0.1000000E-01      :
          :   Hmax (freq-cutoff)         5.0000000          :
          :   S6 in model hess.         20.0000000          :
          ...................................................

generating ANC from exact Hessian ...
Using Lindh-Hessian (1995)
 Shifting diagonal of input Hessian by   1.026867298881169E-002
 Lowest  eigenvalues of input Hessian
    0.010000    0.010042    0.010116    0.010123    0.010181    0.010265
    0.000000    0.000000    0.000000    0.000000    0.000000    0.000000
    0.010286    0.010302    0.010321    0.010390    0.010450    0.010527
 Highest eigenvalues
    2.017287    2.017665    2.077599    2.102701    2.104531    2.109437
 

........................................................................
.............................. CYCLE    1 ..............................
........................................................................

 iter      E             dE          RMSdq      gap      omega  full diag
   1   -149.2925002 -0.149293E+03  0.624E-04    0.05       0.0  T
   2   -149.2924831  0.170372E-04  0.753E-03    0.06       1.3  T
   3   -149.2925000 -0.169057E-04  0.899E-04    0.05      10.8  T
   4   -149.2925001 -0.971196E-07  0.695E-04    0.05      13.9  T
   5   -149.2925001  0.931391E-08  0.633E-04    0.05      15.3  T
     SCC iter.                  ...        0 min,  0.141 sec
     gradient                   ...        0 min,  0.027 sec
 * total energy  :  -147.1701784 Eh     change        0.9395666E-07 Eh
   gradient norm :     0.0839654 Eh/α   predicted     0.0000000E+00 (-100.00%)
   displ. norm   :     0.2750991 α      lambda       -0.1001397E-01
   maximum displ.:     0.0714437 α      in ANC's #41, #106, #145, ...

........................................................................
.............................. CYCLE    2 ..............................
........................................................................

 iter      E             dE          RMSdq      gap      omega  full diag
   1   -149.2856626 -0.149286E+03  0.412E-01    0.02       0.0  T
   2   -149.2342730  0.513897E-01  0.636E-01    0.46       1.0  T
   3   -149.2762923 -0.420194E-01  0.425E-01    0.41       1.0  T
   4   -149.2887161 -0.124237E-01  0.377E-01    0.33       1.0  T
   5   -149.3080888 -0.193728E-01  0.256E-01    0.14       1.0  T
   6   -149.2433678  0.647210E-01  0.534E-01    0.05       1.0  T
   7   -149.3250713 -0.817035E-01  0.979E-02    0.06       1.0  T
   8   -149.3196293  0.544200E-02  0.160E-01    0.10       1.0  T
   9   -149.3233342 -0.370492E-02  0.112E-01    0.08       1.0  T
  10   -149.3264679 -0.313367E-02  0.513E-02    0.06       1.0  T
  11   -149.3269619 -0.494013E-03  0.292E-02    0.06       1.0  T
  12   -149.3270308 -0.689060E-04  0.250E-02    0.06       1.0  T
  13   -149.3270324 -0.163420E-05  0.249E-02    0.06       1.0  T
  14   -149.3271630 -0.130574E-03  0.129E-02    0.05       1.0  T
  15   -149.3272122 -0.491528E-04  0.180E-03    0.05       5.4  T
  16   -149.3272105  0.171023E-05  0.292E-03    0.05       3.3  T
  17   -149.3272058  0.464687E-05  0.483E-03    0.05       2.0  T
  18   -149.3272127 -0.689089E-05  0.963E-04    0.05      10.0  T
  19   -149.3272129 -0.201618E-06  0.428E-04    0.05      22.6  T
  20   -149.3272129 -0.412368E-07  0.222E-04    0.05      43.6  T
     SCC iter.                  ...        0 min,  0.598 sec
     gradient                   ...        0 min,  0.033 sec
 * total energy  :  -147.1774428 Eh     change       -0.7264338E-02 Eh
   gradient norm :     0.0445003 Eh/α   predicted    -0.5390606E-02 ( -25.79%)
   displ. norm   :     0.3547417 α      lambda       -0.4992943E-02
   maximum displ.:     0.1388668 α      in ANC's #19, #41, #36, ...

........................................................................
.............................. CYCLE    3 ..............................
........................................................................

 iter      E             dE          RMSdq      gap      omega  full diag
   1   -149.2777093 -0.149278E+03  0.511E-01    0.05       0.0  T
   2   -149.2155233  0.621860E-01  0.762E-01    0.44       1.0  T
   3   -149.2734965 -0.579733E-01  0.513E-01    0.37       1.0  T
   4   -149.2991521 -0.256556E-01  0.434E-01    0.41       1.0  T
   5   -149.3120273 -0.128753E-01  0.355E-01    0.29       1.0  T
   6   -149.3430221 -0.309948E-01  0.128E-01    0.07       1.0  T
   7   -149.2437662  0.992559E-01  0.594E-01    0.07       1.0  T
   8   -149.3190009 -0.752347E-01  0.311E-01    0.01       1.0  T
   9   -149.3281864 -0.918546E-02  0.253E-01    0.14       1.0  T
  10   -149.3369056 -0.871921E-02  0.186E-01    0.10       1.0  T
  11   -149.3436926 -0.678704E-02  0.106E-01    0.07       1.0  T
  12   -149.3463988 -0.270617E-02  0.482E-02    0.06       1.0  T
  13   -149.3462186  0.180213E-03  0.529E-02    0.06       1.0  T
  14   -149.3467488 -0.530185E-03  0.324E-02    0.05       1.0  T
  15   -149.3470331 -0.284314E-03  0.810E-03    0.05       1.2  T
  16   -149.3470476 -0.144565E-04  0.294E-03    0.05       3.3  T
  17   -149.3470494 -0.183500E-05  0.129E-03    0.05       7.5  T
  18   -149.3470488  0.603672E-06  0.192E-03    0.05       5.0  T
  19   -149.3470497 -0.864921E-06  0.661E-04    0.05      14.6  T
  20   -149.3470494  0.220328E-06  0.106E-03    0.05       9.2  T
  21   -149.3470497 -0.252495E-06  0.447E-04    0.05      21.6  T
     SCC iter.                  ...        0 min,  0.535 sec
     gradient                   ...        0 min,  0.027 sec
 * total energy  :  -147.1805714 Eh     change       -0.3128662E-02 Eh
   gradient norm :     0.0118112 Eh/α   predicted    -0.2811780E-02 ( -10.13%)
   displ. norm   :     0.3252126 α      lambda       -0.1421029E-02
   maximum displ.:     0.1593326 α      in ANC's #19, #41, #36, ...

........................................................................
.............................. CYCLE    4 ..............................
........................................................................

 iter      E             dE          RMSdq      gap      omega  full diag
   1   -149.3222468 -0.149322E+03  0.308E-01    0.01       0.0  T
   2   -149.2674323  0.548145E-01  0.581E-01    0.42       1.0  T
   3   -149.3046273 -0.371949E-01  0.392E-01    0.37       1.0  T
   4   -149.3114293 -0.680205E-02  0.361E-01    0.24       1.0  T
   5   -149.3340098 -0.225805E-01  0.218E-01    0.11       1.0  T
   6   -149.2722456  0.617642E-01  0.501E-01    0.05       1.0  T
   7   -149.3454064 -0.731608E-01  0.869E-02    0.03       1.0  T
   8   -149.3438533  0.155313E-02  0.113E-01    0.07       1.0  T
   9   -149.3448687 -0.101546E-02  0.974E-02    0.07       1.0  T
  10   -149.3470237 -0.215499E-02  0.497E-02    0.06       1.0  T
  11   -149.3476265 -0.602780E-03  0.197E-02    0.05       1.0  T
  12   -149.3476677 -0.412204E-04  0.163E-02    0.05       1.0  T
  13   -149.3476965 -0.287627E-04  0.127E-02    0.05       1.0  T
  14   -149.3477407 -0.442270E-04  0.301E-03    0.05       3.2  T
  15   -149.3477426 -0.189848E-05  0.140E-03    0.05       6.9  T
  16   -149.3477424  0.234971E-06  0.161E-03    0.05       6.0  T
  17   -149.3477428 -0.391268E-06  0.109E-03    0.05       8.9  T
  18   -149.3477431 -0.351055E-06  0.217E-04    0.05      44.5  T
  19   -149.3477431  0.367228E-07  0.398E-04    0.05      24.3  T
     SCC iter.                  ...        0 min,  0.540 sec
     gradient                   ...        0 min,  0.026 sec
 * total energy  :  -147.1817003 Eh     change       -0.1128881E-02 Eh
   gradient norm :     0.0116465 Eh/α   predicted    -0.7856852E-03 ( -30.40%)
   displ. norm   :     0.5461293 α      lambda       -0.1739338E-02
   maximum displ.:     0.2892226 α      in ANC's #19, #36, #41, ...

........................................................................
.............................. CYCLE    5 ..............................
........................................................................

 iter      E             dE          RMSdq      gap      omega  full diag
   1   -149.3088380 -0.149309E+03  0.366E-01    0.02       0.0  T
   2   -149.2458995  0.629385E-01  0.647E-01    0.40       1.0  T
   3   -149.2914062 -0.455067E-01  0.437E-01    0.35       1.0  T
   4   -149.3006755 -0.926922E-02  0.401E-01    0.29       1.0  T
   5   -149.3230479 -0.223725E-01  0.270E-01    0.13       1.0  T
   6   -149.2076001  0.115448E+00  0.673E-01    0.11       1.0  T
   7   -149.3347027 -0.127103E+00  0.173E-01    0.02       1.0  T
   8   -149.3380901 -0.338740E-02  0.132E-01    0.08       1.0  T
   9   -149.3377215  0.368555E-03  0.136E-01    0.08       1.0  T
  10   -149.3415098 -0.378825E-02  0.788E-02    0.06       1.0  T
  11   -149.3431873 -0.167748E-02  0.222E-02    0.05       1.0  T
  12   -149.3430410  0.146238E-03  0.317E-02    0.05       1.0  T
  13   -149.3431636 -0.122564E-03  0.240E-02    0.05       1.0  T
  14   -149.3433315 -0.167923E-03  0.316E-03    0.04       3.1  T
  15   -149.3433305  0.102816E-05  0.360E-03    0.04       2.7  T
  16   -149.3433337 -0.319040E-05  0.134E-03    0.04       7.2  T
  17   -149.3433340 -0.339192E-06  0.679E-04    0.04      14.2  T
  18   -149.3433341 -0.701451E-07  0.472E-04    0.04      20.5  T
     SCC iter.                  ...        0 min,  0.537 sec
     gradient                   ...        0 min,  0.029 sec
 * total energy  :  -147.1830465 Eh     change       -0.1346217E-02 Eh
   gradient norm :     0.0177535 Eh/α   predicted    -0.1129062E-02 ( -16.13%)
   displ. norm   :     0.5508522 α      lambda       -0.1356201E-02
   maximum displ.:     0.3036715 α      in ANC's #19, #36, #41, ...

........................................................................
.............................. CYCLE    6 ..............................
........................................................................

 iter      E             dE          RMSdq      gap      omega  full diag
   1   -149.3258674 -0.149326E+03  0.257E-01    0.01       0.0  T
   2   -149.2696274  0.562400E-01  0.537E-01    0.37       1.0  T
   3   -149.3019178 -0.322904E-01  0.369E-01    0.25       1.0  T
   4   -149.3181369 -0.162190E-01  0.284E-01    0.12       1.0  T
   5   -149.3080081  0.101287E-01  0.334E-01    0.02       1.0  T
   6   -149.3211791 -0.131710E-01  0.258E-01    0.00       1.0  T
   7   -149.3396568 -0.184777E-01  0.521E-02    0.05       1.0  T
   8   -149.3367922  0.286453E-02  0.107E-01    0.07       1.0  T
   9   -149.3396965 -0.290430E-02  0.457E-02    0.05       1.0  T
  10   -149.3402556 -0.559027E-03  0.149E-02    0.04       1.0  T
  11   -149.3402703 -0.146991E-04  0.123E-02    0.04       1.0  T
  12   -149.3403095 -0.392804E-04  0.470E-03    0.04       2.1  T
  13   -149.3402828  0.267040E-04  0.105E-02    0.04       1.0  T
  14   -149.3403150 -0.321850E-04  0.160E-03    0.04       6.0  T
  15   -149.3403144  0.573315E-06  0.201E-03    0.04       4.8  T
  16   -149.3403146 -0.156552E-06  0.187E-03    0.04       5.2  T
  17   -149.3403156 -0.980060E-06  0.292E-04    0.04      33.1  T
  18   -149.3403156 -0.753741E-08  0.215E-04    0.04      45.0  T
     SCC iter.                  ...        0 min,  0.680 sec
     gradient                   ...        0 min,  0.053 sec
 * total energy  :  -147.1841227 Eh     change       -0.1076170E-02 Eh
   gradient norm :     0.0175738 Eh/α   predicted    -0.8838733E-03 ( -17.87%)
   displ. norm   :     0.5394225 α      lambda       -0.1191195E-02
   maximum displ.:     0.2979030 α      in ANC's #19, #10, #36, ...

........................................................................
.............................. CYCLE    7 ..............................
........................................................................

 iter      E             dE          RMSdq      gap      omega  full diag
   1   -149.3392618 -0.149339E+03  0.161E-01    0.02       0.0  T
   2   -149.2914377  0.478241E-01  0.434E-01    0.35       1.0  T
   3   -149.3392314 -0.477937E-01  0.121E-01    0.06       1.0  T
   4   -149.3129897  0.262417E-01  0.310E-01    0.02       1.0  T
   5   -149.3363104 -0.233207E-01  0.142E-01    0.03       1.0  T
   6   -149.3420393 -0.572889E-02  0.374E-02    0.04       1.0  T
   7   -149.3420665 -0.271782E-04  0.346E-02    0.05       1.0  T
   8   -149.3423725 -0.306009E-03  0.153E-02    0.04       1.0  T
   9   -149.3424339 -0.614373E-04  0.571E-03    0.04       1.7  T
  10   -149.3424406 -0.669204E-05  0.298E-03    0.04       3.2  T
  11   -149.3424396  0.969722E-06  0.284E-03    0.04       3.4  T
  12   -149.3424401 -0.468588E-06  0.249E-03    0.04       3.9  T
  13   -149.3424417 -0.156916E-05  0.830E-04    0.04      11.6  T
  14   -149.3424418 -0.140689E-06  0.418E-04    0.04      23.1  T
  15   -149.3424418 -0.326122E-07  0.225E-04    0.04      42.9  T
     SCC iter.                  ...        0 min,  0.585 sec
     gradient                   ...        0 min,  0.037 sec
 * total energy  :  -147.1850637 Eh     change       -0.9409664E-03 Eh
   gradient norm :     0.0107022 Eh/α   predicted    -0.7689177E-03 ( -18.28%)
   displ. norm   :     0.5613728 α      lambda       -0.9340426E-03
   maximum displ.:     0.2947245 α      in ANC's #19, #10, #11, ...

........................................................................
.............................. CYCLE    8 ..............................
........................................................................

 iter      E             dE          RMSdq      gap      omega  full diag
   1   -149.3443916 -0.149344E+03  0.150E-01    0.02       0.0  T
   2   -149.2977452  0.466463E-01  0.422E-01    0.31       1.0  T
   3   -149.3457563 -0.480111E-01  0.846E-02    0.04       1.0  T
   4   -149.3327560  0.130003E-01  0.218E-01    0.01       1.0  T
   5   -149.3429147 -0.101588E-01  0.105E-01    0.06       1.0  T
   6   -149.3463078 -0.339303E-02  0.347E-02    0.04       1.0  T
   7   -149.3465301 -0.222338E-03  0.162E-02    0.04       1.0  T
   8   -149.3465515 -0.214405E-04  0.115E-02    0.04       1.0  T
   9   -149.3465836 -0.320664E-04  0.794E-03    0.04       1.2  T
  10   -149.3465983 -0.147001E-04  0.392E-03    0.04       2.5  T
  11   -149.3466005 -0.216139E-05  0.259E-03    0.04       3.7  T
  12   -149.3466017 -0.127206E-05  0.141E-03    0.04       6.9  T
  13   -149.3466022 -0.425710E-06  0.728E-04    0.04      13.3  T
  14   -149.3466023 -0.105948E-06  0.389E-04    0.04      24.8  T
     SCC iter.                  ...        0 min,  0.734 sec
     gradient                   ...        0 min,  0.032 sec
 * total energy  :  -147.1857887 Eh     change       -0.7250077E-03 Eh
   gradient norm :     0.0067227 Eh/α   predicted    -0.6142073E-03 ( -15.28%)
   displ. norm   :     0.5720242 α      lambda       -0.7074760E-03
   maximum displ.:     0.2729569 α      in ANC's #19, #10, #11, ...

........................................................................
.............................. CYCLE    9 ..............................
........................................................................

 iter      E             dE          RMSdq      gap      omega  full diag
   1   -149.3470006 -0.149347E+03  0.162E-01    0.02       0.0  T
   2   -149.2974013  0.495993E-01  0.442E-01    0.33       1.0  T
   3   -149.3473542 -0.499529E-01  0.117E-01    0.06       1.0  T
   4   -149.3210531  0.263011E-01  0.309E-01    0.02       1.0  T
   5   -149.3443926 -0.233395E-01  0.138E-01    0.03       1.0  T
   6   -149.3498542 -0.546158E-02  0.354E-02    0.04       1.0  T
   7   -149.3499062 -0.520607E-04  0.320E-02    0.04       1.0  T
   8   -149.3501503 -0.244087E-03  0.156E-02    0.04       1.0  T
   9   -149.3502104 -0.600257E-04  0.664E-03    0.04       1.5  T
  10   -149.3502207 -0.103698E-04  0.288E-03    0.04       3.4  T
  11   -149.3502194  0.135430E-05  0.291E-03    0.04       3.3  T
  12   -149.3502196 -0.259431E-06  0.275E-03    0.04       3.5  T
  13   -149.3502217 -0.205221E-05  0.880E-04    0.04      11.0  T
  14   -149.3502218 -0.139498E-06  0.525E-04    0.04      18.4  T
  15   -149.3502219 -0.577810E-07  0.247E-04    0.04      39.2  T
     SCC iter.                  ...        0 min,  0.808 sec
     gradient                   ...        0 min,  0.036 sec
 * total energy  :  -147.1863352 Eh     change       -0.5465130E-03 Eh
   gradient norm :     0.0079674 Eh/α   predicted    -0.4695033E-03 ( -14.09%)
   displ. norm   :     0.5791460 α      lambda       -0.6247049E-03
   maximum displ.:     0.2423642 α      in ANC's #10, #19, #11, ...

........................................................................
.............................. CYCLE   10 ..............................
........................................................................

 iter      E             dE          RMSdq      gap      omega  full diag
   1   -149.3495447 -0.149350E+03  0.159E-01    0.02       0.0  T
   2   -149.2995178  0.500270E-01  0.445E-01    0.33       1.0  T
   3   -149.3495859 -0.500681E-01  0.120E-01    0.06       1.0  T
   4   -149.3235213  0.260646E-01  0.309E-01    0.02       1.0  T
   5   -149.3461362 -0.226150E-01  0.148E-01    0.03       1.0  T
   6   -149.3521665 -0.603028E-02  0.433E-02    0.03       1.0  T
   7   -149.3524019 -0.235359E-03  0.317E-02    0.04       1.0  T
   8   -149.3526247 -0.222790E-03  0.177E-02    0.04       1.0  T
   9   -149.3527019 -0.771913E-04  0.715E-03    0.04       1.4  T
  10   -149.3527144 -0.125076E-04  0.270E-03    0.04       3.6  T
  11   -149.3527132  0.116445E-05  0.272E-03    0.04       3.6  T
  12   -149.3527130  0.148065E-06  0.281E-03    0.04       3.4  T
  13   -149.3527152 -0.216809E-05  0.780E-04    0.04      12.4  T
  14   -149.3527153 -0.601507E-07  0.611E-04    0.04      15.8  T
  15   -149.3527154 -0.940291E-07  0.204E-04    0.04      47.3  T
     SCC iter.                  ...        0 min,  0.672 sec
     gradient                   ...        0 min,  0.023 sec
 * total energy  :  -147.1868293 Eh     change       -0.4940704E-03 Eh
   gradient norm :     0.0085651 Eh/α   predicted    -0.4171221E-03 ( -15.57%)
   displ. norm   :     0.5836394 α      lambda       -0.5938710E-03
   maximum displ.:     0.2604677 α      in ANC's #10, #11, #19, ...

........................................................................
.............................. CYCLE   11 ..............................
........................................................................

 iter      E             dE          RMSdq      gap      omega  full diag
   1   -149.3497553 -0.149350E+03  0.164E-01    0.01       0.0  T
   2   -149.2977022  0.520531E-01  0.459E-01    0.33       1.0  T
   3   -149.3451088 -0.474066E-01  0.181E-01    0.08       1.0  T
   4   -149.3432022  0.190659E-02  0.192E-01    0.01       1.0  T
   5   -149.3356976  0.750458E-02  0.251E-01    0.00       1.0  T
   6   -149.3511371 -0.154395E-01  0.970E-02    0.02       1.0  T
   7   -149.3534996 -0.236247E-02  0.359E-02    0.04       1.0  T
   8   -149.3536589 -0.159262E-03  0.282E-02    0.04       1.0  T
   9   -149.3538650 -0.206103E-03  0.101E-02    0.04       1.0  T
  10   -149.3538901 -0.251181E-04  0.318E-03    0.04       3.0  T
  11   -149.3538887  0.136927E-05  0.350E-03    0.04       2.8  T
  12   -149.3538880  0.696562E-06  0.372E-03    0.04       2.6  T
  13   -149.3538911 -0.307521E-05  0.163E-03    0.04       5.9  T
  14   -149.3538918 -0.712786E-06  0.549E-04    0.04      17.6  T
  15   -149.3538919 -0.577070E-07  0.277E-04    0.04      34.9  T
     SCC iter.                  ...        0 min,  0.606 sec
     gradient                   ...        0 min,  0.025 sec
 * total energy  :  -147.1873382 Eh     change       -0.5089323E-03 Eh
   gradient norm :     0.0076083 Eh/α   predicted    -0.3980847E-03 ( -21.78%)
   displ. norm   :     0.6234197 α      lambda       -0.6561744E-03
   maximum displ.:     0.2916861 α      in ANC's #10, #11, #9, ...

........................................................................
.............................. CYCLE   12 ..............................
........................................................................

 iter      E             dE          RMSdq      gap      omega  full diag
   1   -149.3504006 -0.149350E+03  0.164E-01    0.01       0.0  T
   2   -149.2979235  0.524771E-01  0.462E-01    0.32       1.0  T
   3   -149.3457687 -0.478452E-01  0.180E-01    0.08       1.0  T
   4   -149.3422553  0.351337E-02  0.204E-01    0.00       1.0  T
   5   -149.3343056  0.794973E-02  0.263E-01    0.01       1.0  T
   6   -149.3514386 -0.171330E-01  0.102E-01    0.02       1.0  T
   7   -149.3541762 -0.273756E-02  0.291E-02    0.04       1.0  T
   8   -149.3542033 -0.271748E-04  0.278E-02    0.04       1.0  T
   9   -149.3543883 -0.184944E-03  0.118E-02    0.04       1.0  T
  10   -149.3544264 -0.380927E-04  0.292E-03    0.04       3.3  T
  11   -149.3544237  0.262886E-05  0.390E-03    0.04       2.5  T
  12   -149.3544233  0.442899E-06  0.400E-03    0.04       2.4  T
  13   -149.3544271 -0.376724E-05  0.149E-03    0.04       6.5  T
  14   -149.3544276 -0.565819E-06  0.587E-04    0.04      16.5  T
  15   -149.3544277 -0.674424E-07  0.300E-04    0.04      32.2  T
     SCC iter.                  ...        0 min,  0.375 sec
     gradient                   ...        0 min,  0.028 sec
 * total energy  :  -147.1879124 Eh     change       -0.5742456E-03 Eh
   gradient norm :     0.0076863 Eh/α   predicted    -0.4555997E-03 ( -20.66%)
   displ. norm   :     0.6782811 α      lambda       -0.7434142E-03
   maximum displ.:     0.3196923 α      in ANC's #10, #11, #9, ...

........................................................................
.............................. CYCLE   13 ..............................
........................................................................

 iter      E             dE          RMSdq      gap      omega  full diag
   1   -149.3457990 -0.149346E+03  0.189E-01    0.01       0.0  T
   2   -149.2898477  0.559513E-01  0.493E-01    0.33       1.0  T
   3   -149.3303534 -0.405057E-01  0.279E-01    0.12       1.0  T
   4   -149.3498569 -0.195035E-01  0.106E-01    0.04       1.0  T
   5   -149.3090721  0.407848E-01  0.388E-01    0.03       1.0  T
   6   -149.3256912 -0.166191E-01  0.306E-01    0.02       1.0  T
   7   -149.3519022 -0.262110E-01  0.312E-02    0.04       1.0  T
   8   -149.3513387  0.563566E-03  0.533E-02    0.05       1.0  T
   9   -149.3520845 -0.745812E-03  0.168E-02    0.04       1.0  T
  10   -149.3521377 -0.532436E-04  0.968E-03    0.04       1.0  T
  11   -149.3521305  0.717849E-05  0.106E-02    0.04       1.0  T
  12   -149.3521351 -0.452967E-05  0.944E-03    0.04       1.0  T
  13   -149.3521475 -0.123856E-04  0.667E-03    0.04       1.4  T
  14   -149.3521594 -0.119777E-04  0.179E-03    0.04       5.4  T
  15   -149.3521604 -0.933452E-06  0.590E-04    0.04      16.4  T
  16   -149.3521604 -0.253846E-07  0.555E-04    0.04      17.4  T
     SCC iter.                  ...        0 min,  0.473 sec
     gradient                   ...        0 min,  0.036 sec
 * total energy  :  -147.1885656 Eh     change       -0.6531381E-03 Eh
   gradient norm :     0.0087652 Eh/α   predicted    -0.5427179E-03 ( -16.91%)
   displ. norm   :     0.7273045 α      lambda       -0.8407994E-03
   maximum displ.:     0.3395535 α      in ANC's #10, #11, #9, ...

........................................................................
.............................. CYCLE   14 ..............................
........................................................................

 iter      E             dE          RMSdq      gap      omega  full diag
   1   -149.3476115 -0.149348E+03  0.182E-01    0.02       0.0  T
   2   -149.2937085  0.539030E-01  0.475E-01    0.33       1.0  T
   3   -149.3427648 -0.490563E-01  0.190E-01    0.08       1.0  T
   4   -149.3332860  0.947886E-02  0.252E-01    0.01       1.0  T
   5   -149.3337149 -0.428980E-03  0.252E-01    0.01       1.0  T
   6   -149.3504306 -0.167156E-01  0.742E-02    0.03       1.0  T
   7   -149.3514798 -0.104922E-02  0.443E-02    0.05       1.0  T
   8   -149.3517608 -0.281047E-03  0.328E-02    0.04       1.0  T
   9   -149.3520199 -0.259105E-03  0.127E-02    0.04       1.0  T
  10   -149.3520627 -0.428012E-04  0.357E-03    0.04       2.7  T
  11   -149.3520481  0.146728E-04  0.770E-03    0.04       1.3  T
  12   -149.3520599 -0.118690E-04  0.415E-03    0.04       2.3  T
  13   -149.3520643 -0.434196E-05  0.118E-03    0.04       8.2  T
  14   -149.3520646 -0.337657E-06  0.507E-04    0.04      19.1  T
  15   -149.3520647 -0.486293E-07  0.272E-04    0.04      35.6  T
     SCC iter.                  ...        0 min,  0.403 sec
     gradient                   ...        0 min,  0.025 sec
 * total energy  :  -147.1892946 Eh     change       -0.7290084E-03 Eh
   gradient norm :     0.0104439 Eh/α   predicted    -0.6427822E-03 ( -11.83%)
   displ. norm   :     0.7362136 α      lambda       -0.9002199E-03
   maximum displ.:     0.3371928 α      in ANC's #10, #11, #9, ...

........................................................................
.............................. CYCLE   15 ..............................
........................................................................

 iter      E             dE          RMSdq      gap      omega  full diag
   1   -149.3378652 -0.149338E+03  0.224E-01    0.02       0.0  T
   2   -149.2773995  0.604656E-01  0.535E-01    0.34       1.0  T
   3   -149.3134912 -0.360916E-01  0.352E-01    0.18       1.0  T
   4   -149.3381421 -0.246509E-01  0.200E-01    0.08       1.0  T
   5   -149.3095086  0.286335E-01  0.369E-01    0.04       1.0  T
   6   -149.3196401 -0.101315E-01  0.312E-01    0.03       1.0  T
   7   -149.3467470 -0.271069E-01  0.643E-02    0.05       1.0  T
   8   -149.3466363  0.110675E-03  0.660E-02    0.05       1.0  T
   9   -149.3475624 -0.926075E-03  0.343E-02    0.05       1.0  T
  10   -149.3478519 -0.289514E-03  0.137E-02    0.04       1.0  T
  11   -149.3478523 -0.428486E-06  0.131E-02    0.04       1.0  T
  12   -149.3478857 -0.334009E-04  0.739E-03    0.04       1.3  T
  13   -149.3478927 -0.696873E-05  0.516E-03    0.04       1.9  T
  14   -149.3479002 -0.752646E-05  0.107E-03    0.04       9.0  T
  15   -149.3478997  0.502977E-06  0.172E-03    0.04       5.6  T
  16   -149.3478999 -0.227161E-06  0.144E-03    0.04       6.7  T
  17   -149.3479004 -0.466953E-06  0.602E-04    0.04      16.1  T
  18   -149.3479004 -0.485081E-07  0.426E-04    0.04      22.7  T
     SCC iter.                  ...        0 min,  0.516 sec
     gradient                   ...        0 min,  0.030 sec
 * total energy  :  -147.1900525 Eh     change       -0.7579505E-03 Eh
   gradient norm :     0.0109616 Eh/α   predicted    -0.6940769E-03 (  -8.43%)
   displ. norm   :     0.7340064 α      lambda       -0.8942968E-03
   maximum displ.:     0.3346784 α      in ANC's #10, #11, #9, ...

   *** FAILED TO CONVERGE GEOMETRY OPTIMIZATION IN 15 ITERATIONS ***


 ANCopt (total)                0 d,  0 h,  0 min,  8.975 sec
 optimizer setup                ...        0 min,  0.001 sec (  0.011%)
 model hessian                  ...        0 min,  0.024 sec (  0.267%)
 ANC generation                 ...        0 min,  0.015 sec (  0.167%)
 coordinate transformation      ...        0 min,  0.002 sec (  0.022%)
 single point calculation       ...        0 min,  8.892 sec ( 99.075%)
 optimization log               ...        0 min,  0.023 sec (  0.256%)
 hessian update                 ...        0 min,  0.012 sec (  0.134%)
 rational function              ...        0 min,  0.003 sec (  0.033%)

================
 final structure:
================
107
 xtb: 6.7.1pre (5071a88)
C           -5.41142757065684       -1.41206059242358       11.65255952849209
O           -6.13805992467729       -1.34906556681744       10.45182915832251
C           -5.56128879540488       -0.73192799665773        9.37810618094271
C           -4.32599020127721       -0.11580562658932        9.36919786743283
C           -3.80631435509061        0.48922148158857        8.20802148381981
C           -2.53568170235725        1.15585988219012        8.27470460982749
C           -1.81944465243477        1.66492198533737        7.24200416252453
C           -0.62065409707185        2.44300401933884        7.46297546790599
O           -0.16597149702112        2.71202295598603        8.57242078527226
C            0.08157024543345        2.91383251103916        6.19195131485219
C            0.93572754157720        1.72137743934855        5.78921869945052
O            0.66102388888351        1.04917988991033        4.78856877281488
C            2.03743293908525        1.46036241453497        6.67587837763869
C            2.83783508296682        0.36766911378944        6.55305863740751
C            3.98543648710814        0.06863125599715        7.36118315515430
C            4.64304048200388        1.03953909353183        8.12219765445039
C            5.77090231767730        0.71829626513713        8.85134751272832
C            6.26568683784400       -0.57602571722986        8.87001053541725
O            7.38094288992870       -0.92480023556252        9.57928289142637
C            5.60311045269679       -1.58048304762852        8.13562481875612
O            6.14563697693243       -2.83345567646027        8.23531493042960
C            5.43798435406546       -3.90384688180773        7.66119960356827
C            4.49502834344091       -1.24394582152368        7.38480305435495
C           -4.57866585971694        0.44442943450299        7.04425962445607
C           -5.82369097932404       -0.15482114725526        7.04769775247123
C           -6.33171273554372       -0.73896587962580        8.19666100004741
O           -7.56324665129995       -1.32349492440268        8.23797602699676
H           -6.05325400554335       -1.93693959067806       12.35930514594122
H           -4.47983436660815       -1.97232850904756       11.52866796169581
H           -5.18701718959682       -0.41492825952600       12.04586237914185
H           -3.72661408313290       -0.08538790196632       10.26579263249589
H           -2.11282267690686        1.28910657406770        9.26268307352781
H           -2.13505793919767        1.53227229607404        6.21954131589708
H            0.70430468175289        3.77907996838112        6.41987443608612
H           -0.63784181630153        3.15001247405383        5.40941284366227
H            2.18681669782286        2.16829473743939        7.47934889305731
H            2.56994595492752       -0.35759174752637        5.79082805284640
H            4.28257837221378        2.05531123580537        8.12622145153114
H            6.27996240167158        1.48461364501302        9.42228573398062
H            7.73162228189557       -0.14176323794826       10.02246333390482
H            6.01278191336210       -4.79884572075463        7.89739055581311
H            5.36026797579904       -3.80422688733411        6.57206434693444
H            4.43428184466311       -3.99469357427193        8.09126622085794
H            3.97705902505908       -1.99459982329243        6.80841421731188
H           -4.21568788645248        0.89799324891056        6.13670145294162
H           -6.42061501706465       -0.16470480671221        6.14452607174919
H           -7.98756514655614       -1.23641337911430        7.37518700728061
B           -6.39110332313908       -2.70952768961427       -0.23425873115478
B           -3.90834869633631       -3.44178262636098        0.88926292549234
B           -1.09852697066799       -4.24416905555787        2.00627699405607
B            1.68090867061677       -4.21310759106174        1.54501987731232
B            2.97302380894054       -3.61503819072317        0.87116320252927
B            5.88379318521464       -3.73766041942320       -0.23714702515116
B           -4.78149864757130       -2.25962017345239       -0.32695463642228
B           -2.63196796794129       -2.25951433941742        0.87707809209202
B           -1.29929856006836       -2.47546660659315        1.87716509641365
B            0.25745798037109       -3.15982430119114        1.42247331338961
B            3.11193375897700       -2.03292028203840        0.34235682335174
B            5.21496345817023       -2.45866254651779       -0.93921328697498
B           -4.38847007960707       -0.97023108160385       -1.24277744574172
B           -3.18557433477607       -1.25586435896964       -0.16373045258236
B           -0.92977368416278       -0.98736895500658        2.29571542168917
B            0.38121176101329       -1.51245813696089        1.11361980952263
B            4.21788102634524       -1.16435348777729       -0.33293100041906
B            6.79278165769187       -2.35995031270469       -0.68694694356644
B           -4.96683603615267       -0.54115269320373       -2.75937095919070
B           -3.19674359305098        0.21517673997155       -0.75593951618518
B           -1.16207827723996        0.54463848245722        2.39278274069063
B           -0.07157225406414       -0.03548590636028        1.17050034225452
B            4.84023319468468        0.34237984196540       -0.32028852139159
B            5.79184105489540       -0.94335711632284       -0.96392098506327
B           -5.61974792241069        1.00890041443495       -2.89256039665080
B           -2.84774567818051        1.64962303329337       -0.39696790065040
B           -1.40928072878898        2.06645129357461        2.33608653777237
B            0.08740912168970        1.52057537593441        1.43193104806476
B            4.20389561318207        1.69968632838350        0.35633350716160
B            6.15921333383899        0.56846617200670       -1.49403208769379
B           -5.64721722591174        1.90942493792465       -1.46934183731740
B           -3.33681821522249        2.99530855656598        0.10928997329342
B           -1.79806996376299        3.57448977937519        2.10589226816209
B           -0.14370294019747        3.12615793871316        1.76245849153974
B            2.88452145419445        2.24111713040462        1.05531144399442
B            5.64417649128699        1.81773591411235       -0.58966723105347
B           -6.54249319140064        3.03809429206301       -0.95228662160192
B           -4.49290562116118        3.99942317081954        0.69334799104243
B           -1.83814547069665        5.17090336873634        1.64575251098347
B            1.10234662756774        4.34473680256715        1.82475641591518
B            2.51814484181197        3.86257089369604        1.37789791744406
B            5.23809418541430        3.09999598066725        0.13126529585961
B           -5.37418661521082       -3.58290607850558        0.44158101862875
B           -2.52109341509510       -3.71295537538025        1.58498984990997
B            0.33381321367692       -4.76397235199759        1.98427011208458
B            1.70641410217796       -2.37725150522675        1.01544642289662
B            4.32965987099842       -3.37144773830874        0.15725497345195
B           -5.05953150288461        2.97175944771761       -0.30669167232048
B           -3.08455081702129        4.36591997321413        1.21085525197241
B           -0.36058441170273        4.85318466141762        1.89645423420171
B            1.38262818170660        2.50600624362664        1.44235821067294
B            3.98250720301611        3.55923016851605        0.87718694569546
B           -4.57027594832662        0.66890641078324       -1.71245482366713
H           -7.40259932243273       -2.28939540282615       -0.65111759786766
H           -4.95913797236399       -1.28854960311795       -3.66869468417723
H           -6.08085393077758        1.43116394611454       -3.88804277958000
H           -7.48867368798982        3.70851395578259       -0.82099855516249
H            6.32715922151859       -4.82513195393075       -0.25512202311892
H            7.95501568867674       -2.32207699889607       -0.83020553468170
H            6.80586145914978        0.73675125441735       -2.46774354372476
 
 Bond Distances (Angstroems)
 ---------------------------
C1-O2=1.4049         C1-H28=1.0895        C1-H29=1.0941        C1-H30=1.0951        O2-C1=1.4049         O2-C3=1.3662         
C3-O2=1.3662         C3-C4=1.3805         C3-C26=1.4105        C4-C3=1.3805         C4-C5=1.4087         C4-H31=1.0789        
C5-C4=1.4087         C5-C6=1.4364         C5-C24=1.3975        C6-C5=1.4364         C6-C7=1.3560         C6-H32=1.0829        
C7-C6=1.3560         C7-C8=1.4461         C7-H33=1.0783        C8-C7=1.4461         C8-O9=1.2288         C8-C10=1.5265        
O9-C8=1.2288         C10-C8=1.5265        C10-C11=1.5211       C10-H34=1.0901       C10-H35=1.0889       C11-C10=1.5211       
C11-O12=1.2364       C11-C13=1.4381       O12-C11=1.2364       C13-C11=1.4381       C13-C14=1.3600       C13-H36=1.0812       
C14-C13=1.3600       C14-C15=1.4351       C14-H37=1.0857       C15-C14=1.4351       C15-C16=1.3979       C15-C23=1.4082       
C16-C15=1.3979       C16-C17=1.3809       C16-H38=1.0778       C17-C16=1.3809       C17-C18=1.3858       C17-H39=1.0828       
C18-C17=1.3858       C18-O19=1.3669       C18-C20=1.4097       O19-C18=1.3669       O19-H40=0.9657       C20-C18=1.4097       
C20-O21=1.3690       C20-C23=1.3802       O21-C20=1.3690       O21-C22=1.4057       C22-O21=1.4057       C22-H41=1.0896       
C22-H42=1.0964       C22-H43=1.0957       C23-C15=1.4082       C23-C20=1.3802       C23-H44=1.0789       C24-C5=1.3975        
C24-C25=1.3817       C24-H45=1.0776       C25-C24=1.3817       C25-C26=1.3854       C25-H46=1.0827       C26-C3=1.4105        
C26-C25=1.3854       C26-O27=1.3638       O27-C26=1.3638       O27-H47=0.9654       H28-C1=1.0895        H29-C1=1.0941        
H30-C1=1.0951        H31-C4=1.0789        H32-C6=1.0829        H33-C7=1.0783        H34-C10=1.0901       H35-C10=1.0889       
H36-C13=1.0812       H37-C14=1.0857       H38-C16=1.0778       H39-C17=1.0828       H40-O19=0.9657       H41-C22=1.0896       
H42-C22=1.0964       H43-C22=1.0957       H44-C23=1.0789       H45-C24=1.0776       H46-C25=1.0827       H47-O27=0.9654       
B48-B54=1.6739       B48-B90=1.5012       B48-H101=1.1719      B49-B54=1.9076       B49-B55=1.7398       B49-B90=1.5392       
B49-B91=1.5755       B50-B56=1.7847       B50-B57=1.8318       B50-B91=1.5759       B50-B92=1.5239       B51-B52=1.5752       
B51-B57=1.7750       B51-B92=1.5202       B51-B93=1.9109       B52-B51=1.5752       B52-B58=1.6739       B52-B93=1.7769       
B52-B94=1.5522       B53-B59=1.6050       B53-B65=1.7108       B53-B94=1.6447       B53-H105=1.1745      B54-B48=1.6739       
B54-B49=1.9076       B54-B60=1.6296       B54-B61=1.8924       B54-B90=1.6410       B55-B49=1.7398       B55-B56=1.6801       
B55-B61=1.5482       B55-B91=1.6205       B56-B50=1.7847       B56-B55=1.6801       B56-B57=1.7603       B56-B62=1.5894       
B56-B63=2.0819       B56-B91=1.7634       B57-B50=1.8318       B57-B51=1.7750       B57-B56=1.7603       B57-B63=1.6806       
B57-B92=1.7014       B57-B93=1.6963       B58-B52=1.6739       B58-B64=1.5600       B58-B93=1.5960       B58-B94=1.8190       
B59-B53=1.6050       B59-B64=1.7427       B59-B65=1.6009       B59-B71=1.6216       B59-B94=1.6790       B60-B54=1.6296       
B60-B61=1.6410       B60-B66=1.6789       B60-B67=1.7500       B60-B100=1.7148      B61-B54=1.8924       B61-B55=1.5482       
B61-B60=1.6410       B61-B67=1.5858       B62-B56=1.5894       B62-B63=1.8417       B62-B68=1.5526       B62-B69=1.7055       
B63-B56=2.0819       B63-B57=1.6806       B63-B62=1.8417       B63-B69=1.5459       B63-B93=1.5855       B64-B58=1.5600       
B64-B59=1.7427       B64-B70=1.6303       B64-B71=1.7101       B65-B53=1.7108       B65-B59=1.6009       B65-B71=1.7565       
B65-H106=1.1716      B66-B60=1.6789       B66-B72=1.6872       B66-B100=1.6485      B66-H102=1.1771      B67-B60=1.7500       
B67-B61=1.5858       B67-B73=1.5193       B67-B100=1.7342      B68-B62=1.5526       B68-B69=1.7377       B68-B74=1.5428       
B68-B75=1.8539       B69-B62=1.7055       B69-B63=1.5459       B69-B68=1.7377       B69-B75=1.5859       B70-B64=1.6303       
B70-B71=1.7242       B70-B76=1.6447       B70-B77=1.7800       B70-B83=1.7016       B71-B59=1.6216       B71-B64=1.7101       
B71-B65=1.7565       B71-B70=1.7242       B71-B77=1.6437       B72-B66=1.6872       B72-B78=1.6844       B72-B100=1.6154      
B72-H103=1.1755      B73-B67=1.5193       B73-B79=1.5187       B74-B68=1.5428       B74-B75=1.8318       B74-B80=1.5743       
B74-B81=1.7475       B75-B68=1.8539       B75-B69=1.5859       B75-B74=1.8318       B75-B81=1.6555       B75-B98=1.6275       
B76-B70=1.6447       B76-B82=1.5882       B76-B83=1.7272       B76-B89=1.7553       B76-B99=1.9438       B77-B70=1.7800       
B77-B71=1.6437       B77-B83=1.6260       B77-H107=1.1809      B78-B72=1.6844       B78-B84=1.5306       B78-B95=1.6810       
B78-B100=1.6607      B79-B73=1.5187       B79-B85=1.6389       B79-B95=1.7724       B79-B96=1.7764       B80-B74=1.5743       
B80-B81=1.7481       B80-B86=1.6619       B80-B96=1.7557       B80-B97=1.9353       B81-B74=1.7475       B81-B75=1.6555       
B81-B80=1.7481       B81-B87=1.7440       B81-B97=1.7457       B81-B98=1.6783       B82-B76=1.5882       B82-B88=1.6933       
B82-B98=1.5734       B82-B99=1.7247       B83-B70=1.7016       B83-B76=1.7272       B83-B77=1.6260       B83-B89=1.5261       
B84-B78=1.5306       B84-B95=1.6188       B84-H104=1.1670      B85-B79=1.6389       B85-B95=1.5418       B85-B96=1.5445       
B86-B80=1.6619       B86-B96=1.5462       B86-B97=1.5320       B87-B81=1.7440       B87-B88=1.5610       B87-B97=1.5504       
B87-B98=1.8989       B88-B82=1.6933       B88-B87=1.5610       B88-B98=1.7703       B88-B99=1.5770       B89-B76=1.7553       
B89-B83=1.5261       B89-B99=1.5309       B90-B48=1.5012       B90-B49=1.5392       B90-B54=1.6410       B91-B49=1.5755       
B91-B50=1.5759       B91-B55=1.6205       B91-B56=1.7634       B92-B50=1.5239       B92-B51=1.5202       B92-B57=1.7014       
B93-B51=1.9109       B93-B52=1.7769       B93-B57=1.6963       B93-B58=1.5960       B93-B63=1.5855       B94-B52=1.5522       
B94-B53=1.6447       B94-B58=1.8190       B94-B59=1.6790       B95-B78=1.6810       B95-B79=1.7724       B95-B84=1.6188       
B95-B85=1.5418       B96-B79=1.7764       B96-B80=1.7557       B96-B85=1.5445       B96-B86=1.5462       B97-B80=1.9353       
B97-B81=1.7457       B97-B86=1.5320       B97-B87=1.5504       B98-B75=1.6275       B98-B81=1.6783       B98-B82=1.5734       
B98-B87=1.8989       B98-B88=1.7703       B99-B76=1.9438       B99-B82=1.7247       B99-B88=1.5770       B99-B89=1.5309       
B100-B60=1.7148      B100-B66=1.6485      B100-B67=1.7342      B100-B72=1.6154      B100-B78=1.6607      H101-B48=1.1719      
H102-B66=1.1771      H103-B72=1.1755      H104-B84=1.1670      H105-B53=1.1745      H106-B65=1.1716      H107-B77=1.1809      
 B  H  Rav=1.1741 sigma=0.0041  Rmin=1.1670  Rmax=1.1809     7
 B  B  Rav=1.6749 sigma=0.1124  Rmin=1.5012  Rmax=2.0819   107
 C  H  Rav=1.0859 sigma=0.0065  Rmin=1.0776  Rmax=1.0964    18
 C  C  Rav=1.4123 sigma=0.0445  Rmin=1.3560  Rmax=1.5265    20
 O  H  Rav=0.9655 sigma=0.0001  Rmin=0.9654  Rmax=0.9657     2
 O  C  Rav=1.3427 sigma=0.0656  Rmin=1.2288  Rmax=1.4057     8
 
 selected bond angles (degree)
 --------------------
H28-C1-O2=105.74               H29-C1-O2=111.50               H29-C1-H28=109.17              H30-C1-O2=111.85               
H30-C1-H28=109.05              H30-C1-H29=109.42              C3-O2-C1=118.27                C4-C3-O2=125.77                
C26-C3-O2=115.18               C26-C3-C4=119.05               C5-C4-C3=121.81                H31-C4-C3=120.29               
H31-C4-C5=117.90               C6-C5-C4=119.17                C24-C5-C4=117.96               C24-C5-C6=122.85               
C7-C6-C5=127.31                H32-C6-C5=116.42               H32-C6-C7=116.26               C8-C7-C6=121.57                
H33-C7-C6=121.43               H33-C7-C8=116.98               O9-C8-C7=124.23                C10-C8-C7=114.84               
C10-C8-O9=120.93               C11-C10-C8=103.71              H34-C10-C8=109.48              H34-C10-C11=110.90             
H35-C10-C8=111.18              H35-C10-C11=110.53             H35-C10-H34=110.82             
 
 selected dihedral angles (degree)
 ---------------------------------
C3-O2-C1-H28=179.94           C3-O2-C1-H29=298.48           C3-O2-C1-H30= 61.36           C4-C3-O2-C1=357.84            
C26-C3-O2-C1=178.29           C5-C4-C3-O2=179.56            C5-C4-C3-C26=359.09           H31-C4-C3-O2=359.52           
H31-C4-C3-C26=179.06          C6-C5-C4-C3=177.80            C6-C5-C4-H31=357.84           C24-C5-C4-C3=359.64           
C24-C5-C4-H31=179.67          C7-C6-C5-C4=172.44            C7-C6-C5-C24=350.51           H32-C6-C5-C4=350.80           
H32-C6-C5-C24=168.87          C8-C7-C6-C5=173.09            C8-C7-C6-H32=354.73           H33-C7-C6-C5=354.95           
H33-C7-C6-H32=176.59          O9-C8-C7-C6=359.40            O9-C8-C7-H33=177.62           C10-C8-C7-C6=178.68           
C10-C8-C7-H33=356.91          C11-C10-C8-C7=276.27          C11-C10-C8-O9= 95.58          H34-C10-C8-C7=157.86          
H34-C10-C8-O9=337.17          H35-C10-C8-C7= 35.07          H35-C10-C8-O9=214.38          
 
 CMA Distance (Angstroems)
 ---------------------------
R(CMA):  7.5980
           -------------------------------------------------
          |                Final Singlepoint                |
           -------------------------------------------------

          ...................................................
          :                      SETUP                      :
          :.................................................:
          :  # basis functions                 347          :
          :  # atomic orbitals                 347          :
          :  # shells                          187          :
          :  # electrons                       306          :
          :  max. iterations                   500          :
          :  Hamiltonian                  GFN2-xTB          :
          :  restarted?                      false          :
          :  GBSA solvation                  false          :
          :  PC potential                    false          :
          :  electronic temp.          300.0000000     K    :
          :  accuracy                    1.0000000          :
          :  -> integral cutoff          0.2500000E+02      :
          :  -> integral neglect         0.1000000E-07      :
          :  -> SCF convergence          0.1000000E-05 Eh   :
          :  -> wf. convergence          0.1000000E-03 e    :
          :  Broyden damping             0.4000000          :
          :  net charge                          0          :
          :  unpaired electrons                  0          :
          ...................................................

 iter      E             dE          RMSdq      gap      omega  full diag
   1   -149.3418231 -0.149342E+03  0.202E-01    0.02       0.0  T
   2   -149.2828228  0.590003E-01  0.512E-01    0.33       1.0  T
   3   -149.3266585 -0.438357E-01  0.282E-01    0.12       1.0  T
   4   -149.3459608 -0.193023E-01  0.115E-01    0.04       1.0  T
   5   -149.3118872  0.340736E-01  0.362E-01    0.04       1.0  T
   6   -149.3380694 -0.261822E-01  0.194E-01    0.02       1.0  T
   7   -149.3481040 -0.100346E-01  0.483E-02    0.05       1.0  T
   8   -149.3479774  0.126555E-03  0.525E-02    0.05       1.0  T
   9   -149.3485909 -0.613503E-03  0.247E-02    0.05       1.0  T
  10   -149.3487556 -0.164643E-03  0.751E-03    0.04       1.3  T
  11   -149.3487230  0.326002E-04  0.126E-02    0.04       1.0  T
  12   -149.3487458 -0.227780E-04  0.890E-03    0.04       1.1  T
  13   -149.3487611 -0.153671E-04  0.503E-03    0.04       1.9  T
  14   -149.3487683 -0.713803E-05  0.103E-03    0.04       9.4  T
  15   -149.3487684 -0.145819E-06  0.739E-04    0.04      13.1  T
  16   -149.3487685 -0.880781E-07  0.465E-04    0.04      20.8  T

   *** convergence criteria satisfied after 16 iterations ***

         #    Occupation            Energy/Eh            Energy/eV
      -------------------------------------------------------------
         1        2.0000           -0.6915927             -18.8192
       ...           ...                  ...                  ...
       147        2.0000           -0.2810460              -7.6477
       148        2.0000           -0.2758983              -7.5076
       149        2.0000           -0.2745571              -7.4711
       150        2.0000           -0.2704503              -7.3593
       151        2.0000           -0.2656011              -7.2274
       152        1.9998           -0.2627816              -7.1507
       153        1.3807           -0.2546677              -6.9299 (HOMO)
       154        0.6194           -0.2531444              -6.8884 (LUMO)
       155        0.0000           -0.2431082              -6.6153
       156        0.0000           -0.2424029              -6.5961
       157                         -0.2368834              -6.4459
       158                         -0.2322848              -6.3208
       ...                                ...                  ...
       347                          1.1764137              32.0118
      -------------------------------------------------------------
                  HL-Gap            0.0015233 Eh            0.0415 eV
             Fermi-level           -0.2539058 Eh           -6.9091 eV

 SCC (total)                   0 d,  0 h,  0 min,  0.744 sec
 SCC setup                      ...        0 min,  0.004 sec (  0.538%)
 Dispersion                     ...        0 min,  0.001 sec (  0.134%)
 classical contributions        ...        0 min,  0.000 sec (  0.000%)
 integral evaluation            ...        0 min,  0.013 sec (  1.747%)
 iterations                     ...        0 min,  0.701 sec ( 94.220%)
 molecular gradient             ...        0 min,  0.024 sec (  3.226%)
 printout                       ...        0 min,  0.001 sec (  0.134%)

         :::::::::::::::::::::::::::::::::::::::::::::::::::::
         ::                     SUMMARY                     ::
         :::::::::::::::::::::::::::::::::::::::::::::::::::::
         :: total energy            -147.190822830319 Eh    ::
         :: gradient norm              0.009526652998 Eh/a0 ::
         :: HOMO-LUMO gap              0.041450481962 eV    ::
         ::.................................................::
         :: SCC energy              -149.346285518651 Eh    ::
         :: -> isotropic ES            0.368259929519 Eh    ::
         :: -> anisotropic ES          0.006297733268 Eh    ::
         :: -> anisotropic XC         -0.036074070929 Eh    ::
         :: -> dispersion             -0.129717900024 Eh    ::
         :: repulsion energy           2.155462688332 Eh    ::
         :: add. restraining           0.000000000000 Eh    ::
         :: total charge               0.000000000002 e     ::
         :::::::::::::::::::::::::::::::::::::::::::::::::::::

           -------------------------------------------------
          |                Property Printout                |
           -------------------------------------------------

    * Orbital Energies and Occupations

         #    Occupation            Energy/Eh            Energy/eV
      -------------------------------------------------------------
         1        2.0000           -0.6915927             -18.8192
       ...           ...                  ...                  ...
       141        2.0000           -0.2961495              -8.0586
       142        2.0000           -0.2943670              -8.0101
       143        2.0000           -0.2907050              -7.9105
       144        2.0000           -0.2872356              -7.8161
       145        2.0000           -0.2855221              -7.7695
       146        2.0000           -0.2835634              -7.7162
       147        2.0000           -0.2810460              -7.6477
       148        2.0000           -0.2758983              -7.5076
       149        2.0000           -0.2745571              -7.4711
       150        2.0000           -0.2704503              -7.3593
       151        2.0000           -0.2656011              -7.2274
       152        1.9998           -0.2627816              -7.1507
       153        1.3807           -0.2546677              -6.9299 (HOMO)
       154        0.6194           -0.2531444              -6.8884 (LUMO)
       155        0.0000           -0.2431082              -6.6153
       156        0.0000           -0.2424029              -6.5961
       157                         -0.2368834              -6.4459
       158                         -0.2322848              -6.3208
       159                         -0.2246599              -6.1133
       160                         -0.2215271              -6.0281
       161                         -0.2194077              -5.9704
       162                         -0.2121910              -5.7740
       163                         -0.2091845              -5.6922
       164                         -0.1990713              -5.4170
       ...                                ...                  ...
       347                          1.1764137              32.0118
      -------------------------------------------------------------
                  HL-Gap            0.0015233 Eh            0.0415 eV
             Fermi-level           -0.2539058 Eh           -6.9091 eV

     #   Z          covCN         q      C6AA      α(0)
     1   6 C        3.645     0.035    20.314     6.478
     2   8 O        1.705    -0.260    18.306     5.777
     3   6 C        2.860     0.122    25.323     8.248
     4   6 C        2.925    -0.081    30.026     8.986
     5   6 C        2.967     0.001    28.002     8.680
     6   6 C        2.907    -0.033    28.827     8.804
     7   6 C        2.894    -0.085    30.120     8.998
     8   6 C        2.836     0.211    23.538     7.951
     9   8 O        0.857    -0.439    22.470     6.355
    10   6 C        3.809    -0.113    22.642     6.773
    11   6 C        2.835     0.201    23.737     7.984
    12   8 O        0.857    -0.474    23.210     6.459
    13   6 C        2.896    -0.084    30.107     8.996
    14   6 C        2.905    -0.043    29.072     8.841
    15   6 C        2.968    -0.001    28.044     8.686
    16   6 C        2.922    -0.053    29.306     8.878
    17   6 C        2.914    -0.076    29.910     8.968
    18   6 C        2.845     0.116    25.444     8.267
    19   8 O        1.659    -0.389    20.628     6.131
    20   6 C        2.860     0.120    25.368     8.256
    21   8 O        1.705    -0.263    18.365     5.786
    22   6 C        3.645     0.032    20.362     6.486
    23   6 C        2.925    -0.086    30.166     9.007
    24   6 C        2.921    -0.057    29.419     8.895
    25   6 C        2.914    -0.081    30.020     8.985
    26   6 C        2.845     0.117    25.409     8.261
    27   8 O        1.659    -0.386    20.588     6.125
    28   1 H        0.925     0.059     2.210     2.325
    29   1 H        0.924     0.039     2.456     2.451
    30   1 H        0.924     0.039     2.456     2.451
    31   1 H        0.926     0.042     2.424     2.435
    32   1 H        0.925     0.053     2.280     2.361
    33   1 H        0.926     0.039     2.461     2.453
    34   1 H        0.925     0.048     2.345     2.395
    35   1 H        0.925     0.046     2.373     2.409
    36   1 H        0.925     0.045     2.385     2.415
    37   1 H        0.925     0.043     2.412     2.429
    38   1 H        0.926     0.042     2.418     2.432
    39   1 H        0.925     0.026     2.639     2.541
    40   1 H        0.805     0.296     0.732     1.344
    41   1 H        0.925     0.060     2.202     2.320
    42   1 H        0.924     0.037     2.483     2.464
    43   1 H        0.924     0.041     2.440     2.443
    44   1 H        0.926     0.038     2.480     2.463
    45   1 H        0.926     0.044     2.393     2.419
    46   1 H        0.925     0.028     2.611     2.527
    47   1 H        0.805     0.298     0.727     1.339
    48   5 B        2.873     0.042    20.687     7.592
    49   5 B        3.646     0.028    21.817     7.604
    50   5 B        3.709     0.013    22.350     7.647
    51   5 B        3.614     0.007    22.004     7.675
    52   5 B        3.812     0.015    22.441     7.637
    53   5 B        3.815     0.037    22.052     7.571
    54   5 B        4.446     0.061    21.641     7.495
    55   5 B        3.850     0.025    22.267     7.605
    56   5 B        5.092     0.053    21.786     7.521
    57   5 B        5.533     0.106    20.879     7.362
    58   5 B        3.784     0.005    22.616     7.670
    59   5 B        4.803     0.085    21.228     7.424
    60   5 B        4.751     0.061    21.645     7.496
    61   5 B        3.703     0.014    22.308     7.643
    62   5 B        3.747     0.033    22.056     7.582
    63   5 B        4.183    -0.010    22.936     7.716
    64   5 B        3.949     0.011    22.545     7.651
    65   5 B        3.773     0.076    21.328     7.450
    66   5 B        3.807     0.068    21.492     7.475
    67   5 B        3.807    -0.015    22.999     7.732
    68   5 B        3.716     0.028    22.088     7.599
    69   5 B        3.826     0.017    22.417     7.632
    70   5 B        4.718     0.061    21.641     7.496
    71   5 B        4.732     0.046    21.903     7.541
    72   5 B        3.812     0.077    21.337     7.447
    73   5 B        2.005     0.002    43.750    13.889
    74   5 B        3.733     0.021    22.262     7.622
    75   5 B        4.591     0.034    22.113     7.577
    76   5 B        4.493     0.041    21.991     7.556
    77   5 B        3.770     0.069    21.453     7.472
    78   5 B        3.845    -0.008    22.887     7.711
    79   5 B        3.761     0.019    22.341     7.627
    80   5 B        4.496     0.071    21.459     7.464
    81   5 B        5.619     0.105    20.888     7.364
    82   5 B        3.835     0.028    22.211     7.596
    83   5 B        3.828     0.015    22.442     7.636
    84   5 B        2.886     0.075    20.145     7.491
    85   5 B        2.919     0.044    20.637     7.580
    86   5 B        2.914     0.019    21.079     7.661
    87   5 B        3.651     0.015    22.072     7.643
    88   5 B        3.810     0.015    22.436     7.637
    89   5 B        2.876    -0.001    21.443     7.730
    90   5 B        2.920    -0.031    21.964     7.820
    91   5 B        3.832     0.016    22.431     7.634
    92   5 B        2.903    -0.025    21.858     7.802
    93   5 B        4.554     0.047    21.892     7.539
    94   5 B        3.901     0.039    22.020     7.562
    95   5 B        3.812     0.017    22.413     7.632
    96   5 B        3.779    -0.029    23.243     7.776
    97   5 B        3.595    -0.010    22.186     7.731
    98   5 B        4.579     0.041    21.996     7.557
    99   5 B        3.589     0.026    21.499     7.618
   100   5 B        4.811     0.085    21.228     7.424
   101   1 H        0.938    -0.172     8.920     4.670
   102   1 H        0.937    -0.138     7.101     4.166
   103   1 H        0.937    -0.136     7.020     4.143
   104   1 H        0.940    -0.148     7.587     4.306
   105   1 H        0.937    -0.134     6.917     4.112
   106   1 H        0.938    -0.138     7.073     4.158
   107   1 H        0.935    -0.132     6.804     4.078

 Mol. C6AA /au·bohr⁶  :     188114.545915
 Mol. C8AA /au·bohr⁸  :    6001609.988432
 Mol. α(0) /au        :        696.722903


Wiberg/Mayer (AO) data.
largest (>0.10) Wiberg bond orders for each atom

 ---------------------------------------------------------------------------
     #   Z sym  total        # sym  WBO       # sym  WBO       # sym  WBO
 ---------------------------------------------------------------------------
     1   6 C    3.950 --     2 O    0.990    28 H    0.980    29 H    0.977
                            30 H    0.976
     2   8 O    2.230 --     3 C    1.054     1 C    0.990
     3   6 C    3.934 --     4 C    1.435    26 C    1.262     2 O    1.054
     4   6 C    3.952 --     3 C    1.435     5 C    1.313    31 H    0.963
     5   6 C    3.973 --    24 C    1.351     4 C    1.313     6 C    1.157
     6   6 C    3.885 --     7 C    1.649     5 C    1.157    32 H    0.960
     7   6 C    3.936 --     6 C    1.649     8 C    1.129    33 H    0.964
     8   6 C    3.869 --     9 O    1.681     7 C    1.129    10 C    0.949
     9   8 O    1.923 --     8 C    1.681
    10   6 C    3.991 --    35 H    0.972    34 H    0.965    11 C    0.956
                             8 C    0.949
    11   6 C    3.851 --    12 O    1.627    13 C    1.154    10 C    0.956
    12   8 O    1.869 --    11 C    1.627
    13   6 C    3.928 --    14 C    1.623    11 C    1.154    36 H    0.963
    14   6 C    3.857 --    13 C    1.623    15 C    1.161    37 H    0.961
    15   6 C    3.974 --    16 C    1.347    23 C    1.311    14 C    1.161
    16   6 C    3.949 --    17 C    1.449    15 C    1.347    38 H    0.966
    17   6 C    3.983 --    16 C    1.449    18 C    1.388    39 H    0.965
    18   6 C    3.888 --    17 C    1.388    20 C    1.265    19 O    1.061
    19   8 O    2.099 --    18 C    1.061    40 H    0.892
    20   6 C    3.933 --    23 C    1.435    18 C    1.265    21 O    1.048
    21   8 O    2.222 --    20 C    1.048    22 C    0.991
    22   6 C    3.950 --    21 O    0.991    41 H    0.980    43 H    0.977
                            42 H    0.976
    23   6 C    3.945 --    20 C    1.435    15 C    1.311    44 H    0.964
    24   6 C    3.954 --    25 C    1.446     5 C    1.351    45 H    0.966
    25   6 C    3.983 --    24 C    1.446    26 C    1.390    46 H    0.965
    26   6 C    3.894 --    25 C    1.390     3 C    1.262    27 O    1.065
    27   8 O    2.103 --    26 C    1.065    47 H    0.891
    28   1 H    0.996 --     1 C    0.980
    29   1 H    0.998 --     1 C    0.977
    30   1 H    0.998 --     1 C    0.976
    31   1 H    0.998 --     4 C    0.963
    32   1 H    0.997 --     6 C    0.960
    33   1 H    0.998 --     7 C    0.964
    34   1 H    0.992 --    10 C    0.965
    35   1 H    0.995 --    10 C    0.972
    36   1 H    0.998 --    13 C    0.963
    37   1 H    0.997 --    14 C    0.961
    38   1 H    0.998 --    16 C    0.966
    39   1 H    0.998 --    17 C    0.965
    40   1 H    0.912 --    19 O    0.892
    41   1 H    0.996 --    22 C    0.980
    42   1 H    0.999 --    22 C    0.976
    43   1 H    0.998 --    22 C    0.977
    44   1 H    0.999 --    23 C    0.964
    45   1 H    0.998 --    24 C    0.966
    46   1 H    0.998 --    25 C    0.965
    47   1 H    0.911 --    27 O    0.891
    48   5 B    3.478 --    90 B    1.421   101 H    0.960    54 B    0.835
    49   5 B    3.499 --    90 B    1.126    91 B    0.986    55 B    0.554
                            54 B    0.510
    50   5 B    3.499 --    92 B    1.273    91 B    1.011    57 B    0.482
                            56 B    0.456
    51   5 B    3.469 --    92 B    1.281    52 B    1.016    57 B    0.562
                            93 B    0.364
    52   5 B    3.525 --    94 B    1.087    51 B    1.016    58 B    0.679
                            93 B    0.494
    53   5 B    3.597 --   105 H    0.942    94 B    0.849    65 B    0.824
                            59 B    0.797
    54   5 B    3.612 --    48 B    0.835    60 B    0.828    90 B    0.784
                            49 B    0.510    61 B    0.395    55 B    0.100
    55   5 B    3.572 --    61 B    1.107    91 B    0.768    56 B    0.683
                            49 B    0.554    54 B    0.100
    56   5 B    3.594 --    62 B    0.963    55 B    0.683    57 B    0.522
                            91 B    0.509    50 B    0.456    63 B    0.234
    57   5 B    3.592 --    63 B    0.627    93 B    0.615    92 B    0.593
                            51 B    0.562    56 B    0.522    50 B    0.482
    58   5 B    3.589 --    64 B    1.116    93 B    0.920    52 B    0.679
                            94 B    0.499
    59   5 B    3.597 --    65 B    0.839    53 B    0.797    71 B    0.691
                            94 B    0.600    64 B    0.518
    60   5 B    3.624 --    54 B    0.828    66 B    0.758    61 B    0.683
                            67 B    0.551   100 B    0.518
    61   5 B    3.527 --    55 B    1.107    67 B    0.916    60 B    0.683
                            54 B    0.395
    62   5 B    3.420 --    68 B    1.080    56 B    0.963    69 B    0.587
                            63 B    0.419
    63   5 B    3.602 --    69 B    1.126    93 B    0.895    57 B    0.627
                            62 B    0.419    56 B    0.234
    64   5 B    3.544 --    58 B    1.116    70 B    0.812    71 B    0.612
                            59 B    0.518    94 B    0.190
    65   5 B    3.499 --   106 H    0.954    59 B    0.839    53 B    0.824
                            71 B    0.662
    66   5 B    3.501 --   102 H    0.941    72 B    0.819    60 B    0.758
                           100 B    0.731
    67   5 B    3.624 --    73 B    1.290    61 B    0.916   100 B    0.552
                            60 B    0.551
    68   5 B    3.449 --    74 B    1.146    62 B    1.080    69 B    0.538
                            75 B    0.406
    69   5 B    3.560 --    63 B    1.126    75 B    0.965    62 B    0.587
                            68 B    0.538
    70   5 B    3.576 --    64 B    0.812    76 B    0.805    83 B    0.587
                            71 B    0.559    77 B    0.550
    71   5 B    3.607 --    77 B    0.859    59 B    0.691    65 B    0.662
                            64 B    0.612    70 B    0.559
    72   5 B    3.558 --   103 H    0.945    66 B    0.819   100 B    0.771
                            78 B    0.724
    73   5 B    3.404 --    79 B    1.326    67 B    1.290   100 B    0.170
                            95 B    0.137
    74   5 B    3.414 --    68 B    1.146    80 B    0.996    81 B    0.505
                            75 B    0.481
    75   5 B    3.558 --    69 B    0.965    98 B    0.760    81 B    0.653
                            74 B    0.481    68 B    0.406
    76   5 B    3.570 --    82 B    0.990    70 B    0.805    83 B    0.609
                            89 B    0.573    99 B    0.423
    77   5 B    3.424 --   107 H    0.925    83 B    0.880    71 B    0.859
                            70 B    0.550
    78   5 B    3.605 --    84 B    1.221    95 B    0.730    72 B    0.724
                           100 B    0.700
    79   5 B    3.572 --    73 B    1.326    85 B    0.694    95 B    0.599
                            96 B    0.561    80 B    0.102
    80   5 B    3.513 --    74 B    0.996    86 B    0.660    96 B    0.595
                            81 B    0.519    97 B    0.436    79 B    0.102
    81   5 B    3.599 --    75 B    0.653    98 B    0.627    87 B    0.538
                            80 B    0.519    97 B    0.514    74 B    0.505
    82   5 B    3.538 --    98 B    0.992    76 B    0.990    88 B    0.655
                            99 B    0.575
    83   5 B    3.506 --    89 B    1.235    77 B    0.880    76 B    0.609
                            70 B    0.587
    84   5 B    3.446 --    78 B    1.221   104 H    0.960    95 B    0.836
                            85 B    0.151
    85   5 B    3.415 --    96 B    1.145    95 B    1.126    79 B    0.694
                            84 B    0.151
    86   5 B    3.365 --    97 B    1.218    96 B    1.130    80 B    0.660
    87   5 B    3.391 --    97 B    1.101    88 B    1.086    81 B    0.538
                            98 B    0.413
    88   5 B    3.474 --    87 B    1.086    99 B    0.992    82 B    0.655
                            98 B    0.516
    89   5 B    3.332 --    99 B    1.244    83 B    1.235    76 B    0.573
    90   5 B    3.511 --    48 B    1.421    49 B    1.126    54 B    0.784
    91   5 B    3.523 --    50 B    1.011    49 B    0.986    55 B    0.768
                            56 B    0.509
    92   5 B    3.435 --    51 B    1.281    50 B    1.273    57 B    0.593
    93   5 B    3.557 --    58 B    0.920    63 B    0.895    57 B    0.615
                            52 B    0.494    51 B    0.364
    94   5 B    3.477 --    52 B    1.087    53 B    0.849    59 B    0.600
                            58 B    0.499    64 B    0.190
    95   5 B    3.621 --    85 B    1.126    84 B    0.836    78 B    0.730
                            79 B    0.599    73 B    0.137
    96   5 B    3.602 --    85 B    1.145    86 B    1.130    80 B    0.595
                            79 B    0.561
    97   5 B    3.466 --    86 B    1.218    87 B    1.101    81 B    0.514
                            80 B    0.436
    98   5 B    3.560 --    82 B    0.992    75 B    0.760    81 B    0.627
                            88 B    0.516    87 B    0.413
    99   5 B    3.414 --    89 B    1.244    88 B    0.992    82 B    0.575
                            76 B    0.423
   100   5 B    3.626 --    72 B    0.771    66 B    0.731    78 B    0.700
                            67 B    0.552    60 B    0.518    73 B    0.170
   101   1 H    0.969 --    48 B    0.960
   102   1 H    0.975 --    66 B    0.941
   103   1 H    0.976 --    72 B    0.945
   104   1 H    0.974 --    84 B    0.960
   105   1 H    0.971 --    53 B    0.942
   106   1 H    0.977 --    65 B    0.954
   107   1 H    0.976 --    77 B    0.925
 ---------------------------------------------------------------------------

Topologies differ in total number of bonds
Writing topology from bond orders to xtbtopo.mol

molecular dipole:
                 x           y           z       tot (Debye)
 q only:        1.349      -0.065      -5.493
   full:        1.644       0.113      -6.109      16.082
molecular quadrupole (traceless):
                xx          xy          yy          xz          yz          zz
 q only:      -16.184      21.993     106.088     -17.349     -20.220     -89.904
  q+dip:       12.226       3.839      75.265      -5.132      -1.763     -87.491
   full:        0.620       7.935      65.689      -3.304      -1.926     -66.309

           -------------------------------------------------
          |                Geometry Summary                 |
           -------------------------------------------------

      molecular mass/u    :      948.4207703
   center of mass at/Å    :       -0.1190235       0.0363004       3.3644954
  moments of inertia/u·Å² :        0.2029852E+05   0.2268267E+05   0.3189124E+05
rotational constants/cm⁻¹ :        0.8304858E-03   0.7431943E-03   0.5285976E-03

 * 131 selected distances

     #   Z          #   Z                                           value/Å
     1   6 C        2   8 O                                       1.4048903
     2   8 O        3   6 C                                       1.3661644
     3   6 C        4   6 C                                       1.3804525
     4   6 C        5   6 C                                       1.4087057
     6   6 C        7   6 C                                       1.3559536
     8   6 C        9   8 O                                       1.2288111
    11   6 C       12   8 O                                       1.2363706
    13   6 C       14   6 C                                       1.3600394
    15   6 C       16   6 C                                       1.3979444
    16   6 C       17   6 C                                       1.3809161
    17   6 C       18   6 C                                       1.3857957
    18   6 C       19   8 O                                       1.3669336
    18   6 C       20   6 C                                       1.4097038
    20   6 C       21   8 O                                       1.3690193
    21   8 O       22   6 C                                       1.4057448
    15   6 C       23   6 C                                       1.4082261
    20   6 C       23   6 C                                       1.3801583
     5   6 C       24   6 C                                       1.3974531
    24   6 C       25   6 C                                       1.3817384
     3   6 C       26   6 C                                       1.4104665
    25   6 C       26   6 C                                       1.3854343
    26   6 C       27   8 O                                       1.3638392
     1   6 C       28   1 H                                       1.0894626
     1   6 C       29   1 H                                       1.0941277
     1   6 C       30   1 H                                       1.0951348
     4   6 C       31   1 H                                       1.0789158
     6   6 C       32   1 H                                       1.0828971
     7   6 C       33   1 H                                       1.0782570
    10   6 C       34   1 H                                       1.0901378
    10   6 C       35   1 H                                       1.0888992
    13   6 C       36   1 H                                       1.0812256
    14   6 C       37   1 H                                       1.0857088
    16   6 C       38   1 H                                       1.0778415
    17   6 C       39   1 H                                       1.0827535
    19   8 O       40   1 H                                       0.9656770
    22   6 C       41   1 H                                       1.0895878
    22   6 C       42   1 H                                       1.0964396
    22   6 C       43   1 H                                       1.0957323
    23   6 C       44   1 H                                       1.0788874
    24   6 C       45   1 H                                       1.0775598
    25   6 C       46   1 H                                       1.0826520
    27   8 O       47   1 H                                       0.9654193 (min)
    51   5 B       52   5 B                                       1.5752244
    48   5 B       54   5 B                                       1.6738689
    55   5 B       56   5 B                                       1.6801243
    56   5 B       57   5 B                                       1.7602788
    52   5 B       58   5 B                                       1.6739264
    53   5 B       59   5 B                                       1.6050129
    54   5 B       60   5 B                                       1.6296403
    55   5 B       61   5 B                                       1.5482494
    60   5 B       61   5 B                                       1.6410020
    56   5 B       62   5 B                                       1.5893924
    57   5 B       63   5 B                                       1.6806312
    58   5 B       64   5 B                                       1.5599813
    59   5 B       64   5 B                                       1.7426956
    53   5 B       65   5 B                                       1.7107500
    59   5 B       65   5 B                                       1.6009039
    60   5 B       66   5 B                                       1.6788901
    60   5 B       67   5 B                                       1.7499758
    61   5 B       67   5 B                                       1.5858117
    62   5 B       68   5 B                                       1.5525575
    62   5 B       69   5 B                                       1.7054913
    63   5 B       69   5 B                                       1.5458642
    64   5 B       70   5 B                                       1.6302539
    59   5 B       71   5 B                                       1.6215885
    64   5 B       71   5 B                                       1.7100697
    70   5 B       71   5 B                                       1.7242217
    66   5 B       72   5 B                                       1.6872162
    67   5 B       73   5 B                                       1.5193080
    68   5 B       74   5 B                                       1.5428021
    69   5 B       75   5 B                                       1.5858588
    70   5 B       76   5 B                                       1.6446958
    71   5 B       77   5 B                                       1.6436515
    72   5 B       78   5 B                                       1.6844140
    73   5 B       79   5 B                                       1.5186701
    74   5 B       80   5 B                                       1.5742703
    74   5 B       81   5 B                                       1.7474882
    75   5 B       81   5 B                                       1.6554628
    80   5 B       81   5 B                                       1.7481073
    76   5 B       82   5 B                                       1.5882273
    70   5 B       83   5 B                                       1.7016362
    76   5 B       83   5 B                                       1.7272124
    77   5 B       83   5 B                                       1.6259810
    78   5 B       84   5 B                                       1.5306078
    79   5 B       85   5 B                                       1.6388742
    80   5 B       86   5 B                                       1.6618879
    81   5 B       87   5 B                                       1.7439769
    82   5 B       88   5 B                                       1.6933419
    87   5 B       88   5 B                                       1.5609777
    83   5 B       89   5 B                                       1.5260530
    48   5 B       90   5 B                                       1.5012226
    49   5 B       90   5 B                                       1.5391609
    54   5 B       90   5 B                                       1.6410400
    49   5 B       91   5 B                                       1.5754518
    50   5 B       91   5 B                                       1.5758701
    55   5 B       91   5 B                                       1.6204702
    56   5 B       91   5 B                                       1.7633854 (max)
    50   5 B       92   5 B                                       1.5239024
    51   5 B       92   5 B                                       1.5202169
    57   5 B       92   5 B                                       1.7013927
    57   5 B       93   5 B                                       1.6963388
    58   5 B       93   5 B                                       1.5959635
    63   5 B       93   5 B                                       1.5854549
    52   5 B       94   5 B                                       1.5522445
    53   5 B       94   5 B                                       1.6446871
    59   5 B       94   5 B                                       1.6790421
    78   5 B       95   5 B                                       1.6809774
    84   5 B       95   5 B                                       1.6187554
    85   5 B       95   5 B                                       1.5418292
    85   5 B       96   5 B                                       1.5445379
    86   5 B       96   5 B                                       1.5461761
    81   5 B       97   5 B                                       1.7457418
    86   5 B       97   5 B                                       1.5319868
    87   5 B       97   5 B                                       1.5504282
    75   5 B       98   5 B                                       1.6275060
    81   5 B       98   5 B                                       1.6783145
    82   5 B       98   5 B                                       1.5734215
    88   5 B       99   5 B                                       1.5770494
    89   5 B       99   5 B                                       1.5309455
    60   5 B      100   5 B                                       1.7147660
    66   5 B      100   5 B                                       1.6484953
    67   5 B      100   5 B                                       1.7341810
    72   5 B      100   5 B                                       1.6154371
    78   5 B      100   5 B                                       1.6606605
    48   5 B      101   1 H                                       1.1719244
    66   5 B      102   1 H                                       1.1770859
    72   5 B      103   1 H                                       1.1755470
    84   5 B      104   1 H                                       1.1670291
    53   5 B      105   1 H                                       1.1745174
    65   5 B      106   1 H                                       1.1716423
    77   5 B      107   1 H                                       1.1809267

 * 6 distinct bonds (by element types)

   Z      Z             #   av. dist./Å        max./Å        min./Å
   1 H    5 B           7     1.1740961     1.1809267     1.1670291
   5 B    5 B          82     1.6288315     1.7633854     1.5012226
   1 H    6 C          18     1.0859011     1.0964396     1.0775598
   6 C    6 C          14     1.3887848     1.4104665     1.3559536
   1 H    8 O           2     0.9655482     0.9656770     0.9654193
   6 C    8 O           8     1.3427216     1.4057448     1.2288111


optimized geometry written to: xtbopt.xyz


           -------------------------------------------------
          | TOTAL ENERGY             -147.190822830319 Eh   |
          | GRADIENT NORM               0.009526652998 Eh/α |
          | HOMO-LUMO GAP               0.041450481962 eV   |
           -------------------------------------------------

------------------------------------------------------------------------
 * finished run on 2026/08/31 at 22:06:43.783     
------------------------------------------------------------------------
 total:
 * wall-time:     0 d,  0 h,  0 min, 11.397 sec
 *  cpu-time:     0 d,  0 h,  1 min, 27.453 sec
 * ratio c/w:     7.673 speedup
 SCF:
 * wall-time:     0 d,  0 h,  0 min,  1.607 sec
 *  cpu-time:     0 d,  0 h,  0 min, 11.672 sec
 * ratio c/w:     7.263 speedup
 ANC optimizer:
 * wall-time:     0 d,  0 h,  0 min,  9.730 sec
 *  cpu-time:     0 d,  0 h,  1 min, 15.156 sec
 * ratio c/w:     7.724 speedup

