47
Curcumin - ETKDG+MMFF conformer
C      5.500859      1.639429      3.500102
O      6.274763      1.527556      2.314764
C      5.791505      0.723944      1.315630
C      4.601223     -0.009565      1.378263
C      4.181978     -0.801071      0.295488
C      2.936402     -1.570854      0.426994
C      2.082179     -1.795249     -0.582291
C      0.830368     -2.568406     -0.343567
O      0.503767     -2.941792      0.781457
C     -0.036935     -2.850310     -1.536690
C     -0.885123     -1.667269     -1.905766
O     -0.553317     -0.906061     -2.812537
C     -2.124123     -1.445310     -1.107389
C     -2.962459     -0.449525     -1.430363
C     -4.194103     -0.137787     -0.690635
C     -5.012891     -1.136264     -0.148353
C     -6.189160     -0.800011      0.523989
C     -6.554728      0.539333      0.646324
O     -7.708469      0.870519      1.305830
C     -5.762034      1.557231      0.100225
O     -6.218343      2.837643      0.273218
C     -5.429166      3.893346     -0.255138
C     -4.585723      1.206550     -0.572118
C      4.986877     -0.872108     -0.848422
C      6.176833     -0.146089     -0.923383
C      6.569978      0.646601      0.153430
O      7.737169      1.359469      0.081054
H      6.025093      2.318754      4.179201
H      4.517274      2.072786      3.290880
H      5.408605      0.671854      4.004315
H      3.974824      0.026559      2.264158
H      2.713971     -1.944850      1.425767
H      2.245842     -1.419018     -1.585832
H     -0.673876     -3.717464     -1.328576
H      0.584978     -3.135219     -2.392852
H     -2.291572     -2.104385     -0.262989
H     -2.736253      0.205460     -2.271031
H     -4.754312     -2.187095     -0.251338
H     -6.806898     -1.590678      0.938056
H     -8.135704      0.062077      1.627128
H     -5.932395      4.836585     -0.021601
H     -5.350176      3.820168     -1.344793
H     -4.439713      3.920105      0.213135
H     -3.948949      1.969950     -1.008270
H      4.706574     -1.500580     -1.689950
H      6.783415     -0.214859     -1.820900
H      8.151943      1.205899     -0.781338
