107
 energy: -147.191192032473 gnorm: 0.013101627500 xtb: 6.7.1pre (5071a88)
C            1.39826898137570       -5.50101147212841       11.72170327538188
O            1.34145954053669       -6.22832904963179       10.52090511543190
C            0.70129528077106       -5.66611012704022        9.45299540730753
C            0.07061699669293       -4.43690255045540        9.44153114572879
C           -0.54794002912984       -3.93575529735277        8.28067340214107
C           -1.19699508923402       -2.65153059296013        8.31932520591275
C           -1.60762522892072       -1.93017467751247        7.25116399904640
C           -2.35734803527452       -0.69466739484144        7.38657896303229
O           -2.69636295286314       -0.21574727964241        8.46506005811842
C           -2.68047660111559       -0.00809466734005        6.07180315704273
C           -1.41832109844298        0.79306250437459        5.77559380329597
O           -0.59055172306048        0.39406595620350        4.93759059175626
C           -1.28640306092049        1.98800769824464        6.55439230904928
C           -0.17452541914285        2.77017387578150        6.54671793151286
C            0.03475034393877        3.96232017421156        7.31373610962119
C           -0.98460784457577        4.61194469335861        8.01661126807555
C           -0.72789874324963        5.77245744275896        8.72151230533624
C            0.54597588479297        6.31494303534525        8.76645454486665
O            0.83247380206876        7.46427181303124        9.44810782214084
C            1.59763599743693        5.66634312818521        8.08893221098797
O            2.82514708365720        6.26160251672808        8.21233230623148
C            3.93298126684086        5.59497944128285        7.66393383112030
C            1.32817955017648        4.52039171463098        7.36902713665294
C           -0.52303764000178       -4.72579614091988        7.12981233716238
C            0.08888688999176       -5.96481404092571        7.13486367895990
C            0.70418335365354       -6.44667952139153        8.27843617269209
O            1.31456176110079       -7.66519263150727        8.32193048255634
H            1.93579492480766       -6.13470491617117       12.42725576651729
H            1.94478722046044       -4.56166832508501       11.59594963981971
H            0.39922589359380       -5.29198695372131       12.11934933477870
H            0.04471432433763       -3.82828862952352       10.33208339592795
H           -1.36808645015761       -2.21938285946748        9.30211401563524
H           -1.40729072089109       -2.26056960421936        6.24471321137574
H           -3.53763431498820        0.65295150499701        6.19742444186894
H           -2.86627236349186       -0.72809970303173        5.27661401074125
H           -2.10203362074735        2.20462219236291        7.22957127207789
H            0.64722199394151        2.44549180438152        5.91253934448373
H           -1.98607071559092        4.21405834391495        8.00735917719928
H           -1.53088061856713        6.26900822965947        9.25170580343706
H            0.02637835053843        7.80164861065856        9.85874747065582
H            4.79869599679388        6.21455107255626        7.89579622112720
H            3.84891930347629        5.49103895351363        6.57533451353486
H            4.06732480756244        4.60584640321050        8.11597593088617
H            2.11681367051269        4.01029624467702        6.83882526121856
H           -1.00724757928710       -4.38308121393899        6.23025823950431
H            0.08476426305549       -6.57284693572469        6.23960554059672
H            1.22403549720515       -8.10203189810632        7.46512405962734
B           -6.38573911966526       -2.85448777218276       -0.35125300033394
B           -3.93236221968270       -3.50934433940475        0.88004817951936
B           -1.16700498820388       -4.24653241073827        2.12096806705690
B            1.60191742446604       -4.24132255200858        1.62624077212910
B            2.87815230195238       -3.64715170658087        0.91826269676012
B            5.76620171780640       -3.80883708612204       -0.23772890529012
B           -4.78488776199635       -2.36261616890127       -0.37430624062211
B           -2.68874340337462       -2.29607713285223        0.93321523073930
B           -1.40222197188329       -2.48005195575252        2.00442214583340
B            0.19023988185111       -3.16365359996191        1.58361570169238
B            3.01969344226931       -2.07548626968547        0.36635472499014
B            5.10785184432762       -2.52251343473502       -0.93937357212466
B           -4.37940925064258       -1.05697701821251       -1.26417035356248
B           -3.21589726968990       -1.31002449979452       -0.13591789264593
B           -1.00629012772161       -0.99606716371467        2.39078558419818
B            0.32635462644232       -1.52359455057536        1.25164714607273
B            4.12989016986412       -1.22074180072191       -0.31253689409304
B            6.68826584023165       -2.44830795140305       -0.71051056512072
B           -4.93548734131556       -0.62123577489146       -2.78600234117270
B           -3.21494308405633        0.14774184782825       -0.75460905884751
B           -1.18250489355571        0.56117489722752        2.55353506794776
B           -0.09033106600225       -0.04368315160692        1.33609829191104
B            4.77136753428044        0.28665319697726       -0.32413789510402
B            5.69859393391292       -1.01327122319908       -0.96303031674302
B           -5.63614538401402        0.91054824916075       -2.90261177160137
B           -2.88084559241749        1.58658028923908       -0.39747795498315
B           -1.43761669866328        2.08084672453839        2.40462663869105
B            0.04996231403701        1.51614134829211        1.53088077718521
B            4.12984003263620        1.66090624857104        0.31266824653768
B            6.11625548536746        0.48927772014071       -1.47378004422616
B           -5.67417271599820        1.81282576308258       -1.47861652051910
B           -3.37538195865911        2.93039449736897        0.10338596566029
B           -1.84348949768618        3.57525837804884        2.10813091599946
B           -0.19115717952204        3.13753205036825        1.76769839937417
B            2.81219281168963        2.22784604957101        0.99361618246734
B            5.60117174650607        1.75218299229703       -0.58985080315151
B           -6.57511438072064        2.93631229585640       -0.96289490442882
B           -4.54920977131294        3.91363360094901        0.69121399243355
B           -1.90603949473175        5.15179438361321        1.57853147766503
B            1.04413834603481        4.37779856563140        1.73038585839418
B            2.44438528151899        3.86801599810462        1.27381366403190
B            5.17377631618959        3.05868284923915        0.06905793695351
B           -5.37782945785195       -3.69059683397891        0.37895273129376
B           -2.58690820060701       -3.73789583297631        1.66347228056293
B            0.26153876986312       -4.77933850608554        2.09950822160924
B            1.61929588829999       -2.40815529076883        1.06964478863947
B            4.22447997846074       -3.41342253149392        0.17464123549636
B           -5.09288783854414        2.88166269075300       -0.31967893413868
B           -3.14556373880184        4.31232863296954        1.19514084396928
B           -0.42150388511189        4.85905525182458        1.82908891988312
B            1.32716340812502        2.49765655754128        1.41925114387730
B            3.90343644447996        3.54740249872384        0.76770277675798
B           -4.58425754464013        0.58566558580446       -1.72522264867753
H           -7.38740897764799       -2.46037155509726       -0.81510393887013
H           -4.89507597233633       -1.35228072537763       -3.70771113205052
H           -6.12081887476544        1.31752831370744       -3.89245601343167
H           -7.52101477002872        3.61030601036598       -0.84689677900741
H            6.19676295123699       -4.90127317907011       -0.25927471656833
H            7.84656994127769       -2.42463793892375       -0.88568327230590
H            6.80128386914325        0.64558559760274       -2.42322235888466
