102
Curcumin/B40H15 GFN2 opt
C       6.49293183      1.27464364      8.42735848
O       6.57824391      1.43343112      7.03393977
C       5.46783064      1.12356902      6.27682028
C       4.26830209      0.65607714      6.76779093
C       3.20894478      0.35802104      5.89871453
C       1.94484357     -0.15979550      6.36267386
C       1.45627818     -0.08209583      7.61764500
C       0.18166094     -0.59361305      8.09057711
O      -0.22934591     -0.32738971      9.21409363
C      -0.66062358     -1.44657487      7.14635626
C      -1.14451757     -0.54401591      6.04237043
O      -0.70229766     -0.90550270      4.83693307
C      -1.83133395      0.60377722      6.39304645
C      -2.10951028      1.72939092      5.64040203
C      -2.81409132      2.86670106      6.13142081
C      -2.75325055      4.08080796      5.42843131
C      -3.40879163      5.20504052      5.88014592
C      -4.15183089      5.16284030      7.05022433
O      -4.80007654      6.27668778      7.49846872
C      -4.22985007      3.95714200      7.76911972
O      -4.99811392      4.02807003      8.91818560
C      -5.07190960      2.88457241      9.72967040
C      -3.57849791      2.83422140      7.31470998
C       3.39865729      0.55358786      4.52847048
C       4.59330901      1.03170751      4.03122858
C       5.63992163      1.31669706      4.89314952
O       6.82308291      1.77291006      4.40503950
H       6.30362198      0.23173185      8.69950566
H       5.71214374      1.91094821      8.85480680
H       7.46195185      1.57962551      8.81941974
H       4.13747875      0.49022175      7.82369667
H       1.33964913     -0.60333389      5.58946721
H       2.02254430      0.41888363      8.39176306
H      -1.49754407     -1.84970989      7.71958158
H      -0.07427386     -2.26675649      6.73431988
H      -2.11633540      0.61841423      7.43517687
H      -1.70024811      1.82155059      4.64779326
H      -2.17211152      4.13308311      4.52280988
H      -3.35680546      6.13694610      5.33998586
H      -5.24115430      6.03722517      8.32422101
H      -5.67167956      3.17174396     10.59249999
H      -5.56164710      2.05551190      9.20875292
H      -4.07991204      2.56733810     10.06573421
H      -3.65781911      1.90948685      7.86003835
H       2.58992650      0.34659864      3.84509813
H       4.73739006      1.19058182      2.97526116
H       7.41552783      1.91413995      5.15550966
B      -5.30216136     -0.60140957      4.51461340
B      -4.88136597     -0.44546435      2.98653331
B      -4.62830884     -0.27912748      1.34404262
B      -4.44666691     -1.81969908      3.92288563
B      -3.09975516     -0.60376760      1.46114073
B      -3.67399600      0.79127514      2.37828705
B      -3.56375433      2.38032772      2.48853779
B      -2.48373279      3.18853325      1.56810902
B      -2.17353296      0.14829441      2.59312041
B      -0.92877044      3.12853803      2.03423981
B      -3.79379565     -3.19099643      4.63023621
B      -3.18277030     -2.59634706      3.27460597
B      -2.18690262     -1.67271826      2.32726107
B      -2.32380332     -3.72444713      4.05200970
B      -0.61842273     -1.97589262      2.24099289
B      -0.95684958     -0.63341964      3.47829586
B      -0.66493236      0.64887070      2.29678508
B      -0.19451035      1.86238743      1.39083059
B       0.41229870     -0.60452926      2.41641893
B       1.00937409      1.94445088      0.27039947
B      -1.03875734     -4.22012634      5.12044278
B      -0.85116801     -4.14509847      3.52601371
B       0.25458991     -3.55009466      2.53961798
B       0.43754072     -3.91419116      4.53382737
B       1.67778485     -3.71102662      1.82752815
B       0.89680647     -2.07809818      1.75446317
B       1.85809423     -0.62490485      1.63197766
B       1.68537429      0.56717402      0.57104225
B       2.33815522     -1.98288934      0.86448665
B       1.32444395     -0.63467662     -0.54136022
B       1.91447381     -3.69790229      5.22950096
B       1.84068144     -3.51281749      3.62626684
B       3.32734637     -3.56437058      2.86206162
B       3.18825842     -2.92226289      4.34386494
B       4.53940389     -4.14197197      1.92656635
B       3.06757376     -3.85442245      1.09540050
B       3.62311621     -2.55540225     -0.03983634
B       2.54570594     -1.60105927     -0.86920094
B       4.46790029     -3.96194356      0.25914183
B       3.91389796     -2.03240883     -1.50119341
H      -5.58423454     -0.21003793      5.57889633
H      -5.99010174     -0.01639910      3.56407932
H      -5.47573703     -0.08229179      0.55034099
H      -4.20422938      2.99194952      3.27039010
H      -2.84338107      3.80991758      0.63511577
H      -0.45826474      3.91076843      2.77529638
H      -4.35934452     -3.79769396      5.45543439
H       1.16488477      2.75745663     -0.56265831
H      -1.33248710     -4.61190622      6.18240310
H       0.22173565     -0.80328483     -0.92607246
H       2.15129003     -3.96545352      6.34369408
H       3.98651204     -2.32093004      4.95330117
H       5.40034225     -4.81267920      2.36105664
H       5.08017335     -4.61933259     -0.49748824
H       4.65194179     -1.99781980     -2.40030836
