47
Curcumin GFN2 opt
C      -5.63474950     -1.93656912      2.50639835
O      -6.25904337     -1.47759963      1.33280788
C      -5.57613116     -0.58367436      0.54044909
C      -4.33020003     -0.06105137      0.80737683
C      -3.72635705      0.83857006     -0.08360157
C      -2.42142038      1.41306190      0.14681533
C      -1.64160587      1.23721213      1.22842724
C      -0.30566741      1.78931853      1.40777206
O       0.40130088      1.46179390      2.34238630
C       0.20792346      2.76232288      0.35433781
C       0.66611964      1.94254268     -0.84614518
O       0.03951495      1.92926031     -1.88640989
C       1.87591742      1.16694791     -0.60266630
C       2.37984654      0.35455275     -1.54925326
C       3.54428952     -0.49053392     -1.45503773
C       3.85614107     -1.34052022     -2.51784731
C       4.95710550     -2.17123279     -2.46511550
C       5.78125113     -2.16719882     -1.35026871
O       6.86202261     -2.97741569     -1.29932689
C       5.48404672     -1.30917904     -0.27143833
O       6.37503402     -1.38603348      0.77311266
C       6.16955156     -0.54713534      1.88398656
C       4.37920556     -0.48897471     -0.32751281
C      -4.41482455      1.18972818     -1.24681932
C      -5.66719337      0.67687567     -1.51668454
C      -6.26231669     -0.21038548     -0.63326042
O      -7.48743329     -0.71651394     -0.89754009
H      -5.44691081     -1.11621976      3.20573522
H      -4.69478007     -2.45018529      2.28290743
H      -6.33335396     -2.64070968      2.95547408
H      -3.80473731     -0.34705104      1.70282338
H      -2.06387951      2.02525890     -0.66949319
H      -1.95892148      0.61573513      2.05505893
H       1.05974863      3.29851710      0.77365501
H      -0.56826119      3.46343743      0.05362532
H       2.31433618      1.25824939      0.37870216
H       1.84881156      0.32188345     -2.49379863
H       3.22219608     -1.35099400     -3.39125920
H       5.20071840     -2.83323853     -3.28028071
H       7.30811358     -2.83255744     -0.45266042
H       6.98647944     -0.76310193      2.57062458
H       6.20569519      0.50817420      1.59733445
H       5.21575614     -0.76092551      2.37510722
H       4.14759524      0.16549686      0.49558828
H      -3.95806492      1.87343355     -1.94583542
H      -6.20389106      0.94747541     -2.41149960
H      -7.72897804     -1.31548931     -0.17675112
