34
 energy: -39.401207716150 gnorm: 0.000152800844 xtb: 6.7.1 (edcfbbe)
C           -2.15610429030536       -1.57359500466623       -1.26332523703107
C           -1.08312199791581       -0.81690725434369       -0.47984611716930
C           -0.83396249471307       -1.49867710500911        0.86824815525164
C            0.23897669416646       -0.73872529558087        1.64513859974343
C            1.53954505673278       -0.72474568003480        0.84365813840676
C            1.31521747554000       -0.03517324583954       -0.50515204879844
C            2.61387825116145       -0.02090916711831       -1.31282699984635
C            0.22759522581800       -0.79309322455756       -1.27209672240762
C            0.83666274122367        1.39732580388123       -0.25366528565415
C           -0.47136939771103        1.39509590339856        0.55387216398010
N           -0.98234625195919        2.73485697993704        0.82254196778566
C           -0.22558079718660        0.69419803901969        1.89197322501087
C           -1.53603549736717        0.62321003007104       -0.22922284019291
H           -1.84331871743243       -2.59944365467221       -1.44697899178336
H           -2.33920558828217       -1.09443885921316       -2.22281013463061
H           -3.09070143296414       -1.59425197835847       -0.70708955770461
H           -1.76090022286590       -1.52311314869458        1.44517827615226
H           -0.51270927885630       -2.53019529149956        0.70566264560797
H            0.41113746544031       -1.23424614190245        2.60752877501442
H            2.31520265898182       -0.19694531838186        1.40378027452356
H            1.88483465591795       -1.74820157007244        0.67992618013206
H            2.96078341172537       -1.03578457427900       -1.49586670911221
H            3.39330431184623        0.51517879970463       -0.77504634032358
H            2.46237184407477        0.46737448707614       -2.27339435714573
H            0.56022546081964       -1.81668325651257       -1.46039383013031
H            0.06156222200814       -0.31500265417433       -2.24077877064633
H            0.67537326179486        1.90600152570611       -1.20908669739009
H            1.60396603592809        1.95263913707760        0.29430273779031
H           -1.15853419717630        3.22518230277595       -0.04824555935378
H           -0.30043201050547        3.27250656641480        1.34751254889294
H            0.53146655342557        1.24179500212719        2.45877602604434
H           -1.14939239952132        0.70438130426389        2.47195291740685
H           -1.72071056086895        1.12488654136230       -1.18263073758522
H           -2.46767817097400        0.63550000209452        0.33840431516254
