34
RDKit ETKDG+MMFF
C      -2.17076449     -1.59106933     -1.26723300
C      -1.09850919     -0.82610181     -0.48543017
C      -0.83780621     -1.51296187      0.87425580
C       0.23767222     -0.74975594      1.66361489
C       1.54271955     -0.72490776      0.85211191
C       1.31942987     -0.02598584     -0.50810420
C       2.62300386     -0.00496622     -1.31206618
C       0.22419246     -0.79208972     -1.28619663
C       0.82726756      1.41780970     -0.25026852
C      -0.48531326      1.40303626      0.56320493
N      -0.94625656      2.76918561      0.80827265
C      -0.23733982      0.69176731      1.90897878
C      -1.56031095      0.62778868     -0.22752333
H      -1.85909325     -2.62382875     -1.45851276
H      -2.36787755     -1.11705302     -2.23509687
H      -3.11537053     -1.62456593     -0.71323824
H      -1.76422957     -1.55656671      1.46138486
H      -0.51454476     -2.55050957      0.71970502
H       0.41149827     -1.24789285      2.62411157
H       2.32181988     -0.20376766      1.42333791
H       1.89987075     -1.75126602      0.69744143
H       2.98561073     -1.02089926     -1.50367542
H       3.41035118      0.53467147     -0.77430312
H       2.48220984      0.48754943     -2.28052437
H       0.56133597     -1.81679582     -1.49312724
H       0.05768330     -0.31655942     -2.26221097
H       0.67372516      1.93511698     -1.20742867
H       1.60001495      1.98315192      0.28883788
H      -1.08481570      3.25229026     -0.07862505
H      -0.22749587      3.29312106      1.30632495
H       0.51720658      1.23126520      2.49678822
H      -1.15520178      0.67826390      2.51169446
H      -1.76221089      1.12885098     -1.18443252
H      -2.50847173      0.62367474      0.32793201
