117
Donepezil/beta12_supported GFN2 opt
C      -7.21291003     -0.95503811      4.11752282
O      -6.65892081      0.29202117      4.45974880
C      -5.30002638      0.41328241      4.46046617
C      -4.41133672     -0.65793974      4.38391020
C      -3.05715329     -0.41040552      4.34695437
C      -2.57433139      0.90237968      4.35127784
C      -3.45574936      1.98730785      4.47404801
C      -4.80985701      1.74275825      4.54273677
O      -5.77162230      2.70452047      4.66544150
C      -5.35864244      4.04739457      4.70699199
C      -1.14443807      0.91944321      4.20515657
O      -0.39223082      1.88964051      4.11676073
C      -0.66656107     -0.53642136      4.14345438
C       0.36766749     -0.76124103      5.24954080
C       1.16750278     -2.06280931      5.12385815
C       2.03914157     -2.11720161      3.86811174
C       3.17550687     -1.10234642      3.93420063
N       4.00918492     -1.37096130      5.09310153
C       5.23898258     -0.58901913      5.10731230
C       5.01961149      0.90031517      5.22900029
C       4.81186844      1.67969127      4.09645758
C       4.51908253      3.02766070      4.21216679
C       4.43010392      3.61494497      5.46253692
C       4.64807643      2.85102231      6.59637060
C       4.94066616      1.50364615      6.47901691
C       3.24977181     -1.26860194      6.32585525
C       2.09336495     -2.26691892      6.32777439
C      -1.93292776     -1.39865096      4.26039268
H      -6.83322698     -1.30878297      3.15347467
H      -7.02084320     -1.70929691      4.88908760
H      -8.28627642     -0.78687982      4.04723740
H      -4.77837196     -1.67072632      4.35233880
H      -3.04682918      2.98284709      4.50238921
H      -6.27188467      4.63023244      4.81401110
H      -4.70372679      4.24097966      5.56330897
H      -4.85001768      4.33692728      3.78092408
H      -0.19121951     -0.67609778      3.16994850
H       1.04078852      0.09574765      5.23964092
H      -0.14539737     -0.75700832      6.21502331
H       0.45523699     -2.89598762      5.09229501
H       1.44454286     -1.92109562      2.97941002
H       2.46823093     -3.11758562      3.78781642
H       3.79935421     -1.19859243      3.04261750
H       2.76053332     -0.08332585      3.94874722
H       5.84033657     -0.94580531      5.94861278
H       5.77477509     -0.81241545      4.18034597
H       4.89037043      1.22957372      3.11734166
H       4.36556368      3.62360025      3.32499221
H       4.19648148      4.66500396      5.55350285
H       4.58886178      3.30450560      7.57507684
H       5.11569579      0.91444574      7.36820400
H       2.85800272     -0.25089516      6.48641869
H       3.92265248     -1.50212626      7.15626146
H       2.50848688     -3.27575256      6.28590759
H       1.53743287     -2.16577384      7.26170426
H      -1.90689589     -2.02623772      5.15387499
H      -2.06026900     -2.05071100      3.39516914
B      -6.15002179      2.61655595      1.48176041
B      -6.03801782      0.96494091      1.04957984
B      -4.78895396      3.59886912      1.14087580
B      -4.64790578      1.91510625      1.12860783
B      -4.50459059      0.22430712      1.08732810
B      -5.76576541     -2.40785994      0.83317553
B      -5.60645743     -4.10167643      1.01248129
B      -4.37019263     -1.44463381      0.96459566
B      -4.24243389     -3.12468656      0.76269467
B      -4.11618773     -4.79099535      0.51295620
B      -3.25367905      2.88740750      1.08958283
B      -3.11072995      1.18645378      1.07897913
B      -1.85507425      3.82842309      1.22895475
B      -1.72779204      2.15929070      1.00392848
B      -1.60022465      0.48335461      0.78031590
B      -2.84296978     -2.16054692      0.81112397
B      -2.71548245     -3.84306606      0.55182464
B      -1.46674188     -1.18947442      0.64304855
B      -1.32397524     -2.87944475      0.61250144
B      -1.18282644     -4.56189154      0.57029848
B      -0.33168494      3.12207207      1.04445254
B      -0.21041929      1.44671487      0.73287566
B       1.05624109      4.08060629      0.99487824
B       1.18680133      2.40691018      0.81767083
B       1.31457766      0.73082031      0.59960298
B       0.05539076     -1.90006069      0.44339616
B       0.20537761     -3.60251266      0.49332415
B       1.44660442     -0.94040187      0.44496019
B       1.58460231     -2.62659752      0.35233858
B       1.72575313     -4.30945124      0.30527297
B       2.56290143      3.38688215      0.65542146
B       2.71325283      1.68356810      0.68396415
B       3.94656498      4.34720278      0.51628520
B       4.09197210      2.66391294      0.50579497
B       4.23320566      0.97198278      0.47141345
B       2.97812517     -1.66105741      0.37965742
B       3.09987413     -3.34167259      0.10235048
B       4.36563520     -0.69517275      0.32477298
B       4.49536293     -2.37339042      0.10720341
B       4.61711735     -4.03807542     -0.15718245
B       5.49202773      3.61214892      0.66796863
B       5.60164595      1.96195646      0.23313217
B       5.87132307     -1.40717133     -0.03552388
B       6.02889807     -3.10210603      0.13296783
H      -7.13171469      3.07694409      1.92167048
H      -6.98345177      0.42745671      0.61873511
H      -4.95154199      4.72686483      0.85243309
H      -6.80155381     -1.96649289      0.51219017
H      -6.46753132     -4.77745485      1.43620618
H      -4.10676746     -5.88450765      0.08469237
H      -1.94616185      4.97523592      1.46509799
H      -1.08692285     -5.72789283      0.67570014
H       0.98589469      5.23201635      1.21215226
H       1.83801821     -5.47848075      0.32515371
H       3.88158573      5.48721411      0.24072449
H       4.73359796     -5.11233032     -0.61737036
H       6.41839822      4.23382019      1.02983605
H       6.55709363      1.57938951     -0.32233985
H       6.75563223     -0.79687625     -0.49777181
H       7.04808481     -3.61968750      0.39603437
