60
carrier @complex
B      -6.15002179      2.61655595      1.48176041
B      -6.03801782      0.96494091      1.04957984
B      -4.78895396      3.59886912      1.14087580
B      -4.64790578      1.91510625      1.12860783
B      -4.50459059      0.22430712      1.08732810
B      -5.76576541     -2.40785994      0.83317553
B      -5.60645743     -4.10167643      1.01248129
B      -4.37019263     -1.44463381      0.96459566
B      -4.24243389     -3.12468656      0.76269467
B      -4.11618773     -4.79099535      0.51295620
B      -3.25367905      2.88740750      1.08958283
B      -3.11072995      1.18645378      1.07897913
B      -1.85507425      3.82842309      1.22895475
B      -1.72779204      2.15929070      1.00392848
B      -1.60022465      0.48335461      0.78031590
B      -2.84296978     -2.16054692      0.81112397
B      -2.71548245     -3.84306606      0.55182464
B      -1.46674188     -1.18947442      0.64304855
B      -1.32397524     -2.87944475      0.61250144
B      -1.18282644     -4.56189154      0.57029848
B      -0.33168494      3.12207207      1.04445254
B      -0.21041929      1.44671487      0.73287566
B       1.05624109      4.08060629      0.99487824
B       1.18680133      2.40691018      0.81767083
B       1.31457766      0.73082031      0.59960298
B       0.05539076     -1.90006069      0.44339616
B       0.20537761     -3.60251266      0.49332415
B       1.44660442     -0.94040187      0.44496019
B       1.58460231     -2.62659752      0.35233858
B       1.72575313     -4.30945124      0.30527297
B       2.56290143      3.38688215      0.65542146
B       2.71325283      1.68356810      0.68396415
B       3.94656498      4.34720278      0.51628520
B       4.09197210      2.66391294      0.50579497
B       4.23320566      0.97198278      0.47141345
B       2.97812517     -1.66105741      0.37965742
B       3.09987413     -3.34167259      0.10235048
B       4.36563520     -0.69517275      0.32477298
B       4.49536293     -2.37339042      0.10720341
B       4.61711735     -4.03807542     -0.15718245
B       5.49202773      3.61214892      0.66796863
B       5.60164595      1.96195646      0.23313217
B       5.87132307     -1.40717133     -0.03552388
B       6.02889807     -3.10210603      0.13296783
H      -7.13171469      3.07694409      1.92167048
H      -6.98345177      0.42745671      0.61873511
H      -4.95154199      4.72686483      0.85243309
H      -6.80155381     -1.96649289      0.51219017
H      -6.46753132     -4.77745485      1.43620618
H      -4.10676746     -5.88450765      0.08469237
H      -1.94616185      4.97523592      1.46509799
H      -1.08692285     -5.72789283      0.67570014
H       0.98589469      5.23201635      1.21215226
H       1.83801821     -5.47848075      0.32515371
H       3.88158573      5.48721411      0.24072449
H       4.73359796     -5.11233032     -0.61737036
H       6.41839822      4.23382019      1.02983605
H       6.55709363      1.57938951     -0.32233985
H       6.75563223     -0.79687625     -0.49777181
H       7.04808481     -3.61968750      0.39603437
