117
Donepezil on beta12_supported 90 deg
C       1.68578225     -7.32533015      5.31876004
O       0.35062725     -6.90588017      5.45813369
C       0.08439630     -5.57750529      5.47434299
C       1.04354646     -4.57595649      5.40160671
C       0.64084818     -3.25207514      5.40958480
C      -0.70838263     -2.93084844      5.48394474
C      -1.68473339     -3.92130985      5.57808456
C      -1.29446891     -5.24557252      5.57530411
O      -2.13540738     -6.31191658      5.65694471
C      -3.51403173     -6.05814838      5.77390775
C      -0.89037264     -1.48071085      5.43416778
O      -1.92154039     -0.85799334      5.54401253
C       0.49146964     -0.86905659      5.18877890
C       0.72059026      0.34391456      6.09064896
C       2.03730301      1.08194292      5.82219814
C       2.10319030      1.75593109      4.44929000
C       1.18370401      2.97093138      4.36395274
N       1.54709864      3.92902724      5.38962103
C       0.92016913      5.23283968      5.21990211
C      -0.58747641      5.21835263      5.30104238
C      -1.35509105      5.00907478      4.16129412
C      -2.73340018      4.92113671      4.24264190
C      -3.36549684      5.04139230      5.46824716
C      -2.61220318      5.25965860      6.60883851
C      -1.23382746      5.34752329      6.52468050
C       1.36729633      3.35871381      6.71018714
C       2.29649841      2.15915935      6.88065384
C       1.49293634     -2.02100943      5.36716037
H       2.12556942     -6.96292473      4.38381585
H       2.30225352     -6.99692701      6.16191841
H       1.65062495     -8.41327782      5.30172614
H       2.09268651     -4.81763023      5.33815473
H      -2.71918409     -3.62647024      5.64259246
H      -3.98774451     -7.03656606      5.83369383
H      -3.74245548     -5.48816028      6.68034555
H      -3.90023565     -5.52091569      4.90161718
H       0.48845072     -0.53934917      4.14458015
H      -0.12944919      1.01469684      5.96364821
H       0.71703485      0.00624964      7.13103231
H       2.84823077      0.34585124      5.88045617
H       1.84795780      1.05273159      3.65549691
H       3.12816336      2.09301740      4.28179957
H       1.31494961      3.44974708      3.38949111
H       0.13021781      2.65366253      4.44607536
H       1.32893562      5.88967850      5.99360810
H       1.23509713      5.61518506      4.24395274
H      -0.86834212      4.92042580      3.20000000
H      -3.31544586      4.75751901      3.34720453
H      -4.44117357      4.96969265      5.53347933
H      -3.09970813      5.36196118      7.56767100
H      -0.65249260      5.52570599      7.41861129
H       0.32295834      3.05380690      6.89275393
H       1.62971791      4.12103133      7.44919723
H       3.32559323      2.50944166      6.77967076
H       2.17282743      1.74507637      7.88320729
H       2.03402643     -1.91587819      6.31122543
H       2.23191149     -2.06366644      4.56564810
B      -5.85857624      3.38040841      0.00000000
B      -5.85854689      1.69158049     -0.00000000
B      -4.39532834      4.22466855     -0.00000000
B      -4.39711400      2.53475765     -0.00000000
B      -4.39575475      0.84147203     -0.00000000
B      -5.85854686     -1.69158078      0.00000000
B      -5.85857617     -3.38040837     -0.00000000
B      -4.39575479     -0.84147232     -0.00000000
B      -4.39711414     -2.53475765      0.00000000
B      -4.39532857     -4.22466843      0.00000000
B      -2.92793521      3.38324044     -0.00000000
B      -2.92888517      1.68724694     -0.00000000
B      -1.46554580      4.22439782     -0.00000000
B      -1.46605622      2.53507234     -0.00000000
B      -1.46573170      0.84295491     -0.00000000
B      -2.92888518     -1.68724692      0.00000000
B      -2.92793508     -3.38324074      0.00000000
B      -1.46573174     -0.84295512     -0.00000000
B      -1.46605627     -2.53507234      0.00000000
B      -1.46554588     -4.22439779     -0.00000000
B       0.00067086      3.38275146      0.00000000
B       0.00067433      1.68721076      0.00000000
B       1.46420559      4.22439023     -0.00000000
B       1.46473580      2.53506444     -0.00000000
B       1.46438553      0.84295188     -0.00000000
B       0.00067433     -1.68721088      0.00000000
B       0.00067085     -3.38275170      0.00000000
B       1.46438555     -0.84295208     -0.00000000
B       1.46473583     -2.53506442     -0.00000000
B       1.46420568     -4.22439021     -0.00000000
B       2.92927005      3.38326104     -0.00000000
B       2.93022956      1.68726759      0.00000000
B       4.39401124      4.22463050     -0.00000000
B       4.39579743      2.53472819      0.00000000
B       4.39441416      0.84146678     -0.00000000
B       2.93022962     -1.68726763     -0.00000000
B       2.92927005     -3.38326139     -0.00000000
B       4.39441419     -0.84146703     -0.00000000
B       4.39579756     -2.53472819     -0.00000000
B       4.39401144     -4.22463033     -0.00000000
B       5.85997303      3.38040496      0.00000000
B       5.85993260      1.69164307     -0.00000000
B       5.85993251     -1.69164335      0.00000000
B       5.85997297     -3.38040486      0.00000000
H      -6.86866001      3.98474441      0.00000000
H      -6.88164909      1.12316321     -0.00000000
H      -4.39961690      5.40226943     -0.00000000
H      -6.88164986     -1.12316494      0.00000000
H      -6.86866148     -3.98474191     -0.00000000
H      -4.39961557     -5.40226922      0.00000000
H      -1.46579024      5.40011773     -0.00000000
H      -1.46578943     -5.40011766      0.00000000
H       1.46622796      5.40011192     -0.00000000
H       1.46622721     -5.40011186     -0.00000000
H       4.39986570      5.40225046     -0.00000000
H       4.39986407     -5.40225022     -0.00000000
H       6.86878772      3.98676429      0.00000000
H       6.88200886      1.12155941     -0.00000000
H       6.88200989     -1.12156160      0.00000000
H       6.86878944     -3.98676138      0.00000000
