117
 energy: -142.872091941066 gnorm: 0.000713543213 xtb: 6.7.1 (edcfbbe)
C            7.23290098509957        0.95142789429103        4.14337118362072
O            6.67899784126875       -0.29365493047863        4.49316197936871
C            5.32021382282149       -0.41627413704608        4.48737255055415
C            4.43142200501430        0.65440258926610        4.40545375795944
C            3.07755335497405        0.40625279331115        4.36141496536847
C            2.59536542024165       -0.90677728187383        4.36382498005040
C            3.47662846387147       -1.99109825031056        4.49198001331207
C            4.83028366774998       -1.74593047972877        4.56788158651658
O            5.79158538165508       -2.70727493724528        4.69681831777565
C            5.37877685817903       -4.05027115754710        4.73468483471876
C            1.16615988049450       -0.92450557252418        4.21043898074323
O            0.41481256077191       -1.89486871303812        4.11757212122834
C            0.68798484501994        0.53114111614684        4.14686127349914
C           -0.34982729172228        0.75622501819910        5.24953450474826
C           -1.14716193465648        2.05908131479527        5.12147801359643
C           -2.01265137952266        2.11603703924395        3.86163087822666
C           -3.15149359837556        1.10357973537036        3.92162707056675
N           -3.99025050958183        1.37369861014894        5.07648391472605
C           -5.22224885478942        0.59510933164011        5.08426622006908
C           -5.00703672905853       -0.89456367715035        5.20859326835857
C           -4.79278691377684       -1.67519184022330        4.07811733217605
C           -4.50245748587571       -3.02342493202904        4.19700445727530
C           -4.42266050320003       -3.60965097086281        5.44850868984497
C           -4.64750708732425       -2.84449725328285        6.58017631977010
C           -4.93749379246722       -1.49685558918014        6.45965891234135
C           -3.23695595538218        1.26827868738225        6.31278100486613
C           -2.07827308279022        2.26387961338479        6.32122264516440
C            1.95356452011288        1.39396005631528        4.26744047182459
H            6.85177868219650        1.30010841289291        3.17818486065431
H            7.04213124330784        1.70999036702634        4.91104605543233
H            8.30614763446062        0.78273168139508        4.07247743150153
H            4.79818638942398        1.66736766921082        4.37529655166125
H            3.06800161700701       -2.98682914215046        4.51833710474615
H            6.29147649663808       -4.63304267175701        4.84671774159157
H            4.71879019560866       -4.24486626938695        5.58691177820663
H            4.87562520156083       -4.33911403226934        3.80540755825954
H            0.21565657102218        0.67035525985232        3.17186311573617
H           -1.02406762990253       -0.09986335510062        5.23667594633226
H            0.15980787551950        0.75069902743330        6.21682496882944
H           -0.43340437789409        2.89110378275144        5.09399507413338
H           -1.41416384851482        1.91913556444976        2.97571417171131
H           -2.43918458701454        3.11737847930798        3.77981689090000
H           -3.77055794368572        1.20151226260801        3.02693686390587
H           -2.73876418643928        0.08371296214587        3.93797798609259
H           -5.82742863171049        0.95418338615459        5.92184617980291
H           -5.75217775876495        0.81909675937039        4.15409301219998
H           -4.86409323532212       -1.22564228652732        3.09819612977127
H           -4.34337670086658       -3.62049849222753        3.31159245576836
H           -4.19074716997083       -4.65984708526400        5.54204059025486
H           -4.59550855849848       -3.29716095686372        7.55966528704405
H           -5.11767524460430       -0.90656819003135        7.34709434777253
H           -2.84830027085951        0.24948726439081        6.47399392550366
H           -3.91317297268787        1.50240568821907        7.14027538711973
H           -2.49088187479657        3.27371522096091        6.27846374680941
H           -1.52698064806938        2.16049290232257        7.25765893137155
H            1.92344421957705        2.02432403298504        5.15883889146990
H            2.08471017406263        2.04329770196006        3.40056682578940
B           -6.04471534042688        3.09851041999553        0.11068906628824
B           -5.88505342113142        1.40363181795942       -0.05943037882808
B           -4.63520776311062        4.03566587254114       -0.17364633834350
B           -4.51306588642173        2.37082583961360        0.08942414737056
B           -4.38288057416859        0.69253607067999        0.30655284699090
B           -5.61353890324953       -1.96532308268861        0.20645178339196
B           -5.50442736266851       -3.61573717913783        0.64219458093632
B           -4.24961590318537       -0.97471574625831        0.45180551672679
B           -4.10709428245874       -2.66657229156473        0.48561432874544
B           -3.96042034292812       -4.34970190323190        0.49624125038146
B           -3.11578175564836        3.34028328227432        0.09006956456130
B           -2.99394222371686        1.65976343152922        0.36905923014665
B           -1.74572962765389        4.30886718254819        0.29818238239463
B           -1.60360528903899        2.62626315563093        0.34735453220275
B           -1.46456196461015        0.94007080270034        0.43862638870258
B           -2.72739900687733       -1.68493727676439        0.67012372373047
B           -2.57541054414193       -3.38817379078341        0.63935213614766
B           -1.33178173564979       -0.73116237435778        0.59264245846267
B           -1.20334036640506       -2.40744487843375        0.80856041696858
B           -1.07212205568109       -4.08119630726005        0.98476709618861
B           -0.22312168614459        3.60331575122803        0.49323520331509
B           -0.07152415443247        1.90102827734623        0.44266983013035
B            1.16117136683879        4.56368174171928        0.57954494345564
B            1.30386494061807        2.88115535200573        0.61742253094453
B            1.44785132979140        1.19129930500363        0.64746553324512
B            0.19583833330047       -1.44569530982647        0.73136349599622
B            0.31723457788287       -3.12122417428272        1.04185875034738
B            1.58218721175596       -0.48152747298661        0.78377099901561
B            1.71020104323218       -2.15744754676926        1.00760312113106
B            1.83790736274010       -3.82665068626969        1.23200319444222
B            2.69706179539348        3.84647653205549        0.56621640804314
B            2.82514426453559        2.16362349387692        0.82182006948608
B            4.09479148097624        4.79508443733067        0.53137280164153
B            4.22138977112162        3.12875534610029        0.78107221598222
B            4.34972781181723        1.44861742101223        0.98148557190784
B            3.09453424786134       -1.18337313196577        1.08902951615658
B            3.23872387911532       -2.88412973190586        1.10045071564946
B            4.48501069809836       -0.22025566210285        1.10350640342621
B            4.62962244543199       -1.91095095731934        1.14356925063732
B            4.77193026007355       -3.59457666044509        1.15593027613902
B            5.58622796285794        4.10688106847926        1.03659920201192
B            5.74750412173556        2.41361450327996        0.85847522403785
B            6.02181993156145       -0.95949071187426        1.07142915664690
B            6.13362673210582       -2.61133997458039        1.50146718986095
H           -7.06728393311321        3.61212252063230        0.36860623528598
H           -6.76974976300374        0.79449990331250       -0.52257485535318
H           -4.74910232760903        5.11010953392504       -0.63404205746099
H           -6.56833073422915       -1.58509911497297       -0.35187090067104
H           -6.43393056994044       -4.23628748239214        0.99791632607964
H           -3.89198811396817       -5.48988140639515        0.22228458537918
H           -1.85751509212939        5.47791105624606        0.31887647981668
H           -1.00032891282323       -5.23265605289511        1.20137299861537
H            1.06530013269543        5.72946104896280        0.68745386856165
H            1.93037850949777       -4.97362091931157        1.46662291161461
H            4.08778162586756        5.88877382755243        0.10351714120894
H            4.93756548477168       -4.72239971211017        0.86834075912743
H            6.44248127536101        4.78563021342414        1.46514848089061
H            6.78389728176576        1.97097344670747        0.54144829297578
H            6.96626188001283       -0.41997305920831        0.64096584919729
H            7.11281672848285       -3.07378803803979        1.94467336933045
