117
 energy: -142.867317743232 gnorm: 0.000860126017 xtb: 6.7.1 (edcfbbe)
C            1.48629290847507       -7.21154345644439        4.06884820545474
O            0.17466255449708       -6.73255050036129        4.22122587897404
C           -0.01958936753651       -5.38318890627422        4.24089215779191
C            1.00167759110318       -4.43700521705722        4.27906036135911
C            0.68217354560855       -3.09625613387183        4.27745879818944
C           -0.65189478134578       -2.68140557406372        4.22243397716949
C           -1.68966174250097       -3.62579867175677        4.19743074400292
C           -1.37690715389150       -4.96811587089915        4.21554064479837
O           -2.28598219399924       -5.98395206428181        4.20384078351396
C           -3.65004328334704       -5.65426259055192        4.10669133214795
C           -0.73953431797727       -1.24490943298780        4.18156242108650
O           -1.74571815105288       -0.54085842064351        4.12504941743118
C            0.69369463541689       -0.69417015277211        4.20585316668432
C            0.82420457536216        0.32370588184755        5.34020577685053
C            2.15704211105559        1.08075201745581        5.36961514298068
C            2.38414407067698        1.97388268858270        4.14790265001078
C            1.41707198795374        3.15416468160650        4.13447176454437
N            1.58518600608792        3.94474261994105        5.34083993294575
C            0.86691194461916        5.21191615630828        5.30059317879925
C           -0.63602347043228        5.07312050070183        5.23882183468989
C           -1.28726965334307        4.95673924251895        4.01616014101621
C           -2.65560887747484        4.75523328138946        3.96035042740524
C           -3.39254523568374        4.66215292161229        5.12831405995095
C           -2.75580527558498        4.78491928356292        6.35175462411758
C           -1.38830763753645        4.99018383478640        6.40513695679754
C            1.31053190244781        3.16316694370744        6.53165339426073
C            2.26139568094121        1.97083728016862        6.61256084193960
C            1.61079237556520       -1.91990916784630        4.34074668503835
H            1.95532549848693       -6.81111589201635        3.16469992953969
H            2.10939311524573       -6.97305731167357        4.93820348280079
H            1.39581976944877       -8.29323443257424        3.98264295000353
H            2.03433980590910       -4.74464036050762        4.31095670176962
H           -2.70688885862113       -3.27382162234827        4.17024293041077
H           -4.18077311582496       -6.60470984747584        4.12810309567805
H           -3.97797685283289       -5.04046104065857        4.95264500521461
H           -3.87161520610445       -5.13605449420984        3.16615330857882
H            0.86050289779611       -0.19167443624240        3.24869113375053
H           -0.00980368966699        1.01889687726769        5.24858324839185
H            0.70310703260625       -0.19981927725603        6.29264758653196
H            2.96414948402480        0.34021363413047        5.41031122733945
H            2.27772327906549        1.40088878922939        3.22786587884326
H            3.40258667978275        2.36417378245742        4.19331524323155
H            1.64446944438438        3.80108797983826        3.28326037010645
H            0.38370448889760        2.78843989702829        4.02275489103381
H            1.15115850382332        5.77317657641786        6.19554852915997
H            1.22530879069305        5.75713686143802        4.42303967735856
H           -0.72463760355194        5.03577687007554        3.09781128066568
H           -3.14518494332754        4.67750922180801        3.00067078719426
H           -4.45948670884305        4.50158289096969        5.08653185776349
H           -3.32513988857336        4.72224511203650        7.26773178915678
H           -0.90008087729071        5.09514077199776        7.36379405091308
H            0.26745229800930        2.80770880476048        6.56285705346159
H            1.47063961051448        3.80682846037069        7.40156278881327
H            3.28230550281309        2.34960104258352        6.69085948056450
H            2.04017822843874        1.39765176041364        7.51473291996289
H            2.13713520705705       -1.91384839958740        5.29819719715947
H            2.36352604525655       -1.95546126943307        3.55140853623365
B           -5.85446405521861        3.35712799172348        0.83551210444356
B           -5.86324949217847        1.66179536482185        0.58801426347553
B           -4.40168838438565        4.18018493213072        0.44188544690485
B           -4.40273994652177        2.50227266348144        0.64293516213344
B           -4.40192822486978        0.81236684677458        0.79617851717884
B           -5.86802759736124       -1.72491765709269        0.75380057715279
B           -5.86307431069507       -3.39165417041738        1.14707860098191
B           -4.40418646845119       -0.86466576032566        0.87308360084669
B           -4.40970527551899       -2.56148083233103        0.87305310456744
B           -4.41362622523924       -4.25068342164527        0.81184057204952
B           -2.93181189731564        3.34667690417365        0.51591377306730
B           -2.93251188462109        1.65478490217323        0.76745516426168
B           -1.46820770960865        4.18467035477328        0.54522281573768
B           -1.47074511812968        2.49838267836156        0.63544272567852
B           -1.47413451934959        0.80376371929906        0.64186706449376
B           -2.93722227391110       -1.71103333427823        0.90978608246320
B           -2.94127518422566       -3.41792037840664        0.82279092725551
B           -1.47660564212211       -0.87818700478257        0.71134462231758
B           -1.47797429387684       -2.56757124532727        0.84102502524690
B           -1.47942772820421       -4.25215999218649        0.95972153687365
B           -0.00187571912339        3.34683119904501        0.62831061523911
B           -0.00696802649651        1.64158501711474        0.55442706084112
B            1.46408390565168        4.18141159321205        0.61189625921379
B            1.45955021132506        2.49179050763497        0.57280515158765
B            1.45630098861004        0.79747615345568        0.59266865646548
B           -0.01170332308614       -1.72435674235095        0.70170651062550
B           -0.01160042792963       -3.41736498247543        0.91058247050375
B            1.45403018484733       -0.88402050383111        0.67097821182744
B            1.45247703638496       -2.57419292110728        0.78605770473308
B            1.45064646503484       -4.25919504409830        0.89465020840542
B            2.92218504479153        3.33553912132762        0.42947937734772
B            2.92416760152499        1.64105112287036        0.64007019133830
B            4.38835388956065        4.15999605980183        0.26714221611261
B            4.39019622540211        2.48295100932829        0.47842394974452
B            4.38769502774874        0.79329789432974        0.64247709271592
B            2.91967040821753       -1.72329913734310        0.81318011341025
B            2.91280766954023       -3.43087347247864        0.71570545563830
B            4.38536444764100       -0.88339244618118        0.72503803759718
B            4.38339283698234       -2.58083401302925        0.71177789704643
B            4.37772605104000       -4.26990075993643        0.65644654670816
B            5.85438399054035        3.33146223534117        0.61091183654042
B            5.84703766070757        1.63666628704026        0.38408626135496
B            5.84265011655551       -1.75035821447485        0.53993881203430
B            5.84498525047857       -3.41804337194319        0.92187381550567
H           -6.79283988472022        3.94332876260342        1.22504197195957
H           -6.83113630568297        1.15091451666821        0.17531471801054
H           -4.45945180157736        5.28380431955018        0.04331684011900
H           -6.83684764772183       -1.24744843729643        0.30585070972712
H           -6.79571522537357       -3.93987506452520        1.60103808312102
H           -4.48198937720904       -5.37715312530620        0.48581623772183
H           -1.46956616996131        5.36034033746488        0.52381715971894
H           -1.48283484897460       -5.41929730771501        1.07981253558966
H            1.48373538763083        5.35033395417884        0.73908868758384
H            1.45359122172186       -5.42919791076306        1.00518545861032
H            4.43985345270665        5.25681489604179       -0.14933771005079
H            4.42204681593047       -5.40812082642629        0.36851706925131
H            6.80668921216524        3.92467778728685        0.95263938593416
H            6.79462099901707        1.11617288408471       -0.06121514821245
H            6.79425334082222       -1.27023932189620        0.05908161646642
H            6.79451091130886       -3.97278668946506        1.33121389317280
