91
 energy: -123.212137071589 gnorm: 0.000948277326 xtb: 6.7.1 (edcfbbe)
O           -2.61442713869871       -2.23538418296665        3.25517417662382
C           -1.48797339784178       -1.66549709157188        3.38632853736145
C           -1.31080125176074       -0.26987077350533        3.41227076699420
C           -0.06419508794957        0.32020055928797        3.53224478449227
C            0.19352781780581        1.72502850458269        3.57156955357706
C            1.51528075002341        2.20581753032314        3.66802780353753
C            1.78345671895644        3.55643840653662        3.66894944339134
C            0.75364699829249        4.48020016925720        3.56614303451362
O            0.95721075644580        5.84600494815956        3.52856540493232
C           -0.57118640782473        4.02650119495452        3.47932526829927
O           -1.59205757525472        4.92180503597073        3.35450530788467
C           -0.84341632665041        2.67806748000066        3.49159156677434
O            1.07850807870829       -0.45368142388565        3.59964455167903
C            0.97512661082170       -1.79837351202431        3.58345102734045
C            2.15766105077790       -2.52477055959091        3.62907446238434
C            2.10503649862077       -3.91474298632758        3.59249534357199
O            3.28930552536217       -4.59043994318532        3.60163169940335
C            0.89174635327819       -4.58037124848573        3.52325778286330
C           -0.29761417047890       -3.85688137529820        3.46720073325016
O           -1.46900514601278       -4.49056630253445        3.36276128263312
C           -0.25800089021958       -2.44950844497208        3.49052086395780
H           -2.19129785522431        0.34202085303608        3.34999111166468
H            2.32314770383993        1.49827625175374        3.74082262664141
H            2.80397330560423        3.90816150847630        3.74019924827929
H            1.90130321351096        6.01528031327212        3.46430048878479
H           -1.19450946513966        5.79948915045063        3.28996346443066
H           -1.87340240258797        2.37670340973886        3.43304820432173
H            3.10578151359770       -2.02117039445953        3.69163374792843
H            3.11637601579626       -5.53435072032210        3.51313910814501
H            0.84609343870348       -5.65779256763453        3.49538575145915
H           -2.16220976966800       -3.74619627929562        3.30469285856428
B           -5.84521679599641        3.72051887707268        0.17712258374539
B           -5.93543104171099        2.03981578356689       -0.16776739787024
B           -4.33103036510987        4.47443436571629       -0.10379117097477
B           -4.43493307979653        2.79187595252272       -0.01075418405883
B           -4.53448456238753        1.09948011180776        0.01171182068283
B           -6.14566573476295       -1.34300682887108        0.19483449612856
B           -6.23869633534947       -3.02350912990680       -0.13162399960507
B           -4.63561015756896       -0.57547198256174        0.06603751988998
B           -4.73894320042741       -2.26795202927433        0.11606447863152
B           -4.83892921313856       -3.95075337988720        0.21121115198544
B           -2.91679863846166        3.55510234766664        0.03218614163937
B           -3.02323516612303        1.85652138910929        0.17157103703059
B           -1.40819148995648        4.30410682930930        0.07195924406477
B           -1.51089814811705        2.61898273908398        0.11727170763866
B           -1.61177135051567        0.92824964476664        0.14278542336690
B           -3.22064334024643       -1.50681865640949        0.07067610451873
B           -3.32010874903840       -3.20605316662748        0.08511526486294
B           -1.71183572663330       -0.75177474414361        0.15591797454498
B           -1.81072004932483       -2.44243395745707        0.07485757016248
B           -1.90604007645623       -4.12313063306964       -0.08689887898895
B            0.00100041525093        3.38052581111543        0.23637522431885
B           -0.09612271191353        1.68293493807181        0.11776840149948
B            1.50916471854951        4.12826555827722        0.35270464681552
B            1.41223681171522        2.44466330209504        0.25163247567923
B            1.31535556514639        0.75479891238046        0.13596003578862
B           -0.29702665624735       -1.68048838780743        0.14188940438460
B           -0.39795491368698       -3.37876568690758        0.12525044165626
B            1.21604209680081       -0.92523555211091        0.11047924668072
B            1.11336290867871       -2.61642650845279        0.18754606844820
B            1.00975993371101       -4.30124681695579        0.27615955114196
B            2.92505443513142        3.20820998527118        0.22689605155999
B            2.82202622944992        1.50828422139799        0.33832886948178
B            4.44141281672518        3.95314987645294        0.17869240696969
B            4.33873778899942        2.27037569575340        0.30752992850943
B            4.23389554428195        0.57772246598140        0.37552576413334
B            2.62344192405538       -1.85441632279654        0.29196368300696
B            2.52404817247401       -3.55304998416078        0.19170970109790
B            4.13461169657564       -1.09766094361038        0.36325918960579
B            4.03893009458276       -2.78983023793642        0.27221892753416
B            3.94192137342050       -4.47107424600070        0.11614334932923
B            5.83891954068154        3.02510956579003        0.54742345851535
B            5.74960438326682        1.34658123038290        0.23648925157412
B            5.54891234415817       -2.03830802450483        0.21377584760608
B            5.43935756057949       -3.71965761142130        0.49644849714486
H           -6.77574741123538        4.33380147267169        0.53883329470095
H           -6.91293374202316        1.60310940025408       -0.64195497797116
H           -4.30606804579330        5.58079444883255       -0.49480085373900
H           -7.07848072155587       -0.78110289584283        0.61981876536015
H           -7.19761991153051       -3.53234483817795       -0.57118872062546
H           -4.95485367684820       -5.06111085003487        0.56568951015899
H           -1.33221149390388        5.46524824262451       -0.08131368181095
H           -1.97040669979317       -5.26741244509313       -0.33354826250578
H            1.58110552688029        5.28724049160756        0.52837519226808
H            0.94319940532723       -5.46771868205187        0.37688846339503
H            4.56965081755659        5.07195851441756       -0.15503932362125
H            3.93915774806993       -5.58787929365706       -0.24402409061162
H            6.79917207733067        3.54390358823805        0.97579562591267
H            6.68919499172877        0.78894911823970       -0.17809739390487
H            6.54388501427593       -1.58304463187049       -0.19525810107505
H            6.32836182480689       -4.35743390259802        0.91296210850869
