40
Galantamine GFN2 opt
C       4.83965690     -1.85329612     -0.51617079
O       3.92010714     -0.79262795     -0.44067244
C       2.65448758     -1.06570699     -0.02002544
C       2.17826243     -2.31330210      0.37510385
C       0.84637985     -2.51019938      0.71077252
C      -0.06014825     -1.46075174      0.72644197
C       0.43733821     -0.20036769      0.45342590
C       1.74102361     -0.01050171      0.00550562
O       1.98798691      1.26501936     -0.43213512
C       0.92020596      2.03480764      0.09637310
C       0.54112193      3.31559918     -0.60705130
C      -0.67877470      3.90818606      0.10013180
O      -1.09596036      5.00810996     -0.18081180
C      -1.30534273      3.08967678      1.16189161
C      -1.13871910      1.76955854      1.27672321
C      -0.30157877      1.08928932      0.24058278
C      -1.17518878      0.86811386     -1.01607701
C      -2.41175304      0.00674256     -0.72206774
N      -2.15219410     -1.39849183     -0.45749004
C      -3.34487957     -2.19380811     -0.66187717
C      -1.54324004     -1.66094960      0.84578323
H       5.76489296     -1.41282783     -0.88407696
H       4.50517849     -2.62819190     -1.21367436
H       5.01989696     -2.30215683      0.46635302
H       2.84205478     -3.16303303      0.38424883
H       0.51054785     -3.50925522      0.94491341
H       1.21889653      2.29987119      1.12882342
H       0.30405057      3.14243756     -1.65810046
H       1.34864756      4.04956154     -0.57681440
H      -1.94745524      3.63893027      1.83577123
H      -1.60440133      1.20619719      2.07127159
H      -1.54146064      1.82698573     -1.38700368
H      -0.57830403      0.38907955     -1.79331352
H      -3.04100905      0.04648385     -1.61581631
H      -2.98238966      0.47432882      0.10271470
H      -3.09620229     -3.24692346     -0.54163431
H      -3.70559668     -2.04476043     -1.67879757
H      -4.15808427     -1.94145988      0.03697389
H      -1.97709722     -1.02028038      1.63164620
H      -1.74095638     -2.70008676      1.11463187
