89
Drug@B48H12 complex
Br      1.345880     -0.215422      7.219883
C      0.504452     -0.162967      5.509621
C     -0.864622     -0.121507      5.394789
C     -1.133855      0.033908      4.016198
N      0.012799      0.087738      3.325175
N      1.019354     -0.084987      4.228677
C      2.364177     -0.150136      3.743373
C      2.617158      0.213240      2.405738
C      3.912328      0.170324      1.880225
C      4.966832     -0.246736      2.684012
C      4.734258     -0.627230      4.002753
C      3.436551     -0.583646      4.530632
Br      6.719564     -0.309890      1.981360
C     -2.437774      0.149196      3.347716
C     -3.637490      0.117696      4.075190
C     -4.871792      0.227675      3.425726
C     -4.924288      0.370212      2.041372
C     -3.744222      0.403022      1.303784
C     -2.511068      0.293232      1.952522
H     -1.573196     -0.166594      6.209133
H      1.810357      0.546756      1.753920
H      4.080380      0.463329      0.847228
H      5.553617     -0.970506      4.630059
H      3.314498     -0.936649      5.545628
H     -3.638096      0.008015      5.155670
H     -5.792606      0.201855      4.003081
H     -5.883603      0.455559      1.537621
H     -3.778604      0.513777      0.223102
H     -1.600989      0.320737      1.356018
B     -7.500000     -4.500000      0.000000
B     -4.500000     -4.500000      0.000000
B     -1.500000     -4.500000      0.000000
B      1.500000     -4.500000      0.000000
B      4.500000     -4.500000      0.000000
B      7.500000     -4.500000      0.000000
B     -7.500000     -3.000000      0.000000
B     -4.500000     -3.000000      0.000000
B     -1.500000     -3.000000      0.000000
B      1.500000     -3.000000      0.000000
B      4.500000     -3.000000      0.000000
B      7.500000     -3.000000      0.000000
B     -7.500000     -1.500000      0.000000
B     -4.500000     -1.500000      0.000000
B     -1.500000     -1.500000      0.000000
B      1.500000     -1.500000      0.000000
B      4.500000     -1.500000      0.000000
B      7.500000     -1.500000      0.000000
B     -7.500000      0.000000      0.000000
B     -4.500000      0.000000      0.000000
B     -1.500000      0.000000      0.000000
B      1.500000      0.000000      0.000000
B      4.500000      0.000000      0.000000
B      7.500000      0.000000      0.000000
B     -7.500000      1.500000      0.000000
B     -4.500000      1.500000      0.000000
B     -1.500000      1.500000      0.000000
B      1.500000      1.500000      0.000000
B      4.500000      1.500000      0.000000
B      7.500000      1.500000      0.000000
B     -7.500000      3.000000      0.000000
B     -4.500000      3.000000      0.000000
B     -1.500000      3.000000      0.000000
B      1.500000      3.000000      0.000000
B      4.500000      3.000000      0.000000
B      7.500000      3.000000      0.000000
B     -7.500000      4.500000      0.000000
B     -4.500000      4.500000      0.000000
B     -1.500000      4.500000      0.000000
B      1.500000      4.500000      0.000000
B      4.500000      4.500000      0.000000
B      7.500000      4.500000      0.000000
B     -6.000000     -3.750000      0.000000
B     -3.000000     -3.750000      0.000000
B      0.000000     -3.750000      0.000000
B      3.000000     -3.750000      0.000000
B      6.000000     -3.750000      0.000000
B     -6.000000      3.750000      0.000000
B     -3.000000      3.750000      0.000000
B      0.000000      3.750000      0.000000
B      3.000000      3.750000      0.000000
B      6.000000      3.750000      0.000000
B     -6.000000      0.000000      0.000000
H     -8.600000     -4.500000      0.000000
H     -8.600000     -1.500000      0.000000
H     -8.600000      1.500000      0.000000
H     -8.600000      4.500000      0.000000
H      8.600000     -4.500000      0.000000
H      8.600000     -1.500000      0.000000
H      8.600000      1.500000      0.000000
