29
Anle138b - ETKDG+MMFF conformer
Br      1.345880     -0.215422      3.719883
C      0.504452     -0.162967      2.009621
C     -0.864622     -0.121507      1.894789
C     -1.133855      0.033908      0.516198
N      0.012799      0.087738     -0.174825
N      1.019354     -0.084987      0.728677
C      2.364177     -0.150136      0.243373
C      2.617158      0.213240     -1.094262
C      3.912328      0.170324     -1.619775
C      4.966832     -0.246736     -0.815988
C      4.734258     -0.627230      0.502753
C      3.436551     -0.583646      1.030632
Br      6.719564     -0.309890     -1.518640
C     -2.437774      0.149196     -0.152284
C     -3.637490      0.117696      0.575190
C     -4.871792      0.227675     -0.074274
C     -4.924288      0.370212     -1.458628
C     -3.744222      0.403022     -2.196216
C     -2.511068      0.293232     -1.547478
H     -1.573196     -0.166594      2.709133
H      1.810357      0.546756     -1.746080
H      4.080380      0.463329     -2.652772
H      5.553617     -0.970506      1.130059
H      3.314498     -0.936649      2.045628
H     -3.638096      0.008015      1.655670
H     -5.792606      0.201855      0.503081
H     -5.883603      0.455559     -1.962379
H     -3.778604      0.513777     -3.276898
H     -1.600989      0.320737     -2.143982
