      -----------------------------------------------------------      
     |                   =====================                   |     
     |                           x T B                           |     
     |                   =====================                   |     
     |                         S. Grimme                         |     
     |          Mulliken Center for Theoretical Chemistry        |     
     |                    University of Bonn                     |     
      -----------------------------------------------------------      

   * xtb version 6.7.1pre (5071a88) compiled by 'Marcel@Raven' on 2024-07-23

   xtb is free software: you can redistribute it and/or modify it under
   the terms of the GNU Lesser General Public License as published by
   the Free Software Foundation, either version 3 of the License, or
   (at your option) any later version.
   
   xtb is distributed in the hope that it will be useful,
   but WITHOUT ANY WARRANTY; without even the implied warranty of
   MERCHANTABILITY or FITNESS FOR A PARTICULAR PURPOSE.  See the
   GNU Lesser General Public License for more details.
   
   Cite this work as:
   * C. Bannwarth, E. Caldeweyher, S. Ehlert, A. Hansen, P. Pracht,
     J. Seibert, S. Spicher, S. Grimme, WIREs Comput. Mol. Sci., 2020, 11,
     e01493. DOI: 10.1002/wcms.1493
   
   for GFN2-xTB:
   * C. Bannwarth, S. Ehlert and S. Grimme., J. Chem. Theory Comput., 2019,
     15, 1652-1671. DOI: 10.1021/acs.jctc.8b01176
   for GFN1-xTB:
   * S. Grimme, C. Bannwarth, P. Shushkov, J. Chem. Theory Comput., 2017,
     13, 1989-2009. DOI: 10.1021/acs.jctc.7b00118
   for GFN0-xTB:
   * P. Pracht, E. Caldeweyher, S. Ehlert, S. Grimme, ChemRxiv, 2019, preprint.
     DOI: 10.26434/chemrxiv.8326202.v1
   for GFN-FF:
   * S. Spicher and S. Grimme, Angew. Chem. Int. Ed., 2020, 59, 15665-15673.
     DOI: 10.1002/anie.202004239
   
   for ALPB and GBSA implicit solvation:
   * S. Ehlert, M. Stahn, S. Spicher, S. Grimme, J. Chem. Theory Comput.,
     2021, 17, 4250-4261. DOI: 10.1021/acs.jctc.1c00471
   
   for ddCOSMO and CPCM-X implicit solvation:
   * M. Stahn, S. Ehlert, S. Grimme, J. Phys. Chem. A,
     2023, XX, XXXX-XXXX. DOI: 10.1021/acs.jpca.3c04382
   
   for DFT-D4:
   * E. Caldeweyher, C. Bannwarth and S. Grimme, J. Chem. Phys., 2017,
     147, 034112. DOI: 10.1063/1.4993215
   * E. Caldeweyher, S. Ehlert, A. Hansen, H. Neugebauer, S. Spicher,
     C. Bannwarth and S. Grimme, J. Chem. Phys., 2019, 150, 154122.
     DOI: 10.1063/1.5090222
   * E. Caldeweyher, J.-M. Mewes, S. Ehlert and S. Grimme, Phys. Chem. Chem. Phys.
     2020, 22, 8499-8512. DOI: 10.1039/D0CP00502A
   
   for sTDA-xTB:
   * S. Grimme and C. Bannwarth, J. Chem. Phys., 2016, 145, 054103.
     DOI: 10.1063/1.4959605
   
   in the mass-spec context:
   * V. Asgeirsson, C. Bauer and S. Grimme, Chem. Sci., 2017, 8, 4879.
     DOI: 10.1039/c7sc00601b
   * J. Koopman and S. Grimme, ACS Omega 2019, 4, 12, 15120-15133.
     DOI: 10.1021/acsomega.9b02011
   
   for metadynamics refer to:
   * S. Grimme, J. Chem. Theory Comput., 2019, 155, 2847-2862
     DOI: 10.1021/acs.jctc.9b00143
   
   for SPH calculations refer to:
   * S. Spicher and S. Grimme, J. Chem. Theory Comput., 2021, 17, 1701-1714
     DOI: 10.1021/acs.jctc.0c01306
   
   for ONIOM refer to:
   * C. Plett, A. Katbashev, S. Ehlert, S. Grimme, M. Bursch,
     Phys. Chem. Chem. Phys., 2023, 25, 17860-17868. DOI: 10.1039/D3CP02178E
   
   for DIPRO refer to:
   * J. Kohn, N. Gildemeister, S. Grimme, D. Fazzi, A. Hansen,
     J. Chem. Phys., 2023, just accepted.
   
   for PTB refer to:
   * S. Grimme, M. Mueller, A. Hansen, J. Chem. Phys., 2023, 158, 124111.
     DOI: 10.1063/5.0137838
   
   with help from (in alphabetical order)
   P. Atkinson, C. Bannwarth, F. Bohle, G. Brandenburg, E. Caldeweyher
   M. Checinski, S. Dohm, S. Ehlert, S. Ehrlich, I. Gerasimov, C. Hölzer
   A. Katbashev, J. Kohn, J. Koopman, C. Lavigne, S. Lehtola, F. März, M. Müller,
   F. Musil, H. Neugebauer, J. Pisarek, C. Plett, P. Pracht, F. Pultar,
   J. Seibert, P. Shushkov, S. Spicher, M. Stahn, M. Steiner, T. Strunk,
   J. Stückrath, T. Rose, and J. Unsleber
   
 * started run on 2026/08/31 at 20:23:53.241     
   ID    Z sym.   atoms
    1   35 Br     1, 13
    2    6 C      2-4, 7-12, 14-19
    3    7 N      5, 6
    4    1 H      20-29, 83-89
    5    5 B      30-82

           -------------------------------------------------
          |                Calculation Setup                |
           -------------------------------------------------

          program call               : "c:\Users\Andre\Proyectos doctorado\kras-pancreatic-gC3N4-ai\tools\xtb\xtb-6.7.1\bin\xtb.exe" "c:\Users\Andre\Proyectos doctorado\borophene-alzheimer-tau-ai\calculations\tau\Anle138b\Anle138b_B48H12_complex.xyz" --gfn 2 --sp --chrg 0 --uhf 0 --iterations 500 --norestart
          coordinate file            : c:\Users\Andre\Proyectos doctorado\borophene-alzheimer-tau-ai\calculations\tau\Anle138b\Anle138b_B48H12_complex.xyz
          omp threads                :                    16


molecular fragmentation (1/2 indicates fragments):
111111111111111111111111111111111111111111111111111111111111111111111111
11111111111221111
# atoms in fragment 1/2:    87     2
 fragment masses (1/2) :      956.09        2.02
CMA distance (Bohr)    :  17.634
constraining FC (au)   :  0.0500

           -------------------------------------------------
          |                 G F N 2 - x T B                 |
           -------------------------------------------------

        Reference                      10.1021/acs.jctc.8b01176
      * Hamiltonian:
        H0-scaling (s, p, d)           1.850000    2.230000    2.230000
        zeta-weighting                 0.500000
      * Dispersion:
        s8                             2.700000
        a1                             0.520000
        a2                             5.000000
        s9                             5.000000
      * Repulsion:
        kExp                           1.500000    1.000000
        rExp                           1.000000
      * Coulomb:
        alpha                          2.000000
        third order                    shell-resolved
        anisotropic                    true
        a3                             3.000000
        a5                             4.000000
        cn-shift                       1.200000
        cn-exp                         4.000000
        max-rad                        5.000000


          ...................................................
          :                      SETUP                      :
          :.................................................:
          :  # basis functions                 317          :
          :  # atomic orbitals                 315          :
          :  # shells                          163          :
          :  # electrons                       260          :
          :  max. iterations                   500          :
          :  Hamiltonian                  GFN2-xTB          :
          :  restarted?                      false          :
          :  GBSA solvation                  false          :
          :  PC potential                    false          :
          :  electronic temp.          300.0000000     K    :
          :  accuracy                    1.0000000          :
          :  -> integral cutoff          0.2500000E+02      :
          :  -> integral neglect         0.1000000E-07      :
          :  -> SCF convergence          0.1000000E-05 Eh   :
          :  -> wf. convergence          0.1000000E-03 e    :
          :  Broyden damping             0.4000000          :
          :  net charge                          0          :
          :  unpaired electrons                  0          :
          ...................................................

 iter      E             dE          RMSdq      gap      omega  full diag
   1   -117.9461143 -0.117946E+03  0.176E+01    0.02       0.0  T
   2    -79.5376463  0.384085E+02  0.135E+01    0.10       1.0  T
   3    173.7791884  0.253317E+03  0.247E+01    0.02       1.0  T
   4    108.9887791 -0.647904E+02  0.193E+01    0.01       1.0  T
   5    194.3658566  0.853771E+02  0.211E+01    0.10       1.0  T
   6    -43.2875268 -0.237653E+03  0.126E+01    0.02       1.0  T
   7    -69.2368854 -0.259494E+02  0.111E+01    0.02       1.0  T
   8    -40.1688404  0.290680E+02  0.124E+01    0.02       1.0  T
   9   -108.0848147 -0.679160E+02  0.770E+00    0.02       1.0  T
  10   -110.8385832 -0.275377E+01  0.741E+00    0.06       1.0  T
  11   -115.0132073 -0.417462E+01  0.647E+00    0.13       1.0  T
  12   -117.2418476 -0.222864E+01  0.574E+00    0.14       1.0  T
  13   -117.5242277 -0.282380E+00  0.576E+00    0.07       1.0  T
  14   -118.0073316 -0.483104E+00  0.538E+00    0.03       1.0  T
  15   -117.8829600  0.124372E+00  0.536E+00    0.08       1.0  T
  16   -118.5126680 -0.629708E+00  0.483E+00    0.04       1.0  T
  17   -118.6938935 -0.181226E+00  0.472E+00    0.08       1.0  T
  18   -118.7061951 -0.123016E-01  0.463E+00    0.03       1.0  T
  19   -118.7614750 -0.552798E-01  0.458E+00    0.05       1.0  T
  20   -118.7668357 -0.536076E-02  0.457E+00    0.03       1.0  T
  21   -118.7740098 -0.717409E-02  0.455E+00    0.04       1.0  T
  22   -118.9598824 -0.185873E+00  0.431E+00    0.02       1.0  T
  23   -119.0352400 -0.753576E-01  0.415E+00    0.10       1.0  T
  24   -118.9931966  0.420434E-01  0.400E+00    0.06       1.0  T
  25   -119.1094400 -0.116243E+00  0.356E+00    0.12       1.0  T
  26   -118.8917182  0.217722E+00  0.332E+00    0.00       1.0  T
  27   -119.1747627 -0.283044E+00  0.294E+00    0.09       1.0  T
  28   -119.1821105 -0.734785E-02  0.276E+00    0.04       1.0  T
  29   -119.2777455 -0.956349E-01  0.257E+00    0.07       1.0  T
  30   -119.3821242 -0.104379E+00  0.218E+00    0.05       1.0  T
  31   -119.4213242 -0.391999E-01  0.211E+00    0.04       1.0  T
  32   -119.3497742  0.715499E-01  0.216E+00    0.08       1.0  T
  33   -119.3494367  0.337556E-03  0.216E+00    0.08       1.0  T
  34   -119.3872387 -0.378021E-01  0.209E+00    0.08       1.0  T
  35   -119.3213282  0.659106E-01  0.206E+00    0.08       1.0  T
  36   -119.1748382  0.146490E+00  0.221E+00    0.07       1.0  T
  37   -119.3609214 -0.186083E+00  0.196E+00    0.01       1.0  T
  38   -119.1791499  0.181771E+00  0.216E+00    0.06       1.0  T
  39   -119.3248650 -0.145715E+00  0.195E+00    0.01       1.0  T
  40   -119.2435639  0.813011E-01  0.211E+00    0.03       1.0  T
  41   -119.3213478 -0.777839E-01  0.194E+00    0.01       1.0  T
  42   -119.3768906 -0.555428E-01  0.179E+00    0.01       1.0  T
  43   -119.4037480 -0.268574E-01  0.168E+00    0.01       1.0  T
  44   -119.5097458 -0.105998E+00  0.134E+00    0.02       1.0  T
  45   -119.5106881 -0.942303E-03  0.134E+00    0.02       1.0  T
  46   -119.5395863 -0.288982E-01  0.116E+00    0.02       1.0  T
  47   -119.5531561 -0.135698E-01  0.108E+00    0.02       1.0  T
  48   -119.5980751 -0.449191E-01  0.837E-01    0.04       1.0  T
  49   -119.5945222  0.355294E-02  0.857E-01    0.02       1.0  T
  50   -119.6222094 -0.276872E-01  0.643E-01    0.02       1.0  T
  51   -119.6197275  0.248183E-02  0.631E-01    0.02       1.0  T
  52   -119.6138162  0.591130E-02  0.667E-01    0.02       1.0  T
  53   -119.6149143 -0.109807E-02  0.641E-01    0.02       1.0  T
  54   -119.6131875  0.172679E-02  0.651E-01    0.02       1.0  T
  55   -119.6388443 -0.256568E-01  0.471E-01    0.01       1.0  T
  56   -119.6330877  0.575668E-02  0.503E-01    0.01       1.0  T
  57   -119.6474665 -0.143789E-01  0.357E-01    0.02       1.0  T
  58   -119.6487143 -0.124774E-02  0.342E-01    0.02       1.0  T
  59   -119.6501080 -0.139373E-02  0.310E-01    0.02       1.0  T
  60   -119.6531744 -0.306639E-02  0.246E-01    0.03       1.0  T
  61   -119.6538986 -0.724237E-03  0.227E-01    0.02       1.0  T
  62   -119.6543152 -0.416557E-03  0.212E-01    0.02       1.0  T
  63   -119.6558380 -0.152276E-02  0.181E-01    0.02       1.0  T
  64   -119.6550156  0.822381E-03  0.210E-01    0.02       1.0  T
  65   -119.6548662  0.149340E-03  0.210E-01    0.02       1.0  T
  66   -119.6563750 -0.150881E-02  0.161E-01    0.02       1.0  T
  67   -119.6571110 -0.735981E-03  0.125E-01    0.02       1.0  T
  68   -119.6574993 -0.388271E-03  0.107E-01    0.02       1.0  T
  69   -119.6578604 -0.361085E-03  0.843E-02    0.02       1.0  T
  70   -119.6581341 -0.273711E-03  0.679E-02    0.02       1.0  T
  71   -119.6582412 -0.107143E-03  0.568E-02    0.02       1.0  T
  72   -119.6584030 -0.161784E-03  0.390E-02    0.02       1.0  T
  73   -119.6584196 -0.166322E-04  0.376E-02    0.02       1.0  T
  74   -119.6584825 -0.628184E-04  0.312E-02    0.02       1.0  T
  75   -119.6585149 -0.324081E-04  0.282E-02    0.02       1.0  T
  76   -119.6584820  0.328265E-04  0.346E-02    0.02       1.0  T
  77   -119.6584876 -0.556734E-05  0.327E-02    0.02       1.0  T
  78   -119.6585615 -0.739159E-04  0.215E-02    0.02       1.0  T
  79   -119.6585853 -0.238160E-04  0.151E-02    0.02       1.0  T
  80   -119.6586014 -0.160215E-04  0.890E-03    0.02       1.2  T
  81   -119.6586102 -0.882147E-05  0.334E-03    0.02       3.2  T
  82   -119.6586101  0.106302E-06  0.288E-03    0.02       3.7  T
  83   -119.6586106 -0.473439E-06  0.257E-03    0.02       4.1  T
  84   -119.6586106 -0.779137E-07  0.232E-03    0.02       4.6  T
  85   -119.6586111 -0.442293E-06  0.121E-03    0.02       8.7  T
  86   -119.6586112 -0.821162E-07  0.789E-04    0.02      13.4  T
  87   -119.6586112 -0.615535E-08  0.777E-04    0.02      13.6  T

   *** convergence criteria satisfied after 87 iterations ***

         #    Occupation            Energy/Eh            Energy/eV
      -------------------------------------------------------------
         1        2.0000           -0.7910371             -21.5252
       ...           ...                  ...                  ...
       124        2.0000           -0.2420366              -6.5862
       125        2.0000           -0.2351002              -6.3974
       126        2.0000           -0.2258332              -6.1452
       127        1.9999           -0.2209405              -6.0121
       128        1.9954           -0.2175766              -5.9206
       129        1.4066           -0.2126318              -5.7860
       130        1.2212           -0.2122393              -5.7753 (HOMO)
       131        0.8390           -0.2115033              -5.7553 (LUMO)
       132        0.2923           -0.2101349              -5.7181
       133        0.1815           -0.2096223              -5.7041
       134        0.0560           -0.2084426              -5.6720
       135        0.0074           -0.2065020              -5.6192
       ...           ...                  ...                  ...
       315                          2.0430041              55.5930
      -------------------------------------------------------------
                  HL-Gap            0.0007360 Eh            0.0200 eV
             Fermi-level           -0.2118119 Eh           -5.7637 eV

 SCC (total)                   0 d,  0 h,  0 min,  1.278 sec
 SCC setup                      ...        0 min,  0.001 sec (  0.078%)
 Dispersion                     ...        0 min,  0.001 sec (  0.078%)
 classical contributions        ...        0 min,  0.000 sec (  0.000%)
 integral evaluation            ...        0 min,  0.008 sec (  0.626%)
 iterations                     ...        0 min,  1.249 sec ( 97.731%)
 molecular gradient             ...        0 min,  0.018 sec (  1.408%)
 printout                       ...        0 min,  0.001 sec (  0.078%)

         :::::::::::::::::::::::::::::::::::::::::::::::::::::
         ::                     SUMMARY                     ::
         :::::::::::::::::::::::::::::::::::::::::::::::::::::
         :: total energy            -117.375518740351 Eh    ::
         :: gradient norm              0.688623732770 Eh/a0 ::
         :: HOMO-LUMO gap              0.020028361096 eV    ::
         ::.................................................::
         :: SCC energy              -119.654876259066 Eh    ::
         :: -> isotropic ES            0.357673492344 Eh    ::
         :: -> anisotropic ES         -0.019491946586 Eh    ::
         :: -> anisotropic XC         -0.062009359219 Eh    ::
         :: -> dispersion             -0.145961380591 Eh    ::
         :: repulsion energy           2.279357518715 Eh    ::
         :: add. restraining           0.000000000000 Eh    ::
         :: total charge               0.000000000063 e     ::
         :::::::::::::::::::::::::::::::::::::::::::::::::::::

           -------------------------------------------------
          |                Property Printout                |
           -------------------------------------------------

    * Orbital Energies and Occupations

         #    Occupation            Energy/Eh            Energy/eV
      -------------------------------------------------------------
         1        2.0000           -0.7910371             -21.5252
       ...           ...                  ...                  ...
       118        2.0000           -0.2552120              -6.9447
       119        2.0000           -0.2545888              -6.9277
       120        2.0000           -0.2520052              -6.8574
       121        2.0000           -0.2496798              -6.7941
       122        2.0000           -0.2485101              -6.7623
       123        2.0000           -0.2444939              -6.6530
       124        2.0000           -0.2420366              -6.5862
       125        2.0000           -0.2351002              -6.3974
       126        2.0000           -0.2258332              -6.1452
       127        1.9999           -0.2209405              -6.0121
       128        1.9954           -0.2175766              -5.9206
       129        1.4066           -0.2126318              -5.7860
       130        1.2212           -0.2122393              -5.7753 (HOMO)
       131        0.8390           -0.2115033              -5.7553 (LUMO)
       132        0.2923           -0.2101349              -5.7181
       133        0.1815           -0.2096223              -5.7041
       134        0.0560           -0.2084426              -5.6720
       135        0.0074           -0.2065020              -5.6192
       136        0.0005           -0.2039670              -5.5502
       137        0.0002           -0.2028592              -5.5201
       138        0.0000           -0.1989915              -5.4148
       139                         -0.1929377              -5.2501
       140                         -0.1897965              -5.1646
       141                         -0.1893870              -5.1535
       ...                                ...                  ...
       315                          2.0430041              55.5930
      -------------------------------------------------------------
                  HL-Gap            0.0007360 Eh            0.0200 eV
             Fermi-level           -0.2118119 Eh           -5.7637 eV

     #   Z          covCN         q      C6AA      α(0)
     1  35 Br       0.992    -0.216   191.042    22.286
     2   6 C        2.965     0.070    26.425     8.432
     3   6 C        3.058    -0.090    30.191     9.011
     4   6 C        3.095     0.035    27.113     8.534
     5   7 N        1.983    -0.301    28.601     7.931
     6   7 N        2.981     0.041    20.522     6.728
     7   6 C        2.896     0.018    27.618     8.616
     8   6 C        2.917    -0.114    30.877     9.112
     9   6 C        3.563    -0.110    23.561     7.073
    10   6 C        2.906    -0.013    28.341     8.729
    11   6 C        2.986    -0.064    29.586     8.922
    12   6 C        2.914    -0.084    30.097     8.996
    13  35 Br       2.609    -0.070   186.970    22.047
    14   6 C        2.962    -0.026    28.640     8.778
    15   6 C        2.916    -0.082    30.060     8.991
    16   6 C        2.910    -0.074    29.835     8.957
    17   6 C        3.279    -0.134    29.804     8.786
    18   6 C        4.557    -0.080    21.929     6.650
    19   6 C        3.066    -0.141    31.545     9.210
    20   1 H        0.926     0.012     2.860     2.645
    21   1 H        0.926     0.129     1.543     1.942
    22   1 H        2.497     0.281     0.763     1.363
    23   1 H        0.925     0.015     2.815     2.624
    24   1 H        0.925     0.029     2.597     2.520
    25   1 H        0.925    -0.010     3.242     2.816
    26   1 H        0.925    -0.018     3.398     2.883
    27   1 H        1.049     0.101     1.767     2.076
    28   1 H        2.781     0.370     0.530     1.137
    29   1 H        1.561     0.181     1.194     1.706
    30   5 B        2.887    -0.004    21.478     7.735
    31   5 B        2.890     0.025    20.976     7.644
    32   5 B        2.890     0.027    20.942     7.638
    33   5 B        2.890     0.024    20.988     7.646
    34   5 B        2.890     0.025    20.970     7.643
    35   5 B        2.887    -0.009    21.576     7.753
    36   5 B        2.916     0.001    21.388     7.717
    37   5 B        3.868    -0.016    23.041     7.736
    38   5 B        3.868    -0.008    22.880     7.709
    39   5 B        3.868     0.003    22.675     7.674
    40   5 B        3.868    -0.015    23.023     7.733
    41   5 B        2.916     0.021    21.041     7.654
    42   5 B        3.266    -0.016    21.665     7.762
    43   5 B        2.330     0.041    30.478    10.651
    44   5 B        1.958     0.029    43.060    13.800
    45   5 B        1.958     0.014    43.596    13.885
    46   5 B        1.963     0.050    42.324    13.680
    47   5 B        3.483     0.004    21.423     7.696
    48   5 B        2.939    -0.016    21.676     7.768
    49   5 B        5.083    -0.101    24.746     8.015
    50   5 B        2.733    -0.063    22.743     7.987
    51   5 B        1.959    -0.069    46.707    14.372
    52   5 B        3.487    -0.091    23.213     8.009
    53   5 B        2.769     0.105    19.748     7.433
    54   5 B        3.266    -0.014    21.625     7.755
    55   5 B        3.974     0.011    22.539     7.650
    56   5 B        1.969     0.028    43.046    13.794
    57   5 B        1.958     0.008    43.842    13.924
    58   5 B        2.605     0.031    21.632     7.888
    59   5 B        3.039    -0.011    21.590     7.750
    60   5 B        2.916    -0.004    21.475     7.733
    61   5 B        3.868    -0.011    22.948     7.720
    62   5 B        3.868    -0.014    22.994     7.728
    63   5 B        3.868    -0.003    22.784     7.692
    64   5 B        3.868    -0.015    23.026     7.733
    65   5 B        2.914    -0.034    22.020     7.831
    66   5 B        2.887    -0.004    21.481     7.736
    67   5 B        2.890     0.018    21.092     7.665
    68   5 B        2.890     0.025    20.980     7.645
    69   5 B        2.890     0.020    21.059     7.659
    70   5 B        2.890     0.021    21.045     7.657
    71   5 B        1.934     0.001    44.189    13.987
    72   5 B        3.822     0.040    22.001     7.561
    73   5 B        3.822     0.042    21.955     7.553
    74   5 B        3.822     0.043    21.940     7.551
    75   5 B        3.822     0.044    21.914     7.546
    76   5 B        3.822     0.046    21.883     7.541
    77   5 B        3.822     0.039    22.015     7.564
    78   5 B        3.822     0.032    22.133     7.584
    79   5 B        3.822     0.043    21.939     7.551
    80   5 B        3.822     0.038    22.024     7.565
    81   5 B        3.822     0.038    22.032     7.566
    82   5 B        3.553     0.127    19.618     7.317
    83   1 H        0.954    -0.078     4.843     3.440
    84   1 H        0.956     0.022     2.692     2.564
    85   1 H        0.956     0.022     2.699     2.568
    86   1 H        0.954    -0.078     4.839     3.438
    87   1 H        0.954    -0.074     4.719     3.396
    88   1 H        0.956    -0.006     3.153     2.775
    89   1 H        0.956    -0.012     3.270     2.826

 Mol. C6AA /au·bohr⁶  :     164648.443113
 Mol. C8AA /au·bohr⁸  :    5947788.686316
 Mol. α(0) /au        :        684.295475


Wiberg/Mayer (AO) data.
largest (>0.10) Wiberg bond orders for each atom

 ---------------------------------------------------------------------------
     #   Z sym  total        # sym  WBO       # sym  WBO       # sym  WBO
 ---------------------------------------------------------------------------
     1  35 Br   1.105 --     2 C    0.965
     2   6 C    3.798 --     3 C    1.481     6 N    1.172     1 Br   0.965
     3   6 C    3.955 --     2 C    1.481     4 C    1.301    20 H    0.971
     4   6 C    3.912 --     5 N    1.367     3 C    1.301    14 C    1.097
     5   7 N    2.788 --     4 C    1.367     6 N    1.128
     6   7 N    3.611 --     2 C    1.172     5 N    1.128     7 C    1.066
     7   6 C    3.841 --     8 C    1.319    12 C    1.273     6 N    1.066
     8   6 C    3.905 --     9 C    1.420     7 C    1.319    21 H    0.847
     9   6 C    3.867 --     8 C    1.420    10 C    1.263    22 H    0.562
                            52 B    0.269    58 B    0.107
    10   6 C    3.728 --    11 C    1.351     9 C    1.263    13 Br   0.866
    11   6 C    3.951 --    12 C    1.456    10 C    1.351    23 H    0.969
    12   6 C    3.859 --    11 C    1.456     7 C    1.273    24 H    0.962
    13  35 Br   1.804 --    10 C    0.866    53 B    0.447    47 B    0.169
    14   6 C    3.916 --    19 C    1.344    15 C    1.302     4 C    1.097
    15   6 C    3.881 --    16 C    1.396    14 C    1.302    25 H    0.968
    16   6 C    3.933 --    17 C    1.434    15 C    1.396    26 H    0.971
    17   6 C    3.894 --    16 C    1.434    18 C    1.189    27 H    0.837
    18   6 C    3.952 --    19 C    1.242    17 C    1.189    49 B    0.472
                            28 H    0.382    55 B    0.349    43 B    0.137
    19   6 C    3.814 --    14 C    1.344    18 C    1.242    29 H    0.712
                            50 B    0.131
    20   1 H    0.999 --     3 C    0.971
    21   1 H    0.982 --     8 C    0.847
    22   1 H    0.921 --     9 C    0.562    52 B    0.206    58 B    0.132
    23   1 H    0.997 --    11 C    0.969
    24   1 H    0.996 --    12 C    0.962
    25   1 H    0.995 --    15 C    0.968
    26   1 H    0.998 --    16 C    0.971
    27   1 H    0.988 --    17 C    0.837    82 B    0.111
    28   1 H    0.862 --    18 C    0.382    49 B    0.276    55 B    0.174
    29   1 H    0.966 --    19 C    0.712    50 B    0.153
    30   5 B    3.277 --    36 B    1.084    72 B    0.947    83 H    0.872
                            42 B    0.113    31 B    0.107
    31   5 B    3.412 --    72 B    1.004    73 B    0.965    37 B    0.938
                            32 B    0.119    30 B    0.107
    32   5 B    3.393 --    74 B    0.986    73 B    0.968    38 B    0.918
                            33 B    0.120    31 B    0.119
    33   5 B    3.439 --    74 B    1.013    75 B    0.997    39 B    0.912
                            34 B    0.138    32 B    0.120
    34   5 B    3.357 --    76 B    1.002    75 B    0.952    40 B    0.909
                            33 B    0.138
    35   5 B    3.201 --    41 B    1.098    76 B    0.958    87 H    0.854
                            47 B    0.107
    36   5 B    3.435 --    42 B    1.191    30 B    1.084    72 B    0.741
                            84 H    0.113
    37   5 B    3.684 --    43 B    1.188    31 B    0.938    73 B    0.698
                            72 B    0.656
    38   5 B    3.652 --    44 B    1.205    32 B    0.918    73 B    0.664
                            74 B    0.653
    39   5 B    3.624 --    45 B    1.158    33 B    0.912    75 B    0.667
                            74 B    0.666
    40   5 B    3.670 --    46 B    1.217    34 B    0.909    75 B    0.680
                            76 B    0.656
    41   5 B    3.410 --    47 B    1.150    35 B    1.098    76 B    0.738
                            87 H    0.103    88 H    0.103
    42   5 B    3.573 --    36 B    1.191    48 B    0.965    84 H    0.689
                            82 B    0.373    30 B    0.113
    43   5 B    3.378 --    37 B    1.188    49 B    1.118    82 B    0.315
                            18 C    0.137    55 B    0.126
    44   5 B    3.229 --    50 B    1.364    38 B    1.205    56 B    0.135
    45   5 B    3.253 --    51 B    1.443    39 B    1.158    57 B    0.225
    46   5 B    3.240 --    52 B    1.336    40 B    1.217    58 B    0.128
    47   5 B    3.374 --    41 B    1.150    53 B    1.047    88 H    0.716
                            13 Br   0.169    35 B    0.107
    48   5 B    3.620 --    82 B    1.029    42 B    0.965    54 B    0.944
                            85 H    0.143    84 H    0.142
    49   5 B    3.594 --    43 B    1.118    55 B    0.773    82 B    0.759
                            18 C    0.472    28 H    0.276
    50   5 B    3.260 --    56 B    1.376    44 B    1.364    29 H    0.153
                            19 C    0.131
    51   5 B    3.316 --    45 B    1.443    57 B    1.424
    52   5 B    3.373 --    46 B    1.336    58 B    1.301     9 C    0.269
                            22 H    0.206
    53   5 B    3.194 --    59 B    1.163    47 B    1.047    13 Br   0.447
                            89 H    0.152    88 H    0.131
    54   5 B    3.563 --    60 B    1.194    48 B    0.944    85 H    0.691
                            82 B    0.366    66 B    0.118
    55   5 B    3.312 --    61 B    1.168    49 B    0.773    18 C    0.349
                            82 B    0.328    28 H    0.174    43 B    0.126
    56   5 B    3.260 --    50 B    1.376    62 B    1.184    44 B    0.135
    57   5 B    3.218 --    51 B    1.424    63 B    1.160    45 B    0.225
    58   5 B    3.279 --    52 B    1.301    64 B    1.182    22 H    0.132
                            46 B    0.128     9 C    0.107
    59   5 B    3.373 --    53 B    1.163    65 B    1.090    89 H    0.720
                            71 B    0.145
    60   5 B    3.442 --    54 B    1.194    66 B    1.091    77 B    0.743
                            85 H    0.112
    61   5 B    3.700 --    55 B    1.168    67 B    0.951    78 B    0.703
                            77 B    0.666
    62   5 B    3.665 --    56 B    1.184    68 B    0.949    78 B    0.668
                            79 B    0.666
    63   5 B    3.633 --    57 B    1.160    69 B    0.921    79 B    0.673
                            80 B    0.662
    64   5 B    3.686 --    58 B    1.182    70 B    0.962    80 B    0.686
                            81 B    0.646
    65   5 B    3.681 --    71 B    1.639    59 B    1.090    81 B    0.696
    66   5 B    3.276 --    60 B    1.091    77 B    0.934    86 H    0.874
                            54 B    0.118    67 B    0.104
    67   5 B    3.426 --    77 B    1.004    78 B    0.975    61 B    0.951
                            68 B    0.109    66 B    0.104
    68   5 B    3.412 --    78 B    0.979    79 B    0.959    62 B    0.949
                            69 B    0.110    67 B    0.109
    69   5 B    3.423 --    79 B    1.017    80 B    0.990    63 B    0.921
                            70 B    0.136    68 B    0.110
    70   5 B    3.524 --    81 B    0.974    80 B    0.973    64 B    0.962
                            71 B    0.176    69 B    0.136
    71   5 B    3.208 --    65 B    1.639    81 B    1.087    70 B    0.176
                            59 B    0.145
    72   5 B    3.599 --    31 B    1.004    30 B    0.947    36 B    0.741
                            37 B    0.656
    73   5 B    3.602 --    32 B    0.968    31 B    0.965    37 B    0.698
                            38 B    0.664
    74   5 B    3.587 --    33 B    1.013    32 B    0.986    39 B    0.666
                            38 B    0.653
    75   5 B    3.593 --    33 B    0.997    34 B    0.952    40 B    0.680
                            39 B    0.667
    76   5 B    3.596 --    34 B    1.002    35 B    0.958    41 B    0.738
                            40 B    0.656
    77   5 B    3.594 --    67 B    1.004    66 B    0.934    60 B    0.743
                            61 B    0.666
    78   5 B    3.619 --    68 B    0.979    67 B    0.975    61 B    0.703
                            62 B    0.668
    79   5 B    3.592 --    69 B    1.017    68 B    0.959    63 B    0.673
                            62 B    0.666
    80   5 B    3.609 --    69 B    0.990    70 B    0.973    64 B    0.686
                            63 B    0.662
    81   5 B    3.629 --    71 B    1.087    70 B    0.974    65 B    0.696
                            64 B    0.646
    82   5 B    3.572 --    48 B    1.029    49 B    0.759    42 B    0.373
                            54 B    0.366    55 B    0.328    43 B    0.315
                            27 H    0.111
    83   1 H    0.979 --    30 B    0.872
    84   1 H    0.989 --    42 B    0.689    48 B    0.142    36 B    0.113
    85   1 H    0.991 --    54 B    0.691    48 B    0.143    60 B    0.112
    86   1 H    0.980 --    66 B    0.874
    87   1 H    0.982 --    35 B    0.854    41 B    0.103
    88   1 H    0.984 --    47 B    0.716    53 B    0.131    41 B    0.103
    89   1 H    0.985 --    59 B    0.720    53 B    0.152
 ---------------------------------------------------------------------------

Topologies differ in total number of bonds
Writing topology from bond orders to xtbtopo.mol

molecular dipole:
                 x           y           z       tot (Debye)
 q only:        0.056       0.506      -7.129
   full:       -0.938       0.760      -3.502       9.415
molecular quadrupole (traceless):
                xx          xy          yy          xz          yz          zz
 q only:        8.635      11.510      58.406      -1.155       2.207     -67.041
  q+dip:       32.990      15.696      75.315       2.031       0.654    -108.305
   full:       23.344      15.974      44.773       0.602       2.080     -68.117


           -------------------------------------------------
          | TOTAL ENERGY             -117.375518740351 Eh   |
          | GRADIENT NORM               0.688623732770 Eh/α |
          | HOMO-LUMO GAP               0.020028361096 eV   |
           -------------------------------------------------

------------------------------------------------------------------------
 * finished run on 2026/08/31 at 20:23:54.565     
------------------------------------------------------------------------
 total:
 * wall-time:     0 d,  0 h,  0 min,  1.323 sec
 *  cpu-time:     0 d,  0 h,  0 min, 16.859 sec
 * ratio c/w:    12.743 speedup
 SCF:
 * wall-time:     0 d,  0 h,  0 min,  1.279 sec
 *  cpu-time:     0 d,  0 h,  0 min, 16.422 sec
 * ratio c/w:    12.840 speedup

normal termination of xtb
