30
drug @complex
O       1.74972480     -2.64724990      3.16745648
C       1.22227603     -1.50320565      3.33494483
C      -0.16466377     -1.27305268      3.35396980
C      -0.70902721     -0.00914944      3.50292091
C      -2.10545898      0.30110717      3.51259652
C      -3.10439160     -0.69047124      3.42056611
C      -4.43657141     -0.36108801      3.37941572
C      -4.83923475      0.97313016      3.43118926
O      -6.17537891      1.25445653      3.34991642
C      -3.87369014      1.96821462      3.56041920
C      -2.53815520      1.64104183      3.60442711
O       0.11017236      1.09770092      3.63676058
C       1.45120136      0.93819539      3.65696005
C       2.22540827      2.08178909      3.80061515
C       3.61265319      1.97096078      3.79168061
O       4.33869282      3.12033935      3.89596790
C       4.22874737      0.73761983      3.64934242
C       3.45599316     -0.41226907      3.50798453
O       4.03978224     -1.60381888      3.34092229
C       2.05252080     -0.31366901      3.50528755
H      -0.81299486     -2.12467373      3.25725415
H      -2.82690381     -1.72948800      3.38395209
H      -5.19577015     -1.12139337      3.29980576
H      -6.29965106      2.20283419      3.23204732
H      -4.17875477      3.00487321      3.61957951
H      -1.80155392      2.42086660      3.70474456
H       1.76388336      3.04685193      3.91214747
H       5.27666522      2.91826735      3.80271127
H       5.30402449      0.64846589      3.63873656
H       3.25576795     -2.25369046      3.24264220
