90
Apigenin on beta12_supported 0 deg
O      -1.93604151      3.08714724      3.47556459
C      -1.43122228      1.96534912      3.61645454
C      -0.00594895      1.74019012      3.66013079
C       0.51476305      0.49723113      3.80987352
C       1.94918202      0.20157327      3.83622336
C       2.89082512      1.16406906      4.20660429
C       4.23528329      0.86746676      4.21405799
C       4.67646730     -0.40327422      3.84686459
O       6.00731850     -0.64898615      3.86151915
C       3.74425602     -1.37112031      3.48513733
C       2.39798438     -1.07187107      3.48555361
O      -0.25474981     -0.60369233      3.92523062
C      -1.60485995     -0.48757115      3.89661597
C      -2.34512287     -1.65284537      4.02486690
C      -3.73297449     -1.58000983      3.99952735
O      -4.42726021     -2.73267018      4.12878902
C      -4.37686309     -0.35653206      3.84461342
C      -3.64461419      0.81548654      3.71619212
O      -4.27608806      1.97731766      3.56846495
C      -2.23075025      0.75682869      3.74468158
H       0.63449583      2.59763541      3.54393334
H       2.56652302      2.14615745      4.51124230
H       4.96774554      1.60329085      4.50441757
H       6.18307650     -1.55879323      3.59068553
H       4.07884528     -2.36004151      3.20108166
H       1.68136994     -1.82598936      3.20000000
H      -1.85522378     -2.60340640      4.14504093
H      -5.37526753     -2.55174806      4.09826457
H      -5.45497510     -0.29656279      3.82235267
H      -3.57617370      2.68537070      3.49580088
B      -5.85857624      3.38040841      0.00000000
B      -5.85854689      1.69158049     -0.00000000
B      -4.39532834      4.22466855     -0.00000000
B      -4.39711400      2.53475765     -0.00000000
B      -4.39575475      0.84147203     -0.00000000
B      -5.85854686     -1.69158078      0.00000000
B      -5.85857617     -3.38040837     -0.00000000
B      -4.39575479     -0.84147232     -0.00000000
B      -4.39711414     -2.53475765      0.00000000
B      -4.39532857     -4.22466843      0.00000000
B      -2.92793521      3.38324044     -0.00000000
B      -2.92888517      1.68724694     -0.00000000
B      -1.46554580      4.22439782     -0.00000000
B      -1.46605622      2.53507234     -0.00000000
B      -1.46573170      0.84295491     -0.00000000
B      -2.92888518     -1.68724692      0.00000000
B      -2.92793508     -3.38324074      0.00000000
B      -1.46573174     -0.84295512     -0.00000000
B      -1.46605627     -2.53507234      0.00000000
B      -1.46554588     -4.22439779     -0.00000000
B       0.00067086      3.38275146      0.00000000
B       0.00067433      1.68721076      0.00000000
B       1.46420559      4.22439023     -0.00000000
B       1.46473580      2.53506444     -0.00000000
B       1.46438553      0.84295188     -0.00000000
B       0.00067433     -1.68721088      0.00000000
B       0.00067085     -3.38275170      0.00000000
B       1.46438555     -0.84295208     -0.00000000
B       1.46473583     -2.53506442     -0.00000000
B       1.46420568     -4.22439021     -0.00000000
B       2.92927005      3.38326104     -0.00000000
B       2.93022956      1.68726759      0.00000000
B       4.39401124      4.22463050     -0.00000000
B       4.39579743      2.53472819      0.00000000
B       4.39441416      0.84146678     -0.00000000
B       2.93022962     -1.68726763     -0.00000000
B       2.92927005     -3.38326139     -0.00000000
B       4.39441419     -0.84146703     -0.00000000
B       4.39579756     -2.53472819     -0.00000000
B       4.39401144     -4.22463033     -0.00000000
B       5.85997303      3.38040496      0.00000000
B       5.85993260      1.69164307     -0.00000000
B       5.85993251     -1.69164335      0.00000000
B       5.85997297     -3.38040486      0.00000000
H      -6.86866001      3.98474441      0.00000000
H      -6.88164909      1.12316321     -0.00000000
H      -4.39961690      5.40226943     -0.00000000
H      -6.88164986     -1.12316494      0.00000000
H      -6.86866148     -3.98474191     -0.00000000
H      -4.39961557     -5.40226922      0.00000000
H      -1.46579024      5.40011773     -0.00000000
H      -1.46578943     -5.40011766      0.00000000
H       1.46622796      5.40011192     -0.00000000
H       1.46622721     -5.40011186     -0.00000000
H       4.39986570      5.40225046     -0.00000000
H       4.39986407     -5.40225022     -0.00000000
H       6.86878772      3.98676429      0.00000000
H       6.88200886      1.12155941     -0.00000000
H       6.88200989     -1.12156160      0.00000000
H       6.86878944     -3.98676138      0.00000000
