90
 energy: -119.139947314732 gnorm: 0.000860733688 xtb: 6.7.1 (edcfbbe)
O            1.74972479621606       -2.64724989739478        3.16745648181945
C            1.22227602945383       -1.50320565350724        3.33494483354228
C           -0.16466376937432       -1.27305267575865        3.35396980277930
C           -0.70902720820294       -0.00914943692038        3.50292091020468
C           -2.10545898269992        0.30110717455021        3.51259652337333
C           -3.10439160304179       -0.69047123641389        3.42056611299419
C           -4.43657141412929       -0.36108800554178        3.37941572458199
C           -4.83923474529844        0.97313016046723        3.43118926294861
O           -6.17537891177296        1.25445653444405        3.34991641807878
C           -3.87369013886923        1.96821461975924        3.56041920485169
C           -2.53815519934078        1.64104183201033        3.60442710851035
O            0.11017236206225        1.09770092104808        3.63676058140002
C            1.45120135772205        0.93819538884817        3.65696004706898
C            2.22540826655317        2.08178909071006        3.80061515072366
C            3.61265318653908        1.97096078433287        3.79168060913957
O            4.33869281825914        3.12033935052678        3.89596789556226
C            4.22874737110584        0.73761983437882        3.64934241879750
C            3.45599315936793       -0.41226906915254        3.50798452993648
O            4.03978224336041       -1.60381888192016        3.34092228643612
C            2.05252080106123       -0.31366900637167        3.50528754951033
H           -0.81299485980715       -2.12467373446728        3.25725415288414
H           -2.82690381104844       -1.72948799976298        3.38395209261616
H           -5.19577014928140       -1.12139336856812        3.29980576284212
H           -6.29965105768010        2.20283419288568        3.23204731596925
H           -4.17875476721655        3.00487320906234        3.61957950740880
H           -1.80155392095342        2.42086660349763        3.70474456467521
H            1.76388335605836        3.04685193192969        3.91214746634163
H            5.27666522001706        2.91826735391424        3.80271126552083
H            5.30402448684000        0.64846589070192        3.63873655945653
H            3.25576794843447       -2.25369045514159        3.24264220171040
B           -5.89244767468803        2.91562227169149        0.41860644475183
B           -5.82337377117952        1.26413016410787       -0.05545914808273
B           -4.45785211216991        3.82842684627721        0.20789077229412
B           -4.40058614404970        2.14247579180969        0.15430514582702
B           -4.33831562954887        0.45181289389173        0.04302731015614
B           -5.71039991867791       -2.14011457876475        0.06618539358926
B           -5.64438381892352       -3.79730427226355       -0.36051753302157
B           -4.28005650785896       -1.22548372123108       -0.01121990073211
B           -4.22244354075035       -2.92031254028726       -0.06312465694275
B           -4.16204186188392       -4.60823566425924       -0.06888874197349
B           -2.96243381881188        3.03970429270016        0.28868662069691
B           -2.90530653807567        1.33678725384266        0.24710012886093
B           -1.53561811093411        3.91337289684395        0.51393250452895
B           -1.47399360735308        2.23577664796765        0.33100425466508
B           -1.41220337806257        0.55043580840588        0.17185759350668
B           -2.78302860485520       -2.01642957462845       -0.06190715064641
B           -2.72123205308554       -3.71696565202131       -0.13136046354965
B           -1.35250396890641       -1.12880514853996        0.07503634108707
B           -1.29157494989637       -2.81526811144481       -0.07561834406829
B           -1.22758497414596       -4.48491901847898       -0.33949354419439
B           -0.04058725067788        3.12597946340708        0.51003568380886
B            0.02437441597307        1.44623109535774        0.20157609468126
B            1.39099216974473        4.00375103687094        0.67424179371852
B            1.45379072737474        2.33371601473426        0.42438280973359
B            1.51750367648622        0.65741171690003        0.15540070826136
B            0.14392819414405       -1.91694501671385        0.01640064211865
B            0.20404970903565       -3.61482395686154       -0.07801146699740
B            1.57798585692239       -1.01972245157368        0.02070066293592
B            1.63615342175529       -2.71766617363069        0.03334901265174
B            1.69268504395046       -4.40772822325736        0.05421543115293
B            2.88693179914887        3.23987798306771        0.43141699876779
B            2.94825829713966        1.53685102233896        0.38920995835612
B            4.32515534023917        4.12805106510860        0.42645597904453
B            4.38473009912469        2.43937571218596        0.42307385170774
B            4.44259836976957        0.74509740260329        0.35594066752480
B            3.06941370206110       -1.81934088133437        0.12246653557390
B            3.12946041664615       -3.51385912837798       -0.03193792793606
B            4.50274808782135       -0.92763443208005        0.23376471490747
B            4.56650892658242       -2.61389435787572        0.06149172205592
B            4.62751431742205       -4.28427182447027       -0.19358972616108
B            5.80801810557953        3.31320781356135        0.73376740479494
B            5.87606041135896        1.66107108041984        0.29216308553987
B            5.99760171508077       -1.71936769210521        0.04104046180466
B            6.05083971197584       -3.41860606351044        0.22523477769405
H           -6.87369947457564        3.40675298592174        0.83545334374265
H           -6.76141919134937        0.78014505161297       -0.56076812858239
H           -4.53681662252328        4.96750450562102       -0.06836405732744
H           -6.68669373752258       -1.69364834586438        0.52793668283603
H           -6.55286675961879       -4.37331214248477       -0.82435523649255
H           -4.17544263420651       -5.74618734506030        0.21588407398946
H           -1.58110308816662        5.07977769004031        0.64132688172597
H           -1.18288054452582       -5.62074922026632       -0.63126870077645
H            1.36112911111474        5.12976880977660        1.00140715828002
H            1.73825058113911       -5.57288142310158        0.17271065216185
H            4.35023271897475        5.26499591783718        0.13983210688948
H            4.72634957327173       -5.35746174371766       -0.65604321863416
H            6.71488746445138        3.88539562896490        1.20851918776087
H            6.86713475062462        1.22934531899708       -0.15263852198815
H            6.94293333164644       -1.15239604077484       -0.34515766143989
H            7.00535738612000       -3.99201285045896        0.58551333368689
