      -----------------------------------------------------------      
     |                   =====================                   |     
     |                           x T B                           |     
     |                   =====================                   |     
     |                         S. Grimme                         |     
     |          Mulliken Center for Theoretical Chemistry        |     
     |                    University of Bonn                     |     
      -----------------------------------------------------------      

   * xtb version 6.7.1pre (5071a88) compiled by 'Marcel@Raven' on 2024-07-23

   xtb is free software: you can redistribute it and/or modify it under
   the terms of the GNU Lesser General Public License as published by
   the Free Software Foundation, either version 3 of the License, or
   (at your option) any later version.
   
   xtb is distributed in the hope that it will be useful,
   but WITHOUT ANY WARRANTY; without even the implied warranty of
   MERCHANTABILITY or FITNESS FOR A PARTICULAR PURPOSE.  See the
   GNU Lesser General Public License for more details.
   
   Cite this work as:
   * C. Bannwarth, E. Caldeweyher, S. Ehlert, A. Hansen, P. Pracht,
     J. Seibert, S. Spicher, S. Grimme, WIREs Comput. Mol. Sci., 2020, 11,
     e01493. DOI: 10.1002/wcms.1493
   
   for GFN2-xTB:
   * C. Bannwarth, S. Ehlert and S. Grimme., J. Chem. Theory Comput., 2019,
     15, 1652-1671. DOI: 10.1021/acs.jctc.8b01176
   for GFN1-xTB:
   * S. Grimme, C. Bannwarth, P. Shushkov, J. Chem. Theory Comput., 2017,
     13, 1989-2009. DOI: 10.1021/acs.jctc.7b00118
   for GFN0-xTB:
   * P. Pracht, E. Caldeweyher, S. Ehlert, S. Grimme, ChemRxiv, 2019, preprint.
     DOI: 10.26434/chemrxiv.8326202.v1
   for GFN-FF:
   * S. Spicher and S. Grimme, Angew. Chem. Int. Ed., 2020, 59, 15665-15673.
     DOI: 10.1002/anie.202004239
   
   for ALPB and GBSA implicit solvation:
   * S. Ehlert, M. Stahn, S. Spicher, S. Grimme, J. Chem. Theory Comput.,
     2021, 17, 4250-4261. DOI: 10.1021/acs.jctc.1c00471
   
   for ddCOSMO and CPCM-X implicit solvation:
   * M. Stahn, S. Ehlert, S. Grimme, J. Phys. Chem. A,
     2023, XX, XXXX-XXXX. DOI: 10.1021/acs.jpca.3c04382
   
   for DFT-D4:
   * E. Caldeweyher, C. Bannwarth and S. Grimme, J. Chem. Phys., 2017,
     147, 034112. DOI: 10.1063/1.4993215
   * E. Caldeweyher, S. Ehlert, A. Hansen, H. Neugebauer, S. Spicher,
     C. Bannwarth and S. Grimme, J. Chem. Phys., 2019, 150, 154122.
     DOI: 10.1063/1.5090222
   * E. Caldeweyher, J.-M. Mewes, S. Ehlert and S. Grimme, Phys. Chem. Chem. Phys.
     2020, 22, 8499-8512. DOI: 10.1039/D0CP00502A
   
   for sTDA-xTB:
   * S. Grimme and C. Bannwarth, J. Chem. Phys., 2016, 145, 054103.
     DOI: 10.1063/1.4959605
   
   in the mass-spec context:
   * V. Asgeirsson, C. Bauer and S. Grimme, Chem. Sci., 2017, 8, 4879.
     DOI: 10.1039/c7sc00601b
   * J. Koopman and S. Grimme, ACS Omega 2019, 4, 12, 15120-15133.
     DOI: 10.1021/acsomega.9b02011
   
   for metadynamics refer to:
   * S. Grimme, J. Chem. Theory Comput., 2019, 155, 2847-2862
     DOI: 10.1021/acs.jctc.9b00143
   
   for SPH calculations refer to:
   * S. Spicher and S. Grimme, J. Chem. Theory Comput., 2021, 17, 1701-1714
     DOI: 10.1021/acs.jctc.0c01306
   
   for ONIOM refer to:
   * C. Plett, A. Katbashev, S. Ehlert, S. Grimme, M. Bursch,
     Phys. Chem. Chem. Phys., 2023, 25, 17860-17868. DOI: 10.1039/D3CP02178E
   
   for DIPRO refer to:
   * J. Kohn, N. Gildemeister, S. Grimme, D. Fazzi, A. Hansen,
     J. Chem. Phys., 2023, just accepted.
   
   for PTB refer to:
   * S. Grimme, M. Mueller, A. Hansen, J. Chem. Phys., 2023, 158, 124111.
     DOI: 10.1063/5.0137838
   
   with help from (in alphabetical order)
   P. Atkinson, C. Bannwarth, F. Bohle, G. Brandenburg, E. Caldeweyher
   M. Checinski, S. Dohm, S. Ehlert, S. Ehrlich, I. Gerasimov, C. Hölzer
   A. Katbashev, J. Kohn, J. Koopman, C. Lavigne, S. Lehtola, F. März, M. Müller,
   F. Musil, H. Neugebauer, J. Pisarek, C. Plett, P. Pracht, F. Pultar,
   J. Seibert, P. Shushkov, S. Spicher, M. Stahn, M. Steiner, T. Strunk,
   J. Stückrath, T. Rose, and J. Unsleber
   
 * started run on 2026/09/01 at 20:37:41.028     
   ID    Z sym.   atoms
    1    8 O      1, 11, 15, 17, 19
    2    6 C      2-10, 12-14, 16, 18, 20
    3    1 H      21-30, 71-85
    4    5 B      31-70

           -------------------------------------------------
          |                Calculation Setup                |
           -------------------------------------------------

          program call               : "c:\Users\Andre\Proyectos doctorado\nano-qsar-ai-papers\kras-pancreatic-gC3N4-ai\tools\xtb\xtb-6.7.1\bin\xtb.exe" "c:\Users\Andre\Proyectos doctorado\borophene-alzheimer-tau-ai\calculations\tau\Baicalein\Baicalein_opt_0deg_input.xyz" --opt vloose --gfn 2 --chrg 0 --uhf 0 --iterations 500 --cycles 100 --norestart
          coordinate file            : c:\Users\Andre\Proyectos doctorado\borophene-alzheimer-tau-ai\calculations\tau\Baicalein\Baicalein_opt_0deg_input.xyz
          omp threads                :                    16


molecular fragmentation (1/2 indicates fragments):
111111111111111111111111111111222222222222222222222222222222222222222222
2222222222222
# atoms in fragment 1/2:    30    55
 fragment masses (1/2) :      270.24      447.56
CMA distance (Bohr)    :  17.018
constraining FC (au)   :  0.0500

           -------------------------------------------------
          |                 G F N 2 - x T B                 |
           -------------------------------------------------

        Reference                      10.1021/acs.jctc.8b01176
      * Hamiltonian:
        H0-scaling (s, p, d)           1.850000    2.230000    2.230000
        zeta-weighting                 0.500000
      * Dispersion:
        s8                             2.700000
        a1                             0.520000
        a2                             5.000000
        s9                             5.000000
      * Repulsion:
        kExp                           1.500000    1.000000
        rExp                           1.000000
      * Coulomb:
        alpha                          2.000000
        third order                    shell-resolved
        anisotropic                    true
        a3                             3.000000
        a5                             4.000000
        cn-shift                       1.200000
        cn-exp                         4.000000
        max-rad                        5.000000


          ...................................................
          :                      SETUP                      :
          :.................................................:
          :  # basis functions                 265          :
          :  # atomic orbitals                 265          :
          :  # shells                          145          :
          :  # electrons                       235          :
          :  max. iterations                   500          :
          :  Hamiltonian                  GFN2-xTB          :
          :  restarted?                      false          :
          :  GBSA solvation                  false          :
          :  PC potential                    false          :
          :  electronic temp.          300.0000000     K    :
          :  accuracy                    1.0000000          :
          :  -> integral cutoff          0.2500000E+02      :
          :  -> integral neglect         0.1000000E-07      :
          :  -> SCF convergence          0.1000000E-05 Eh   :
          :  -> wf. convergence          0.1000000E-03 e    :
          :  Broyden damping             0.4000000          :
          :  net charge                          0          :
          :  unpaired electrons                  0          :
          ...................................................

 iter      E             dE          RMSdq      gap      omega  full diag
   1   -114.5101714 -0.114510E+03  0.140E+01    0.09       0.0  T
   2   -113.1997488  0.131042E+01  0.927E+00    0.37       1.0  T
   3    -57.4651012  0.557346E+02  0.141E+01    0.23       1.0  T
   4    -56.0771742  0.138793E+01  0.121E+01    0.14       1.0  T
   5   -100.9933582 -0.449162E+02  0.654E+00    0.09       1.0  T
   6   -111.5092670 -0.105159E+02  0.419E+00    0.03       1.0  T
   7   -111.7781378 -0.268871E+00  0.371E+00    0.15       1.0  T
   8   -114.9860696 -0.320793E+01  0.209E+00    0.15       1.0  T
   9   -115.1789163 -0.192847E+00  0.173E+00    0.53       1.0  T
  10   -115.2237283 -0.448121E-01  0.153E+00    0.39       1.0  T
  11   -115.2072211  0.165073E-01  0.131E+00    0.41       1.0  T
  12   -115.2295577 -0.223367E-01  0.796E-01    0.21       1.0  T
  13   -115.2234406  0.611711E-02  0.822E-01    0.08       1.0  T
  14   -115.2751165 -0.516759E-01  0.499E-01    0.11       1.0  T
  15   -115.1910535  0.840630E-01  0.883E-01    0.17       1.0  T
  16   -115.2445034 -0.534499E-01  0.677E-01    0.05       1.0  T
  17   -115.2848762 -0.403728E-01  0.373E-01    0.05       1.0  T
  18   -115.2880119 -0.313565E-02  0.278E-01    0.09       1.0  T
  19   -115.2880821 -0.702715E-04  0.262E-01    0.05       1.0  T
  20   -115.2763936  0.116885E-01  0.338E-01    0.00       1.0  T
  21   -115.2765634 -0.169776E-03  0.318E-01    0.00       1.0  T
  22   -115.2727533  0.381011E-02  0.321E-01    0.01       1.0  T
  23   -115.2867152 -0.139619E-01  0.169E-01    0.03       1.0  T
  24   -115.2896984 -0.298326E-02  0.933E-02    0.05       1.0  T
  25   -115.2899471 -0.248711E-03  0.722E-02    0.05       1.0  T
  26   -115.2898759  0.711680E-04  0.570E-02    0.05       1.0  T
  27   -115.2899948 -0.118870E-03  0.373E-02    0.05       1.0  T
  28   -115.2902249 -0.230051E-03  0.205E-02    0.06       1.0  T
  29   -115.2902911 -0.662615E-04  0.117E-02    0.06       1.0  T
  30   -115.2903135 -0.223699E-04  0.566E-03    0.06       1.9  T
  31   -115.2903180 -0.446845E-05  0.296E-03    0.07       3.7  T
  32   -115.2903186 -0.597075E-06  0.261E-03    0.07       4.2  T
  33   -115.2903194 -0.804505E-06  0.984E-04    0.07      11.0  T
  34   -115.2903194 -0.302660E-07  0.533E-04    0.07      20.3  T

   *** convergence criteria satisfied after 34 iterations ***

         #    Occupation            Energy/Eh            Energy/eV
      -------------------------------------------------------------
         1        2.0000           -0.7276554             -19.8005
       ...           ...                  ...                  ...
       112        2.0000           -0.3017132              -8.2100
       113        2.0000           -0.2956203              -8.0442
       114        2.0000           -0.2926676              -7.9639
       115        2.0000           -0.2893940              -7.8748
       116        2.0000           -0.2844081              -7.7391
       117        1.9992           -0.2812384              -7.6529
       118        0.7836           -0.2677654              -7.2863 (HOMO)
       119        0.2172           -0.2653290              -7.2200 (LUMO)
       120        0.0000           -0.2521701              -6.8619
       121                         -0.2346251              -6.3845
       122                         -0.2344039              -6.3785
       123                         -0.2277532              -6.1975
       ...                                ...                  ...
       265                          1.0614599              28.8838
      -------------------------------------------------------------
                  HL-Gap            0.0024364 Eh            0.0663 eV
             Fermi-level           -0.2705338 Eh           -7.3616 eV

 SCC (total)                   0 d,  0 h,  0 min,  0.398 sec
 SCC setup                      ...        0 min,  0.001 sec (  0.251%)
 Dispersion                     ...        0 min,  0.001 sec (  0.251%)
 classical contributions        ...        0 min,  0.000 sec (  0.000%)
 integral evaluation            ...        0 min,  0.005 sec (  1.256%)
 iterations                     ...        0 min,  0.373 sec ( 93.719%)
 molecular gradient             ...        0 min,  0.015 sec (  3.769%)
 printout                       ...        0 min,  0.003 sec (  0.754%)

         :::::::::::::::::::::::::::::::::::::::::::::::::::::
         ::                     SUMMARY                     ::
         :::::::::::::::::::::::::::::::::::::::::::::::::::::
         :: total energy            -113.753057048762 Eh    ::
         :: gradient norm              0.069658023397 Eh/a0 ::
         :: HOMO-LUMO gap              0.066296784373 eV    ::
         ::.................................................::
         :: SCC energy              -115.288755375903 Eh    ::
         :: -> isotropic ES            0.302946570029 Eh    ::
         :: -> anisotropic ES          0.006847668325 Eh    ::
         :: -> anisotropic XC         -0.008252662487 Eh    ::
         :: -> dispersion             -0.104490802564 Eh    ::
         :: repulsion energy           1.535698327141 Eh    ::
         :: add. restraining           0.000000000000 Eh    ::
         :: total charge              -0.000000000000 e     ::
         :::::::::::::::::::::::::::::::::::::::::::::::::::::

      ----------------------------------------------------------- 
     |                   =====================                   |
     |                        A N C O P T                        |
     |                   =====================                   |
     |               Approximate Normal Coordinate               |
     |                Rational Function Optimizer                |
      ----------------------------------------------------------- 
      ----------------------------------------------------------- 
     |                   =====================                   |
     |                        A N C O P T                        |
     |                   =====================                   |
     |               Approximate Normal Coordinate               |
     |                Rational Function Optimizer                |
      ----------------------------------------------------------- 

          ...................................................
          :                      SETUP                      :
          :.................................................:
          :   optimization level            normal          :
          :   max. optcycles                   100          :
          :   ANC micro-cycles                  20          :
          :   degrees of freedom               249          :
          :.................................................:
          :   RF solver                   davidson          :
          :   write xtbopt.log                true          :
          :   linear?                        false          :
          :   energy convergence         0.5000000E-05 Eh   :
          :   grad. convergence          0.1000000E-02 Eh/α :
          :   maxmium RF displ.          1.0000000          :
          :   Hlow (freq-cutoff)         0.1000000E-01      :
          :   Hmax (freq-cutoff)         5.0000000          :
          :   S6 in model hess.         20.0000000          :
          ...................................................

generating ANC from exact Hessian ...
Using Lindh-Hessian (1995)
 Shifting diagonal of input Hessian by   1.030422187087411E-002
 Lowest  eigenvalues of input Hessian
    0.010000    0.010101    0.010116    0.010123    0.010268    0.000000
    0.000000    0.000000    0.000000    0.000000    0.000000    0.010346
    0.010357    0.010369    0.010487    0.010726    0.010822    0.011043
 Highest eigenvalues
    1.922111    1.978859    1.992703    2.093897    2.178891    2.256484
 

........................................................................
.............................. CYCLE    1 ..............................
........................................................................

 iter      E             dE          RMSdq      gap      omega  full diag
   1   -115.2903194 -0.115290E+03  0.462E-04    0.07       0.0  T
   2   -115.2903175  0.185988E-05  0.271E-03    0.07       4.0  T
   3   -115.2903194 -0.182763E-05  0.638E-04    0.07      17.0  T
   4   -115.2903194 -0.578386E-07  0.306E-04    0.07      35.4  T
   5   -115.2903194  0.886862E-08  0.329E-04    0.07      33.0  T
     SCC iter.                  ...        0 min,  0.057 sec
     gradient                   ...        0 min,  0.016 sec
 * total energy  :  -113.7530571 Eh     change       -0.2043072E-07 Eh
   gradient norm :     0.0696277 Eh/α   predicted     0.0000000E+00 (-100.00%)
   displ. norm   :     0.2206489 α      lambda       -0.7267911E-02
   maximum displ.:     0.1036765 α      in ANC's #45, #108, #127, ...

........................................................................
.............................. CYCLE    2 ..............................
........................................................................

 iter      E             dE          RMSdq      gap      omega  full diag
   1   -115.3061188 -0.115306E+03  0.224E-01    0.01       0.0  T
   2   -115.2902324  0.158864E-01  0.331E-01    0.49       1.0  T
   3   -115.3049699 -0.147376E-01  0.218E-01    0.23       1.0  T
   4   -115.3095438 -0.457384E-02  0.140E-01    0.13       1.0  T
   5   -115.2999108  0.963294E-02  0.250E-01    0.01       1.0  T
   6   -115.3136065 -0.136957E-01  0.497E-02    0.08       1.0  T
   7   -115.3136584 -0.519455E-04  0.429E-02    0.08       1.0  T
   8   -115.3139980 -0.339565E-03  0.109E-02    0.07       1.0  T
   9   -115.3139952  0.277032E-05  0.113E-02    0.07       1.0  T
  10   -115.3140007 -0.546032E-05  0.957E-03    0.07       1.1  T
  11   -115.3140211 -0.204323E-04  0.182E-03    0.06       6.0  T
  12   -115.3140211  0.160580E-07  0.166E-03    0.06       6.5  T
  13   -115.3140214 -0.298500E-06  0.114E-03    0.06       9.5  T
  14   -115.3140214  0.427508E-07  0.119E-03    0.06       9.1  T
  15   -115.3140217 -0.322088E-06  0.265E-04    0.06      41.0  T
  16   -115.3140217 -0.112293E-07  0.925E-05    0.06     117.2  T
     SCC iter.                  ...        0 min,  0.204 sec
     gradient                   ...        0 min,  0.017 sec
 * total energy  :  -113.7581167 Eh     change       -0.5059676E-02 Eh
   gradient norm :     0.0318418 Eh/α   predicted    -0.3812371E-02 ( -24.65%)
   displ. norm   :     0.2359997 α      lambda       -0.2632304E-02
   maximum displ.:     0.1265512 α      in ANC's #45, #14, #27, ...

........................................................................
.............................. CYCLE    3 ..............................
........................................................................

 iter      E             dE          RMSdq      gap      omega  full diag
   1   -115.3231252 -0.115323E+03  0.174E-01    0.02       0.0  T
   2   -115.3092558  0.138694E-01  0.279E-01    0.46       1.0  T
   3   -115.3228002 -0.135443E-01  0.148E-01    0.12       1.0  T
   4   -115.3267146 -0.391438E-02  0.636E-02    0.06       1.0  T
   5   -115.3191423  0.757221E-02  0.185E-01    0.01       1.0  T
   6   -115.3258442 -0.670184E-02  0.755E-02    0.09       1.0  T
   7   -115.3268147 -0.970552E-03  0.361E-02    0.07       1.0  T
   8   -115.3270814 -0.266627E-03  0.849E-03    0.06       1.3  T
   9   -115.3270924 -0.110461E-04  0.389E-03    0.06       2.8  T
  10   -115.3270811  0.113018E-04  0.769E-03    0.06       1.4  T
  11   -115.3270940 -0.128772E-04  0.193E-03    0.06       5.6  T
  12   -115.3270944 -0.462787E-06  0.110E-03    0.06       9.9  T
  13   -115.3270946 -0.145839E-06  0.724E-04    0.06      15.0  T
  14   -115.3270946 -0.381266E-07  0.561E-04    0.06      19.3  T
     SCC iter.                  ...        0 min,  0.263 sec
     gradient                   ...        0 min,  0.023 sec
 * total energy  :  -113.7596462 Eh     change       -0.1529489E-02 Eh
   gradient norm :     0.0091971 Eh/α   predicted    -0.1389848E-02 (  -9.13%)
   displ. norm   :     0.2009714 α      lambda       -0.6754589E-03
   maximum displ.:     0.0978857 α      in ANC's #14, #45, #27, ...

........................................................................
.............................. CYCLE    4 ..............................
........................................................................

 iter      E             dE          RMSdq      gap      omega  full diag
   1   -115.3255943 -0.115326E+03  0.173E-01    0.03       0.0  T
   2   -115.3126986  0.128958E-01  0.266E-01    0.41       1.0  T
   3   -115.3260667 -0.133681E-01  0.108E-01    0.06       1.0  T
   4   -115.3252992  0.767479E-03  0.120E-01    0.04       1.0  T
   5   -115.3254522 -0.152994E-03  0.105E-01    0.03       1.0  T
   6   -115.3273054 -0.185325E-02  0.525E-02    0.08       1.0  T
   7   -115.3278921 -0.586684E-03  0.109E-02    0.06       1.0  T
   8   -115.3279028 -0.107373E-04  0.599E-03    0.06       1.8  T
   9   -115.3279026  0.212179E-06  0.543E-03    0.06       2.0  T
  10   -115.3279076 -0.494783E-05  0.297E-03    0.06       3.7  T
  11   -115.3279092 -0.160944E-05  0.118E-03    0.06       9.2  T
  12   -115.3279091  0.742484E-07  0.126E-03    0.06       8.6  T
  13   -115.3279094 -0.300500E-06  0.472E-04    0.06      23.0  T
  14   -115.3279095 -0.430444E-07  0.181E-04    0.06      59.9  T
     SCC iter.                  ...        0 min,  0.164 sec
     gradient                   ...        0 min,  0.016 sec
 * total energy  :  -113.7598896 Eh     change       -0.2433908E-03 Eh
   gradient norm :     0.0094310 Eh/α   predicted    -0.3513814E-03 (  44.37%)
   displ. norm   :     0.2301987 α      lambda       -0.7188513E-03
   maximum displ.:     0.1386949 α      in ANC's #14, #27, #5, ...

........................................................................
.............................. CYCLE    5 ..............................
........................................................................

 iter      E             dE          RMSdq      gap      omega  full diag
   1   -115.3235178 -0.115324E+03  0.164E-01    0.02       0.0  T
   2   -115.3093199  0.141979E-01  0.277E-01    0.43       1.0  T
   3   -115.3240784 -0.147585E-01  0.116E-01    0.09       1.0  T
   4   -115.3239423  0.136057E-03  0.115E-01    0.03       1.0  T
   5   -115.3218022  0.214015E-02  0.135E-01    0.02       1.0  T
   6   -115.3256425 -0.384029E-02  0.448E-02    0.07       1.0  T
   7   -115.3259801 -0.337625E-03  0.210E-02    0.06       1.0  T
   8   -115.3260601 -0.800070E-04  0.700E-03    0.05       1.5  T
   9   -115.3260691 -0.903334E-05  0.321E-03    0.06       3.4  T
  10   -115.3260676  0.151115E-05  0.375E-03    0.06       2.9  T
  11   -115.3260701 -0.249080E-05  0.184E-03    0.06       5.9  T
  12   -115.3260708 -0.735736E-06  0.510E-04    0.06      21.3  T
  13   -115.3260709 -0.198908E-07  0.361E-04    0.06      30.0  T
     SCC iter.                  ...        0 min,  0.159 sec
     gradient                   ...        0 min,  0.016 sec
 * total energy  :  -113.7602848 Eh     change       -0.3952024E-03 Eh
   gradient norm :     0.0094025 Eh/α   predicted    -0.3784698E-03 (  -4.23%)
   displ. norm   :     0.1625857 α      lambda       -0.3094776E-03
   maximum displ.:     0.1199472 α      in ANC's #14, #27, #5, ...

........................................................................
.............................. CYCLE    6 ..............................
........................................................................

 iter      E             dE          RMSdq      gap      omega  full diag
   1   -115.3231245 -0.115323E+03  0.841E-02    0.04       0.0  T
   2   -115.3122229  0.109016E-01  0.222E-01    0.24       1.0  T
   3   -115.3234973 -0.112744E-01  0.475E-02    0.05       1.0  T
   4   -115.3226996  0.797725E-03  0.677E-02    0.06       1.0  T
   5   -115.3234130 -0.713382E-03  0.418E-02    0.04       1.0  T
   6   -115.3237649 -0.351919E-03  0.104E-02    0.05       1.0  T
   7   -115.3237791 -0.142463E-04  0.543E-03    0.06       2.0  T
   8   -115.3237820 -0.283957E-05  0.334E-03    0.06       3.2  T
   9   -115.3237840 -0.202320E-05  0.139E-03    0.06       7.8  T
  10   -115.3237842 -0.217835E-06  0.833E-04    0.06      13.0  T
  11   -115.3237843 -0.514204E-07  0.614E-04    0.06      17.7  T
     SCC iter.                  ...        0 min,  0.131 sec
     gradient                   ...        0 min,  0.013 sec
 * total energy  :  -113.7604995 Eh     change       -0.2146841E-03 Eh
   gradient norm :     0.0051622 Eh/α   predicted    -0.1588305E-03 ( -26.02%)
   displ. norm   :     0.2311290 α      lambda       -0.3096062E-03
   maximum displ.:     0.1670223 α      in ANC's #14, #5, #27, ...

........................................................................
.............................. CYCLE    7 ..............................
........................................................................

 iter      E             dE          RMSdq      gap      omega  full diag
   1   -115.3209781 -0.115321E+03  0.102E-01    0.03       0.0  T
   2   -115.3087605  0.122175E-01  0.241E-01    0.29       1.0  T
   3   -115.3216178 -0.128572E-01  0.550E-02    0.06       1.0  T
   4   -115.3209045  0.713279E-03  0.733E-02    0.05       1.0  T
   5   -115.3206963  0.208237E-03  0.762E-02    0.03       1.0  T
   6   -115.3219791 -0.128281E-02  0.136E-02    0.06       1.0  T
   7   -115.3219977 -0.185978E-04  0.802E-03    0.06       1.4  T
   8   -115.3220061 -0.841123E-05  0.400E-03    0.06       2.7  T
   9   -115.3220088 -0.268777E-05  0.179E-03    0.05       6.1  T
  10   -115.3220092 -0.403420E-06  0.104E-03    0.05      10.4  T
  11   -115.3220093 -0.123639E-06  0.716E-04    0.05      15.1  T
  12   -115.3220094 -0.763552E-07  0.349E-04    0.05      31.1  T
     SCC iter.                  ...        0 min,  0.130 sec
     gradient                   ...        0 min,  0.014 sec
 * total energy  :  -113.7607240 Eh     change       -0.2245160E-03 Eh
   gradient norm :     0.0056752 Eh/α   predicted    -0.1630733E-03 ( -27.37%)
   displ. norm   :     0.2675034 α      lambda       -0.2621427E-03
   maximum displ.:     0.1924311 α      in ANC's #14, #5, #27, ...

........................................................................
.............................. CYCLE    8 ..............................
........................................................................

 iter      E             dE          RMSdq      gap      omega  full diag
   1   -115.3209446 -0.115321E+03  0.113E-01    0.03       0.0  T
   2   -115.3080924  0.128522E-01  0.247E-01    0.30       1.0  T
   3   -115.3215106 -0.134181E-01  0.638E-02    0.05       1.0  T
   4   -115.3207416  0.768946E-03  0.808E-02    0.05       1.0  T
   5   -115.3208292 -0.875504E-04  0.758E-02    0.03       1.0  T
   6   -115.3220737 -0.124455E-02  0.167E-02    0.06       1.0  T
   7   -115.3221129 -0.391547E-04  0.804E-03    0.06       1.3  T
   8   -115.3221213 -0.837451E-05  0.380E-03    0.05       2.9  T
   9   -115.3221225 -0.124034E-05  0.278E-03    0.05       3.9  T
  10   -115.3221240 -0.150488E-05  0.107E-03    0.05      10.1  T
  11   -115.3221241 -0.115826E-06  0.763E-04    0.05      14.2  T
  12   -115.3221242 -0.103929E-06  0.318E-04    0.05      34.1  T
     SCC iter.                  ...        0 min,  0.129 sec
     gradient                   ...        0 min,  0.012 sec
 * total energy  :  -113.7609477 Eh     change       -0.2236550E-03 Eh
   gradient norm :     0.0070348 Eh/α   predicted    -0.1404535E-03 ( -37.20%)
   displ. norm   :     0.3441901 α      lambda       -0.3246331E-03
   maximum displ.:     0.2467257 α      in ANC's #14, #5, #10, ...

........................................................................
.............................. CYCLE    9 ..............................
........................................................................

 iter      E             dE          RMSdq      gap      omega  full diag
   1   -115.3221546 -0.115322E+03  0.128E-01    0.03       0.0  T
   2   -115.3093240  0.128306E-01  0.248E-01    0.29       1.0  T
   3   -115.3199580 -0.106340E-01  0.123E-01    0.02       1.0  T
   4   -115.3167910  0.316701E-02  0.151E-01    0.10       1.0  T
   5   -115.3227935 -0.600255E-02  0.456E-02    0.06       1.0  T
   6   -115.3231739 -0.380361E-03  0.151E-02    0.05       1.0  T
   7   -115.3232053 -0.313803E-04  0.650E-03    0.05       1.7  T
   8   -115.3232061 -0.775066E-06  0.565E-03    0.05       1.9  T
   9   -115.3232118 -0.573641E-05  0.262E-03    0.05       4.1  T
  10   -115.3232126 -0.820713E-06  0.172E-03    0.05       6.3  T
  11   -115.3232132 -0.544001E-06  0.756E-04    0.05      14.3  T
  12   -115.3232132 -0.661121E-07  0.425E-04    0.05      25.5  T
     SCC iter.                  ...        0 min,  0.124 sec
     gradient                   ...        0 min,  0.014 sec
 * total energy  :  -113.7612256 Eh     change       -0.2779413E-03 Eh
   gradient norm :     0.0060993 Eh/α   predicted    -0.1815468E-03 ( -34.68%)
   displ. norm   :     0.4080999 α      lambda       -0.3362494E-03
   maximum displ.:     0.2955179 α      in ANC's #14, #5, #10, ...

........................................................................
.............................. CYCLE   10 ..............................
........................................................................

 iter      E             dE          RMSdq      gap      omega  full diag
   1   -115.3231806 -0.115323E+03  0.141E-01    0.03       0.0  T
   2   -115.3107398  0.124408E-01  0.244E-01    0.26       1.0  T
   3   -115.3119507 -0.121084E-02  0.226E-01    0.01       1.0  T
   4   -115.3121649 -0.214286E-03  0.210E-01    0.17       1.0  T
   5   -115.3181396 -0.597463E-02  0.157E-01    0.13       1.0  T
   6   -115.3211286 -0.298904E-02  0.108E-01    0.09       1.0  T
   7   -115.3236474 -0.251881E-02  0.388E-02    0.06       1.0  T
   8   -115.3235879  0.595464E-04  0.424E-02    0.07       1.0  T
   9   -115.3239763 -0.388439E-03  0.131E-02    0.05       1.0  T
  10   -115.3239916 -0.153195E-04  0.100E-02    0.05       1.1  T
  11   -115.3240148 -0.231517E-04  0.190E-03    0.05       5.7  T
  12   -115.3240152 -0.451621E-06  0.105E-03    0.05      10.3  T
  13   -115.3240150  0.291665E-06  0.150E-03    0.05       7.3  T
  14   -115.3240154 -0.469342E-06  0.539E-04    0.05      20.1  T
  15   -115.3240155 -0.572127E-07  0.223E-04    0.05      48.7  T
     SCC iter.                  ...        0 min,  0.192 sec
     gradient                   ...        0 min,  0.015 sec
 * total energy  :  -113.7615067 Eh     change       -0.2810392E-03 Eh
   gradient norm :     0.0047247 Eh/α   predicted    -0.1961299E-03 ( -30.21%)
   displ. norm   :     0.4241615 α      lambda       -0.3040319E-03
   maximum displ.:     0.3084165 α      in ANC's #14, #5, #10, ...

........................................................................
.............................. CYCLE   11 ..............................
........................................................................

 iter      E             dE          RMSdq      gap      omega  full diag
   1   -115.3239456 -0.115324E+03  0.136E-01    0.03       0.0  T
   2   -115.3125826  0.113630E-01  0.231E-01    0.22       1.0  T
   3   -115.3050150  0.756758E-02  0.285E-01    0.03       1.0  T
   4   -115.3138667 -0.885163E-02  0.201E-01    0.17       1.0  T
   5   -115.3185078 -0.464114E-02  0.159E-01    0.13       1.0  T
   6   -115.3203125 -0.180471E-02  0.131E-01    0.11       1.0  T
   7   -115.3226442 -0.233166E-02  0.872E-02    0.08       1.0  T
   8   -115.3241620 -0.151783E-02  0.365E-02    0.06       1.0  T
   9   -115.3244139 -0.251874E-03  0.170E-02    0.06       1.0  T
  10   -115.3244794 -0.654936E-04  0.271E-03    0.05       4.0  T
  11   -115.3244799 -0.569597E-06  0.215E-03    0.05       5.0  T
  12   -115.3244789  0.104099E-05  0.298E-03    0.05       3.6  T
  13   -115.3244809 -0.196820E-05  0.768E-04    0.05      14.1  T
  14   -115.3244810 -0.107337E-06  0.287E-04    0.05      37.7  T
  15   -115.3244810 -0.151678E-07  0.890E-05    0.05     121.9  T
     SCC iter.                  ...        0 min,  0.163 sec
     gradient                   ...        0 min,  0.014 sec
 * total energy  :  -113.7617532 Eh     change       -0.2465450E-03 Eh
   gradient norm :     0.0043478 Eh/α   predicted    -0.1793703E-03 ( -27.25%)
   displ. norm   :     0.4391022 α      lambda       -0.2753368E-03
   maximum displ.:     0.3194929 α      in ANC's #14, #5, #10, ...

........................................................................
.............................. CYCLE   12 ..............................
........................................................................

 iter      E             dE          RMSdq      gap      omega  full diag
   1   -115.3246333 -0.115325E+03  0.136E-01    0.04       0.0  T
   2   -115.3142146  0.104186E-01  0.221E-01    0.19       1.0  T
   3   -115.2985874  0.156272E-01  0.330E-01    0.04       1.0  T
   4   -115.3157390 -0.171516E-01  0.191E-01    0.15       1.0  T
   5   -115.3193893 -0.365025E-02  0.152E-01    0.12       1.0  T
   6   -115.3213468 -0.195749E-02  0.122E-01    0.10       1.0  T
   7   -115.3233707 -0.202395E-02  0.812E-02    0.08       1.0  T
   8   -115.3247656 -0.139489E-02  0.324E-02    0.06       1.0  T
   9   -115.3249624 -0.196839E-03  0.144E-02    0.05       1.0  T
  10   -115.3250093 -0.468593E-04  0.383E-03    0.05       2.8  T
  11   -115.3250124 -0.306780E-05  0.122E-03    0.05       8.9  T
  12   -115.3250125 -0.161605E-06  0.734E-04    0.05      14.8  T
  13   -115.3250126 -0.448270E-07  0.504E-04    0.05      21.5  T
     SCC iter.                  ...        0 min,  0.136 sec
     gradient                   ...        0 min,  0.014 sec
 * total energy  :  -113.7619749 Eh     change       -0.2216598E-03 Eh
   gradient norm :     0.0045676 Eh/α   predicted    -0.1642127E-03 ( -25.92%)
   displ. norm   :     0.4660061 α      lambda       -0.2401766E-03
   maximum displ.:     0.3400855 α      in ANC's #14, #5, #10, ...

........................................................................
.............................. CYCLE   13 ..............................
........................................................................

 iter      E             dE          RMSdq      gap      omega  full diag
   1   -115.3247120 -0.115325E+03  0.139E-01    0.03       0.0  T
   2   -115.3128411  0.118708E-01  0.236E-01    0.22       1.0  T
   3   -115.3052911  0.755000E-02  0.288E-01    0.03       1.0  T
   4   -115.3145688 -0.927766E-02  0.206E-01    0.16       1.0  T
   5   -115.3186544 -0.408558E-02  0.164E-01    0.13       1.0  T
   6   -115.3210036 -0.234927E-02  0.131E-01    0.11       1.0  T
   7   -115.3231224 -0.211873E-02  0.920E-02    0.08       1.0  T
   8   -115.3247827 -0.166038E-02  0.447E-02    0.06       1.0  T
   9   -115.3252106 -0.427852E-03  0.142E-02    0.05       1.0  T
  10   -115.3252447 -0.341119E-04  0.762E-03    0.05       1.4  T
  11   -115.3252576 -0.128756E-04  0.203E-03    0.05       5.3  T
  12   -115.3252576 -0.775628E-10  0.193E-03    0.05       5.6  T
  13   -115.3252583 -0.721505E-06  0.595E-04    0.05      18.2  T
  14   -115.3252584 -0.543484E-07  0.206E-04    0.05      52.7  T
     SCC iter.                  ...        0 min,  0.140 sec
     gradient                   ...        0 min,  0.014 sec
 * total energy  :  -113.7621648 Eh     change       -0.1899811E-03 Eh
   gradient norm :     0.0048552 Eh/α   predicted    -0.1461682E-03 ( -23.06%)
   displ. norm   :     0.5027560 α      lambda       -0.2074428E-03
   maximum displ.:     0.3672767 α      in ANC's #14, #5, #8, ...

........................................................................
.............................. CYCLE   14 ..............................
........................................................................

 iter      E             dE          RMSdq      gap      omega  full diag
   1   -115.3247304 -0.115325E+03  0.146E-01    0.03       0.0  T
   2   -115.3118620  0.128684E-01  0.247E-01    0.23       1.0  T
   3   -115.3073016  0.456037E-02  0.274E-01    0.03       1.0  T
   4   -115.3138812 -0.657957E-02  0.216E-01    0.17       1.0  T
   5   -115.3179332 -0.405197E-02  0.173E-01    0.14       1.0  T
   6   -115.3207494 -0.281628E-02  0.137E-01    0.11       1.0  T
   7   -115.3232621 -0.251263E-02  0.912E-02    0.08       1.0  T
   8   -115.3247609 -0.149889E-02  0.515E-02    0.07       1.0  T
   9   -115.3253364 -0.575499E-03  0.161E-02    0.05       1.0  T
  10   -115.3253863 -0.498292E-04  0.702E-03    0.05       1.5  T
  11   -115.3253973 -0.109821E-04  0.185E-03    0.05       5.9  T
  12   -115.3253972  0.405945E-07  0.174E-03    0.05       6.2  T
  13   -115.3253978 -0.551674E-06  0.660E-04    0.05      16.4  T
  14   -115.3253978 -0.638819E-07  0.263E-04    0.05      41.3  T
     SCC iter.                  ...        0 min,  0.147 sec
     gradient                   ...        0 min,  0.013 sec
 * total energy  :  -113.7623159 Eh     change       -0.1510272E-03 Eh
   gradient norm :     0.0047538 Eh/α   predicted    -0.1299413E-03 ( -13.96%)
   displ. norm   :     0.3692906 α      lambda       -0.1280609E-03
   maximum displ.:     0.2658405 α      in ANC's #14, #5, #8, ...

........................................................................
.............................. CYCLE   15 ..............................
........................................................................

 iter      E             dE          RMSdq      gap      omega  full diag
   1   -115.3262943 -0.115326E+03  0.106E-01    0.03       0.0  T
   2   -115.3146577  0.116366E-01  0.226E-01    0.19       1.0  T
   3   -115.3199542 -0.529654E-02  0.170E-01    0.00       1.0  T
   4   -115.3205624 -0.608134E-03  0.159E-01    0.11       1.0  T
   5   -115.3236615 -0.309912E-02  0.109E-01    0.09       1.0  T
   6   -115.3259360 -0.227455E-02  0.557E-02    0.07       1.0  T
   7   -115.3266880 -0.751979E-03  0.935E-03    0.05       1.2  T
   8   -115.3266352  0.527687E-04  0.178E-02    0.05       1.0  T
   9   -115.3266905 -0.553048E-04  0.918E-03    0.05       1.2  T
  10   -115.3267089 -0.183904E-04  0.298E-03    0.05       3.6  T
  11   -115.3267106 -0.170530E-05  0.126E-03    0.05       8.6  T
  12   -115.3267109 -0.265200E-06  0.501E-04    0.05      21.6  T
  13   -115.3267108  0.888305E-07  0.796E-04    0.05      13.6  T
     SCC iter.                  ...        0 min,  0.131 sec
     gradient                   ...        0 min,  0.013 sec
 * total energy  :  -113.7624071 Eh     change       -0.9123271E-04 Eh
   gradient norm :     0.0039002 Eh/α   predicted    -0.7276720E-04 ( -20.24%)
   displ. norm   :     0.3533144 α      lambda       -0.9570840E-04
   maximum displ.:     0.2567807 α      in ANC's #14, #5, #8, ...

........................................................................
.............................. CYCLE   16 ..............................
........................................................................

 iter      E             dE          RMSdq      gap      omega  full diag
   1   -115.3255052 -0.115326E+03  0.105E-01    0.03       0.0  T
   2   -115.3121050  0.134002E-01  0.243E-01    0.23       1.0  T
   3   -115.3237388 -0.116338E-01  0.106E-01    0.02       1.0  T
   4   -115.3217397  0.199902E-02  0.129E-01    0.08       1.0  T
   5   -115.3253889 -0.364917E-02  0.539E-02    0.06       1.0  T
   6   -115.3261103 -0.721368E-03  0.893E-03    0.04       1.2  T
   7   -115.3261184 -0.810777E-05  0.541E-03    0.04       2.0  T
   8   -115.3261113  0.711500E-05  0.735E-03    0.05       1.5  T
   9   -115.3261240 -0.127656E-04  0.183E-03    0.05       5.9  T
  10   -115.3261245 -0.474375E-06  0.926E-04    0.05      11.7  T
  11   -115.3261246 -0.821898E-07  0.614E-04    0.05      17.7  T
     SCC iter.                  ...        0 min,  0.117 sec
     gradient                   ...        0 min,  0.015 sec
 * total energy  :  -113.7624696 Eh     change       -0.6246896E-04 Eh
   gradient norm :     0.0035131 Eh/α   predicted    -0.5383283E-04 ( -13.82%)
   displ. norm   :     0.2259020 α      lambda       -0.8590479E-04
   maximum displ.:     0.1470914 α      in ANC's #14, #8, #6, ...

........................................................................
.............................. CYCLE   17 ..............................
........................................................................

 iter      E             dE          RMSdq      gap      omega  full diag
   1   -115.3287347 -0.115329E+03  0.629E-02    0.04       0.0  T
   2   -115.3224215  0.631323E-02  0.162E-01    0.12       1.0  T
   3   -115.3267504 -0.432892E-02  0.966E-02    0.02       1.0  T
   4   -115.3282684 -0.151796E-02  0.581E-02    0.06       1.0  T
   5   -115.3285218 -0.253439E-03  0.354E-02    0.06       1.0  T
   6   -115.3287686 -0.246774E-03  0.168E-02    0.05       1.0  T
   7   -115.3288283 -0.596525E-04  0.619E-03    0.05       1.8  T
   8   -115.3288375 -0.923114E-05  0.125E-03    0.05       8.7  T
   9   -115.3288375 -0.639679E-07  0.107E-03    0.05      10.1  T
  10   -115.3288377 -0.181373E-06  0.542E-04    0.05      20.0  T
  11   -115.3288377 -0.809851E-08  0.443E-04    0.05      24.5  T
     SCC iter.                  ...        0 min,  0.139 sec
     gradient                   ...        0 min,  0.015 sec
 * total energy  :  -113.7625189 Eh     change       -0.4931483E-04 Eh
   gradient norm :     0.0031149 Eh/α   predicted    -0.4514709E-04 (  -8.45%)
   displ. norm   :     0.2853762 α      lambda       -0.6454903E-04
   maximum displ.:     0.2060881 α      in ANC's #14, #8, #6, ...

........................................................................
.............................. CYCLE   18 ..............................
........................................................................

 iter      E             dE          RMSdq      gap      omega  full diag
   1   -115.3254676 -0.115325E+03  0.866E-02    0.03       0.0  T
   2   -115.3124147  0.130530E-01  0.238E-01    0.21       1.0  T
   3   -115.3254018 -0.129871E-01  0.599E-02    0.03       1.0  T
   4   -115.3243873  0.101449E-02  0.782E-02    0.06       1.0  T
   5   -115.3259139 -0.152660E-02  0.158E-02    0.05       1.0  T
   6   -115.3259499 -0.360689E-04  0.740E-03    0.04       1.5  T
   7   -115.3259576 -0.764385E-05  0.270E-03    0.04       4.0  T
   8   -115.3259570  0.578095E-06  0.278E-03    0.05       3.9  T
   9   -115.3259586 -0.159782E-05  0.110E-03    0.04       9.9  T
  10   -115.3259588 -0.148469E-06  0.511E-04    0.04      21.2  T
  11   -115.3259588 -0.366175E-08  0.406E-04    0.04      26.7  T
     SCC iter.                  ...        0 min,  0.124 sec
     gradient                   ...        0 min,  0.013 sec
 * total energy  :  -113.7625509 Eh     change       -0.3204685E-04 Eh
   gradient norm :     0.0045215 Eh/α   predicted    -0.3490436E-04 (   8.92%)
   displ. norm   :     0.1617576 α      lambda       -0.8037162E-04
   maximum displ.:     0.0800235 α      in ANC's #14, #8, #6, ...

........................................................................
.............................. CYCLE   19 ..............................
........................................................................

 iter      E             dE          RMSdq      gap      omega  full diag
   1   -115.3267194 -0.115327E+03  0.522E-02    0.05       0.0  T
   2   -115.3251832  0.153626E-02  0.851E-02    0.02       1.0  T
   3   -115.3232465  0.193667E-02  0.121E-01    0.09       1.0  T
   4   -115.3264013 -0.315481E-02  0.376E-02    0.04       1.0  T
   5   -115.3265967 -0.195381E-03  0.233E-02    0.05       1.0  T
   6   -115.3266959 -0.991926E-04  0.127E-02    0.05       1.0  T
   7   -115.3267262 -0.302915E-04  0.572E-03    0.05       1.9  T
   8   -115.3267340 -0.785187E-05  0.870E-04    0.04      12.5  T
   9   -115.3267337  0.330292E-06  0.138E-03    0.04       7.8  T
  10   -115.3267340 -0.349205E-06  0.654E-04    0.04      16.6  T
  11   -115.3267341 -0.970987E-07  0.227E-04    0.04      47.8  T
     SCC iter.                  ...        0 min,  0.112 sec
     gradient                   ...        0 min,  0.014 sec
 * total energy  :  -113.7626025 Eh     change       -0.5155932E-04 Eh
   gradient norm :     0.0040279 Eh/α   predicted    -0.4123814E-04 ( -20.02%)
   displ. norm   :     0.1755402 α      lambda       -0.7598929E-04
   maximum displ.:     0.0695494 α      in ANC's #14, #8, #6, ...

........................................................................
.............................. CYCLE   20 ..............................
........................................................................

 iter      E             dE          RMSdq      gap      omega  full diag
   1   -115.3270124 -0.115327E+03  0.578E-02    0.04       0.0  T
   2   -115.3269319  0.805049E-04  0.401E-02    0.05       1.0  T
   3   -115.3048188  0.221130E-01  0.292E-01    0.04       1.0  T
   4   -115.3266126 -0.217938E-01  0.467E-02    0.05       1.0  T
   5   -115.3269950 -0.382373E-03  0.101E-02    0.05       1.1  T
   6   -115.3270157 -0.207642E-04  0.407E-03    0.05       2.7  T
   7   -115.3270186 -0.287893E-05  0.230E-03    0.05       4.7  T
   8   -115.3270195 -0.850313E-06  0.946E-04    0.04      11.5  T
   9   -115.3270194  0.374326E-07  0.887E-04    0.04      12.2  T
     SCC iter.                  ...        0 min,  0.097 sec
     gradient                   ...        0 min,  0.013 sec
 * total energy  :  -113.7626554 Eh     change       -0.5287143E-04 Eh
   gradient norm :     0.0039982 Eh/α   predicted    -0.3917120E-04 ( -25.91%)
   displ. norm   :     0.2782823 α      lambda       -0.9550886E-04
   maximum displ.:     0.1139579 α      in ANC's #14, #8, #6, ...
 * RMSD in coord.:     0.5505928 α      energy gain  -0.9598321E-02 Eh

generating ANC from exact Hessian ...
Using Lindh-Hessian (1995)
 Shifting diagonal of input Hessian by   1.030678436772727E-002
 Lowest  eigenvalues of input Hessian
    0.010000    0.010082    0.010110    0.010120    0.000000    0.000000
    0.000000    0.000000    0.000000    0.000000    0.010317    0.010344
    0.010359    0.010378    0.010499    0.010691    0.010824    0.011050
 Highest eigenvalues
    1.974658    2.034879    2.063027    2.108399    2.217247    2.263568
 

........................................................................
.............................. CYCLE   21 ..............................
........................................................................

 iter      E             dE          RMSdq      gap      omega  full diag
   1   -115.3273498 -0.115327E+03  0.903E-02    0.04       0.0  T
   2   -115.3260247  0.132503E-02  0.923E-02    0.07       1.0  T
   3   -115.2915545  0.344702E-01  0.376E-01    0.07       1.0  T
   4   -115.3265936 -0.350391E-01  0.651E-02    0.05       1.0  T
   5   -115.3272590 -0.665384E-03  0.217E-02    0.05       1.0  T
   6   -115.3273502 -0.911932E-04  0.105E-02    0.05       1.0  T
   7   -115.3273722 -0.219568E-04  0.454E-03    0.05       2.4  T
   8   -115.3273764 -0.423908E-05  0.156E-03    0.04       7.0  T
   9   -115.3273762  0.197883E-06  0.167E-03    0.04       6.5  T
  10   -115.3273766 -0.381711E-06  0.956E-04    0.04      11.3  T
  11   -115.3273768 -0.191082E-06  0.324E-04    0.05      33.4  T
     SCC iter.                  ...        0 min,  0.119 sec
     gradient                   ...        0 min,  0.013 sec
 * total energy  :  -113.7627050 Eh     change       -0.4965329E-04 Eh
   gradient norm :     0.0043822 Eh/α   predicted     0.0000000E+00 (-100.00%)
   displ. norm   :     0.0330835 α      lambda       -0.4323139E-04
   maximum displ.:     0.0150422 α      in ANC's #5, #6, #8, ...

........................................................................
.............................. CYCLE   22 ..............................
........................................................................

 iter      E             dE          RMSdq      gap      omega  full diag
   1   -115.3274953 -0.115327E+03  0.155E-02    0.04       0.0  T
   2   -115.3273938  0.101438E-03  0.226E-02    0.05       1.0  T
   3   -115.3270223  0.371529E-03  0.438E-02    0.03       1.0  T
   4   -115.3274595 -0.437190E-03  0.140E-02    0.05       1.0  T
   5   -115.3274934 -0.338728E-04  0.395E-03    0.05       2.7  T
   6   -115.3274963 -0.287775E-05  0.150E-03    0.05       7.2  T
   7   -115.3274966 -0.368913E-06  0.791E-04    0.05      13.7  T
   8   -115.3274967 -0.102176E-06  0.446E-04    0.05      24.3  T
     SCC iter.                  ...        0 min,  0.094 sec
     gradient                   ...        0 min,  0.014 sec
 * total energy  :  -113.7627369 Eh     change       -0.3188894E-04 Eh
   gradient norm :     0.0020605 Eh/α   predicted    -0.2233710E-04 ( -29.95%)
   displ. norm   :     0.0659396 α      lambda       -0.4014473E-04
   maximum displ.:     0.0340107 α      in ANC's #5, #6, #8, ...

........................................................................
.............................. CYCLE   23 ..............................
........................................................................

 iter      E             dE          RMSdq      gap      omega  full diag
   1   -115.3276149 -0.115328E+03  0.229E-02    0.04       0.0  T
   2   -115.3275759  0.389361E-04  0.193E-02    0.05       1.0  T
   3   -115.3252465  0.232943E-02  0.962E-02    0.02       1.0  T
   4   -115.3273869 -0.214040E-02  0.346E-02    0.05       1.0  T
   5   -115.3276035 -0.216648E-03  0.746E-03    0.05       1.5  T
   6   -115.3276156 -0.120618E-04  0.291E-03    0.05       3.7  T
   7   -115.3276171 -0.146579E-05  0.142E-03    0.05       7.7  T
   8   -115.3276173 -0.279048E-06  0.823E-04    0.05      13.2  T
   9   -115.3276175 -0.142391E-06  0.269E-04    0.05      40.3  T
     SCC iter.                  ...        0 min,  0.100 sec
     gradient                   ...        0 min,  0.014 sec
 * total energy  :  -113.7627593 Eh     change       -0.2238375E-04 Eh
   gradient norm :     0.0018468 Eh/α   predicted    -0.2016090E-04 (  -9.93%)
   displ. norm   :     0.1285226 α      lambda       -0.3458281E-04
   maximum displ.:     0.0653692 α      in ANC's #5, #6, #8, ...

........................................................................
.............................. CYCLE   24 ..............................
........................................................................

 iter      E             dE          RMSdq      gap      omega  full diag
   1   -115.3276577 -0.115328E+03  0.592E-02    0.04       0.0  T
   2   -115.3269079  0.749796E-03  0.662E-02    0.06       1.0  T
   3   -115.3129808  0.139271E-01  0.243E-01    0.02       1.0  T
   4   -115.3271481 -0.141672E-01  0.451E-02    0.06       1.0  T
   5   -115.3275937 -0.445642E-03  0.179E-02    0.05       1.0  T
   6   -115.3276338 -0.401092E-04  0.116E-02    0.05       1.0  T
   7   -115.3276596 -0.257883E-04  0.583E-03    0.05       1.9  T
   8   -115.3276664 -0.679760E-05  0.196E-03    0.05       5.5  T
   9   -115.3276670 -0.625041E-06  0.105E-03    0.04      10.4  T
  10   -115.3276671 -0.344638E-07  0.954E-04    0.04      11.4  T
  11   -115.3276673 -0.181452E-06  0.435E-04    0.05      24.9  T
     SCC iter.                  ...        0 min,  0.129 sec
     gradient                   ...        0 min,  0.016 sec
 * total energy  :  -113.7627503 Eh     change        0.9006700E-05 Eh
   gradient norm :     0.0043724 Eh/α   predicted    -0.1741995E-04 (-293.41%)
   displ. norm   :     0.0329025 α      lambda       -0.5052103E-04
   maximum displ.:     0.0145824 α      in ANC's #5, #2, #28, ...

........................................................................
.............................. CYCLE   25 ..............................
........................................................................

 iter      E             dE          RMSdq      gap      omega  full diag
   1   -115.3277330 -0.115328E+03  0.248E-02    0.05       0.0  T
   2   -115.3276620  0.709971E-04  0.231E-02    0.04       1.0  T
   3   -115.3256713  0.199072E-02  0.915E-02    0.08       1.0  T
   4   -115.3276239 -0.195259E-02  0.229E-02    0.04       1.0  T
   5   -115.3277224 -0.985316E-04  0.673E-03    0.05       1.6  T
   6   -115.3277323 -0.995742E-05  0.281E-03    0.05       3.9  T
   7   -115.3277340 -0.166772E-05  0.917E-04    0.05      11.8  T
   8   -115.3277341 -0.131275E-06  0.495E-04    0.05      21.9  T
   9   -115.3277341 -0.118621E-08  0.452E-04    0.05      24.0  T
     SCC iter.                  ...        0 min,  0.109 sec
     gradient                   ...        0 min,  0.014 sec
 * total energy  :  -113.7627873 Eh     change       -0.3703485E-04 Eh
   gradient norm :     0.0028057 Eh/α   predicted    -0.2529205E-04 ( -31.71%)
   displ. norm   :     0.0650162 α      lambda       -0.4082035E-04
   maximum displ.:     0.0356518 α      in ANC's #5, #6, #8, ...

........................................................................
.............................. CYCLE   26 ..............................
........................................................................

 iter      E             dE          RMSdq      gap      omega  full diag
   1   -115.3277528 -0.115328E+03  0.253E-02    0.05       0.0  T
   2   -115.3274866  0.266264E-03  0.366E-02    0.04       1.0  T
   3   -115.3267459  0.740723E-03  0.645E-02    0.07       1.0  T
   4   -115.3276807 -0.934866E-03  0.191E-02    0.04       1.0  T
   5   -115.3277407 -0.599818E-04  0.758E-03    0.05       1.4  T
   6   -115.3277536 -0.128392E-04  0.304E-03    0.05       3.6  T
   7   -115.3277551 -0.157308E-05  0.142E-03    0.05       7.7  T
   8   -115.3277556 -0.434648E-06  0.442E-04    0.05      24.5  T
   9   -115.3277555  0.150289E-07  0.473E-04    0.05      22.9  T
     SCC iter.                  ...        0 min,  0.112 sec
     gradient                   ...        0 min,  0.016 sec
 * total energy  :  -113.7628131 Eh     change       -0.2577262E-04 Eh
   gradient norm :     0.0011582 Eh/α   predicted    -0.2049782E-04 ( -20.47%)
   displ. norm   :     0.1383518 α      lambda       -0.2266636E-04
   maximum displ.:     0.0777984 α      in ANC's #5, #6, #8, ...

........................................................................
.............................. CYCLE   27 ..............................
........................................................................

 iter      E             dE          RMSdq      gap      omega  full diag
   1   -115.3277203 -0.115328E+03  0.314E-02    0.05       0.0  T
   2   -115.3277041  0.161980E-04  0.212E-02    0.04       1.0  T
   3   -115.3250633  0.264073E-02  0.104E-01    0.08       1.0  T
   4   -115.3273565 -0.229319E-02  0.378E-02    0.04       1.0  T
   5   -115.3277069 -0.350375E-03  0.763E-03    0.05       1.4  T
   6   -115.3277200 -0.130991E-04  0.304E-03    0.05       3.6  T
   7   -115.3277215 -0.148051E-05  0.137E-03    0.05       7.9  T
   8   -115.3277218 -0.323459E-06  0.595E-04    0.05      18.2  T
   9   -115.3277218 -0.303983E-07  0.448E-04    0.05      24.2  T
     SCC iter.                  ...        0 min,  0.089 sec
     gradient                   ...        0 min,  0.014 sec
 * total energy  :  -113.7628391 Eh     change       -0.2597533E-04 Eh
   gradient norm :     0.0018631 Eh/α   predicted    -0.1143072E-04 ( -55.99%)
   displ. norm   :     0.2589126 α      lambda       -0.4159433E-04
   maximum displ.:     0.1419266 α      in ANC's #5, #6, #8, ...

........................................................................
.............................. CYCLE   28 ..............................
........................................................................

 iter      E             dE          RMSdq      gap      omega  full diag
   1   -115.3275518 -0.115328E+03  0.535E-02    0.04       0.0  T
   2   -115.3272017  0.350095E-03  0.494E-02    0.06       1.0  T
   3   -115.3099247  0.172769E-01  0.266E-01    0.03       1.0  T
   4   -115.3269136 -0.169889E-01  0.507E-02    0.06       1.0  T
   5   -115.3274993 -0.585632E-03  0.156E-02    0.05       1.0  T
   6   -115.3275394 -0.401277E-04  0.886E-03    0.05       1.2  T
   7   -115.3275550 -0.156157E-04  0.384E-03    0.05       2.8  T
   8   -115.3275580 -0.300432E-05  0.112E-03    0.05       9.7  T
   9   -115.3275581 -0.671526E-07  0.881E-04    0.05      12.3  T
  10   -115.3275582 -0.104681E-06  0.585E-04    0.05      18.5  T
     SCC iter.                  ...        0 min,  0.100 sec
     gradient                   ...        0 min,  0.014 sec
 * total energy  :  -113.7628939 Eh     change       -0.5487356E-04 Eh
   gradient norm :     0.0027469 Eh/α   predicted    -0.2141718E-04 ( -60.97%)
   displ. norm   :     0.3731768 α      lambda       -0.8999633E-04
   maximum displ.:     0.2024343 α      in ANC's #5, #6, #8, ...

........................................................................
.............................. CYCLE   29 ..............................
........................................................................

 iter      E             dE          RMSdq      gap      omega  full diag
   1   -115.3270477 -0.115327E+03  0.739E-02    0.04       0.0  T
   2   -115.3242482  0.279957E-02  0.115E-01    0.09       1.0  T
   3   -115.3145920  0.965615E-02  0.226E-01    0.02       1.0  T
   4   -115.3254241 -0.108321E-01  0.814E-02    0.07       1.0  T
   5   -115.3266596 -0.123548E-02  0.414E-02    0.06       1.0  T
   6   -115.3269097 -0.250164E-03  0.265E-02    0.05       1.0  T
   7   -115.3270529 -0.143218E-03  0.116E-02    0.05       1.0  T
   8   -115.3270848 -0.318498E-04  0.150E-03    0.05       7.2  T
   9   -115.3270842  0.607252E-06  0.202E-03    0.04       5.4  T
  10   -115.3270850 -0.858204E-06  0.852E-04    0.04      12.7  T
  11   -115.3270851 -0.802768E-07  0.541E-04    0.04      20.0  T
     SCC iter.                  ...        0 min,  0.116 sec
     gradient                   ...        0 min,  0.013 sec
 * total energy  :  -113.7629735 Eh     change       -0.7958336E-04 Eh
   gradient norm :     0.0028000 Eh/α   predicted    -0.5126554E-04 ( -35.58%)
   displ. norm   :     0.5541080 α      lambda       -0.1216859E-03
   maximum displ.:     0.3015639 α      in ANC's #5, #6, #8, ...

........................................................................
.............................. CYCLE   30 ..............................
........................................................................

 iter      E             dE          RMSdq      gap      omega  full diag
   1   -115.3259552 -0.115326E+03  0.110E-01    0.04       0.0  T
   2   -115.3179276  0.802759E-02  0.191E-01    0.13       1.0  T
   3   -115.3081404  0.978719E-02  0.272E-01    0.03       1.0  T
   4   -115.3209017 -0.127613E-01  0.143E-01    0.10       1.0  T
   5   -115.3236810 -0.277933E-02  0.988E-02    0.08       1.0  T
   6   -115.3250183 -0.133730E-02  0.659E-02    0.07       1.0  T
   7   -115.3257934 -0.775115E-03  0.357E-02    0.06       1.0  T
   8   -115.3260869 -0.293487E-03  0.943E-03    0.05       1.2  T
   9   -115.3261006 -0.136661E-04  0.592E-03    0.05       1.8  T
  10   -115.3261080 -0.740225E-05  0.159E-03    0.05       6.8  T
  11   -115.3261084 -0.430160E-06  0.784E-04    0.04      13.8  T
  12   -115.3261081  0.287560E-06  0.135E-03    0.04       8.0  T
  13   -115.3261085 -0.327027E-06  0.612E-04    0.04      17.7  T
     SCC iter.                  ...        0 min,  0.146 sec
     gradient                   ...        0 min,  0.014 sec
 * total energy  :  -113.7630797 Eh     change       -0.1061246E-03 Eh
   gradient norm :     0.0031087 Eh/α   predicted    -0.7952471E-04 ( -25.06%)
   displ. norm   :     0.5920596 α      lambda       -0.1288703E-03
   maximum displ.:     0.3260703 α      in ANC's #5, #6, #8, ...

........................................................................
.............................. CYCLE   31 ..............................
........................................................................

 iter      E             dE          RMSdq      gap      omega  full diag
   1   -115.3251944 -0.115325E+03  0.110E-01    0.04       0.0  T
   2   -115.3153834  0.981102E-02  0.209E-01    0.15       1.0  T
   3   -115.3114432  0.394020E-02  0.241E-01    0.02       1.0  T
   4   -115.3192185 -0.777528E-02  0.156E-01    0.11       1.0  T
   5   -115.3223254 -0.310698E-02  0.111E-01    0.09       1.0  T
   6   -115.3239421 -0.161668E-02  0.763E-02    0.07       1.0  T
   7   -115.3250096 -0.106746E-02  0.404E-02    0.06       1.0  T
   8   -115.3253883 -0.378736E-03  0.104E-02    0.05       1.0  T
   9   -115.3253981 -0.976682E-05  0.840E-03    0.05       1.3  T
  10   -115.3254142 -0.161070E-04  0.147E-03    0.04       7.4  T
  11   -115.3254146 -0.383883E-06  0.737E-04    0.04      14.7  T
  12   -115.3254142  0.388578E-06  0.145E-03    0.04       7.5  T
  13   -115.3254145 -0.334558E-06  0.773E-04    0.04      14.0  T
     SCC iter.                  ...        0 min,  0.145 sec
     gradient                   ...        0 min,  0.013 sec
 * total energy  :  -113.7631950 Eh     change       -0.1153446E-03 Eh
   gradient norm :     0.0037214 Eh/α   predicted    -0.8702419E-04 ( -24.55%)
   displ. norm   :     0.6039051 α      lambda       -0.1601089E-03
   maximum displ.:     0.3384076 α      in ANC's #5, #6, #8, ...

........................................................................
.............................. CYCLE   32 ..............................
........................................................................

 iter      E             dE          RMSdq      gap      omega  full diag
   1   -115.3256829 -0.115326E+03  0.106E-01    0.03       0.0  T
   2   -115.3150758  0.106072E-01  0.216E-01    0.16       1.0  T
   3   -115.3154525 -0.376690E-03  0.210E-01    0.01       1.0  T
   4   -115.3197641 -0.431167E-02  0.155E-01    0.11       1.0  T
   5   -115.3229317 -0.316752E-02  0.110E-01    0.09       1.0  T
   6   -115.3245390 -0.160735E-02  0.741E-02    0.07       1.0  T
   7   -115.3256133 -0.107425E-02  0.361E-02    0.06       1.0  T
   8   -115.3259183 -0.305061E-03  0.889E-03    0.05       1.2  T
   9   -115.3259206 -0.224958E-05  0.830E-03    0.05       1.3  T
  10   -115.3259367 -0.161765E-04  0.116E-03    0.04       9.4  T
  11   -115.3259370 -0.208600E-06  0.662E-04    0.04      16.4  T
  12   -115.3259366  0.356624E-06  0.136E-03    0.04       8.0  T
  13   -115.3259369 -0.303324E-06  0.690E-04    0.04      15.7  T
     SCC iter.                  ...        0 min,  0.134 sec
     gradient                   ...        0 min,  0.014 sec
 * total energy  :  -113.7633432 Eh     change       -0.1481886E-03 Eh
   gradient norm :     0.0036235 Eh/α   predicted    -0.1092509E-03 ( -26.28%)
   displ. norm   :     0.6791530 α      lambda       -0.2226459E-03
   maximum displ.:     0.3865725 α      in ANC's #5, #6, #8, ...

........................................................................
.............................. CYCLE   33 ..............................
........................................................................

 iter      E             dE          RMSdq      gap      omega  full diag
   1   -115.3272671 -0.115327E+03  0.112E-01    0.03       0.0  T
   2   -115.3157141  0.115531E-01  0.226E-01    0.17       1.0  T
   3   -115.3161405 -0.426430E-03  0.219E-01    0.02       1.0  T
   4   -115.3206797 -0.453916E-02  0.163E-01    0.11       1.0  T
   5   -115.3240458 -0.336617E-02  0.119E-01    0.09       1.0  T
   6   -115.3257268 -0.168098E-02  0.852E-02    0.07       1.0  T
   7   -115.3271540 -0.142717E-02  0.410E-02    0.06       1.0  T
   8   -115.3275398 -0.385845E-03  0.116E-02    0.05       1.0  T
   9   -115.3275462 -0.639978E-05  0.102E-02    0.05       1.1  T
  10   -115.3275713 -0.251041E-04  0.122E-03    0.04       8.9  T
  11   -115.3275715 -0.156632E-06  0.882E-04    0.04      12.3  T
  12   -115.3275710  0.474033E-06  0.162E-03    0.04       6.7  T
  13   -115.3275715 -0.491240E-06  0.679E-04    0.04      16.0  T
     SCC iter.                  ...        0 min,  0.136 sec
     gradient                   ...        0 min,  0.015 sec
 * total energy  :  -113.7635477 Eh     change       -0.2045404E-03 Eh
   gradient norm :     0.0031848 Eh/α   predicted    -0.1626724E-03 ( -20.47%)
   displ. norm   :     0.8106875 α      lambda       -0.2705314E-03
   maximum displ.:     0.4626281 α      in ANC's #5, #6, #8, ...

........................................................................
.............................. CYCLE   34 ..............................
........................................................................

 iter      E             dE          RMSdq      gap      omega  full diag
   1   -115.3270688 -0.115327E+03  0.131E-01    0.03       0.0  T
   2   -115.3132649  0.138039E-01  0.250E-01    0.20       1.0  T
   3   -115.3157352 -0.247035E-02  0.223E-01    0.02       1.0  T
   4   -115.3180232 -0.228799E-02  0.191E-01    0.13       1.0  T
   5   -115.3222520 -0.422885E-02  0.146E-01    0.10       1.0  T
   6   -115.3246530 -0.240100E-02  0.107E-01    0.08       1.0  T
   7   -115.3269742 -0.232117E-02  0.489E-02    0.06       1.0  T
   8   -115.3274766 -0.502349E-03  0.190E-02    0.05       1.0  T
   9   -115.3275264 -0.498624E-04  0.121E-02    0.05       1.0  T
  10   -115.3275622 -0.357800E-04  0.151E-03    0.04       7.2  T
  11   -115.3275623 -0.895887E-07  0.127E-03    0.04       8.5  T
  12   -115.3275620  0.252448E-06  0.153E-03    0.04       7.1  T
  13   -115.3275625 -0.451232E-06  0.686E-04    0.04      15.8  T
  14   -115.3275626 -0.109814E-06  0.128E-04    0.04      84.9  T
     SCC iter.                  ...        0 min,  0.178 sec
     gradient                   ...        0 min,  0.016 sec
 * total energy  :  -113.7638016 Eh     change       -0.2538908E-03 Eh
   gradient norm :     0.0034745 Eh/α   predicted    -0.2241652E-03 ( -11.71%)
   displ. norm   :     0.8209551 α      lambda       -0.3068440E-03
   maximum displ.:     0.4751662 α      in ANC's #5, #6, #8, ...

........................................................................
.............................. CYCLE   35 ..............................
........................................................................

 iter      E             dE          RMSdq      gap      omega  full diag
   1   -115.3282900 -0.115328E+03  0.128E-01    0.03       0.0  T
   2   -115.3176567  0.106333E-01  0.220E-01    0.15       1.0  T
   3   -115.3073633  0.102934E-01  0.295E-01    0.04       1.0  T
   4   -115.3226617 -0.152984E-01  0.154E-01    0.10       1.0  T
   5   -115.3252531 -0.259141E-02  0.116E-01    0.09       1.0  T
   6   -115.3266953 -0.144218E-02  0.851E-02    0.07       1.0  T
   7   -115.3280849 -0.138961E-02  0.426E-02    0.06       1.0  T
   8   -115.3284669 -0.382073E-03  0.161E-02    0.05       1.0  T
   9   -115.3285131 -0.462049E-04  0.820E-03    0.04       1.3  T
  10   -115.3285285 -0.153243E-04  0.179E-03    0.04       6.1  T
  11   -115.3285290 -0.536318E-06  0.806E-04    0.04      13.5  T
  12   -115.3285289  0.964665E-07  0.913E-04    0.04      11.9  T
     SCC iter.                  ...        0 min,  0.129 sec
     gradient                   ...        0 min,  0.015 sec
 * total energy  :  -113.7640859 Eh     change       -0.2843164E-03 Eh
   gradient norm :     0.0036711 Eh/α   predicted    -0.2568234E-03 (  -9.67%)
   displ. norm   :     0.8794618 α      lambda       -0.3187591E-03
   maximum displ.:     0.5100992 α      in ANC's #5, #6, #8, ...

........................................................................
.............................. CYCLE   36 ..............................
........................................................................

 iter      E             dE          RMSdq      gap      omega  full diag
   1   -115.3266938 -0.115327E+03  0.135E-01    0.03       0.0  T
   2   -115.3144263  0.122675E-01  0.238E-01    0.17       1.0  T
   3   -115.3092460  0.518031E-02  0.271E-01    0.03       1.0  T
   4   -115.3195748 -0.103288E-01  0.173E-01    0.12       1.0  T
   5   -115.3227602 -0.318537E-02  0.131E-01    0.09       1.0  T
   6   -115.3246856 -0.192540E-02  0.960E-02    0.08       1.0  T
   7   -115.3264585 -0.177290E-02  0.481E-02    0.06       1.0  T
   8   -115.3269217 -0.463173E-03  0.204E-02    0.05       1.0  T
   9   -115.3270005 -0.788460E-04  0.954E-03    0.04       1.1  T
  10   -115.3270210 -0.204891E-04  0.257E-03    0.04       4.2  T
  11   -115.3270221 -0.107767E-05  0.127E-03    0.04       8.5  T
  12   -115.3270223 -0.225206E-06  0.681E-04    0.04      15.9  T
  13   -115.3270222  0.681468E-07  0.877E-04    0.04      12.4  T
     SCC iter.                  ...        0 min,  0.143 sec
     gradient                   ...        0 min,  0.015 sec
 * total energy  :  -113.7643961 Eh     change       -0.3101465E-03 Eh
   gradient norm :     0.0046841 Eh/α   predicted    -0.2826522E-03 (  -8.86%)
   displ. norm   :     0.8066138 α      lambda       -0.4140629E-03
   maximum displ.:     0.4738805 α      in ANC's #5, #6, #8, ...

........................................................................
.............................. CYCLE   37 ..............................
........................................................................

 iter      E             dE          RMSdq      gap      omega  full diag
   1   -115.3323443 -0.115332E+03  0.149E-01    0.05       0.0  T
   2   -115.3046929  0.276514E-01  0.345E-01    0.05       1.0  T
   3   -115.3241236 -0.194307E-01  0.199E-01    0.13       1.0  T
   4   -115.3300742 -0.595065E-02  0.121E-01    0.06       1.0  T
   5   -115.3301946 -0.120372E-03  0.960E-02    0.08       1.0  T
   6   -115.3316193 -0.142471E-02  0.613E-02    0.06       1.0  T
   7   -115.3322758 -0.656529E-03  0.328E-02    0.05       1.0  T
   8   -115.3325281 -0.252274E-03  0.859E-03    0.04       1.3  T
   9   -115.3325443 -0.161960E-04  0.217E-03    0.04       5.0  T
  10   -115.3325448 -0.481817E-06  0.141E-03    0.04       7.7  T
  11   -115.3325450 -0.240058E-06  0.797E-04    0.04      13.6  T
  12   -115.3325450  0.362704E-07  0.866E-04    0.04      12.5  T
     SCC iter.                  ...        0 min,  0.149 sec
     gradient                   ...        0 min,  0.014 sec
 * total energy  :  -113.7646956 Eh     change       -0.2995018E-03 Eh
   gradient norm :     0.0066321 Eh/α   predicted    -0.3417315E-03 (  14.10%)
   displ. norm   :     0.8212342 α      lambda       -0.4243213E-03
   maximum displ.:     0.4763370 α      in ANC's #5, #6, #8, ...

........................................................................
.............................. CYCLE   38 ..............................
........................................................................

 iter      E             dE          RMSdq      gap      omega  full diag
   1   -115.3261928 -0.115326E+03  0.124E-01    0.03       0.0  T
   2   -115.3135598  0.126330E-01  0.241E-01    0.18       1.0  T
   3   -115.3182096 -0.464979E-02  0.188E-01    0.01       1.0  T
   4   -115.3204619 -0.225229E-02  0.156E-01    0.10       1.0  T
   5   -115.3236113 -0.314948E-02  0.108E-01    0.08       1.0  T
   6   -115.3254416 -0.183031E-02  0.654E-02    0.06       1.0  T
   7   -115.3264174 -0.975801E-03  0.227E-02    0.05       1.0  T
   8   -115.3265167 -0.992451E-04  0.972E-03    0.04       1.1  T
   9   -115.3265316 -0.148774E-04  0.549E-03    0.04       2.0  T
  10   -115.3265377 -0.614458E-05  0.219E-03    0.04       4.9  T
  11   -115.3265383 -0.601523E-06  0.138E-03    0.04       7.9  T
  12   -115.3265387 -0.332536E-06  0.566E-04    0.04      19.2  T
  13   -115.3265386  0.110679E-07  0.618E-04    0.04      17.6  T
     SCC iter.                  ...        0 min,  0.165 sec
     gradient                   ...        0 min,  0.015 sec
 * total energy  :  -113.7650739 Eh     change       -0.3783200E-03 Eh
   gradient norm :     0.0062616 Eh/α   predicted    -0.3552475E-03 (  -6.10%)
   displ. norm   :     0.8034899 α      lambda       -0.4014535E-03
   maximum displ.:     0.4758659 α      in ANC's #5, #6, #8, ...

........................................................................
.............................. CYCLE   39 ..............................
........................................................................

 iter      E             dE          RMSdq      gap      omega  full diag
   1   -115.3221447 -0.115322E+03  0.113E-01    0.03       0.0  T
   2   -115.3138331  0.831159E-02  0.197E-01    0.13       1.0  T
   3   -115.3093401  0.449304E-02  0.230E-01    0.02       1.0  T
   4   -115.3191506 -0.981050E-02  0.117E-01    0.08       1.0  T
   5   -115.3205776 -0.142705E-02  0.820E-02    0.07       1.0  T
   6   -115.3217521 -0.117449E-02  0.465E-02    0.06       1.0  T
   7   -115.3222046 -0.452466E-03  0.184E-02    0.05       1.0  T
   8   -115.3222822 -0.775658E-04  0.537E-03    0.04       2.0  T
   9   -115.3222874 -0.523333E-05  0.242E-03    0.04       4.5  T
  10   -115.3222884 -0.961760E-06  0.912E-04    0.04      11.9  T
  11   -115.3222884 -0.387258E-07  0.610E-04    0.04      17.8  T
     SCC iter.                  ...        0 min,  0.151 sec
     gradient                   ...        0 min,  0.016 sec
 * total energy  :  -113.7654321 Eh     change       -0.3582371E-03 Eh
   gradient norm :     0.0077564 Eh/α   predicted    -0.3303150E-03 (  -7.79%)
   displ. norm   :     0.6315713 α      lambda       -0.4715676E-03
   maximum displ.:     0.3833298 α      in ANC's #5, #6, #8, ...

........................................................................
.............................. CYCLE   40 ..............................
........................................................................

 iter      E             dE          RMSdq      gap      omega  full diag
   1   -115.3236660 -0.115324E+03  0.944E-02    0.05       0.0  T
   2   -115.3079675  0.156985E-01  0.255E-01    0.03       1.0  T
   3   -115.3191656 -0.111981E-01  0.146E-01    0.09       1.0  T
   4   -115.3227082 -0.354265E-02  0.747E-02    0.05       1.0  T
   5   -115.3228515 -0.143279E-03  0.593E-02    0.06       1.0  T
   6   -115.3235250 -0.673457E-03  0.320E-02    0.05       1.0  T
   7   -115.3237055 -0.180587E-03  0.168E-02    0.05       1.0  T
   8   -115.3237725 -0.669697E-04  0.241E-03    0.04       4.5  T
   9   -115.3237714  0.115147E-05  0.298E-03    0.04       3.6  T
  10   -115.3237723 -0.962408E-06  0.224E-03    0.04       4.8  T
  11   -115.3237733 -0.101257E-05  0.937E-04    0.04      11.6  T
  12   -115.3237735 -0.161686E-06  0.421E-04    0.04      25.8  T
  13   -115.3237735 -0.225226E-07  0.247E-04    0.04      43.9  T
     SCC iter.                  ...        0 min,  0.244 sec
     gradient                   ...        0 min,  0.021 sec
 * total energy  :  -113.7658029 Eh     change       -0.3707741E-03 Eh
   gradient norm :     0.0076944 Eh/α   predicted    -0.3298339E-03 ( -11.04%)
   displ. norm   :     0.7445100 α      lambda       -0.4657930E-03
   maximum displ.:     0.4539688 α      in ANC's #5, #6, #8, ...

........................................................................
.............................. CYCLE   41 ..............................
........................................................................

 iter      E             dE          RMSdq      gap      omega  full diag
   1   -115.3229860 -0.115323E+03  0.955E-02    0.04       0.0  T
   2   -115.3184689  0.451717E-02  0.148E-01    0.10       1.0  T
   3   -115.3066257  0.118431E-01  0.258E-01    0.03       1.0  T
   4   -115.3206777 -0.140519E-01  0.971E-02    0.07       1.0  T
   5   -115.3223784 -0.170079E-02  0.529E-02    0.06       1.0  T
   6   -115.3227409 -0.362417E-03  0.349E-02    0.05       1.0  T
   7   -115.3229920 -0.251146E-03  0.158E-02    0.05       1.0  T
   8   -115.3230493 -0.572855E-04  0.298E-03    0.04       3.6  T
   9   -115.3230503 -0.100659E-05  0.190E-03    0.04       5.7  T
  10   -115.3230507 -0.420504E-06  0.116E-03    0.04       9.3  T
  11   -115.3230510 -0.246398E-06  0.556E-04    0.04      19.5  T
  12   -115.3230510 -0.463170E-07  0.245E-04    0.04      44.3  T
     SCC iter.                  ...        0 min,  0.189 sec
     gradient                   ...        0 min,  0.015 sec
 * total energy  :  -113.7662444 Eh     change       -0.4414595E-03 Eh
   gradient norm :     0.0075874 Eh/α   predicted    -0.3619908E-03 ( -18.00%)
   displ. norm   :     0.7213101 α      lambda       -0.6708391E-03
   maximum displ.:     0.4561909 α      in ANC's #5, #6, #8, ...

........................................................................
.............................. CYCLE   42 ..............................
........................................................................

 iter      E             dE          RMSdq      gap      omega  full diag
   1   -115.3303464 -0.115330E+03  0.904E-02    0.04       0.0  T
   2   -115.3297040  0.642340E-03  0.753E-02    0.03       1.0  T
   3   -115.3161641  0.135400E-01  0.236E-01    0.18       1.0  T
   4   -115.3296175 -0.134535E-01  0.595E-02    0.05       1.0  T
   5   -115.3297414 -0.123909E-03  0.505E-02    0.06       1.0  T
   6   -115.3302562 -0.514791E-03  0.199E-02    0.05       1.0  T
   7   -115.3303641 -0.107924E-03  0.296E-03    0.04       3.7  T
   8   -115.3303649 -0.764933E-06  0.189E-03    0.04       5.7  T
   9   -115.3303649 -0.181029E-07  0.154E-03    0.04       7.0  T
  10   -115.3303653 -0.385220E-06  0.714E-04    0.04      15.2  T
  11   -115.3303653 -0.391442E-07  0.557E-04    0.04      19.5  T
     SCC iter.                  ...        0 min,  0.145 sec
     gradient                   ...        0 min,  0.015 sec
 * total energy  :  -113.7667925 Eh     change       -0.5481251E-03 Eh
   gradient norm :     0.0063697 Eh/α   predicted    -0.5099388E-03 (  -6.97%)
   displ. norm   :     0.8675701 α      lambda       -0.6450285E-03
   maximum displ.:     0.5373824 α      in ANC's #5, #6, #8, ...
 * RMSD in coord.:     1.1892132 α      energy gain  -0.4137129E-02 Eh

generating ANC from exact Hessian ...
Using Lindh-Hessian (1995)
 Shifting diagonal of input Hessian by   1.030297437535791E-002
 Lowest  eigenvalues of input Hessian
    0.010000    0.010101    0.010120    0.010128    0.000000    0.000000
    0.000000    0.000000    0.000000    0.000000    0.010331    0.010351
    0.010378    0.010393    0.010523    0.010700    0.010817    0.011076
 Highest eigenvalues
    1.971912    2.031607    2.059627    2.101624    2.209243    2.256794
 

........................................................................
.............................. CYCLE   43 ..............................
........................................................................

 iter      E             dE          RMSdq      gap      omega  full diag
   1   -115.3291940 -0.115329E+03  0.116E-01    0.02       0.0  T
   2   -115.3131674  0.160266E-01  0.270E-01    0.24       1.0  T
   3   -115.3279623 -0.147950E-01  0.100E-01    0.02       1.0  T
   4   -115.3233758  0.458652E-02  0.153E-01    0.08       1.0  T
   5   -115.3294674 -0.609153E-02  0.471E-02    0.05       1.0  T
   6   -115.3299581 -0.490783E-03  0.874E-03    0.04       1.2  T
   7   -115.3299589 -0.729579E-06  0.722E-03    0.04       1.5  T
   8   -115.3299627 -0.386257E-05  0.603E-03    0.04       1.8  T
   9   -115.3299665 -0.378673E-05  0.405E-03    0.04       2.7  T
  10   -115.3299696 -0.312197E-05  0.186E-03    0.04       5.8  T
  11   -115.3299703 -0.652063E-06  0.690E-04    0.04      15.7  T
  12   -115.3299704 -0.644240E-07  0.383E-04    0.04      28.3  T
     SCC iter.                  ...        0 min,  0.164 sec
     gradient                   ...        0 min,  0.015 sec
 * total energy  :  -113.7674310 Eh     change       -0.6384851E-03 Eh
   gradient norm :     0.0074067 Eh/α   predicted     0.0000000E+00 (-100.00%)
   displ. norm   :     0.1104207 α      lambda       -0.2820845E-03
   maximum displ.:     0.0469096 α      in ANC's #8, #9, #4, ...

........................................................................
.............................. CYCLE   44 ..............................
........................................................................

 iter      E             dE          RMSdq      gap      omega  full diag
   1   -115.3315046 -0.115332E+03  0.872E-02    0.04       0.0  T
   2   -115.3313241  0.180483E-03  0.593E-02    0.05       1.0  T
   3   -115.2819885  0.493356E-01  0.440E-01    0.10       1.0  T
   4   -115.3312383 -0.492497E-01  0.376E-02    0.04       1.0  T
   5   -115.3314845 -0.246231E-03  0.122E-02    0.04       1.0  T
   6   -115.3315090 -0.245527E-04  0.439E-03    0.04       2.5  T
   7   -115.3315115 -0.248019E-05  0.264E-03    0.04       4.1  T
   8   -115.3315126 -0.104813E-05  0.133E-03    0.04       8.1  T
   9   -115.3315127 -0.161969E-06  0.870E-04    0.04      12.5  T
  10   -115.3315128 -0.539170E-07  0.607E-04    0.04      17.9  T
     SCC iter.                  ...        0 min,  0.128 sec
     gradient                   ...        0 min,  0.016 sec
 * total energy  :  -113.7675612 Eh     change       -0.1302442E-03 Eh
   gradient norm :     0.0042598 Eh/α   predicted    -0.1434116E-03 (  10.11%)
   displ. norm   :     0.1592447 α      lambda       -0.2656664E-03
   maximum displ.:     0.0898497 α      in ANC's #8, #9, #6, ...

........................................................................
.............................. CYCLE   45 ..............................
........................................................................

 iter      E             dE          RMSdq      gap      omega  full diag
   1   -115.3335212 -0.115334E+03  0.793E-02    0.03       0.0  T
   2   -115.3282451  0.527604E-02  0.152E-01    0.10       1.0  T
   3   -115.3212124  0.703274E-02  0.227E-01    0.02       1.0  T
   4   -115.3313890 -0.101766E-01  0.102E-01    0.06       1.0  T
   5   -115.3331597 -0.177071E-02  0.439E-02    0.05       1.0  T
   6   -115.3333557 -0.195985E-03  0.314E-02    0.05       1.0  T
   7   -115.3335352 -0.179533E-03  0.166E-02    0.05       1.0  T
   8   -115.3335998 -0.645580E-04  0.379E-03    0.04       2.9  T
   9   -115.3336015 -0.178524E-05  0.231E-03    0.04       4.7  T
  10   -115.3336023 -0.789093E-06  0.133E-03    0.04       8.2  T
  11   -115.3336027 -0.409468E-06  0.413E-04    0.04      26.3  T
  12   -115.3336028 -0.195541E-07  0.230E-04    0.04      47.2  T
     SCC iter.                  ...        0 min,  0.143 sec
     gradient                   ...        0 min,  0.015 sec
 * total energy  :  -113.7676887 Eh     change       -0.1275113E-03 Eh
   gradient norm :     0.0047197 Eh/α   predicted    -0.1362020E-03 (   6.82%)
   displ. norm   :     0.1857606 α      lambda       -0.2569128E-03
   maximum displ.:     0.1052010 α      in ANC's #8, #9, #6, ...

........................................................................
.............................. CYCLE   46 ..............................
........................................................................

 iter      E             dE          RMSdq      gap      omega  full diag
   1   -115.3346281 -0.115335E+03  0.725E-02    0.03       0.0  T
   2   -115.3277888  0.683925E-02  0.171E-01    0.11       1.0  T
   3   -115.3291423 -0.135346E-02  0.154E-01    0.00       1.0  T
   4   -115.3324996 -0.335729E-02  0.949E-02    0.07       1.0  T
   5   -115.3341445 -0.164491E-02  0.495E-02    0.06       1.0  T
   6   -115.3345228 -0.378268E-03  0.290E-02    0.05       1.0  T
   7   -115.3346919 -0.169096E-03  0.130E-02    0.04       1.0  T
   8   -115.3347326 -0.407608E-04  0.175E-03    0.04       6.2  T
   9   -115.3347324  0.206123E-06  0.173E-03    0.04       6.3  T
  10   -115.3347330 -0.627792E-06  0.749E-04    0.04      14.5  T
  11   -115.3347331 -0.354893E-07  0.530E-04    0.04      20.5  T
     SCC iter.                  ...        0 min,  0.125 sec
     gradient                   ...        0 min,  0.014 sec
 * total energy  :  -113.7678618 Eh     change       -0.1730599E-03 Eh
   gradient norm :     0.0057791 Eh/α   predicted    -0.1328903E-03 ( -23.21%)
   displ. norm   :     0.2808533 α      lambda       -0.2751135E-03
   maximum displ.:     0.1647128 α      in ANC's #8, #9, #6, ...

........................................................................
.............................. CYCLE   47 ..............................
........................................................................

 iter      E             dE          RMSdq      gap      omega  full diag
   1   -115.3341867 -0.115334E+03  0.727E-02    0.03       0.0  T
   2   -115.3213729  0.128138E-01  0.232E-01    0.17       1.0  T
   3   -115.3328001 -0.114272E-01  0.880E-02    0.02       1.0  T
   4   -115.3317681  0.103193E-02  0.103E-01    0.07       1.0  T
   5   -115.3340141 -0.224599E-02  0.443E-02    0.05       1.0  T
   6   -115.3344704 -0.456330E-03  0.132E-02    0.04       1.0  T
   7   -115.3345090 -0.385382E-04  0.300E-03    0.04       3.6  T
   8   -115.3345094 -0.396309E-06  0.254E-03    0.04       4.3  T
   9   -115.3345101 -0.670676E-06  0.195E-03    0.04       5.6  T
  10   -115.3345103 -0.253338E-06  0.156E-03    0.04       6.9  T
  11   -115.3345108 -0.533200E-06  0.433E-04    0.04      25.1  T
  12   -115.3345108  0.803662E-08  0.420E-04    0.04      25.8  T
     SCC iter.                  ...        0 min,  0.149 sec
     gradient                   ...        0 min,  0.014 sec
 * total energy  :  -113.7681059 Eh     change       -0.2441210E-03 Eh
   gradient norm :     0.0052407 Eh/α   predicted    -0.1484084E-03 ( -39.21%)
   displ. norm   :     0.5211638 α      lambda       -0.4897966E-03
   maximum displ.:     0.3050699 α      in ANC's #8, #9, #6, ...

........................................................................
.............................. CYCLE   48 ..............................
........................................................................

 iter      E             dE          RMSdq      gap      omega  full diag
   1   -115.3317102 -0.115332E+03  0.126E-01    0.02       0.0  T
   2   -115.3129054  0.188048E-01  0.294E-01    0.28       1.0  T
   3   -115.3313571 -0.184517E-01  0.923E-02    0.02       1.0  T
   4   -115.3266117  0.474539E-02  0.148E-01    0.08       1.0  T
   5   -115.3324783 -0.586655E-02  0.450E-02    0.03       1.0  T
   6   -115.3328226 -0.344303E-03  0.147E-02    0.04       1.0  T
   7   -115.3328528 -0.302628E-04  0.760E-03    0.04       1.4  T
   8   -115.3328603 -0.750135E-05  0.473E-03    0.04       2.3  T
   9   -115.3328634 -0.307068E-05  0.244E-03    0.04       4.4  T
  10   -115.3328643 -0.922508E-06  0.103E-03    0.04      10.6  T
  11   -115.3328644 -0.491238E-07  0.789E-04    0.04      13.7  T
  12   -115.3328645 -0.992540E-07  0.364E-04    0.04      29.8  T
     SCC iter.                  ...        0 min,  0.157 sec
     gradient                   ...        0 min,  0.015 sec
 * total energy  :  -113.7685416 Eh     change       -0.4357109E-03 Eh
   gradient norm :     0.0056952 Eh/α   predicted    -0.3114172E-03 ( -28.53%)
   displ. norm   :     0.6719854 α      lambda       -0.5845160E-03
   maximum displ.:     0.3963971 α      in ANC's #8, #9, #6, ...

........................................................................
.............................. CYCLE   49 ..............................
........................................................................

 iter      E             dE          RMSdq      gap      omega  full diag
   1   -115.3295941 -0.115330E+03  0.147E-01    0.01       0.0  T
   2   -115.3093444  0.202497E-01  0.310E-01    0.30       1.0  T
   3   -115.3286928 -0.193485E-01  0.113E-01    0.01       1.0  T
   4   -115.3210359  0.765688E-02  0.187E-01    0.09       1.0  T
   5   -115.3305712 -0.953525E-02  0.482E-02    0.03       1.0  T
   6   -115.3309552 -0.384025E-03  0.175E-02    0.04       1.0  T
   7   -115.3309856 -0.304057E-04  0.114E-02    0.03       1.0  T
   8   -115.3310078 -0.221710E-04  0.589E-03    0.04       1.8  T
   9   -115.3310119 -0.408356E-05  0.334E-03    0.04       3.2  T
  10   -115.3310138 -0.191592E-05  0.123E-03    0.04       8.8  T
  11   -115.3310139 -0.762840E-07  0.881E-04    0.04      12.3  T
  12   -115.3310140 -0.104756E-06  0.451E-04    0.04      24.1  T
     SCC iter.                  ...        0 min,  0.136 sec
     gradient                   ...        0 min,  0.013 sec
 * total energy  :  -113.7690888 Eh     change       -0.5471577E-03 Eh
   gradient norm :     0.0081201 Eh/α   predicted    -0.4242341E-03 ( -22.47%)
   displ. norm   :     0.7277010 α      lambda       -0.6743523E-03
   maximum displ.:     0.4317820 α      in ANC's #8, #9, #6, ...

........................................................................
.............................. CYCLE   50 ..............................
........................................................................

 iter      E             dE          RMSdq      gap      omega  full diag
   1   -115.3285470 -0.115329E+03  0.141E-01    0.02       0.0  T
   2   -115.3087541  0.197929E-01  0.305E-01    0.27       1.0  T
   3   -115.3259692 -0.172151E-01  0.133E-01    0.01       1.0  T
   4   -115.3167601  0.920914E-02  0.217E-01    0.12       1.0  T
   5   -115.3274846 -0.107245E-01  0.911E-02    0.06       1.0  T
   6   -115.3296196 -0.213495E-02  0.131E-02    0.03       1.0  T
   7   -115.3296360 -0.164026E-04  0.884E-03    0.04       1.2  T
   8   -115.3296513 -0.153017E-04  0.441E-03    0.04       2.5  T
   9   -115.3296501  0.111310E-05  0.444E-03    0.04       2.4  T
  10   -115.3296545 -0.436297E-05  0.123E-03    0.04       8.8  T
  11   -115.3296546 -0.782919E-07  0.926E-04    0.04      11.7  T
  12   -115.3296546  0.466771E-08  0.853E-04    0.04      12.7  T
     SCC iter.                  ...        0 min,  0.135 sec
     gradient                   ...        0 min,  0.014 sec
 * total energy  :  -113.7697508 Eh     change       -0.6620371E-03 Eh
   gradient norm :     0.0097994 Eh/α   predicted    -0.5157289E-03 ( -22.10%)
   displ. norm   :     0.7907196 α      lambda       -0.8687209E-03
   maximum displ.:     0.4728671 α      in ANC's #8, #9, #6, ...

........................................................................
.............................. CYCLE   51 ..............................
........................................................................

 iter      E             dE          RMSdq      gap      omega  full diag
   1   -115.3286881 -0.115329E+03  0.133E-01    0.02       0.0  T
   2   -115.3111351  0.175530E-01  0.285E-01    0.20       1.0  T
   3   -115.3217844 -0.106493E-01  0.181E-01    0.01       1.0  T
   4   -115.3171371  0.464728E-02  0.220E-01    0.12       1.0  T
   5   -115.3248255 -0.768831E-02  0.134E-01    0.08       1.0  T
   6   -115.3281165 -0.329104E-02  0.682E-02    0.06       1.0  T
   7   -115.3292830 -0.116652E-02  0.136E-02    0.04       1.0  T
   8   -115.3293178 -0.347842E-04  0.575E-03    0.03       1.9  T
   9   -115.3293127  0.512842E-05  0.723E-03    0.04       1.5  T
  10   -115.3293226 -0.997055E-05  0.332E-03    0.04       3.3  T
  11   -115.3293251 -0.244730E-05  0.896E-04    0.04      12.1  T
  12   -115.3293251 -0.576629E-07  0.681E-04    0.04      15.9  T
  13   -115.3293252 -0.266236E-07  0.518E-04    0.03      20.9  T
     SCC iter.                  ...        0 min,  0.152 sec
     gradient                   ...        0 min,  0.015 sec
 * total energy  :  -113.7706061 Eh     change       -0.8552876E-03 Eh
   gradient norm :     0.0105946 Eh/α   predicted    -0.7059445E-03 ( -17.46%)
   displ. norm   :     0.8449193 α      lambda       -0.1091773E-02
   maximum displ.:     0.5104370 α      in ANC's #8, #9, #6, ...

........................................................................
.............................. CYCLE   52 ..............................
........................................................................

 iter      E             dE          RMSdq      gap      omega  full diag
   1   -115.3300841 -0.115330E+03  0.127E-01    0.03       0.0  T
   2   -115.3198864  0.101977E-01  0.221E-01    0.12       1.0  T
   3   -115.3113514  0.853496E-02  0.279E-01    0.04       1.0  T
   4   -115.3221928 -0.108414E-01  0.186E-01    0.09       1.0  T
   5   -115.3281337 -0.594091E-02  0.948E-02    0.07       1.0  T
   6   -115.3293650 -0.123130E-02  0.611E-02    0.05       1.0  T
   7   -115.3301410 -0.775927E-03  0.271E-02    0.04       1.0  T
   8   -115.3303152 -0.174263E-03  0.336E-03    0.04       3.2  T
   9   -115.3303143  0.871176E-06  0.351E-03    0.03       3.1  T
  10   -115.3303168 -0.243704E-05  0.147E-03    0.04       7.4  T
  11   -115.3303166  0.138406E-06  0.159E-03    0.04       6.8  T
  12   -115.3303170 -0.319219E-06  0.887E-04    0.04      12.2  T
  13   -115.3303171 -0.169995E-06  0.344E-04    0.03      31.5  T
     SCC iter.                  ...        0 min,  0.159 sec
     gradient                   ...        0 min,  0.014 sec
 * total energy  :  -113.7716717 Eh     change       -0.1065605E-02 Eh
   gradient norm :     0.0115873 Eh/α   predicted    -0.9355990E-03 ( -12.20%)
   displ. norm   :     0.8723197 α      lambda       -0.1291317E-02
   maximum displ.:     0.5331831 α      in ANC's #8, #9, #6, ...

........................................................................
.............................. CYCLE   53 ..............................
........................................................................

 iter      E             dE          RMSdq      gap      omega  full diag
   1   -115.3327100 -0.115333E+03  0.127E-01    0.04       0.0  T
   2   -115.3269693  0.574076E-02  0.168E-01    0.01       1.0  T
   3   -115.3178480  0.912129E-02  0.258E-01    0.18       1.0  T
   4   -115.3286464 -0.107984E-01  0.138E-01    0.05       1.0  T
   5   -115.3294112 -0.764856E-03  0.117E-01    0.08       1.0  T
   6   -115.3319035 -0.249230E-02  0.616E-02    0.06       1.0  T
   7   -115.3327093 -0.805749E-03  0.237E-02    0.04       1.0  T
   8   -115.3328405 -0.131174E-03  0.559E-03    0.03       1.9  T
   9   -115.3328458 -0.534974E-05  0.328E-03    0.04       3.3  T
  10   -115.3328474 -0.156697E-05  0.162E-03    0.04       6.7  T
  11   -115.3328477 -0.335897E-06  0.931E-04    0.04      11.7  T
  12   -115.3328477 -0.312148E-07  0.860E-04    0.04      12.6  T
     SCC iter.                  ...        0 min,  0.150 sec
     gradient                   ...        0 min,  0.013 sec
 * total energy  :  -113.7729162 Eh     change       -0.1244457E-02 Eh
   gradient norm :     0.0136738 Eh/α   predicted    -0.1136969E-02 (  -8.64%)
   displ. norm   :     0.8817658 α      lambda       -0.1449226E-02
   maximum displ.:     0.5428675 α      in ANC's #8, #9, #6, ...

........................................................................
.............................. CYCLE   54 ..............................
........................................................................

 iter      E             dE          RMSdq      gap      omega  full diag
   1   -115.3358989 -0.115336E+03  0.142E-01    0.05       0.0  T
   2   -115.2929257  0.429732E-01  0.423E-01    0.10       1.0  T
   3   -115.3258041 -0.328784E-01  0.222E-01    0.13       1.0  T
   4   -115.3319676 -0.616345E-02  0.145E-01    0.06       1.0  T
   5   -115.3341809 -0.221334E-02  0.935E-02    0.07       1.0  T
   6   -115.3357763 -0.159540E-02  0.507E-02    0.05       1.0  T
   7   -115.3362336 -0.457311E-03  0.251E-02    0.05       1.0  T
   8   -115.3363845 -0.150881E-03  0.339E-03    0.04       3.2  T
   9   -115.3363851 -0.560964E-06  0.260E-03    0.04       4.2  T
  10   -115.3363857 -0.569600E-06  0.144E-03    0.04       7.5  T
  11   -115.3363856  0.100873E-06  0.132E-03    0.04       8.2  T
  12   -115.3363859 -0.334977E-06  0.452E-04    0.04      24.0  T
  13   -115.3363859  0.115459E-07  0.471E-04    0.04      23.0  T
     SCC iter.                  ...        0 min,  0.177 sec
     gradient                   ...        0 min,  0.015 sec
 * total energy  :  -113.7742966 Eh     change       -0.1380429E-02 Eh
   gradient norm :     0.0165761 Eh/α   predicted    -0.1288013E-02 (  -6.69%)
   displ. norm   :     0.8684662 α      lambda       -0.1587907E-02
   maximum displ.:     0.5340781 α      in ANC's #8, #9, #6, ...

........................................................................
.............................. CYCLE   55 ..............................
........................................................................

 iter      E             dE          RMSdq      gap      omega  full diag
   1   -115.3394617 -0.115339E+03  0.155E-01    0.06       0.0  T
   2   -115.2822037  0.572580E-01  0.490E-01    0.15       1.0  T
   3   -115.3295669 -0.473631E-01  0.224E-01    0.14       1.0  T
   4   -115.3359362 -0.636932E-02  0.146E-01    0.05       1.0  T
   5   -115.3385404 -0.260424E-02  0.827E-02    0.06       1.0  T
   6   -115.3399061 -0.136571E-02  0.393E-02    0.05       1.0  T
   7   -115.3402047 -0.298597E-03  0.154E-02    0.04       1.0  T
   8   -115.3402586 -0.538458E-04  0.400E-03    0.04       2.7  T
   9   -115.3402598 -0.127480E-05  0.312E-03    0.04       3.5  T
  10   -115.3402599 -0.791198E-07  0.254E-03    0.04       4.3  T
  11   -115.3402602 -0.245182E-06  0.208E-03    0.04       5.2  T
  12   -115.3402611 -0.896655E-06  0.709E-04    0.04      15.3  T
  13   -115.3402611 -0.688415E-07  0.478E-04    0.04      22.7  T
     SCC iter.                  ...        0 min,  0.156 sec
     gradient                   ...        0 min,  0.013 sec
 * total energy  :  -113.7757888 Eh     change       -0.1492241E-02 Eh
   gradient norm :     0.0183084 Eh/α   predicted    -0.1392781E-02 (  -6.67%)
   displ. norm   :     0.8276737 α      lambda       -0.1706118E-02
   maximum displ.:     0.5029195 α      in ANC's #8, #9, #6, ...

........................................................................
.............................. CYCLE   56 ..............................
........................................................................

 iter      E             dE          RMSdq      gap      omega  full diag
   1   -115.3428931 -0.115343E+03  0.154E-01    0.06       0.0  T
   2   -115.2891792  0.537139E-01  0.475E-01    0.12       1.0  T
   3   -115.3328900 -0.437108E-01  0.224E-01    0.14       1.0  T
   4   -115.3394461 -0.655608E-02  0.150E-01    0.06       1.0  T
   5   -115.3408571 -0.141095E-02  0.103E-01    0.08       1.0  T
   6   -115.3428457 -0.198869E-02  0.552E-02    0.06       1.0  T
   7   -115.3434160 -0.570252E-03  0.238E-02    0.05       1.0  T
   8   -115.3435513 -0.135285E-03  0.361E-03    0.04       3.0  T
   9   -115.3435511  0.135623E-06  0.337E-03    0.04       3.2  T
  10   -115.3435520 -0.814799E-06  0.236E-03    0.04       4.6  T
  11   -115.3435519  0.590552E-07  0.217E-03    0.04       5.0  T
  12   -115.3435528 -0.891894E-06  0.855E-04    0.04      12.7  T
  13   -115.3435529 -0.580957E-07  0.687E-04    0.04      15.8  T
     SCC iter.                  ...        0 min,  0.145 sec
     gradient                   ...        0 min,  0.014 sec
 * total energy  :  -113.7773256 Eh     change       -0.1536757E-02 Eh
   gradient norm :     0.0169487 Eh/α   predicted    -0.1437444E-02 (  -6.46%)
   displ. norm   :     0.7931797 α      lambda       -0.1626521E-02
   maximum displ.:     0.4759499 α      in ANC's #8, #9, #6, ...

........................................................................
.............................. CYCLE   57 ..............................
........................................................................

 iter      E             dE          RMSdq      gap      omega  full diag
   1   -115.3420103 -0.115342E+03  0.125E-01    0.04       0.0  T
   2   -115.3414451  0.565140E-03  0.930E-02    0.05       1.0  T
   3   -115.2979562  0.434889E-01  0.414E-01    0.08       1.0  T
   4   -115.3352602 -0.373041E-01  0.182E-01    0.11       1.0  T
   5   -115.3416914 -0.643121E-02  0.422E-02    0.06       1.0  T
   6   -115.3419980 -0.306510E-03  0.220E-02    0.05       1.0  T
   7   -115.3420905 -0.925719E-04  0.982E-03    0.05       1.1  T
   8   -115.3421104 -0.199164E-04  0.314E-03    0.04       3.5  T
   9   -115.3421106 -0.112160E-06  0.267E-03    0.04       4.1  T
  10   -115.3421115 -0.926831E-06  0.149E-03    0.04       7.3  T
  11   -115.3421117 -0.212943E-06  0.905E-04    0.04      12.0  T
  12   -115.3421118 -0.729212E-07  0.596E-04    0.04      18.2  T
     SCC iter.                  ...        0 min,  0.132 sec
     gradient                   ...        0 min,  0.013 sec
 * total energy  :  -113.7786963 Eh     change       -0.1370678E-02 Eh
   gradient norm :     0.0130431 Eh/α   predicted    -0.1324915E-02 (  -3.34%)
   displ. norm   :     0.5509614 α      lambda       -0.1312077E-02
   maximum displ.:     0.3078111 α      in ANC's #8, #9, #6, ...

........................................................................
.............................. CYCLE   58 ..............................
........................................................................

 iter      E             dE          RMSdq      gap      omega  full diag
   1   -115.3474731 -0.115347E+03  0.143E-01    0.06       0.0  T
   2   -115.3227588  0.247143E-01  0.332E-01    0.05       1.0  T
   3   -115.3387239 -0.159651E-01  0.204E-01    0.14       1.0  T
   4   -115.3457884 -0.706459E-02  0.105E-01    0.06       1.0  T
   5   -115.3450174  0.771007E-03  0.102E-01    0.08       1.0  T
   6   -115.3469804 -0.196293E-02  0.565E-02    0.06       1.0  T
   7   -115.3475204 -0.540027E-03  0.287E-02    0.06       1.0  T
   8   -115.3476969 -0.176471E-03  0.868E-03    0.05       1.2  T
   9   -115.3477104 -0.134897E-04  0.391E-03    0.05       2.8  T
  10   -115.3477121 -0.172180E-05  0.288E-03    0.05       3.8  T
  11   -115.3477137 -0.162806E-05  0.929E-04    0.05      11.7  T
  12   -115.3477138 -0.515817E-07  0.695E-04    0.05      15.6  T
  13   -115.3477138 -0.448907E-07  0.473E-04    0.05      22.9  T
     SCC iter.                  ...        0 min,  0.136 sec
     gradient                   ...        0 min,  0.015 sec
 * total energy  :  -113.7793772 Eh     change       -0.6809313E-03 Eh
   gradient norm :     0.0134643 Eh/α   predicted    -0.8551889E-03 (  25.59%)
   displ. norm   :     0.7591786 α      lambda       -0.1361069E-02
   maximum displ.:     0.4338364 α      in ANC's #8, #9, #6, ...

........................................................................
.............................. CYCLE   59 ..............................
........................................................................

 iter      E             dE          RMSdq      gap      omega  full diag
   1   -115.3258948 -0.115326E+03  0.222E-01    0.00       0.0  T
   2   -115.2991676  0.267271E-01  0.402E-01    0.42       1.0  T
   3   -115.3226181 -0.234505E-01  0.249E-01    0.18       1.0  T
   4   -115.3294183 -0.680016E-02  0.144E-01    0.09       1.0  T
   5   -115.2920573  0.373610E-01  0.411E-01    0.08       1.0  T
   6   -115.3303243 -0.382670E-01  0.100E-01    0.07       1.0  T
   7   -115.3324849 -0.216059E-02  0.319E-02    0.05       1.0  T
   8   -115.3324748  0.100734E-04  0.296E-02    0.05       1.0  T
   9   -115.3326646 -0.189788E-03  0.838E-03    0.05       1.3  T
  10   -115.3326662 -0.159174E-05  0.754E-03    0.05       1.4  T
  11   -115.3326750 -0.877044E-05  0.402E-03    0.05       2.7  T
  12   -115.3326761 -0.112114E-05  0.323E-03    0.04       3.4  T
  13   -115.3326784 -0.229863E-05  0.693E-04    0.05      15.6  T
  14   -115.3326783  0.263989E-07  0.705E-04    0.05      15.4  T
  15   -115.3326784 -0.576400E-07  0.465E-04    0.05      23.3  T
     SCC iter.                  ...        0 min,  0.181 sec
     gradient                   ...        0 min,  0.015 sec
 * total energy  :  -113.7797858 Eh     change       -0.4086092E-03 Eh
   gradient norm :     0.0111164 Eh/α   predicted    -0.1072762E-02 ( 162.54%)
   displ. norm   :     0.1696833 α      lambda       -0.5845510E-03
   maximum displ.:     0.0910080 α      in ANC's #9, #8, #18, ...

........................................................................
.............................. CYCLE   60 ..............................
........................................................................

 iter      E             dE          RMSdq      gap      omega  full diag
   1   -115.3393820 -0.115339E+03  0.651E-02    0.05       0.0  T
   2   -115.3206402  0.187418E-01  0.285E-01    0.03       1.0  T
   3   -115.3394896 -0.188495E-01  0.408E-02    0.05       1.0  T
   4   -115.3381564  0.133322E-02  0.836E-02    0.03       1.0  T
   5   -115.3390580 -0.901590E-03  0.434E-02    0.03       1.0  T
   6   -115.3395107 -0.452673E-03  0.121E-02    0.04       1.0  T
   7   -115.3395359 -0.252315E-04  0.524E-03    0.04       2.1  T
   8   -115.3395402 -0.430050E-05  0.222E-03    0.05       4.9  T
   9   -115.3395408 -0.572376E-06  0.110E-03    0.05       9.9  T
  10   -115.3395409 -0.946089E-07  0.746E-04    0.05      14.5  T
  11   -115.3395408  0.907229E-07  0.826E-04    0.05      13.1  T
     SCC iter.                  ...        0 min,  0.124 sec
     gradient                   ...        0 min,  0.016 sec
 * total energy  :  -113.7801694 Eh     change       -0.3836041E-03 Eh
   gradient norm :     0.0055261 Eh/α   predicted    -0.3006944E-03 ( -21.61%)
   displ. norm   :     0.2764666 α      lambda       -0.3357007E-03
   maximum displ.:     0.1419871 α      in ANC's #6, #8, #9, ...

........................................................................
.............................. CYCLE   61 ..............................
........................................................................

 iter      E             dE          RMSdq      gap      omega  full diag
   1   -115.3455426 -0.115346E+03  0.781E-02    0.06       0.0  T
   2   -115.3221281  0.234145E-01  0.317E-01    0.04       1.0  T
   3   -115.3450464 -0.229183E-01  0.665E-02    0.06       1.0  T
   4   -115.3446307  0.415720E-03  0.776E-02    0.03       1.0  T
   5   -115.3455996 -0.968894E-03  0.239E-02    0.04       1.0  T
   6   -115.3457034 -0.103831E-03  0.939E-03    0.05       1.2  T
   7   -115.3457231 -0.196520E-04  0.330E-03    0.05       3.3  T
   8   -115.3457236 -0.509356E-06  0.258E-03    0.05       4.2  T
   9   -115.3457251 -0.147740E-05  0.100E-03    0.05      10.8  T
  10   -115.3457252 -0.981279E-07  0.643E-04    0.05      16.9  T
  11   -115.3457252 -0.177367E-07  0.496E-04    0.05      21.9  T
     SCC iter.                  ...        0 min,  0.128 sec
     gradient                   ...        0 min,  0.017 sec
 * total energy  :  -113.7803619 Eh     change       -0.1924513E-03 Eh
   gradient norm :     0.0061414 Eh/α   predicted    -0.1806836E-03 (  -6.11%)
   displ. norm   :     0.1842252 α      lambda       -0.1980170E-03
   maximum displ.:     0.0821617 α      in ANC's #6, #18, #11, ...

........................................................................
.............................. CYCLE   62 ..............................
........................................................................

 iter      E             dE          RMSdq      gap      omega  full diag
   1   -115.3460241 -0.115346E+03  0.826E-02    0.04       0.0  T
   2   -115.3361471  0.987698E-02  0.209E-01    0.15       1.0  T
   3   -115.3411499 -0.500276E-02  0.150E-01    0.00       1.0  T
   4   -115.3435906 -0.244068E-02  0.111E-01    0.08       1.0  T
   5   -115.3453121 -0.172154E-02  0.642E-02    0.07       1.0  T
   6   -115.3459645 -0.652361E-03  0.361E-02    0.06       1.0  T
   7   -115.3462468 -0.282304E-03  0.137E-02    0.05       1.0  T
   8   -115.3462907 -0.439553E-04  0.242E-03    0.05       4.5  T
   9   -115.3462912 -0.527205E-06  0.180E-03    0.05       6.0  T
  10   -115.3462911  0.131586E-06  0.190E-03    0.05       5.7  T
  11   -115.3462916 -0.506304E-06  0.104E-03    0.05      10.4  T
  12   -115.3462919 -0.244849E-06  0.335E-04    0.05      32.4  T
  13   -115.3462919  0.181042E-07  0.409E-04    0.05      26.5  T
     SCC iter.                  ...        0 min,  0.203 sec
     gradient                   ...        0 min,  0.014 sec
 * total energy  :  -113.7804744 Eh     change       -0.1125391E-03 Eh
   gradient norm :     0.0043144 Eh/α   predicted    -0.1023766E-03 (  -9.03%)
   displ. norm   :     0.2370056 α      lambda       -0.1271328E-03
   maximum displ.:     0.1229609 α      in ANC's #6, #8, #9, ...

........................................................................
.............................. CYCLE   63 ..............................
........................................................................

 iter      E             dE          RMSdq      gap      omega  full diag
   1   -115.3455580 -0.115346E+03  0.549E-02    0.04       0.0  T
   2   -115.3446101  0.947847E-03  0.718E-02    0.07       1.0  T
   3   -115.3382036  0.640652E-02  0.175E-01    0.00       1.0  T
   4   -115.3447169 -0.651330E-02  0.630E-02    0.06       1.0  T
   5   -115.3455326 -0.815675E-03  0.151E-02    0.05       1.0  T
   6   -115.3455428 -0.102118E-04  0.112E-02    0.05       1.0  T
   7   -115.3455719 -0.291404E-04  0.410E-03    0.05       2.6  T
   8   -115.3455753 -0.336841E-05  0.130E-03    0.05       8.3  T
   9   -115.3455753 -0.155428E-07  0.128E-03    0.05       8.5  T
  10   -115.3455754 -0.106123E-06  0.923E-04    0.05      11.8  T
  11   -115.3455756 -0.193099E-06  0.349E-04    0.05      31.1  T
     SCC iter.                  ...        0 min,  0.126 sec
     gradient                   ...        0 min,  0.013 sec
 * total energy  :  -113.7805663 Eh     change       -0.9184177E-04 Eh
   gradient norm :     0.0037136 Eh/α   predicted    -0.6713837E-04 ( -26.90%)
   displ. norm   :     0.2241139 α      lambda       -0.1396042E-03
   maximum displ.:     0.1123535 α      in ANC's #6, #9, #8, ...

........................................................................
.............................. CYCLE   64 ..............................
........................................................................

 iter      E             dE          RMSdq      gap      omega  full diag
   1   -115.3448362 -0.115345E+03  0.749E-02    0.05       0.0  T
   2   -115.3448101  0.261099E-04  0.479E-02    0.05       1.0  T
   3   -115.3439005  0.909623E-03  0.675E-02    0.04       1.0  T
   4   -115.3436028  0.297718E-03  0.723E-02    0.07       1.0  T
   5   -115.3446049 -0.100212E-02  0.319E-02    0.04       1.0  T
   6   -115.3448295 -0.224625E-03  0.908E-03    0.05       1.2  T
   7   -115.3448496 -0.201117E-04  0.273E-03    0.05       4.0  T
   8   -115.3448503 -0.674921E-06  0.200E-03    0.05       5.4  T
   9   -115.3448508 -0.524165E-06  0.123E-03    0.05       8.8  T
  10   -115.3448510 -0.125610E-06  0.839E-04    0.05      12.9  T
  11   -115.3448511 -0.129111E-06  0.385E-04    0.05      28.2  T
     SCC iter.                  ...        0 min,  0.121 sec
     gradient                   ...        0 min,  0.014 sec
 * total energy  :  -113.7806528 Eh     change       -0.8655376E-04 Eh
   gradient norm :     0.0035531 Eh/α   predicted    -0.7331121E-04 ( -15.30%)
   displ. norm   :     0.1678339 α      lambda       -0.8036184E-04
   maximum displ.:     0.0805658 α      in ANC's #6, #2, #5, ...

........................................................................
.............................. CYCLE   65 ..............................
........................................................................

 iter      E             dE          RMSdq      gap      omega  full diag
   1   -115.3442836 -0.115344E+03  0.598E-02    0.05       0.0  T
   2   -115.3428489  0.143470E-02  0.859E-02    0.02       1.0  T
   3   -115.3401590  0.268988E-02  0.133E-01    0.10       1.0  T
   4   -115.3439633 -0.380425E-02  0.384E-02    0.05       1.0  T
   5   -115.3441655 -0.202293E-03  0.234E-02    0.05       1.0  T
   6   -115.3442552 -0.896039E-04  0.135E-02    0.05       1.0  T
   7   -115.3442918 -0.366643E-04  0.582E-03    0.05       1.9  T
   8   -115.3442994 -0.755609E-05  0.929E-04    0.05      11.7  T
   9   -115.3442986  0.752866E-06  0.185E-03    0.05       5.9  T
  10   -115.3442994 -0.757715E-06  0.652E-04    0.05      16.6  T
  11   -115.3442994 -0.564944E-07  0.319E-04    0.05      34.0  T
     SCC iter.                  ...        0 min,  0.133 sec
     gradient                   ...        0 min,  0.014 sec
 * total energy  :  -113.7807111 Eh     change       -0.5829842E-04 Eh
   gradient norm :     0.0036014 Eh/α   predicted    -0.4131684E-04 ( -29.13%)
   displ. norm   :     0.2368011 α      lambda       -0.1085496E-03
   maximum displ.:     0.1009051 α      in ANC's #6, #5, #2, ...

........................................................................
.............................. CYCLE   66 ..............................
........................................................................

 iter      E             dE          RMSdq      gap      omega  full diag
   1   -115.3436856 -0.115344E+03  0.862E-02    0.05       0.0  T
   2   -115.3436427  0.429413E-04  0.547E-02    0.05       1.0  T
   3   -115.3253729  0.182697E-01  0.273E-01    0.03       1.0  T
   4   -115.3423886 -0.170156E-01  0.760E-02    0.07       1.0  T
   5   -115.3436607 -0.127216E-02  0.122E-02    0.05       1.0  T
   6   -115.3436862 -0.254926E-04  0.537E-03    0.05       2.0  T
   7   -115.3436923 -0.604056E-05  0.297E-03    0.05       3.7  T
   8   -115.3436933 -0.105207E-05  0.165E-03    0.05       6.6  T
   9   -115.3436933 -0.421926E-07  0.144E-03    0.05       7.6  T
  10   -115.3436936 -0.271998E-06  0.794E-04    0.05      13.7  T
  11   -115.3436938 -0.141267E-06  0.266E-04    0.05      40.8  T
     SCC iter.                  ...        0 min,  0.116 sec
     gradient                   ...        0 min,  0.013 sec
 * total energy  :  -113.7807868 Eh     change       -0.7572920E-04 Eh
   gradient norm :     0.0033201 Eh/α   predicted    -0.5732118E-04 ( -24.31%)
   displ. norm   :     0.2470732 α      lambda       -0.1018631E-03
   maximum displ.:     0.1068059 α      in ANC's #6, #5, #10, ...
 * RMSD in coord.:     1.1110071 α      energy gain  -0.1399434E-01 Eh

generating ANC from exact Hessian ...
Using Lindh-Hessian (1995)
 Shifting diagonal of input Hessian by   1.027762982258673E-002
 Lowest  eigenvalues of input Hessian
    0.010000    0.010082    0.010124    0.010172    0.000000    0.000000
    0.000000    0.000000    0.000000    0.000000    0.010340    0.010385
    0.010429    0.010596    0.010750    0.010810    0.011021    0.011186
 Highest eigenvalues
    1.973512    2.032373    2.063551    2.113209    2.218008    2.264580
 

........................................................................
.............................. CYCLE   67 ..............................
........................................................................

 iter      E             dE          RMSdq      gap      omega  full diag
   1   -115.3438056 -0.115344E+03  0.884E-02    0.05       0.0  T
   2   -115.3420570  0.174867E-02  0.103E-01    0.02       1.0  T
   3   -115.3355103  0.654665E-02  0.188E-01    0.14       1.0  T
   4   -115.3432669 -0.775658E-02  0.544E-02    0.06       1.0  T
   5   -115.3432432  0.236548E-04  0.486E-02    0.06       1.0  T
   6   -115.3436555 -0.412223E-03  0.268E-02    0.05       1.0  T
   7   -115.3437980 -0.142523E-03  0.109E-02    0.05       1.0  T
   8   -115.3438253 -0.272818E-04  0.169E-03    0.05       6.4  T
   9   -115.3438251  0.166559E-06  0.164E-03    0.05       6.6  T
  10   -115.3438255 -0.446473E-06  0.889E-04    0.05      12.2  T
  11   -115.3438256 -0.961689E-07  0.502E-04    0.05      21.6  T
     SCC iter.                  ...        0 min,  0.110 sec
     gradient                   ...        0 min,  0.014 sec
 * total energy  :  -113.7808569 Eh     change       -0.7010716E-04 Eh
   gradient norm :     0.0033886 Eh/α   predicted     0.0000000E+00 (-100.00%)
   displ. norm   :     0.0839319 α      lambda       -0.9933500E-04
   maximum displ.:     0.0572361 α      in ANC's #5, #7, #8, ...

........................................................................
.............................. CYCLE   68 ..............................
........................................................................

 iter      E             dE          RMSdq      gap      omega  full diag
   1   -115.3442536 -0.115344E+03  0.273E-02    0.04       0.0  T
   2   -115.3434889  0.764647E-03  0.593E-02    0.07       1.0  T
   3   -115.3436951 -0.206117E-03  0.501E-02    0.03       1.0  T
   4   -115.3440513 -0.356279E-03  0.282E-02    0.05       1.0  T
   5   -115.3442565 -0.205160E-03  0.587E-03    0.05       1.8  T
   6   -115.3442603 -0.377203E-05  0.316E-03    0.05       3.4  T
   7   -115.3442619 -0.159064E-05  0.168E-03    0.05       6.5  T
   8   -115.3442625 -0.616008E-06  0.396E-04    0.05      27.4  T
   9   -115.3442625  0.244125E-07  0.479E-04    0.05      22.6  T
     SCC iter.                  ...        0 min,  0.095 sec
     gradient                   ...        0 min,  0.013 sec
 * total energy  :  -113.7809456 Eh     change       -0.8868911E-04 Eh
   gradient norm :     0.0020584 Eh/α   predicted    -0.5002466E-04 ( -43.60%)
   displ. norm   :     0.2733126 α      lambda       -0.2679796E-03
   maximum displ.:     0.1703420 α      in ANC's #5, #7, #8, ...

........................................................................
.............................. CYCLE   69 ..............................
........................................................................

 iter      E             dE          RMSdq      gap      omega  full diag
   1   -115.3452722 -0.115345E+03  0.868E-02    0.04       0.0  T
   2   -115.3424532  0.281902E-02  0.123E-01    0.09       1.0  T
   3   -115.3300531  0.124000E-01  0.253E-01    0.02       1.0  T
   4   -115.3432666 -0.132135E-01  0.917E-02    0.07       1.0  T
   5   -115.3450804 -0.181379E-02  0.342E-02    0.06       1.0  T
   6   -115.3451424 -0.619878E-04  0.271E-02    0.05       1.0  T
   7   -115.3452626 -0.120205E-03  0.157E-02    0.05       1.0  T
   8   -115.3453119 -0.493302E-04  0.582E-03    0.05       1.9  T
   9   -115.3453193 -0.734500E-05  0.168E-03    0.05       6.5  T
  10   -115.3453197 -0.397460E-06  0.724E-04    0.05      15.0  T
  11   -115.3453197 -0.657608E-07  0.422E-04    0.05      25.7  T
     SCC iter.                  ...        0 min,  0.138 sec
     gradient                   ...        0 min,  0.015 sec
 * total energy  :  -113.7811441 Eh     change       -0.1984831E-03 Eh
   gradient norm :     0.0033425 Eh/α   predicted    -0.1440366E-03 ( -27.43%)
   displ. norm   :     0.3975667 α      lambda       -0.3275491E-03
   maximum displ.:     0.2378374 α      in ANC's #5, #7, #8, ...

........................................................................
.............................. CYCLE   70 ..............................
........................................................................

 iter      E             dE          RMSdq      gap      omega  full diag
   1   -115.3459388 -0.115346E+03  0.132E-01    0.04       0.0  T
   2   -115.3433770  0.256173E-02  0.133E-01    0.09       1.0  T
   3   -115.2926804  0.506967E-01  0.475E-01    0.11       1.0  T
   4   -115.3413902 -0.487098E-01  0.139E-01    0.08       1.0  T
   5   -115.3458427 -0.445257E-02  0.287E-02    0.05       1.0  T
   6   -115.3459373 -0.946084E-04  0.161E-02    0.05       1.0  T
   7   -115.3459837 -0.463775E-04  0.791E-03    0.05       1.4  T
   8   -115.3459969 -0.132456E-04  0.224E-03    0.05       4.9  T
   9   -115.3459971 -0.118889E-06  0.174E-03    0.05       6.2  T
  10   -115.3459973 -0.230478E-06  0.110E-03    0.05       9.9  T
  11   -115.3459975 -0.165437E-06  0.574E-04    0.05      18.9  T
  12   -115.3459975 -0.636587E-07  0.216E-04    0.05      50.1  T
     SCC iter.                  ...        0 min,  0.212 sec
     gradient                   ...        0 min,  0.017 sec
 * total energy  :  -113.7813434 Eh     change       -0.1993131E-03 Eh
   gradient norm :     0.0062394 Eh/α   predicted    -0.1896612E-03 (  -4.84%)
   displ. norm   :     0.3245115 α      lambda       -0.2304062E-03
   maximum displ.:     0.1967943 α      in ANC's #5, #7, #8, ...

........................................................................
.............................. CYCLE   71 ..............................
........................................................................

 iter      E             dE          RMSdq      gap      omega  full diag
   1   -115.3459477 -0.115346E+03  0.912E-02    0.05       0.0  T
   2   -115.3458997  0.479791E-04  0.587E-02    0.04       1.0  T
   3   -115.3436046  0.229515E-02  0.106E-01    0.07       1.0  T
   4   -115.3366808  0.692378E-02  0.195E-01    0.01       1.0  T
   5   -115.3458984 -0.921757E-02  0.180E-02    0.05       1.0  T
   6   -115.3459553 -0.569047E-04  0.485E-03    0.05       2.2  T
   7   -115.3459594 -0.415066E-05  0.266E-03    0.05       4.1  T
   8   -115.3459606 -0.119320E-05  0.119E-03    0.05       9.1  T
   9   -115.3459608 -0.176199E-06  0.648E-04    0.05      16.7  T
  10   -115.3459608 -0.152995E-07  0.476E-04    0.05      22.8  T
     SCC iter.                  ...        0 min,  0.126 sec
     gradient                   ...        0 min,  0.013 sec
 * total energy  :  -113.7815405 Eh     change       -0.1971065E-03 Eh
   gradient norm :     0.0060192 Eh/α   predicted    -0.1273352E-03 ( -35.40%)
   displ. norm   :     0.4306378 α      lambda       -0.3214515E-03
   maximum displ.:     0.2545580 α      in ANC's #5, #7, #8, ...

........................................................................
.............................. CYCLE   72 ..............................
........................................................................

 iter      E             dE          RMSdq      gap      omega  full diag
   1   -115.3454443 -0.115345E+03  0.119E-01    0.05       0.0  T
   2   -115.3447002  0.744098E-03  0.922E-02    0.03       1.0  T
   3   -115.3309951  0.137052E-01  0.244E-01    0.21       1.0  T
   4   -115.3440393 -0.130443E-01  0.858E-02    0.05       1.0  T
   5   -115.3440808 -0.414836E-04  0.767E-02    0.07       1.0  T
   6   -115.3448769 -0.796065E-03  0.484E-02    0.06       1.0  T
   7   -115.3454062 -0.529352E-03  0.173E-02    0.05       1.0  T
   8   -115.3454735 -0.673025E-04  0.232E-03    0.05       4.7  T
   9   -115.3454730  0.495051E-06  0.264E-03    0.05       4.1  T
  10   -115.3454742 -0.114810E-05  0.951E-04    0.05      11.4  T
  11   -115.3454742 -0.647066E-07  0.683E-04    0.05      15.9  T
  12   -115.3454742  0.248777E-07  0.728E-04    0.05      14.9  T
     SCC iter.                  ...        0 min,  0.123 sec
     gradient                   ...        0 min,  0.014 sec
 * total energy  :  -113.7818075 Eh     change       -0.2670016E-03 Eh
   gradient norm :     0.0040174 Eh/α   predicted    -0.1905326E-03 ( -28.64%)
   displ. norm   :     0.5631543 α      lambda       -0.3477778E-03
   maximum displ.:     0.3270854 α      in ANC's #5, #7, #8, ...

........................................................................
.............................. CYCLE   73 ..............................
........................................................................

 iter      E             dE          RMSdq      gap      omega  full diag
   1   -115.3441125 -0.115344E+03  0.149E-01    0.05       0.0  T
   2   -115.3438687  0.243848E-03  0.979E-02    0.04       1.0  T
   3   -115.3362172  0.765153E-02  0.196E-01    0.08       1.0  T
   4   -115.3217762  0.144410E-01  0.302E-01    0.04       1.0  T
   5   -115.3439796 -0.222034E-01  0.289E-02    0.05       1.0  T
   6   -115.3441255 -0.145904E-03  0.109E-02    0.05       1.0  T
   7   -115.3441518 -0.262907E-04  0.486E-03    0.05       2.2  T
   8   -115.3441558 -0.404815E-05  0.177E-03    0.05       6.1  T
   9   -115.3441559 -0.112744E-06  0.144E-03    0.05       7.5  T
  10   -115.3441561 -0.203507E-06  0.735E-04    0.05      14.8  T
  11   -115.3441562 -0.158898E-07  0.571E-04    0.05      19.0  T
     SCC iter.                  ...        0 min,  0.117 sec
     gradient                   ...        0 min,  0.012 sec
 * total energy  :  -113.7820853 Eh     change       -0.2777307E-03 Eh
   gradient norm :     0.0039927 Eh/α   predicted    -0.2290413E-03 ( -17.53%)
   displ. norm   :     0.5911694 α      lambda       -0.2989594E-03
   maximum displ.:     0.3381035 α      in ANC's #5, #7, #8, ...

........................................................................
.............................. CYCLE   74 ..............................
........................................................................

 iter      E             dE          RMSdq      gap      omega  full diag
   1   -115.3427559 -0.115343E+03  0.161E-01    0.05       0.0  T
   2   -115.3422801  0.475826E-03  0.109E-01    0.05       1.0  T
   3   -115.2937069  0.485732E-01  0.468E-01    0.08       1.0  T
   4   -115.3299609 -0.362539E-01  0.231E-01    0.15       1.0  T
   5   -115.3425218 -0.125609E-01  0.375E-02    0.05       1.0  T
   6   -115.3425783 -0.565053E-04  0.303E-02    0.06       1.0  T
   7   -115.3427802 -0.201924E-03  0.113E-02    0.05       1.0  T
   8   -115.3428079 -0.276415E-04  0.339E-03    0.05       3.2  T
   9   -115.3428086 -0.705396E-06  0.261E-03    0.05       4.2  T
  10   -115.3428061  0.251634E-05  0.366E-03    0.05       3.0  T
  11   -115.3428073 -0.121744E-05  0.293E-03    0.05       3.7  T
  12   -115.3428089 -0.161393E-05  0.104E-03    0.05      10.4  T
  13   -115.3428092 -0.262469E-06  0.221E-04    0.05      49.0  T
  14   -115.3428092 -0.717485E-08  0.819E-05    0.05     132.5  T
     SCC iter.                  ...        0 min,  0.173 sec
     gradient                   ...        0 min,  0.015 sec
 * total energy  :  -113.7823215 Eh     change       -0.2362731E-03 Eh
   gradient norm :     0.0052207 Eh/α   predicted    -0.2017211E-03 ( -14.62%)
   displ. norm   :     0.5526734 α      lambda       -0.2635940E-03
   maximum displ.:     0.3134657 α      in ANC's #7, #5, #8, ...

........................................................................
.............................. CYCLE   75 ..............................
........................................................................

 iter      E             dE          RMSdq      gap      omega  full diag
   1   -115.3425813 -0.115343E+03  0.147E-01    0.04       0.0  T
   2   -115.3407291  0.185211E-02  0.126E-01    0.07       1.0  T
   3   -115.2794423  0.612868E-01  0.521E-01    0.14       1.0  T
   4   -115.3352063 -0.557640E-01  0.181E-01    0.09       1.0  T
   5   -115.3425196 -0.731332E-02  0.229E-02    0.04       1.0  T
   6   -115.3426317 -0.112092E-03  0.696E-03    0.05       1.6  T
   7   -115.3426391 -0.745762E-05  0.460E-03    0.04       2.4  T
   8   -115.3426401 -0.916380E-06  0.390E-03    0.04       2.8  T
   9   -115.3426423 -0.219712E-05  0.215E-03    0.05       5.0  T
  10   -115.3426429 -0.597759E-06  0.778E-04    0.05      13.9  T
  11   -115.3426429 -0.687533E-07  0.378E-04    0.05      28.7  T
     SCC iter.                  ...        0 min,  0.120 sec
     gradient                   ...        0 min,  0.013 sec
 * total energy  :  -113.7825320 Eh     change       -0.2104650E-03 Eh
   gradient norm :     0.0051572 Eh/α   predicted    -0.1720547E-03 ( -18.25%)
   displ. norm   :     0.5299186 α      lambda       -0.2567858E-03
   maximum displ.:     0.3031397 α      in ANC's #7, #5, #8, ...

........................................................................
.............................. CYCLE   76 ..............................
........................................................................

 iter      E             dE          RMSdq      gap      omega  full diag
   1   -115.3440339 -0.115344E+03  0.143E-01    0.04       0.0  T
   2   -115.3405227  0.351118E-02  0.150E-01    0.09       1.0  T
   3   -115.2891448  0.513778E-01  0.485E-01    0.11       1.0  T
   4   -115.3379034 -0.487585E-01  0.169E-01    0.08       1.0  T
   5   -115.3439875 -0.608415E-02  0.260E-02    0.05       1.0  T
   6   -115.3440366 -0.490559E-04  0.177E-02    0.05       1.0  T
   7   -115.3441093 -0.726988E-04  0.628E-03    0.05       1.7  T
   8   -115.3441165 -0.723169E-05  0.236E-03    0.05       4.6  T
   9   -115.3441165  0.424023E-07  0.202E-03    0.05       5.4  T
  10   -115.3441170 -0.494073E-06  0.866E-04    0.05      12.5  T
  11   -115.3441170 -0.356376E-07  0.581E-04    0.05      18.7  T
     SCC iter.                  ...        0 min,  0.129 sec
     gradient                   ...        0 min,  0.015 sec
 * total energy  :  -113.7827269 Eh     change       -0.1949410E-03 Eh
   gradient norm :     0.0036933 Eh/α   predicted    -0.1644480E-03 ( -15.64%)
   displ. norm   :     0.4938159 α      lambda       -0.1982235E-03
   maximum displ.:     0.2834237 α      in ANC's #7, #5, #8, ...

........................................................................
.............................. CYCLE   77 ..............................
........................................................................

 iter      E             dE          RMSdq      gap      omega  full diag
   1   -115.3454251 -0.115345E+03  0.135E-01    0.04       0.0  T
   2   -115.3409384  0.448676E-02  0.161E-01    0.10       1.0  T
   3   -115.3009261  0.400122E-01  0.438E-01    0.09       1.0  T
   4   -115.3395882 -0.386620E-01  0.164E-01    0.08       1.0  T
   5   -115.3451627 -0.557458E-02  0.424E-02    0.06       1.0  T
   6   -115.3452466 -0.838511E-04  0.331E-02    0.06       1.0  T
   7   -115.3454693 -0.222749E-03  0.149E-02    0.05       1.0  T
   8   -115.3455151 -0.457442E-04  0.427E-03    0.05       2.5  T
   9   -115.3455176 -0.251924E-05  0.209E-03    0.05       5.2  T
  10   -115.3455182 -0.610071E-06  0.100E-03    0.04      10.8  T
  11   -115.3455183 -0.975434E-07  0.509E-04    0.04      21.3  T
  12   -115.3455183 -0.312784E-07  0.312E-04    0.04      34.8  T
     SCC iter.                  ...        0 min,  0.149 sec
     gradient                   ...        0 min,  0.013 sec
 * total energy  :  -113.7828669 Eh     change       -0.1399720E-03 Eh
   gradient norm :     0.0030759 Eh/α   predicted    -0.1232874E-03 ( -11.92%)
   displ. norm   :     0.4135400 α      lambda       -0.1185047E-03
   maximum displ.:     0.2366240 α      in ANC's #7, #5, #8, ...

........................................................................
.............................. CYCLE   78 ..............................
........................................................................

 iter      E             dE          RMSdq      gap      omega  full diag
   1   -115.3456103 -0.115346E+03  0.111E-01    0.04       0.0  T
   2   -115.3418862  0.372417E-02  0.143E-01    0.09       1.0  T
   3   -115.3150488  0.268374E-01  0.363E-01    0.06       1.0  T
   4   -115.3419241 -0.268754E-01  0.132E-01    0.07       1.0  T
   5   -115.3453394 -0.341523E-02  0.407E-02    0.06       1.0  T
   6   -115.3454124 -0.729941E-04  0.328E-02    0.06       1.0  T
   7   -115.3456192 -0.206805E-03  0.159E-02    0.05       1.0  T
   8   -115.3456693 -0.501197E-04  0.530E-03    0.05       2.0  T
   9   -115.3456742 -0.492510E-05  0.200E-03    0.04       5.4  T
  10   -115.3456749 -0.682773E-06  0.763E-04    0.04      14.2  T
  11   -115.3456750 -0.647734E-07  0.361E-04    0.04      30.1  T
     SCC iter.                  ...        0 min,  0.116 sec
     gradient                   ...        0 min,  0.013 sec
 * total energy  :  -113.7829522 Eh     change       -0.8529066E-04 Eh
   gradient norm :     0.0030352 Eh/α   predicted    -0.6938882E-04 ( -18.64%)
   displ. norm   :     0.2957927 α      lambda       -0.8114913E-04
   maximum displ.:     0.1666119 α      in ANC's #7, #8, #5, ...

........................................................................
.............................. CYCLE   79 ..............................
........................................................................

 iter      E             dE          RMSdq      gap      omega  full diag
   1   -115.3463262 -0.115346E+03  0.825E-02    0.04       0.0  T
   2   -115.3440966  0.222966E-02  0.110E-01    0.08       1.0  T
   3   -115.3286446  0.154520E-01  0.277E-01    0.03       1.0  T
   4   -115.3444580 -0.158134E-01  0.934E-02    0.06       1.0  T
   5   -115.3461967 -0.173876E-02  0.284E-02    0.05       1.0  T
   6   -115.3462341 -0.373203E-04  0.226E-02    0.05       1.0  T
   7   -115.3463326 -0.985772E-04  0.111E-02    0.05       1.0  T
   8   -115.3463581 -0.254539E-04  0.291E-03    0.05       3.7  T
   9   -115.3463596 -0.147935E-05  0.972E-04    0.04      11.2  T
  10   -115.3463597 -0.871723E-07  0.618E-04    0.04      17.5  T
  11   -115.3463597 -0.545347E-07  0.339E-04    0.04      32.0  T
     SCC iter.                  ...        0 min,  0.116 sec
     gradient                   ...        0 min,  0.013 sec
 * total energy  :  -113.7830130 Eh     change       -0.6082804E-04 Eh
   gradient norm :     0.0027631 Eh/α   predicted    -0.4412778E-04 ( -27.45%)
   displ. norm   :     0.2754449 α      lambda       -0.7943493E-04
   maximum displ.:     0.1462405 α      in ANC's #7, #8, #6, ...

........................................................................
.............................. CYCLE   80 ..............................
........................................................................

 iter      E             dE          RMSdq      gap      omega  full diag
   1   -115.3468119 -0.115347E+03  0.818E-02    0.04       0.0  T
   2   -115.3460079  0.804076E-03  0.772E-02    0.06       1.0  T
   3   -115.3160805  0.299273E-01  0.363E-01    0.06       1.0  T
   4   -115.3454919 -0.294114E-01  0.787E-02    0.06       1.0  T
   5   -115.3467856 -0.129373E-02  0.151E-02    0.05       1.0  T
   6   -115.3467972 -0.115640E-04  0.108E-02    0.05       1.0  T
   7   -115.3468221 -0.249365E-04  0.461E-03    0.05       2.4  T
   8   -115.3468265 -0.433395E-05  0.953E-04    0.04      11.4  T
   9   -115.3468264  0.550648E-07  0.924E-04    0.04      11.7  T
  10   -115.3468265 -0.507837E-07  0.677E-04    0.04      16.0  T
     SCC iter.                  ...        0 min,  0.101 sec
     gradient                   ...        0 min,  0.015 sec
 * total energy  :  -113.7830702 Eh     change       -0.5720532E-04 Eh
   gradient norm :     0.0024952 Eh/α   predicted    -0.4273184E-04 ( -25.30%)
   displ. norm   :     0.2694836 α      lambda       -0.7205594E-04
   maximum displ.:     0.1316106 α      in ANC's #7, #8, #6, ...

........................................................................
.............................. CYCLE   81 ..............................
........................................................................

 iter      E             dE          RMSdq      gap      omega  full diag
   1   -115.3466258 -0.115347E+03  0.830E-02    0.04       0.0  T
   2   -115.3465152  0.110508E-03  0.558E-02    0.05       1.0  T
   3   -115.3192155  0.272997E-01  0.347E-01    0.05       1.0  T
   4   -115.3443786 -0.251631E-01  0.983E-02    0.07       1.0  T
   5   -115.3465974 -0.221876E-02  0.135E-02    0.04       1.0  T
   6   -115.3466208 -0.234584E-04  0.729E-03    0.05       1.5  T
   7   -115.3466328 -0.119470E-04  0.309E-03    0.05       3.5  T
   8   -115.3466344 -0.166330E-05  0.102E-03    0.04      10.7  T
   9   -115.3466344  0.443310E-07  0.990E-04    0.04      11.0  T
  10   -115.3466344 -0.576853E-07  0.737E-04    0.04      14.7  T
     SCC iter.                  ...        0 min,  0.101 sec
     gradient                   ...        0 min,  0.015 sec
 * total energy  :  -113.7831224 Eh     change       -0.5210924E-04 Eh
   gradient norm :     0.0026030 Eh/α   predicted    -0.3864706E-04 ( -25.83%)
   displ. norm   :     0.2732459 α      lambda       -0.6799083E-04
   maximum displ.:     0.1174298 α      in ANC's #7, #8, #11, ...

........................................................................
.............................. CYCLE   82 ..............................
........................................................................

 iter      E             dE          RMSdq      gap      omega  full diag
   1   -115.3463548 -0.115346E+03  0.870E-02    0.05       0.0  T
   2   -115.3459701  0.384670E-03  0.678E-02    0.03       1.0  T
   3   -115.3343146  0.116555E-01  0.223E-01    0.17       1.0  T
   4   -115.3458523 -0.115377E-01  0.547E-02    0.05       1.0  T
   5   -115.3460092 -0.156895E-03  0.399E-02    0.06       1.0  T
   6   -115.3462459 -0.236783E-03  0.216E-02    0.05       1.0  T
   7   -115.3463587 -0.112744E-03  0.602E-03    0.05       1.8  T
   8   -115.3463647 -0.602651E-05  0.251E-03    0.04       4.3  T
   9   -115.3463660 -0.132517E-05  0.868E-04    0.04      12.5  T
  10   -115.3463661 -0.590374E-07  0.571E-04    0.04      19.0  T
  11   -115.3463661 -0.377131E-07  0.272E-04    0.04      39.9  T
     SCC iter.                  ...        0 min,  0.121 sec
     gradient                   ...        0 min,  0.014 sec
 * total energy  :  -113.7831743 Eh     change       -0.5194548E-04 Eh
   gradient norm :     0.0028678 Eh/α   predicted    -0.3653665E-04 ( -29.66%)
   displ. norm   :     0.2997521 α      lambda       -0.7846190E-04
   maximum displ.:     0.1162889 α      in ANC's #8, #7, #9, ...

........................................................................
.............................. CYCLE   83 ..............................
........................................................................

 iter      E             dE          RMSdq      gap      omega  full diag
   1   -115.3461263 -0.115346E+03  0.938E-02    0.05       0.0  T
   2   -115.3434504  0.267596E-02  0.122E-01    0.01       1.0  T
   3   -115.3383069  0.514348E-02  0.186E-01    0.13       1.0  T
   4   -115.3450249 -0.671797E-02  0.816E-02    0.06       1.0  T
   5   -115.3456183 -0.593419E-03  0.495E-02    0.06       1.0  T
   6   -115.3458987 -0.280441E-03  0.326E-02    0.06       1.0  T
   7   -115.3461108 -0.212103E-03  0.144E-02    0.05       1.0  T
   8   -115.3461571 -0.463144E-04  0.229E-03    0.05       4.7  T
   9   -115.3461578 -0.634767E-06  0.156E-03    0.05       6.9  T
  10   -115.3461581 -0.336703E-06  0.715E-04    0.05      15.2  T
  11   -115.3461582 -0.503748E-07  0.428E-04    0.05      25.4  T
     SCC iter.                  ...        0 min,  0.120 sec
     gradient                   ...        0 min,  0.014 sec
 * total energy  :  -113.7832317 Eh     change       -0.5743405E-04 Eh
   gradient norm :     0.0030329 Eh/α   predicted    -0.4275783E-04 ( -25.55%)
   displ. norm   :     0.2990692 α      lambda       -0.8350702E-04
   maximum displ.:     0.1185090 α      in ANC's #9, #8, #3, ...

........................................................................
.............................. CYCLE   84 ..............................
........................................................................

 iter      E             dE          RMSdq      gap      omega  full diag
   1   -115.3456075 -0.115346E+03  0.104E-01    0.05       0.0  T
   2   -115.3401090  0.549851E-02  0.166E-01    0.00       1.0  T
   3   -115.3389826  0.112634E-02  0.175E-01    0.12       1.0  T
   4   -115.3441109 -0.512832E-02  0.942E-02    0.06       1.0  T
   5   -115.3449676 -0.856618E-03  0.557E-02    0.06       1.0  T
   6   -115.3453026 -0.335016E-03  0.384E-02    0.06       1.0  T
   7   -115.3455669 -0.264372E-03  0.199E-02    0.05       1.0  T
   8   -115.3456464 -0.794147E-04  0.698E-03    0.05       1.6  T
   9   -115.3456554 -0.905926E-05  0.313E-03    0.05       3.5  T
  10   -115.3456572 -0.180664E-05  0.922E-04    0.05      11.8  T
  11   -115.3456573 -0.111119E-06  0.496E-04    0.05      21.9  T
  12   -115.3456573 -0.147542E-07  0.414E-04    0.05      26.2  T
     SCC iter.                  ...        0 min,  0.135 sec
     gradient                   ...        0 min,  0.015 sec
 * total energy  :  -113.7832885 Eh     change       -0.5676828E-04 Eh
   gradient norm :     0.0032601 Eh/α   predicted    -0.4549200E-04 ( -19.86%)
   displ. norm   :     0.2456522 α      lambda       -0.7383723E-04
   maximum displ.:     0.1025574 α      in ANC's #9, #3, #8, ...

........................................................................
.............................. CYCLE   85 ..............................
........................................................................

 iter      E             dE          RMSdq      gap      omega  full diag
   1   -115.3460749 -0.115346E+03  0.815E-02    0.05       0.0  T
   2   -115.3442057  0.186926E-02  0.103E-01    0.02       1.0  T
   3   -115.3395246  0.468110E-02  0.169E-01    0.12       1.0  T
   4   -115.3451926 -0.566804E-02  0.714E-02    0.05       1.0  T
   5   -115.3457743 -0.581723E-03  0.386E-02    0.06       1.0  T
   6   -115.3459289 -0.154621E-03  0.263E-02    0.06       1.0  T
   7   -115.3460651 -0.136182E-03  0.119E-02    0.05       1.0  T
   8   -115.3460965 -0.313606E-04  0.220E-03    0.05       4.9  T
   9   -115.3460973 -0.804511E-06  0.119E-03    0.05       9.1  T
  10   -115.3460974 -0.154155E-06  0.624E-04    0.05      17.4  T
  11   -115.3460975 -0.357880E-07  0.382E-04    0.05      28.4  T
     SCC iter.                  ...        0 min,  0.146 sec
     gradient                   ...        0 min,  0.016 sec
 * total energy  :  -113.7833465 Eh     change       -0.5803488E-04 Eh
   gradient norm :     0.0032946 Eh/α   predicted    -0.3914754E-04 ( -32.54%)
   displ. norm   :     0.2756183 α      lambda       -0.8808354E-04
   maximum displ.:     0.1240324 α      in ANC's #3, #9, #5, ...

........................................................................
.............................. CYCLE   86 ..............................
........................................................................

 iter      E             dE          RMSdq      gap      omega  full diag
   1   -115.3464012 -0.115346E+03  0.958E-02    0.05       0.0  T
   2   -115.3453147  0.108650E-02  0.912E-02    0.03       1.0  T
   3   -115.3353537  0.996106E-02  0.216E-01    0.17       1.0  T
   4   -115.3454643 -0.101107E-01  0.725E-02    0.06       1.0  T
   5   -115.3457256 -0.261309E-03  0.545E-02    0.06       1.0  T
   6   -115.3461996 -0.473979E-03  0.295E-02    0.06       1.0  T
   7   -115.3463960 -0.196355E-03  0.100E-02    0.05       1.1  T
   8   -115.3464183 -0.223296E-04  0.160E-03    0.05       6.8  T
   9   -115.3464178  0.482896E-06  0.220E-03    0.05       4.9  T
  10   -115.3464187 -0.843827E-06  0.809E-04    0.05      13.4  T
  11   -115.3464187 -0.756499E-07  0.403E-04    0.05      26.9  T
     SCC iter.                  ...        0 min,  0.117 sec
     gradient                   ...        0 min,  0.014 sec
 * total energy  :  -113.7834190 Eh     change       -0.7247581E-04 Eh
   gradient norm :     0.0032947 Eh/α   predicted    -0.4738970E-04 ( -34.61%)
   displ. norm   :     0.3502335 α      lambda       -0.1086684E-03
   maximum displ.:     0.1646180 α      in ANC's #3, #9, #5, ...

........................................................................
.............................. CYCLE   87 ..............................
........................................................................

 iter      E             dE          RMSdq      gap      omega  full diag
   1   -115.3465176 -0.115347E+03  0.122E-01    0.05       0.0  T
   2   -115.3461036  0.414019E-03  0.875E-02    0.03       1.0  T
   3   -115.3301610  0.159426E-01  0.257E-01    0.23       1.0  T
   4   -115.3459280 -0.157670E-01  0.590E-02    0.06       1.0  T
   5   -115.3459375 -0.950745E-05  0.488E-02    0.06       1.0  T
   6   -115.3464757 -0.538254E-03  0.144E-02    0.05       1.0  T
   7   -115.3465168 -0.411067E-04  0.898E-03    0.05       1.2  T
   8   -115.3465324 -0.155912E-04  0.229E-03    0.05       4.7  T
   9   -115.3465329 -0.453284E-06  0.169E-03    0.05       6.4  T
  10   -115.3465332 -0.283125E-06  0.101E-03    0.05      10.7  T
  11   -115.3465333 -0.127563E-06  0.530E-04    0.05      20.5  T
  12   -115.3465333 -0.138450E-07  0.491E-04    0.05      22.1  T
     SCC iter.                  ...        0 min,  0.151 sec
     gradient                   ...        0 min,  0.027 sec
 * total energy  :  -113.7835067 Eh     change       -0.8773327E-04 Eh
   gradient norm :     0.0033510 Eh/α   predicted    -0.6100371E-04 ( -30.47%)
   displ. norm   :     0.4002932 α      lambda       -0.1093764E-03
   maximum displ.:     0.1924386 α      in ANC's #3, #9, #5, ...

........................................................................
.............................. CYCLE   88 ..............................
........................................................................

 iter      E             dE          RMSdq      gap      omega  full diag
   1   -115.3460185 -0.115346E+03  0.136E-01    0.05       0.0  T
   2   -115.3459561  0.624022E-04  0.871E-02    0.04       1.0  T
   3   -115.3383321  0.762402E-02  0.179E-01    0.11       1.0  T
   4   -115.3314873  0.684478E-02  0.251E-01    0.02       1.0  T
   5   -115.3459409 -0.144536E-01  0.228E-02    0.05       1.0  T
   6   -115.3459850 -0.440247E-04  0.143E-02    0.05       1.0  T
   7   -115.3460241 -0.391852E-04  0.702E-03    0.05       1.5  T
   8   -115.3460342 -0.100441E-04  0.191E-03    0.05       5.7  T
   9   -115.3460347 -0.493260E-06  0.918E-04    0.05      11.8  T
  10   -115.3460346  0.118213E-06  0.102E-03    0.05      10.6  T
  11   -115.3460348 -0.208482E-06  0.411E-04    0.05      26.4  T
     SCC iter.                  ...        0 min,  0.145 sec
     gradient                   ...        0 min,  0.016 sec
 * total energy  :  -113.7835962 Eh     change       -0.8944852E-04 Eh
   gradient norm :     0.0035075 Eh/α   predicted    -0.6345625E-04 ( -29.06%)
   displ. norm   :     0.4350606 α      lambda       -0.1136089E-03
   maximum displ.:     0.2144493 α      in ANC's #3, #5, #9, ...

........................................................................
.............................. CYCLE   89 ..............................
........................................................................

 iter      E             dE          RMSdq      gap      omega  full diag
   1   -115.3455920 -0.115346E+03  0.143E-01    0.05       0.0  T
   2   -115.3455302  0.617483E-04  0.908E-02    0.04       1.0  T
   3   -115.3383146  0.721560E-02  0.175E-01    0.10       1.0  T
   4   -115.3301638  0.815082E-02  0.259E-01    0.02       1.0  T
   5   -115.3455382 -0.153743E-01  0.200E-02    0.05       1.0  T
   6   -115.3455589 -0.207694E-04  0.142E-02    0.05       1.0  T
   7   -115.3456019 -0.429616E-04  0.626E-03    0.05       1.7  T
   8   -115.3456090 -0.714208E-05  0.182E-03    0.05       6.0  T
   9   -115.3456094 -0.358441E-06  0.109E-03    0.05      10.0  T
  10   -115.3456093  0.112543E-06  0.117E-03    0.05       9.3  T
  11   -115.3456095 -0.239981E-06  0.584E-04    0.05      18.6  T
  12   -115.3456096 -0.631472E-07  0.219E-04    0.05      49.6  T
     SCC iter.                  ...        0 min,  0.162 sec
     gradient                   ...        0 min,  0.015 sec
 * total energy  :  -113.7836898 Eh     change       -0.9362455E-04 Eh
   gradient norm :     0.0035439 Eh/α   predicted    -0.6756152E-04 ( -27.84%)
   displ. norm   :     0.4601878 α      lambda       -0.1189754E-03
   maximum displ.:     0.2329557 α      in ANC's #3, #5, #9, ...

........................................................................
.............................. CYCLE   90 ..............................
........................................................................

 iter      E             dE          RMSdq      gap      omega  full diag
   1   -115.3454175 -0.115345E+03  0.145E-01    0.05       0.0  T
   2   -115.3452943  0.123157E-03  0.933E-02    0.04       1.0  T
   3   -115.3325262  0.127681E-01  0.231E-01    0.15       1.0  T
   4   -115.3351690 -0.264282E-02  0.212E-01    0.01       1.0  T
   5   -115.3451365 -0.996745E-02  0.383E-02    0.06       1.0  T
   6   -115.3452632 -0.126734E-03  0.270E-02    0.05       1.0  T
   7   -115.3454074 -0.144182E-03  0.121E-02    0.05       1.0  T
   8   -115.3454381 -0.306644E-04  0.244E-03    0.05       4.5  T
   9   -115.3454383 -0.209246E-06  0.202E-03    0.05       5.4  T
  10   -115.3454390 -0.677171E-06  0.101E-03    0.05      10.7  T
  11   -115.3454391 -0.981763E-07  0.637E-04    0.05      17.0  T
  12   -115.3454391 -0.753404E-07  0.278E-04    0.05      39.0  T
     SCC iter.                  ...        0 min,  0.163 sec
     gradient                   ...        0 min,  0.015 sec
 * total energy  :  -113.7837853 Eh     change       -0.9548593E-04 Eh
   gradient norm :     0.0034817 Eh/α   predicted    -0.7208890E-04 ( -24.50%)
   displ. norm   :     0.4526975 α      lambda       -0.1108578E-03
   maximum displ.:     0.2366545 α      in ANC's #3, #5, #2, ...

........................................................................
.............................. CYCLE   91 ..............................
........................................................................

 iter      E             dE          RMSdq      gap      omega  full diag
   1   -115.3455895 -0.115346E+03  0.136E-01    0.05       0.0  T
   2   -115.3451700  0.419540E-03  0.953E-02    0.03       1.0  T
   3   -115.3287357  0.164343E-01  0.265E-01    0.24       1.0  T
   4   -115.3448543 -0.161186E-01  0.630E-02    0.05       1.0  T
   5   -115.3447167  0.137568E-03  0.598E-02    0.07       1.0  T
   6   -115.3454620 -0.745321E-03  0.236E-02    0.05       1.0  T
   7   -115.3455809 -0.118889E-03  0.115E-02    0.05       1.0  T
   8   -115.3456080 -0.270986E-04  0.367E-03    0.04       3.0  T
   9   -115.3456099 -0.188550E-05  0.220E-03    0.05       4.9  T
  10   -115.3456106 -0.733522E-06  0.944E-04    0.05      11.5  T
  11   -115.3456107 -0.699724E-07  0.611E-04    0.05      17.8  T
     SCC iter.                  ...        0 min,  0.139 sec
     gradient                   ...        0 min,  0.016 sec
 * total energy  :  -113.7838713 Eh     change       -0.8600952E-04 Eh
   gradient norm :     0.0029230 Eh/α   predicted    -0.6679210E-04 ( -22.34%)
   displ. norm   :     0.4186322 α      lambda       -0.9294387E-04
   maximum displ.:     0.2251461 α      in ANC's #3, #5, #2, ...

........................................................................
.............................. CYCLE   92 ..............................
........................................................................

 iter      E             dE          RMSdq      gap      omega  full diag
   1   -115.3460714 -0.115346E+03  0.120E-01    0.05       0.0  T
   2   -115.3457062  0.365258E-03  0.852E-02    0.04       1.0  T
   3   -115.3305189  0.151873E-01  0.254E-01    0.21       1.0  T
   4   -115.3453745 -0.148557E-01  0.605E-02    0.04       1.0  T
   5   -115.3453311  0.434114E-04  0.563E-02    0.07       1.0  T
   6   -115.3458539 -0.522738E-03  0.305E-02    0.06       1.0  T
   7   -115.3460661 -0.212265E-03  0.105E-02    0.05       1.0  T
   8   -115.3460888 -0.226335E-04  0.297E-03    0.05       3.7  T
   9   -115.3460902 -0.139996E-05  0.149E-03    0.05       7.3  T
  10   -115.3460904 -0.261311E-06  0.789E-04    0.05      13.8  T
  11   -115.3460905 -0.384399E-07  0.550E-04    0.05      19.7  T
     SCC iter.                  ...        0 min,  0.173 sec
     gradient                   ...        0 min,  0.014 sec
 * total energy  :  -113.7839448 Eh     change       -0.7348564E-04 Eh
   gradient norm :     0.0028605 Eh/α   predicted    -0.5462108E-04 ( -25.67%)
   displ. norm   :     0.3860613 α      lambda       -0.8361260E-04
   maximum displ.:     0.2164507 α      in ANC's #3, #5, #2, ...
 * RMSD in coord.:     0.7813113 α      energy gain  -0.3157961E-02 Eh

generating ANC from exact Hessian ...
Using Lindh-Hessian (1995)
 Shifting diagonal of input Hessian by   1.028218416940558E-002
 Lowest  eigenvalues of input Hessian
    0.010000    0.010078    0.010134    0.000000    0.000000    0.000000
    0.000000    0.000000    0.000000    0.010379    0.010443    0.010453
    0.010591    0.010757    0.010813    0.010899    0.011114    0.011255
 Highest eigenvalues
    1.973890    2.034331    2.063625    2.116468    2.222197    2.265613
 

........................................................................
.............................. CYCLE   93 ..............................
........................................................................

 iter      E             dE          RMSdq      gap      omega  full diag
   1   -115.3467635 -0.115347E+03  0.105E-01    0.05       0.0  T
   2   -115.3456788  0.108475E-02  0.953E-02    0.03       1.0  T
   3   -115.3347345  0.109443E-01  0.228E-01    0.18       1.0  T
   4   -115.3455632 -0.108287E-01  0.797E-02    0.06       1.0  T
   5   -115.3457837 -0.220476E-03  0.638E-02    0.07       1.0  T
   6   -115.3465575 -0.773877E-03  0.309E-02    0.06       1.0  T
   7   -115.3467581 -0.200567E-03  0.104E-02    0.05       1.0  T
   8   -115.3467817 -0.236095E-04  0.410E-03    0.05       2.6  T
   9   -115.3467846 -0.291862E-05  0.121E-03    0.05       9.0  T
  10   -115.3467847 -0.104517E-06  0.865E-04    0.05      12.5  T
  11   -115.3467848 -0.849708E-07  0.498E-04    0.05      21.8  T
     SCC iter.                  ...        0 min,  0.121 sec
     gradient                   ...        0 min,  0.013 sec
 * total energy  :  -113.7840141 Eh     change       -0.6934097E-04 Eh
   gradient norm :     0.0028119 Eh/α   predicted     0.0000000E+00 (-100.00%)
   displ. norm   :     0.0385994 α      lambda       -0.3135316E-04
   maximum displ.:     0.0150562 α      in ANC's #3, #9, #17, ...

........................................................................
.............................. CYCLE   94 ..............................
........................................................................

 iter      E             dE          RMSdq      gap      omega  full diag
   1   -115.3468517 -0.115347E+03  0.212E-02    0.05       0.0  T
   2   -115.3467792  0.725554E-04  0.216E-02    0.04       1.0  T
   3   -115.3456084  0.117077E-02  0.736E-02    0.07       1.0  T
   4   -115.3468081 -0.119970E-02  0.159E-02    0.04       1.0  T
   5   -115.3468474 -0.393395E-04  0.496E-03    0.05       2.2  T
   6   -115.3468521 -0.463990E-05  0.210E-03    0.05       5.2  T
   7   -115.3468529 -0.840295E-06  0.894E-04    0.05      12.1  T
   8   -115.3468530 -0.145819E-06  0.370E-04    0.05      29.3  T
     SCC iter.                  ...        0 min,  0.090 sec
     gradient                   ...        0 min,  0.014 sec
 * total energy  :  -113.7840383 Eh     change       -0.2416953E-04 Eh
   gradient norm :     0.0018440 Eh/α   predicted    -0.1586462E-04 ( -34.36%)
   displ. norm   :     0.2395907 α      lambda       -0.1000409E-03
   maximum displ.:     0.1027290 α      in ANC's #3, #9, #4, ...

........................................................................
.............................. CYCLE   95 ..............................
........................................................................

 iter      E             dE          RMSdq      gap      omega  full diag
   1   -115.3467563 -0.115347E+03  0.942E-02    0.05       0.0  T
   2   -115.3448672  0.188910E-02  0.107E-01    0.02       1.0  T
   3   -115.3374897  0.737748E-02  0.203E-01    0.15       1.0  T
   4   -115.3461027 -0.861303E-02  0.689E-02    0.05       1.0  T
   5   -115.3460526  0.501715E-04  0.567E-02    0.07       1.0  T
   6   -115.3465678 -0.515272E-03  0.303E-02    0.06       1.0  T
   7   -115.3467712 -0.203353E-03  0.109E-02    0.05       1.0  T
   8   -115.3467953 -0.240833E-04  0.194E-03    0.05       5.6  T
   9   -115.3467954 -0.154399E-06  0.141E-03    0.05       7.7  T
  10   -115.3467951  0.311645E-06  0.177E-03    0.05       6.1  T
  11   -115.3467957 -0.593114E-06  0.639E-04    0.05      17.0  T
  12   -115.3467958 -0.687103E-07  0.291E-04    0.05      37.3  T
     SCC iter.                  ...        0 min,  0.122 sec
     gradient                   ...        0 min,  0.014 sec
 * total energy  :  -113.7840406 Eh     change       -0.2308859E-05 Eh
   gradient norm :     0.0053634 Eh/α   predicted    -0.5129897E-04 (2121.83%)
   displ. norm   :     0.0362966 α      lambda       -0.8094460E-04
   maximum displ.:     0.0147401 α      in ANC's #28, #29, #35, ...

........................................................................
.............................. CYCLE   96 ..............................
........................................................................

 iter      E             dE          RMSdq      gap      omega  full diag
   1   -115.3467052 -0.115347E+03  0.334E-02    0.05       0.0  T
   2   -115.3466737  0.314710E-04  0.238E-02    0.05       1.0  T
   3   -115.3402039  0.646979E-02  0.164E-01    0.00       1.0  T
   4   -115.3464617 -0.625780E-02  0.346E-02    0.05       1.0  T
   5   -115.3466914 -0.229665E-03  0.806E-03    0.05       1.3  T
   6   -115.3467062 -0.147475E-04  0.218E-03    0.05       5.0  T
   7   -115.3467065 -0.318915E-06  0.150E-03    0.05       7.2  T
   8   -115.3467069 -0.445505E-06  0.511E-04    0.05      21.2  T
   9   -115.3467069 -0.577261E-08  0.411E-04    0.05      26.4  T
     SCC iter.                  ...        0 min,  0.099 sec
     gradient                   ...        0 min,  0.015 sec
 * total energy  :  -113.7840950 Eh     change       -0.5442470E-04 Eh
   gradient norm :     0.0033297 Eh/α   predicted    -0.4052585E-04 ( -25.54%)
   displ. norm   :     0.0459966 α      lambda       -0.4899377E-04
   maximum displ.:     0.0158437 α      in ANC's #3, #35, #32, ...

........................................................................
.............................. CYCLE   97 ..............................
........................................................................

 iter      E             dE          RMSdq      gap      omega  full diag
   1   -115.3467187 -0.115347E+03  0.226E-02    0.05       0.0  T
   2   -115.3464404  0.278242E-03  0.372E-02    0.06       1.0  T
   3   -115.3460753  0.365147E-03  0.534E-02    0.03       1.0  T
   4   -115.3466254 -0.550128E-03  0.228E-02    0.05       1.0  T
   5   -115.3467044 -0.790094E-04  0.873E-03    0.05       1.2  T
   6   -115.3467221 -0.176571E-04  0.241E-03    0.05       4.5  T
   7   -115.3467225 -0.418961E-06  0.150E-03    0.05       7.2  T
   8   -115.3467230 -0.482998E-06  0.471E-04    0.05      23.0  T
   9   -115.3467230 -0.703224E-08  0.358E-04    0.05      30.3  T
     SCC iter.                  ...        0 min,  0.111 sec
     gradient                   ...        0 min,  0.019 sec
 * total energy  :  -113.7841236 Eh     change       -0.2854732E-04 Eh
   gradient norm :     0.0011402 Eh/α   predicted    -0.2455219E-04 ( -13.99%)
   displ. norm   :     0.1145615 α      lambda       -0.2568481E-04
   maximum displ.:     0.0610648 α      in ANC's #3, #9, #4, ...

........................................................................
.............................. CYCLE   98 ..............................
........................................................................

 iter      E             dE          RMSdq      gap      omega  full diag
   1   -115.3468176 -0.115347E+03  0.305E-02    0.05       0.0  T
   2   -115.3468040  0.136118E-04  0.207E-02    0.05       1.0  T
   3   -115.3454171  0.138690E-02  0.756E-02    0.03       1.0  T
   4   -115.3459367 -0.519602E-03  0.634E-02    0.07       1.0  T
   5   -115.3468063 -0.869586E-03  0.784E-03    0.05       1.4  T
   6   -115.3468190 -0.126895E-04  0.236E-03    0.05       4.6  T
   7   -115.3468196 -0.584720E-06  0.140E-03    0.05       7.7  T
   8   -115.3468200 -0.368483E-06  0.576E-04    0.05      18.8  T
   9   -115.3468200 -0.334148E-07  0.320E-04    0.05      33.9  T
     SCC iter.                  ...        0 min,  0.100 sec
     gradient                   ...        0 min,  0.014 sec
 * total energy  :  -113.7841520 Eh     change       -0.2841365E-04 Eh
   gradient norm :     0.0014912 Eh/α   predicted    -0.1291820E-04 ( -54.54%)
   displ. norm   :     0.2605699 α      lambda       -0.4613332E-04
   maximum displ.:     0.1344377 α      in ANC's #3, #9, #4, ...

........................................................................
.............................. CYCLE   99 ..............................
........................................................................

 iter      E             dE          RMSdq      gap      omega  full diag
   1   -115.3469174 -0.115347E+03  0.697E-02    0.05       0.0  T
   2   -115.3468557  0.617284E-04  0.468E-02    0.04       1.0  T
   3   -115.3416742  0.518142E-02  0.157E-01    0.11       1.0  T
   4   -115.3429405 -0.126625E-02  0.128E-01    0.01       1.0  T
   5   -115.3467853 -0.384486E-02  0.244E-02    0.05       1.0  T
   6   -115.3468974 -0.112101E-03  0.112E-02    0.05       1.0  T
   7   -115.3469193 -0.218284E-04  0.531E-03    0.05       2.0  T
   8   -115.3469256 -0.631956E-05  0.114E-03    0.05       9.5  T
   9   -115.3469256  0.230546E-07  0.108E-03    0.05      10.1  T
  10   -115.3469258 -0.200703E-06  0.554E-04    0.05      19.6  T
  11   -115.3469258 -0.511100E-07  0.227E-04    0.05      47.8  T
     SCC iter.                  ...        0 min,  0.107 sec
     gradient                   ...        0 min,  0.014 sec
 * total energy  :  -113.7842090 Eh     change       -0.5697496E-04 Eh
   gradient norm :     0.0020716 Eh/α   predicted    -0.2376645E-04 ( -58.29%)
   displ. norm   :     0.3193731 α      lambda       -0.7423754E-04
   maximum displ.:     0.1639543 α      in ANC's #3, #9, #4, ...

........................................................................
.............................. CYCLE  100 ..............................
........................................................................

 iter      E             dE          RMSdq      gap      omega  full diag
   1   -115.3467840 -0.115347E+03  0.869E-02    0.05       0.0  T
   2   -115.3466382  0.145839E-03  0.597E-02    0.04       1.0  T
   3   -115.3378812  0.875697E-02  0.202E-01    0.14       1.0  T
   4   -115.3431073 -0.522611E-02  0.123E-01    0.02       1.0  T
   5   -115.3464261 -0.331882E-02  0.399E-02    0.06       1.0  T
   6   -115.3466869 -0.260796E-03  0.215E-02    0.05       1.0  T
   7   -115.3467820 -0.950451E-04  0.817E-03    0.05       1.3  T
   8   -115.3467969 -0.148872E-04  0.147E-03    0.05       7.4  T
   9   -115.3467966  0.290829E-06  0.168E-03    0.05       6.5  T
  10   -115.3467972 -0.598744E-06  0.661E-04    0.05      16.4  T
  11   -115.3467972 -0.426445E-07  0.419E-04    0.05      25.9  T
     SCC iter.                  ...        0 min,  0.142 sec
     gradient                   ...        0 min,  0.016 sec
 * total energy  :  -113.7842665 Eh     change       -0.5753278E-04 Eh
   gradient norm :     0.0019362 Eh/α   predicted    -0.4090503E-04 ( -28.90%)
   displ. norm   :     0.5603343 α      lambda       -0.6810641E-04
   maximum displ.:     0.2926100 α      in ANC's #3, #9, #4, ...

........................................................................
.............................. CYCLE  101 ..............................
........................................................................

 iter      E             dE          RMSdq      gap      omega  full diag
   1   -115.3461777 -0.115346E+03  0.150E-01    0.05       0.0  T
   2   -115.3458091  0.368642E-03  0.101E-01    0.04       1.0  T
   3   -115.3308570  0.149521E-01  0.271E-01    0.19       1.0  T
   4   -115.3380522 -0.719525E-02  0.182E-01    0.00       1.0  T
   5   -115.3444890 -0.643680E-02  0.862E-02    0.08       1.0  T
   6   -115.3456015 -0.111247E-02  0.507E-02    0.07       1.0  T
   7   -115.3460903 -0.488767E-03  0.233E-02    0.06       1.0  T
   8   -115.3462049 -0.114612E-03  0.725E-03    0.05       1.5  T
   9   -115.3462166 -0.117225E-04  0.181E-03    0.05       6.0  T
  10   -115.3462169 -0.270820E-06  0.115E-03    0.05       9.5  T
  11   -115.3462170 -0.906974E-07  0.816E-04    0.05      13.3  T
  12   -115.3462170 -0.526698E-07  0.594E-04    0.05      18.3  T
     SCC iter.                  ...        0 min,  0.127 sec
     gradient                   ...        0 min,  0.014 sec
 * total energy  :  -113.7843361 Eh     change       -0.6960058E-04 Eh
   gradient norm :     0.0020006 Eh/α   predicted    -0.3880630E-04 ( -44.24%)
   displ. norm   :     0.2152779 α      lambda       -0.3777630E-04
   maximum displ.:     0.1187774 α      in ANC's #3, #4, #5, ...

........................................................................
.............................. CYCLE  102 ..............................
........................................................................

 iter      E             dE          RMSdq      gap      omega  full diag
   1   -115.3467560 -0.115347E+03  0.563E-02    0.05       0.0  T
   2   -115.3465972  0.158875E-03  0.435E-02    0.06       1.0  T
   3   -115.3305513  0.160459E-01  0.261E-01    0.03       1.0  T
   4   -115.3455946 -0.150433E-01  0.753E-02    0.06       1.0  T
   5   -115.3466857 -0.109119E-02  0.174E-02    0.05       1.0  T
   6   -115.3467554 -0.696075E-04  0.649E-03    0.05       1.7  T
   7   -115.3467586 -0.323538E-05  0.464E-03    0.05       2.3  T
   8   -115.3467632 -0.463253E-05  0.148E-03    0.05       7.3  T
   9   -115.3467635 -0.319257E-06  0.653E-04    0.05      16.6  T
  10   -115.3467636 -0.644110E-07  0.301E-04    0.05      36.1  T
     SCC iter.                  ...        0 min,  0.103 sec
     gradient                   ...        0 min,  0.014 sec
 * total energy  :  -113.7843689 Eh     change       -0.3283125E-04 Eh
   gradient norm :     0.0016975 Eh/α   predicted    -0.1976377E-04 ( -39.80%)
   displ. norm   :     0.4456912 α      lambda       -0.6388207E-04
   maximum displ.:     0.2520761 α      in ANC's #3, #4, #5, ...

........................................................................
.............................. CYCLE  103 ..............................
........................................................................

 iter      E             dE          RMSdq      gap      omega  full diag
   1   -115.3484470 -0.115348E+03  0.116E-01    0.05       0.0  T
   2   -115.3479040  0.543013E-03  0.859E-02    0.06       1.0  T
   3   -115.3012404  0.466636E-01  0.449E-01    0.09       1.0  T
   4   -115.3429098 -0.416694E-01  0.163E-01    0.09       1.0  T
   5   -115.3481592 -0.524944E-02  0.357E-02    0.06       1.0  T
   6   -115.3484594 -0.300162E-03  0.119E-02    0.05       1.0  T
   7   -115.3484708 -0.114192E-04  0.825E-03    0.05       1.3  T
   8   -115.3484840 -0.132132E-04  0.326E-03    0.05       3.3  T
   9   -115.3484853 -0.129214E-05  0.193E-03    0.05       5.6  T
  10   -115.3484853  0.256377E-07  0.166E-03    0.05       6.5  T
  11   -115.3484859 -0.577344E-06  0.607E-04    0.05      17.9  T
  12   -115.3484859 -0.188026E-07  0.458E-04    0.05      23.7  T
     SCC iter.                  ...        0 min,  0.137 sec
     gradient                   ...        0 min,  0.016 sec
 * total energy  :  -113.7844375 Eh     change       -0.6857722E-04 Eh
   gradient norm :     0.0015418 Eh/α   predicted    -0.3476595E-04 ( -49.30%)
   displ. norm   :     0.3719461 α      lambda       -0.4137542E-04
   maximum displ.:     0.2148379 α      in ANC's #3, #5, #4, ...

........................................................................
.............................. CYCLE  104 ..............................
........................................................................

 iter      E             dE          RMSdq      gap      omega  full diag
   1   -115.3479891 -0.115348E+03  0.939E-02    0.05       0.0  T
   2   -115.3478987  0.904037E-04  0.612E-02    0.05       1.0  T
   3   -115.3454625  0.243624E-02  0.116E-01    0.06       1.0  T
   4   -115.3415239  0.393852E-02  0.169E-01    0.00       1.0  T
   5   -115.3475906 -0.606661E-02  0.400E-02    0.06       1.0  T
   6   -115.3480036 -0.413084E-03  0.631E-03    0.05       1.7  T
   7   -115.3480066 -0.295971E-05  0.435E-03    0.05       2.5  T
   8   -115.3480106 -0.399165E-05  0.138E-03    0.05       7.9  T
   9   -115.3480107 -0.111142E-06  0.885E-04    0.05      12.3  T
  10   -115.3480107 -0.492567E-07  0.710E-04    0.05      15.3  T
     SCC iter.                  ...        0 min,  0.133 sec
     gradient                   ...        0 min,  0.014 sec
 * total energy  :  -113.7844789 Eh     change       -0.4137480E-04 Eh
   gradient norm :     0.0017668 Eh/α   predicted    -0.2196314E-04 ( -46.92%)
   displ. norm   :     0.2922676 α      lambda       -0.3578372E-04
   maximum displ.:     0.1710953 α      in ANC's #3, #5, #1, ...

........................................................................
.............................. CYCLE  105 ..............................
........................................................................

 iter      E             dE          RMSdq      gap      omega  full diag
   1   -115.3474821 -0.115347E+03  0.735E-02    0.05       0.0  T
   2   -115.3474136  0.684848E-04  0.482E-02    0.04       1.0  T
   3   -115.3433895  0.402407E-02  0.138E-01    0.09       1.0  T
   4   -115.3410885  0.230108E-02  0.167E-01    0.00       1.0  T
   5   -115.3472710 -0.618259E-02  0.298E-02    0.06       1.0  T
   6   -115.3474750 -0.203970E-03  0.103E-02    0.05       1.1  T
   7   -115.3474866 -0.116250E-04  0.648E-03    0.05       1.7  T
   8   -115.3474960 -0.939180E-05  0.135E-03    0.05       8.1  T
   9   -115.3474961 -0.350706E-07  0.103E-03    0.05      10.5  T
  10   -115.3474962 -0.147730E-06  0.648E-04    0.05      16.7  T
  11   -115.3474963 -0.473672E-07  0.369E-04    0.05      29.4  T
     SCC iter.                  ...        0 min,  0.123 sec
     gradient                   ...        0 min,  0.014 sec
 * total energy  :  -113.7845136 Eh     change       -0.3469698E-04 Eh
   gradient norm :     0.0018454 Eh/α   predicted    -0.1857153E-04 ( -46.48%)
   displ. norm   :     0.2091538 α      lambda       -0.2824681E-04
   maximum displ.:     0.1208152 α      in ANC's #3, #5, #1, ...

........................................................................
.............................. CYCLE  106 ..............................
........................................................................

 iter      E             dE          RMSdq      gap      omega  full diag
   1   -115.3480172 -0.115348E+03  0.556E-02    0.05       0.0  T
   2   -115.3468458  0.117140E-02  0.793E-02    0.03       1.0  T
   3   -115.3449715  0.187431E-02  0.117E-01    0.09       1.0  T
   4   -115.3477076 -0.273610E-02  0.445E-02    0.05       1.0  T
   5   -115.3479280 -0.220439E-03  0.212E-02    0.05       1.0  T
   6   -115.3480025 -0.745062E-04  0.120E-02    0.05       1.0  T
   7   -115.3480231 -0.205714E-04  0.666E-03    0.05       1.6  T
   8   -115.3480332 -0.100918E-04  0.120E-03    0.05       9.0  T
   9   -115.3480329  0.289560E-06  0.172E-03    0.05       6.3  T
  10   -115.3480334 -0.485729E-06  0.751E-04    0.05      14.4  T
  11   -115.3480335 -0.116159E-06  0.281E-04    0.05      38.6  T
     SCC iter.                  ...        0 min,  0.116 sec
     gradient                   ...        0 min,  0.014 sec
 * total energy  :  -113.7845464 Eh     change       -0.3283977E-04 Eh
   gradient norm :     0.0014651 Eh/α   predicted    -0.1440359E-04 ( -56.14%)
   displ. norm   :     0.2555294 α      lambda       -0.3481481E-04
   maximum displ.:     0.1438643 α      in ANC's #3, #5, #1, ...

........................................................................
.............................. CYCLE  107 ..............................
........................................................................

 iter      E             dE          RMSdq      gap      omega  full diag
   1   -115.3476811 -0.115348E+03  0.731E-02    0.05       0.0  T
   2   -115.3445761  0.310498E-02  0.124E-01    0.01       1.0  T
   3   -115.3442010  0.375089E-03  0.128E-01    0.10       1.0  T
   4   -115.3471388 -0.293780E-02  0.575E-02    0.05       1.0  T
   5   -115.3475499 -0.411123E-03  0.279E-02    0.06       1.0  T
   6   -115.3476133 -0.633893E-04  0.208E-02    0.05       1.0  T
   7   -115.3476900 -0.767076E-04  0.105E-02    0.05       1.0  T
   8   -115.3477145 -0.245031E-04  0.157E-03    0.05       6.9  T
   9   -115.3477143  0.245674E-06  0.166E-03    0.05       6.5  T
  10   -115.3477148 -0.520728E-06  0.785E-04    0.05      13.8  T
  11   -115.3477149 -0.827105E-07  0.388E-04    0.05      28.0  T
     SCC iter.                  ...        0 min,  0.117 sec
     gradient                   ...        0 min,  0.016 sec
 * total energy  :  -113.7845830 Eh     change       -0.3656338E-04 Eh
   gradient norm :     0.0012595 Eh/α   predicted    -0.1791494E-04 ( -51.00%)
   displ. norm   :     0.2190916 α      lambda       -0.2513388E-04
   maximum displ.:     0.1214401 α      in ANC's #3, #5, #8, ...

........................................................................
.............................. CYCLE  108 ..............................
........................................................................

 iter      E             dE          RMSdq      gap      omega  full diag
   1   -115.3474910 -0.115347E+03  0.662E-02    0.05       0.0  T
   2   -115.3447602  0.273076E-02  0.115E-01    0.02       1.0  T
   3   -115.3445464  0.213762E-03  0.117E-01    0.09       1.0  T
   4   -115.3469478 -0.240130E-02  0.561E-02    0.05       1.0  T
   5   -115.3474288 -0.481013E-03  0.220E-02    0.05       1.0  T
   6   -115.3474521 -0.233152E-04  0.172E-02    0.05       1.0  T
   7   -115.3475031 -0.510542E-04  0.889E-03    0.05       1.2  T
   8   -115.3475201 -0.170135E-04  0.210E-03    0.05       5.2  T
   9   -115.3475206 -0.437276E-06  0.132E-03    0.05       8.2  T
  10   -115.3475208 -0.238086E-06  0.809E-04    0.05      13.4  T
  11   -115.3475209 -0.112382E-06  0.417E-04    0.05      26.0  T
     SCC iter.                  ...        0 min,  0.155 sec
     gradient                   ...        0 min,  0.015 sec
 * total energy  :  -113.7846074 Eh     change       -0.2435765E-04 Eh
   gradient norm :     0.0015366 Eh/α   predicted    -0.1283759E-04 ( -47.30%)
   displ. norm   :     0.1914145 α      lambda       -0.2193495E-04
   maximum displ.:     0.1032245 α      in ANC's #3, #8, #5, ...

........................................................................
.............................. CYCLE  109 ..............................
........................................................................

 iter      E             dE          RMSdq      gap      omega  full diag
   1   -115.3477721 -0.115348E+03  0.633E-02    0.05       0.0  T
   2   -115.3462659  0.150622E-02  0.886E-02    0.02       1.0  T
   3   -115.3437995  0.246636E-02  0.133E-01    0.10       1.0  T
   4   -115.3472838 -0.348433E-02  0.504E-02    0.05       1.0  T
   5   -115.3476964 -0.412576E-03  0.219E-02    0.05       1.0  T
   6   -115.3477225 -0.261395E-04  0.171E-02    0.05       1.0  T
   7   -115.3477724 -0.498992E-04  0.889E-03    0.05       1.2  T
   8   -115.3477889 -0.164164E-04  0.256E-03    0.05       4.2  T
   9   -115.3477900 -0.113831E-05  0.958E-04    0.05      11.3  T
  10   -115.3477901 -0.133266E-06  0.576E-04    0.05      18.8  T
  11   -115.3477902 -0.445389E-07  0.333E-04    0.05      32.6  T
     SCC iter.                  ...        0 min,  0.123 sec
     gradient                   ...        0 min,  0.015 sec
 * total energy  :  -113.7846284 Eh     change       -0.2103439E-04 Eh
   gradient norm :     0.0016977 Eh/α   predicted    -0.1114829E-04 ( -47.00%)
   displ. norm   :     0.1985408 α      lambda       -0.2515920E-04
   maximum displ.:     0.1062296 α      in ANC's #3, #8, #13, ...

........................................................................
.............................. CYCLE  110 ..............................
........................................................................

 iter      E             dE          RMSdq      gap      omega  full diag
   1   -115.3482710 -0.115348E+03  0.640E-02    0.05       0.0  T
   2   -115.3478776  0.393353E-03  0.561E-02    0.04       1.0  T
   3   -115.3404924  0.738521E-02  0.179E-01    0.13       1.0  T
   4   -115.3478576 -0.736519E-02  0.473E-02    0.05       1.0  T
   5   -115.3481660 -0.308366E-03  0.241E-02    0.06       1.0  T
   6   -115.3482253 -0.592988E-04  0.156E-02    0.05       1.0  T
   7   -115.3482737 -0.484403E-04  0.613E-03    0.05       1.8  T
   8   -115.3482819 -0.816363E-05  0.106E-03    0.05      10.2  T
   9   -115.3482818  0.870811E-07  0.114E-03    0.05       9.5  T
  10   -115.3482820 -0.252538E-06  0.509E-04    0.05      21.3  T
  11   -115.3482821 -0.375888E-07  0.261E-04    0.05      41.6  T
     SCC iter.                  ...        0 min,  0.120 sec
     gradient                   ...        0 min,  0.014 sec
 * total energy  :  -113.7846538 Eh     change       -0.2539039E-04 Eh
   gradient norm :     0.0016459 Eh/α   predicted    -0.1280418E-04 ( -49.57%)
   displ. norm   :     0.2356582 α      lambda       -0.2889187E-04
   maximum displ.:     0.1291934 α      in ANC's #3, #8, #13, ...

........................................................................
.............................. CYCLE  111 ..............................
........................................................................

 iter      E             dE          RMSdq      gap      omega  full diag
   1   -115.3481777 -0.115348E+03  0.758E-02    0.05       0.0  T
   2   -115.3478862  0.291420E-03  0.574E-02    0.04       1.0  T
   3   -115.3378282  0.100581E-01  0.205E-01    0.15       1.0  T
   4   -115.3476343 -0.980614E-02  0.548E-02    0.04       1.0  T
   5   -115.3479963 -0.361963E-03  0.302E-02    0.06       1.0  T
   6   -115.3481157 -0.119418E-03  0.179E-02    0.05       1.0  T
   7   -115.3481819 -0.662137E-04  0.634E-03    0.05       1.7  T
   8   -115.3481908 -0.889666E-05  0.114E-03    0.05       9.5  T
   9   -115.3481908 -0.373160E-07  0.918E-04    0.05      11.8  T
  10   -115.3481909 -0.899984E-07  0.593E-04    0.05      18.3  T
     SCC iter.                  ...        0 min,  0.108 sec
     gradient                   ...        0 min,  0.014 sec
 * total energy  :  -113.7846826 Eh     change       -0.2881721E-04 Eh
   gradient norm :     0.0016519 Eh/α   predicted    -0.1480558E-04 ( -48.62%)
   displ. norm   :     0.2312310 α      lambda       -0.2917433E-04
   maximum displ.:     0.1223641 α      in ANC's #3, #8, #11, ...

........................................................................
.............................. CYCLE  112 ..............................
........................................................................

 iter      E             dE          RMSdq      gap      omega  full diag
   1   -115.3482621 -0.115348E+03  0.788E-02    0.05       0.0  T
   2   -115.3481729  0.892276E-04  0.518E-02    0.04       1.0  T
   3   -115.3401292  0.804367E-02  0.178E-01    0.12       1.0  T
   4   -115.3451353 -0.500605E-02  0.121E-01    0.01       1.0  T
   5   -115.3482045 -0.306923E-02  0.185E-02    0.05       1.0  T
   6   -115.3482384 -0.338922E-04  0.122E-02    0.05       1.0  T
   7   -115.3482662 -0.277788E-04  0.562E-03    0.05       1.9  T
   8   -115.3482730 -0.687233E-05  0.905E-04    0.05      12.0  T
   9   -115.3482727  0.292073E-06  0.132E-03    0.05       8.2  T
  10   -115.3482731 -0.348137E-06  0.517E-04    0.05      21.0  T
  11   -115.3482731 -0.285805E-07  0.261E-04    0.05      41.5  T
     SCC iter.                  ...        0 min,  0.120 sec
     gradient                   ...        0 min,  0.014 sec
 * total energy  :  -113.7847106 Eh     change       -0.2805465E-04 Eh
   gradient norm :     0.0018624 Eh/α   predicted    -0.1493881E-04 ( -46.75%)
   displ. norm   :     0.2236893 α      lambda       -0.2606402E-04
   maximum displ.:     0.1183865 α      in ANC's #3, #8, #11, ...

........................................................................
.............................. CYCLE  113 ..............................
........................................................................

 iter      E             dE          RMSdq      gap      omega  full diag
   1   -115.3479558 -0.115348E+03  0.787E-02    0.05       0.0  T
   2   -115.3478187  0.137102E-03  0.545E-02    0.05       1.0  T
   3   -115.3280491  0.197697E-01  0.300E-01    0.04       1.0  T
   4   -115.3446843 -0.166352E-01  0.115E-01    0.08       1.0  T
   5   -115.3479404 -0.325610E-02  0.127E-02    0.05       1.0  T
   6   -115.3479415 -0.105690E-05  0.107E-02    0.05       1.0  T
   7   -115.3479647 -0.232209E-04  0.485E-03    0.05       2.2  T
   8   -115.3479691 -0.437970E-05  0.141E-03    0.05       7.7  T
   9   -115.3479693 -0.243588E-06  0.883E-04    0.05      12.3  T
  10   -115.3479694 -0.765439E-07  0.610E-04    0.05      17.8  T
     SCC iter.                  ...        0 min,  0.108 sec
     gradient                   ...        0 min,  0.014 sec
 * total energy  :  -113.7847391 Eh     change       -0.2849046E-04 Eh
   gradient norm :     0.0018827 Eh/α   predicted    -0.1332303E-04 ( -53.24%)
   displ. norm   :     0.2729359 α      lambda       -0.3012453E-04
   maximum displ.:     0.1379304 α      in ANC's #3, #8, #11, ...

........................................................................
.............................. CYCLE  114 ..............................
........................................................................

 iter      E             dE          RMSdq      gap      omega  full diag
   1   -115.3474048 -0.115347E+03  0.983E-02    0.05       0.0  T
   2   -115.3460592  0.134556E-02  0.970E-02    0.03       1.0  T
   3   -115.3369824  0.907682E-02  0.211E-01    0.17       1.0  T
   4   -115.3464316 -0.944920E-02  0.762E-02    0.06       1.0  T
   5   -115.3467144 -0.282746E-03  0.553E-02    0.07       1.0  T
   6   -115.3472293 -0.514992E-03  0.289E-02    0.06       1.0  T
   7   -115.3474156 -0.186253E-03  0.848E-03    0.05       1.3  T
   8   -115.3474304 -0.148337E-04  0.319E-03    0.05       3.4  T
   9   -115.3474320 -0.156965E-05  0.126E-03    0.05       8.6  T
  10   -115.3474322 -0.229297E-06  0.802E-04    0.05      13.5  T
  11   -115.3474322 -0.158724E-07  0.655E-04    0.05      16.6  T
     SCC iter.                  ...        0 min,  0.120 sec
     gradient                   ...        0 min,  0.014 sec
 * total energy  :  -113.7847712 Eh     change       -0.3203190E-04 Eh
   gradient norm :     0.0015746 Eh/α   predicted    -0.1556205E-04 ( -51.42%)
   displ. norm   :     0.2704498 α      lambda       -0.2654506E-04
   maximum displ.:     0.1354738 α      in ANC's #3, #8, #18, ...

........................................................................
.............................. CYCLE  115 ..............................
........................................................................

 iter      E             dE          RMSdq      gap      omega  full diag
   1   -115.3467614 -0.115347E+03  0.957E-02    0.05       0.0  T
   2   -115.3466606  0.100763E-03  0.636E-02    0.05       1.0  T
   3   -115.3414966  0.516405E-02  0.149E-01    0.09       1.0  T
   4   -115.3307424  0.107542E-01  0.264E-01    0.03       1.0  T
   5   -115.3466962 -0.159538E-01  0.205E-02    0.05       1.0  T
   6   -115.3467543 -0.581392E-04  0.105E-02    0.05       1.0  T
   7   -115.3467730 -0.187475E-04  0.588E-03    0.05       1.8  T
   8   -115.3467806 -0.752355E-05  0.146E-03    0.05       7.4  T
   9   -115.3467808 -0.213607E-06  0.897E-04    0.05      12.1  T
  10   -115.3467807  0.758558E-07  0.981E-04    0.05      11.1  T
     SCC iter.                  ...        0 min,  0.106 sec
     gradient                   ...        0 min,  0.018 sec
 * total energy  :  -113.7847976 Eh     change       -0.2643122E-04 Eh
   gradient norm :     0.0016904 Eh/α   predicted    -0.1370675E-04 ( -48.14%)
   displ. norm   :     0.2237377 α      lambda       -0.2186618E-04
   maximum displ.:     0.1120682 α      in ANC's #3, #8, #6, ...

........................................................................
.............................. CYCLE  116 ..............................
........................................................................

 iter      E             dE          RMSdq      gap      omega  full diag
   1   -115.3468997 -0.115347E+03  0.791E-02    0.05       0.0  T
   2   -115.3431497  0.375004E-02  0.135E-01    0.01       1.0  T
   3   -115.3432082 -0.585533E-04  0.132E-01    0.10       1.0  T
   4   -115.3460937 -0.288547E-02  0.684E-02    0.06       1.0  T
   5   -115.3467703 -0.676604E-03  0.290E-02    0.06       1.0  T
   6   -115.3468220 -0.516669E-04  0.222E-02    0.05       1.0  T
   7   -115.3469026 -0.806383E-04  0.124E-02    0.05       1.0  T
   8   -115.3469355 -0.329154E-04  0.340E-03    0.05       3.2  T
   9   -115.3469377 -0.220470E-05  0.899E-04    0.05      12.1  T
  10   -115.3469378 -0.775527E-07  0.574E-04    0.05      18.9  T
  11   -115.3469378 -0.144700E-07  0.520E-04    0.05      20.9  T
     SCC iter.                  ...        0 min,  0.145 sec
     gradient                   ...        0 min,  0.019 sec
 * total energy  :  -113.7848216 Eh     change       -0.2402090E-04 Eh
   gradient norm :     0.0015893 Eh/α   predicted    -0.1118024E-04 ( -53.46%)
   displ. norm   :     0.2287962 α      lambda       -0.2324798E-04
   maximum displ.:     0.1190182 α      in ANC's #3, #8, #6, ...

........................................................................
.............................. CYCLE  117 ..............................
........................................................................

 iter      E             dE          RMSdq      gap      omega  full diag
   1   -115.3471792 -0.115347E+03  0.744E-02    0.05       0.0  T
   2   -115.3449717  0.220754E-02  0.107E-01    0.02       1.0  T
   3   -115.3424753  0.249642E-02  0.146E-01    0.11       1.0  T
   4   -115.3465007 -0.402548E-02  0.612E-02    0.05       1.0  T
   5   -115.3470344 -0.533649E-03  0.295E-02    0.06       1.0  T
   6   -115.3470931 -0.587256E-04  0.219E-02    0.05       1.0  T
   7   -115.3471750 -0.819235E-04  0.116E-02    0.05       1.0  T
   8   -115.3472050 -0.299368E-04  0.257E-03    0.05       4.2  T
   9   -115.3472060 -0.989181E-06  0.120E-03    0.05       9.1  T
  10   -115.3472062 -0.214466E-06  0.622E-04    0.05      17.5  T
  11   -115.3472062 -0.287304E-07  0.482E-04    0.05      22.5  T
     SCC iter.                  ...        0 min,  0.125 sec
     gradient                   ...        0 min,  0.015 sec
 * total energy  :  -113.7848485 Eh     change       -0.2688012E-04 Eh
   gradient norm :     0.0015263 Eh/α   predicted    -0.1189721E-04 ( -55.74%)
   displ. norm   :     0.2380977 α      lambda       -0.2408611E-04
   maximum displ.:     0.1287688 α      in ANC's #3, #5, #12, ...

........................................................................
.............................. CYCLE  118 ..............................
........................................................................

 iter      E             dE          RMSdq      gap      omega  full diag
   1   -115.3475234 -0.115348E+03  0.717E-02    0.05       0.0  T
   2   -115.3449408  0.258259E-02  0.113E-01    0.02       1.0  T
   3   -115.3435269  0.141389E-02  0.135E-01    0.10       1.0  T
   4   -115.3469874 -0.346046E-02  0.544E-02    0.06       1.0  T
   5   -115.3474190 -0.431645E-03  0.259E-02    0.06       1.0  T
   6   -115.3474570 -0.380516E-04  0.199E-02    0.05       1.0  T
   7   -115.3475300 -0.729613E-04  0.989E-03    0.05       1.1  T
   8   -115.3475507 -0.206677E-04  0.248E-03    0.05       4.4  T
   9   -115.3475515 -0.820802E-06  0.143E-03    0.05       7.6  T
  10   -115.3475519 -0.362255E-06  0.738E-04    0.05      14.7  T
  11   -115.3475519 -0.654183E-07  0.459E-04    0.05      23.6  T
     SCC iter.                  ...        0 min,  0.116 sec
     gradient                   ...        0 min,  0.015 sec
 * total energy  :  -113.7848761 Eh     change       -0.2761722E-04 Eh
   gradient norm :     0.0013358 Eh/α   predicted    -0.1235014E-04 ( -55.28%)
   displ. norm   :     0.2372140 α      lambda       -0.2140524E-04
   maximum displ.:     0.1319422 α      in ANC's #3, #5, #12, ...

........................................................................
.............................. CYCLE  119 ..............................
........................................................................

 iter      E             dE          RMSdq      gap      omega  full diag
   1   -115.3476592 -0.115348E+03  0.652E-02    0.05       0.0  T
   2   -115.3451791  0.248014E-02  0.109E-01    0.02       1.0  T
   3   -115.3442864  0.892720E-03  0.124E-01    0.10       1.0  T
   4   -115.3472463 -0.295999E-02  0.506E-02    0.05       1.0  T
   5   -115.3475228 -0.276496E-03  0.264E-02    0.06       1.0  T
   6   -115.3476237 -0.100822E-03  0.167E-02    0.05       1.0  T
   7   -115.3476626 -0.389039E-04  0.101E-02    0.05       1.1  T
   8   -115.3476865 -0.239406E-04  0.186E-03    0.05       5.8  T
   9   -115.3476866 -0.112763E-06  0.152E-03    0.05       7.1  T
  10   -115.3476869 -0.274770E-06  0.892E-04    0.05      12.2  T
  11   -115.3476871 -0.156843E-06  0.422E-04    0.05      25.7  T
     SCC iter.                  ...        0 min,  0.116 sec
     gradient                   ...        0 min,  0.015 sec
 * total energy  :  -113.7849016 Eh     change       -0.2543090E-04 Eh
   gradient norm :     0.0012669 Eh/α   predicted    -0.1097247E-04 ( -56.85%)
   displ. norm   :     0.2341115 α      lambda       -0.2328082E-04
   maximum displ.:     0.1270878 α      in ANC's #3, #5, #12, ...

........................................................................
.............................. CYCLE  120 ..............................
........................................................................

 iter      E             dE          RMSdq      gap      omega  full diag
   1   -115.3479699 -0.115348E+03  0.637E-02    0.05       0.0  T
   2   -115.3450445  0.292535E-02  0.118E-01    0.02       1.0  T
   3   -115.3449919  0.526218E-04  0.117E-01    0.09       1.0  T
   4   -115.3473520 -0.236013E-02  0.592E-02    0.05       1.0  T
   5   -115.3477182 -0.366207E-03  0.333E-02    0.06       1.0  T
   6   -115.3479251 -0.206845E-03  0.181E-02    0.05       1.0  T
   7   -115.3479760 -0.509616E-04  0.101E-02    0.05       1.1  T
   8   -115.3479994 -0.233693E-04  0.196E-03    0.05       5.5  T
   9   -115.3479999 -0.483271E-06  0.110E-03    0.05       9.8  T
  10   -115.3480000 -0.142034E-06  0.778E-04    0.05      13.9  T
  11   -115.3480001 -0.907568E-07  0.340E-04    0.05      31.9  T
     SCC iter.                  ...        0 min,  0.113 sec
     gradient                   ...        0 min,  0.013 sec
 * total energy  :  -113.7849292 Eh     change       -0.2760189E-04 Eh
   gradient norm :     0.0014722 Eh/α   predicted    -0.1192693E-04 ( -56.79%)
   displ. norm   :     0.2845528 α      lambda       -0.2755413E-04
   maximum displ.:     0.1546914 α      in ANC's #3, #5, #7, ...

   *** FAILED TO CONVERGE GEOMETRY OPTIMIZATION IN 120 ITERATIONS ***


 ANCopt (total)                0 d,  0 h,  0 min, 19.331 sec
 optimizer setup                ...        0 min,  0.001 sec (  0.005%)
 model hessian                  ...        0 min,  0.141 sec (  0.729%)
 ANC generation                 ...        0 min,  0.034 sec (  0.176%)
 coordinate transformation      ...        0 min,  0.005 sec (  0.026%)
 single point calculation       ...        0 min, 18.942 sec ( 97.988%)
 optimization log               ...        0 min,  0.141 sec (  0.729%)
 hessian update                 ...        0 min,  0.013 sec (  0.067%)
 rational function              ...        0 min,  0.037 sec (  0.191%)

================
 final structure:
================
85
 xtb: 6.7.1pre (5071a88)
O            2.14446885458423       -2.26931625284218        9.26066369638901
C            1.44173983857922       -1.49782493620903        8.57486577488615
C            0.13517390929231       -1.05954945097394        8.95184655450936
C           -0.60564411180419       -0.21510169450456        8.17178373504747
C           -1.92654293543701        0.29386343021878        8.50339297590974
C           -2.63520342381996        1.04532477759556        7.55547045657507
C           -3.88478914276996        1.55208927340040        7.84094586759414
C           -4.46366649160127        1.32740151991479        9.08095996069587
C           -3.77315277730568        0.58908206265265       10.03094639312440
C           -2.52286562732516        0.07718035692669        9.75205298583880
O           -0.14790287240654        0.23467524240252        6.97087766399874
C            1.09044430264232       -0.11701720617843        6.55111618982767
C            1.52527903479699        0.39357975703276        5.33599060287353
C            2.79700626999310        0.08552160603916        4.86403642864025
O            3.25127612605796        0.56564436271354        3.68818714105030
C            3.64119199524367       -0.74441267364849        5.61095706896180
O            4.89462938572854       -1.03905025176395        5.16444965115907
C            3.19306940039815       -1.27127497590268        6.82160627574203
O            4.02414551400200       -2.08046541411773        7.51233755948907
C            1.91182653314745       -0.96092764126027        7.30313800447600
H           -0.25242277397976       -1.42215829702500        9.88766514352209
H           -2.18708128163987        1.22409395202276        6.59124225305041
H           -4.41192348617046        2.12690939735377        7.09366613086568
H           -5.44120892326000        1.72602316076653        9.30700213399986
H           -4.21552864387350        0.41508837848285       11.00107556949695
H           -2.00256086027763       -0.48344576157400       10.51157949387688
H            0.87334486085631        1.04648222606005        4.77801938392016
H            2.55114634171346        1.10210714587549        3.22712462183960
H            5.28977034199412       -1.62496253660761        5.82564295320094
H            3.50962263922127       -2.34238819562149        8.33376594109764
B           -4.86207192122437       -2.64037745548140        0.27987241267881
B           -4.62343043255987       -1.14534580543073       -0.19486492575418
B           -4.55952829715886        0.33841667735439       -0.95783650404493
B           -3.46523418135057       -2.44933532067897       -0.49691645283055
B           -3.08981802372467        0.52001897361389       -0.47569983910837
B           -4.34282300118314        0.29526651666512        0.81685041300086
B           -4.95824694316797        0.96688584678078        2.13168884883873
B           -4.52202889267063        2.42344585218024        2.74580755208163
B           -2.73923182026756        0.30671933052763        1.14133616071758
B           -3.10224243226730        2.44448381259747        3.54186218360576
B           -2.23221738329849       -3.51043910898353       -0.82925970195824
B           -1.96013458010852       -1.93978011842257       -0.83148447175342
B           -1.72694455409707       -0.39731224900530       -0.29272026112557
B           -0.65651053483707       -2.90375768866473       -0.86470960762198
B           -0.20291911273526       -0.05565112501514        0.17764233884813
B           -1.26522829787499       -0.29679388618865        1.46115830574070
B           -1.66263722778975        1.24150471248159        1.97171475261306
B           -1.83583139798487        2.68946335818600        2.59771753766187
B           -0.07479787049514        0.62459994434159        1.88080865920052
B           -0.74501202412163        3.90736566511237        2.52243304101116
B            0.72522509374058       -3.82039240976330       -0.58131254774578
B            0.85507413657851       -2.22149549007611       -0.69606920302105
B            1.21857177052258       -0.67866254250420       -0.42967774335161
B            2.02361226843760       -3.08714592774049        0.09926170209311
B            2.60516608219088        0.01876320291632       -0.02803040392695
B            1.24900487993311        0.54424057967633        0.73247234515828
B            1.22102757856223        1.64368178903376        2.02734912382864
B            0.56188137666989        3.09892026946801        2.16103008336720
B            2.45029973507303        1.70211147159020        0.85483270983931
B            1.01279410312405        3.23033540094122        0.55186225780106
B            2.84112240918514       -3.50068888316657        1.52442852792881
B            3.42078564797632       -2.36718652062961        0.51759769241984
B            4.01674816215871       -0.89466996884250        0.31771260161185
B            4.03493294828133       -2.51563573764952        1.96843483550109
B            5.42617031123692       -0.03052604570047        0.23445817270081
B            4.03656656015063        0.79126675946472        0.35291811303231
B            3.95421788042344        2.50036720643637        0.77694627139694
B            2.58908741772292        3.39486816182877        0.33478683402198
B            5.33515222999078        1.75054833195567        0.22463992469428
B            4.00552058538800        4.02412675061191        0.30428367019011
H           -5.29627563617317       -3.45602470915922        0.99835641158291
H           -5.77328717162854       -1.83037816808906       -0.18018637862192
H           -5.40999293036518        0.77144895673789       -1.64876461617103
H           -5.68022359193032        0.32642150179433        2.82352634266129
H           -5.25291986011145        3.34625653810840        2.68594625309319
H           -3.09520045706378        2.14839076828805        4.68076958183788
H           -2.42256600429769       -4.64643022608375       -1.03823673433450
H           -0.96086140041449        5.06325581106335        2.57660710208182
H            0.69198431175660       -4.97594523972829       -0.76414586399793
H            0.22709631802390        3.18111063273820       -0.32921413199328
H            2.43525825199229       -4.38590171124795        2.17010030235466
H            4.80101811967264       -2.24213810324776        2.79323797931487
H            6.53179289190172       -0.40729517242803        0.21314574124677
H            6.34366041690637        2.27559013765918       -0.05146508364853
H            4.73814749662424        4.90671929284459        0.10170007292843
 
 Bond Distances (Angstroems)
 ---------------------------
O1-C2=1.2487         C2-O1=1.2487         C2-C3=1.4287         C2-C20=1.4583        C3-C2=1.4287         C3-C4=1.3676         
C3-H21=1.0759        C4-C3=1.3676         C4-C5=1.4539         C4-O11=1.3616        C5-C4=1.4539         C5-C6=1.4019         
C5-C10=1.4006        C6-C5=1.4019         C6-C7=1.3783         C6-H22=1.0782        C7-C6=1.3783         C7-C8=1.3868         
C7-H23=1.0801        C8-C7=1.3868         C8-C9=1.3872         C8-H24=1.0796        C9-C8=1.3872         C9-C10=1.3795        
C9-H25=1.0803        C10-C5=1.4006        C10-C9=1.3795        C10-H26=1.0779       O11-C4=1.3616        O11-C12=1.3540       
C12-O11=1.3540       C12-C13=1.3879       C12-C20=1.3973       C13-C12=1.3879       C13-C14=1.3910       C13-H27=1.0783       
C14-C13=1.3910       C14-O15=1.3489       C14-C16=1.3998       O15-C14=1.3489       O15-H28=0.9953       C16-C14=1.3998       
C16-O17=1.3628       C16-C18=1.3943       O17-C16=1.3628       O17-H29=0.9678       C18-C16=1.3943       C18-O19=1.3500       
C18-C20=1.4035       O19-C18=1.3500       O19-H30=1.0040       C20-C2=1.4583        C20-C12=1.3973       C20-C18=1.4035       
H21-C3=1.0759        H22-C6=1.0782        H23-C7=1.0801        H24-C8=1.0796        H25-C9=1.0803        H26-C10=1.0779       
H27-C13=1.0783       H28-O15=0.9953       H29-O17=0.9678       H30-O19=1.0040       B31-B32=1.5866       B31-B34=1.6097       
B31-H71=1.1705       B31-H72=1.3031       B32-B31=1.5866       B32-B33=1.6697       B32-B34=1.7700       B32-B36=1.7826       
B32-H72=1.3385       B33-B32=1.6697       B33-B35=1.5574       B33-B36=1.7884       B33-H73=1.1782       B34-B31=1.6097       
B34-B32=1.7700       B34-B41=1.6603       B34-B42=1.6239       B35-B33=1.5574       B35-B36=1.8142       B35-B39=1.6683       
B35-B43=1.6530       B36-B32=1.7826       B36-B33=1.7884       B36-B35=1.8142       B36-B37=1.5996       B36-B39=1.6361       
B37-B36=1.5996       B37-B38=1.6398       B37-H74=1.1875       B38-B37=1.6398       B38-B40=1.6279       B38-H75=1.1787       
B39-B35=1.6683       B39-B36=1.6361       B39-B43=1.8913       B39-B46=1.6246       B39-B47=1.6500       B40-B38=1.6279       
B40-B48=1.5985       B40-H76=1.1768       B41-B34=1.6603       B41-B42=1.5941       B41-B44=1.6888       B41-H77=1.1706       
B42-B34=1.6239       B42-B41=1.5941       B42-B43=1.6504       B42-B44=1.6217       B43-B35=1.6530       B43-B39=1.8913       
B43-B42=1.6504       B43-B45=1.6311       B43-B46=1.8164       B44-B41=1.6888       B44-B42=1.6217       B44-B51=1.6822       
B44-B52=1.6670       B45-B43=1.6311       B45-B46=1.6835       B45-B49=1.8385       B45-B53=1.6666       B45-B56=1.6661       
B46-B39=1.6246       B46-B43=1.8164       B46-B45=1.6835       B46-B47=1.6688       B46-B49=1.5628       B47-B39=1.6500       
B47-B46=1.6688       B47-B48=1.5870       B47-B49=1.7059       B48-B40=1.5985       B48-B47=1.5870       B48-B50=1.6367       
B49-B45=1.8385       B49-B46=1.5628       B49-B47=1.7059       B49-B56=1.7543       B49-B57=1.6550       B50-B48=1.6367       
B50-B58=1.5787       B50-H78=1.1771       B51-B44=1.6822       B51-B52=1.6083       B51-B54=1.6391       B51-H79=1.1704       
B52-B44=1.6670       B52-B51=1.6083       B52-B53=1.6073       B52-B54=1.6575       B53-B45=1.6666       B53-B52=1.6073       
B53-B55=1.6032       B53-B56=1.6873       B54-B51=1.6391       B54-B52=1.6575       B54-B61=1.6942       B54-B62=1.6265       
B55-B53=1.6032       B55-B56=1.6412       B55-B59=1.9071       B55-B63=1.7165       B55-B66=1.6706       B56-B45=1.6661       
B56-B49=1.7543       B56-B53=1.6873       B56-B55=1.6412       B56-B57=1.6989       B56-B59=1.6729       B57-B49=1.6550       
B57-B56=1.6989       B57-B58=1.6031       B57-B59=1.6998       B57-B60=2.1767       B58-B50=1.5787       B58-B57=1.6031       
B58-B60=1.6763       B59-B55=1.9071       B59-B56=1.6729       B59-B57=1.6998       B59-B60=2.1198       B59-B66=1.8968       
B59-B67=1.7044       B59-B68=1.7763       B60-B57=2.1767       B60-B58=1.6763       B60-B59=2.1198       B60-B68=1.5997       
B60-H80=1.1815       B61-B54=1.6942       B61-B62=1.6231       B61-B64=1.6102       B61-H81=1.1684       B62-B54=1.6265       
B62-B61=1.6231       B62-B63=1.6011       B62-B64=1.5824       B63-B55=1.7165       B63-B62=1.6011       B63-B65=1.6553       
B63-B66=1.6864       B64-B61=1.6102       B64-B62=1.5824       B64-H82=1.1584       B65-B63=1.6553       B65-B66=1.6188       
B65-B69=1.7834       B65-H83=1.1683       B66-B55=1.6706       B66-B59=1.8968       B66-B63=1.6864       B66-B65=1.6188       
B66-B67=1.7628       B66-B69=1.6196       B67-B59=1.7044       B67-B66=1.7628       B67-B68=1.6909       B67-B69=1.6656       
B67-B70=1.5962       B68-B59=1.7763       B68-B60=1.5997       B68-B67=1.6909       B68-B70=1.5502       B69-B65=1.7834       
B69-B66=1.6196       B69-B67=1.6656       B69-H84=1.1700       B70-B67=1.5962       B70-B68=1.5502       B70-H85=1.1648       
H71-B31=1.1705       H72-B31=1.3031       H72-B32=1.3385       H73-B33=1.1782       H74-B37=1.1875       H75-B38=1.1787       
H76-B40=1.1768       H77-B41=1.1706       H78-B50=1.1771       H79-B51=1.1704       H80-B60=1.1815       H81-B61=1.1684       
H82-B64=1.1584       H83-B65=1.1683       H84-B69=1.1700       H85-B70=1.1648       
 B  H  Rav=1.1914 sigma=0.0498  Rmin=1.1584  Rmax=1.3385    16
 B  B  Rav=1.6823 sigma=0.1087  Rmin=1.5502  Rmax=2.1767    77
 C  H  Rav=1.0786 sigma=0.0014  Rmin=1.0759  Rmax=1.0803     7
 C  C  Rav=1.4010 sigma=0.0246  Rmin=1.3676  Rmax=1.4583    16
 O  H  Rav=0.9890 sigma=0.0154  Rmin=0.9678  Rmax=1.0040     3
 O  C  Rav=1.3377 sigma=0.0401  Rmin=1.2487  Rmax=1.3628     6
 
 selected bond angles (degree)
 --------------------
C3-C2-O1=124.00                C20-C2-O1=121.67               C20-C2-C3=114.33               C4-C3-C2=122.29                
H21-C3-C2=117.10               H21-C3-C4=120.60               C5-C4-C3=125.32                O11-C4-C3=121.66               
O11-C4-C5=113.01               C6-C5-C4=119.52                C10-C5-C4=122.41               C10-C5-C6=118.07               
C7-C6-C5=121.02                H22-C6-C5=118.91               H22-C6-C7=120.07               C8-C7-C6=120.27                
H23-C7-C6=119.66               H23-C7-C8=120.07               C9-C8-C7=119.39                H24-C8-C7=120.35               
H24-C8-C9=120.25               C10-C9-C8=120.68               H25-C9-C8=119.79               H25-C9-C10=119.53              
C9-C10-C5=120.58               H26-C10-C5=120.21              H26-C10-C9=119.21              
 
 selected dihedral angles (degree)
 ---------------------------------
C4-C3-C2-O1=180.13            C4-C3-C2-C20=  0.45           H21-C3-C2-O1=  0.20           H21-C3-C2-C20=180.52          
C5-C4-C3-C2=181.37            C5-C4-C3-H21=  1.30           O11-C4-C3-C2=  1.46           O11-C4-C3-H21=181.39          
C6-C5-C4-C3=186.41            C6-C5-C4-O11=  6.33           C10-C5-C4-C3=  7.24           C10-C5-C4-O11=187.16          
C7-C6-C5-C4=180.54            C7-C6-C5-C10=359.74           H22-C6-C5-C4=  0.53           H22-C6-C5-C10=179.74          
C8-C7-C6-C5=  0.15            C8-C7-C6-H22=180.16           H23-C7-C6-C5=180.09           H23-C7-C6-H22=  0.10          
C9-C8-C7-C6=  0.05            C9-C8-C7-H23=180.11           H24-C8-C7-C6=179.83           H24-C8-C7-H23=359.89          
C10-C9-C8-C7=359.87           C10-C9-C8-H24=180.09          H25-C9-C8-C7=179.64           H25-C9-C8-H24=359.86          
C9-C10-C5-C4=179.35           C9-C10-C5-C6=  0.17           H26-C10-C5-C4=  0.08          H26-C10-C5-C6=180.90          
C5-C10-C9-C8=  0.00           C5-C10-C9-H25=180.25          H26-C10-C9-C8=179.30          H26-C10-C9-H25=359.53         
 
 CMA Distance (Angstroems)
 ---------------------------
R(CMA):  6.6654
           -------------------------------------------------
          |                Final Singlepoint                |
           -------------------------------------------------

          ...................................................
          :                      SETUP                      :
          :.................................................:
          :  # basis functions                 265          :
          :  # atomic orbitals                 265          :
          :  # shells                          145          :
          :  # electrons                       235          :
          :  max. iterations                   500          :
          :  Hamiltonian                  GFN2-xTB          :
          :  restarted?                      false          :
          :  GBSA solvation                  false          :
          :  PC potential                    false          :
          :  electronic temp.          300.0000000     K    :
          :  accuracy                    1.0000000          :
          :  -> integral cutoff          0.2500000E+02      :
          :  -> integral neglect         0.1000000E-07      :
          :  -> SCF convergence          0.1000000E-05 Eh   :
          :  -> wf. convergence          0.1000000E-03 e    :
          :  Broyden damping             0.4000000          :
          :  net charge                          0          :
          :  unpaired electrons                  0          :
          ...................................................

 iter      E             dE          RMSdq      gap      omega  full diag
   1   -115.3475559 -0.115348E+03  0.822E-02    0.05       0.0  T
   2   -115.3398343  0.772165E-02  0.188E-01    0.00       1.0  T
   3   -115.3442675 -0.443317E-02  0.127E-01    0.10       1.0  T
   4   -115.3463331 -0.206560E-02  0.829E-02    0.05       1.0  T
   5   -115.3470849 -0.751873E-03  0.462E-02    0.06       1.0  T
   6   -115.3474643 -0.379326E-03  0.266E-02    0.06       1.0  T
   7   -115.3475699 -0.105611E-03  0.155E-02    0.05       1.0  T
   8   -115.3476194 -0.494889E-04  0.551E-03    0.05       2.0  T
   9   -115.3476258 -0.649012E-05  0.151E-03    0.05       7.2  T
  10   -115.3476261 -0.226399E-06  0.873E-04    0.05      12.4  T
  11   -115.3476262 -0.926800E-07  0.441E-04    0.05      24.6  T

   *** convergence criteria satisfied after 11 iterations ***

         #    Occupation            Energy/Eh            Energy/eV
      -------------------------------------------------------------
         1        2.0000           -0.7243670             -19.7110
       ...           ...                  ...                  ...
       112        2.0000           -0.3027618              -8.2386
       113        2.0000           -0.2975471              -8.0967
       114        2.0000           -0.2965212              -8.0688
       115        2.0000           -0.2921466              -7.9497
       116        2.0000           -0.2878957              -7.8340
       117        1.9999           -0.2832116              -7.7066
       118        0.7185           -0.2662821              -7.2459 (HOMO)
       119        0.2816           -0.2645024              -7.1975 (LUMO)
       120        0.0000           -0.2545278              -6.9261
       121                         -0.2373963              -6.4599
       122                         -0.2284736              -6.2171
       123                         -0.2262804              -6.1574
       ...                                ...                  ...
       265                          1.0412950              28.3351
      -------------------------------------------------------------
                  HL-Gap            0.0017797 Eh            0.0484 eV
             Fermi-level           -0.2701018 Eh           -7.3498 eV

 SCC (total)                   0 d,  0 h,  0 min,  0.142 sec
 SCC setup                      ...        0 min,  0.001 sec (  0.704%)
 Dispersion                     ...        0 min,  0.000 sec (  0.000%)
 classical contributions        ...        0 min,  0.000 sec (  0.000%)
 integral evaluation            ...        0 min,  0.004 sec (  2.817%)
 iterations                     ...        0 min,  0.120 sec ( 84.507%)
 molecular gradient             ...        0 min,  0.015 sec ( 10.563%)
 printout                       ...        0 min,  0.002 sec (  1.409%)

         :::::::::::::::::::::::::::::::::::::::::::::::::::::
         ::                     SUMMARY                     ::
         :::::::::::::::::::::::::::::::::::::::::::::::::::::
         :: total energy            -113.784960996438 Eh    ::
         :: gradient norm              0.001719490588 Eh/a0 ::
         :: HOMO-LUMO gap              0.048429416020 eV    ::
         ::.................................................::
         :: SCC energy              -115.345149196399 Eh    ::
         :: -> isotropic ES            0.290403845605 Eh    ::
         :: -> anisotropic ES          0.001827658733 Eh    ::
         :: -> anisotropic XC         -0.010832331763 Eh    ::
         :: -> dispersion             -0.115897087635 Eh    ::
         :: repulsion energy           1.560188199960 Eh    ::
         :: add. restraining           0.000000000000 Eh    ::
         :: total charge              -0.000000000002 e     ::
         :::::::::::::::::::::::::::::::::::::::::::::::::::::

           -------------------------------------------------
          |                Property Printout                |
           -------------------------------------------------

    * Orbital Energies and Occupations

         #    Occupation            Energy/Eh            Energy/eV
      -------------------------------------------------------------
         1        2.0000           -0.7243670             -19.7110
       ...           ...                  ...                  ...
       106        2.0000           -0.3207975              -8.7293
       107        2.0000           -0.3187526              -8.6737
       108        2.0000           -0.3174796              -8.6391
       109        2.0000           -0.3130343              -8.5181
       110        2.0000           -0.3108708              -8.4592
       111        2.0000           -0.3072239              -8.3600
       112        2.0000           -0.3027618              -8.2386
       113        2.0000           -0.2975471              -8.0967
       114        2.0000           -0.2965212              -8.0688
       115        2.0000           -0.2921466              -7.9497
       116        2.0000           -0.2878957              -7.8340
       117        1.9999           -0.2832116              -7.7066
       118        0.7185           -0.2662821              -7.2459 (HOMO)
       119        0.2816           -0.2645024              -7.1975 (LUMO)
       120        0.0000           -0.2545278              -6.9261
       121                         -0.2373963              -6.4599
       122                         -0.2284736              -6.2171
       123                         -0.2262804              -6.1574
       124                         -0.2252091              -6.1283
       125                         -0.2201595              -5.9908
       126                         -0.2109057              -5.7390
       127                         -0.2096353              -5.7045
       128                         -0.2013295              -5.4785
       129                         -0.2008237              -5.4647
       ...                                ...                  ...
       265                          1.0412950              28.3351
      -------------------------------------------------------------
                  HL-Gap            0.0017797 Eh            0.0484 eV
             Fermi-level           -0.2701018 Eh           -7.3498 eV

     #   Z          covCN         q      C6AA      α(0)
     1   8 O        0.858    -0.487    23.492     6.498
     2   6 C        2.833     0.209    23.571     7.956
     3   6 C        2.903    -0.106    30.676     9.081
     4   6 C        2.863     0.127    25.222     8.232
     5   6 C        2.971    -0.004    28.128     8.700
     6   6 C        2.926    -0.038    28.951     8.824
     7   6 C        2.917    -0.033    28.833     8.805
     8   6 C        2.919    -0.035    28.883     8.813
     9   6 C        2.918    -0.031    28.769     8.796
    10   6 C        2.922    -0.038    28.950     8.823
    11   8 O        1.711    -0.212    17.527     5.652
    12   6 C        2.880     0.122    25.310     8.248
    13   6 C        2.914    -0.144    31.699     9.232
    14   6 C        2.843     0.117    25.410     8.261
    15   8 O        1.656    -0.420    21.239     6.221
    16   6 C        2.840     0.085    26.093     8.371
    17   8 O        1.659    -0.383    20.516     6.115
    18   6 C        2.847     0.112    25.516     8.279
    19   8 O        1.654    -0.422    21.273     6.226
    20   6 C        2.977    -0.091    30.287     9.027
    21   1 H        0.926     0.054     2.268     2.355
    22   1 H        0.926     0.054     2.269     2.356
    23   1 H        0.926     0.038     2.480     2.462
    24   1 H        0.926     0.029     2.595     2.519
    25   1 H        0.926     0.030     2.583     2.513
    26   1 H        0.926     0.036     2.504     2.475
    27   1 H        0.926     0.071     2.075     2.252
    28   1 H        0.801     0.329     0.640     1.257
    29   1 H        0.805     0.324     0.654     1.270
    30   1 H        0.799     0.358     0.570     1.186
    31   5 B        3.709     0.070    21.339     7.472
    32   5 B        4.625     0.063    21.601     7.489
    33   5 B        3.766     0.031    22.129     7.590
    34   5 B        3.809     0.037    22.046     7.570
    35   5 B        3.888     0.061    21.627     7.494
    36   5 B        4.610     0.027    22.248     7.600
    37   5 B        2.877     0.054    20.486     7.555
    38   5 B        2.868     0.087    19.945     7.455
    39   5 B        4.646     0.033    22.130     7.580
    40   5 B        2.896     0.075    20.141     7.490
    41   5 B        3.823     0.056    21.716     7.512
    42   5 B        3.871     0.023    22.319     7.613
    43   5 B        4.547    -0.005    22.838     7.700
    44   5 B        3.832     0.052    21.783     7.523
    45   5 B        4.692     0.064    21.595     7.487
    46   5 B        4.727     0.051    21.822     7.527
    47   5 B        3.860     0.043    21.944     7.549
    48   5 B        2.926     0.020    21.060     7.658
    49   5 B        4.657     0.017    22.429     7.631
    50   5 B        2.876     0.060    20.390     7.537
    51   5 B        3.828     0.061    21.625     7.496
    52   5 B        3.864     0.027    22.246     7.601
    53   5 B        3.855    -0.004    22.814     7.698
    54   5 B        3.845     0.049    21.842     7.532
    55   5 B        4.597     0.018    22.403     7.626
    56   5 B        5.701     0.102    20.933     7.372
    57   5 B        4.086    -0.004    22.817     7.697
    58   5 B        2.920     0.028    20.908     7.630
    59   5 B        5.651     0.063    21.601     7.489
    60   5 B        3.478     0.071    20.277     7.489
    61   5 B        3.827     0.050    21.819     7.530
    62   5 B        3.883     0.035    22.093     7.574
    63   5 B        3.913     0.031    22.162     7.586
    64   5 B        2.974     0.100    19.708     7.406
    65   5 B        3.770     0.077    21.307     7.447
    66   5 B        5.538     0.104    20.909     7.368
    67   5 B        4.743     0.044    21.933     7.546
    68   5 B        3.805     0.018    22.382     7.628
    69   5 B        3.768     0.085    21.180     7.425
    70   5 B        2.890     0.063    20.337     7.527
    71   1 H        0.939    -0.117     6.189     3.890
    72   1 H        1.592     0.041     2.422     2.430
    73   1 H        0.936    -0.144     7.378     4.247
    74   1 H        0.932    -0.133     6.873     4.099
    75   1 H        0.936    -0.117     6.198     3.893
    76   1 H        0.937    -0.113     6.046     3.844
    77   1 H        0.939    -0.104     5.694     3.731
    78   1 H        0.937    -0.134     6.892     4.105
    79   1 H        0.939    -0.093     5.314     3.604
    80   1 H        0.935    -0.142     7.299     4.224
    81   1 H        0.940    -0.093     5.316     3.605
    82   1 H        0.942    -0.099     5.506     3.668
    83   1 H        0.940    -0.104     5.684     3.727
    84   1 H        0.939    -0.107     5.818     3.771
    85   1 H        0.941    -0.131     6.776     4.070

 Mol. C6AA /au·bohr⁶  :     113278.464955
 Mol. C8AA /au·bohr⁸  :    3494894.360343
 Mol. α(0) /au        :        539.412320


Wiberg/Mayer (AO) data.
largest (>0.10) Wiberg bond orders for each atom

 ---------------------------------------------------------------------------
     #   Z sym  total        # sym  WBO       # sym  WBO       # sym  WBO
 ---------------------------------------------------------------------------
     1   8 O    1.940 --     2 C    1.541
     2   6 C    3.908 --     1 O    1.541     3 C    1.187    20 C    1.090
     3   6 C    3.946 --     4 C    1.523     2 C    1.187    21 H    0.961
     4   6 C    3.835 --     3 C    1.523     5 C    1.102    11 O    1.062
     5   6 C    3.964 --    10 C    1.348     6 C    1.346     4 C    1.102
     6   6 C    3.956 --     7 C    1.472     5 C    1.346    22 H    0.962
     7   6 C    3.988 --     6 C    1.472     8 C    1.419    23 H    0.969
                            10 C    0.100
     8   6 C    3.943 --     7 C    1.419     9 C    1.418    24 H    0.972
     9   6 C    3.989 --    10 C    1.472     8 C    1.418    25 H    0.971
    10   6 C    3.960 --     9 C    1.472     5 C    1.348    26 H    0.965
                             7 C    0.100
    11   8 O    2.363 --    12 C    1.064     4 C    1.062
    12   6 C    3.925 --    13 C    1.366    20 C    1.299    11 O    1.064
    13   6 C    3.954 --    12 C    1.366    14 C    1.365    27 H    0.957
    14   6 C    3.940 --    13 C    1.365    16 C    1.297    15 O    1.103
    15   8 O    2.092 --    14 C    1.103    28 H    0.773
    16   6 C    3.935 --    18 C    1.329    14 C    1.297    17 O    1.074
    17   8 O    2.110 --    16 C    1.074    29 H    0.871
    18   6 C    3.938 --    16 C    1.329    20 C    1.282    19 O    1.122
    19   8 O    2.120 --    18 C    1.122    30 H    0.762
    20   6 C    3.975 --    12 C    1.299    18 C    1.282     2 C    1.090
    21   1 H    0.997 --     3 C    0.961
    22   1 H    0.997 --     6 C    0.962
    23   1 H    0.998 --     7 C    0.969
    24   1 H    0.999 --     8 C    0.972
    25   1 H    0.999 --     9 C    0.971
    26   1 H    0.999 --    10 C    0.965
    27   1 H    0.994 --    13 C    0.957
    28   1 H    0.889 --    15 O    0.773
    29   1 H    0.895 --    17 O    0.871
    30   1 H    0.871 --    19 O    0.762
    31   5 B    3.556 --    71 H    0.953    34 B    0.914    32 B    0.897
                            72 H    0.511
    32   5 B    3.555 --    31 B    0.897    33 B    0.739    34 B    0.601
                            36 B    0.521    72 H    0.453    35 B    0.148
    33   5 B    3.563 --    35 B    1.129    73 H    0.950    32 B    0.739
                            36 B    0.459
    34   5 B    3.565 --    31 B    0.914    41 B    0.853    42 B    0.838
                            32 B    0.601    44 B    0.113
    35   5 B    3.388 --    33 B    1.129    43 B    0.807    39 B    0.604
                            36 B    0.435    32 B    0.148
    36   5 B    3.590 --    37 B    1.073    39 B    0.783    32 B    0.521
                            33 B    0.459    35 B    0.435
    37   5 B    3.420 --    36 B    1.073    38 B    1.001    74 H    0.915
                            39 B    0.146
    38   5 B    3.255 --    40 B    1.003    37 B    1.001    75 H    0.937
                            48 B    0.119
    39   5 B    3.671 --    36 B    0.783    47 B    0.772    46 B    0.719
                            35 B    0.604    43 B    0.376    37 B    0.146
    40   5 B    3.395 --    48 B    1.007    38 B    1.003    76 H    0.921
                            47 B    0.172
    41   5 B    3.626 --    77 H    0.927    34 B    0.853    42 B    0.834
                            44 B    0.790
    42   5 B    3.607 --    44 B    0.845    34 B    0.838    41 B    0.834
                            43 B    0.802
    43   5 B    3.639 --    45 B    0.839    35 B    0.807    42 B    0.802
                            46 B    0.444    39 B    0.376
    44   5 B    3.568 --    42 B    0.845    41 B    0.790    51 B    0.753
                            52 B    0.741    34 B    0.113
    45   5 B    3.572 --    43 B    0.839    53 B    0.682    56 B    0.595
                            46 B    0.592    49 B    0.444
    46   5 B    3.598 --    49 B    0.943    39 B    0.719    47 B    0.607
                            45 B    0.592    43 B    0.444
    47   5 B    3.543 --    48 B    0.981    39 B    0.772    49 B    0.677
                            46 B    0.607    40 B    0.172
    48   5 B    3.455 --    40 B    1.007    47 B    0.981    50 B    0.937
                            58 B    0.175    38 B    0.119
    49   5 B    3.645 --    46 B    0.943    57 B    0.766    47 B    0.677
                            56 B    0.468    45 B    0.444
    50   5 B    3.410 --    58 B    1.142    78 H    0.954    48 B    0.937
                            60 B    0.115
    51   5 B    3.580 --    79 H    0.923    54 B    0.866    52 B    0.806
                            44 B    0.753
    52   5 B    3.599 --    53 B    0.951    51 B    0.806    44 B    0.741
                            54 B    0.724
    53   5 B    3.602 --    55 B    0.978    52 B    0.951    45 B    0.682
                            56 B    0.573
    54   5 B    3.609 --    51 B    0.866    62 B    0.820    61 B    0.739
                            52 B    0.724    64 B    0.126
    55   5 B    3.661 --    53 B    0.978    56 B    0.656    63 B    0.646
                            66 B    0.592    59 B    0.389
    56   5 B    3.667 --    55 B    0.656    45 B    0.595    53 B    0.573
                            59 B    0.567    57 B    0.530    49 B    0.468
    57   5 B    3.569 --    58 B    0.988    49 B    0.766    59 B    0.717
                            56 B    0.530    60 B    0.193
    58   5 B    3.411 --    50 B    1.142    57 B    0.988    60 B    0.761
                            48 B    0.175
    59   5 B    3.654 --    57 B    0.717    67 B    0.603    56 B    0.567
                            68 B    0.507    55 B    0.389    66 B    0.363
                            60 B    0.248
    60   5 B    3.492 --    68 B    1.006    80 H    0.941    58 B    0.761
                            59 B    0.248    57 B    0.193    50 B    0.115
    61   5 B    3.592 --    64 B    0.992    81 H    0.922    62 B    0.768
                            54 B    0.739
    62   5 B    3.608 --    63 B    0.906    64 B    0.903    54 B    0.820
                            61 B    0.768
    63   5 B    3.581 --    62 B    0.906    65 B    0.883    55 B    0.646
                            66 B    0.584    64 B    0.269
    64   5 B    3.447 --    61 B    0.992    82 H    0.979    62 B    0.903
                            63 B    0.269    54 B    0.126
    65   5 B    3.503 --    83 H    0.953    63 B    0.883    66 B    0.766
                            69 B    0.669
    66   5 B    3.657 --    65 B    0.766    69 B    0.763    55 B    0.592
                            63 B    0.584    67 B    0.455    59 B    0.363
    67   5 B    3.624 --    70 B    0.962    69 B    0.770    68 B    0.665
                            59 B    0.603    66 B    0.455
    68   5 B    3.545 --    70 B    1.123    60 B    1.006    67 B    0.665
                            59 B    0.507
    69   5 B    3.518 --    84 H    0.958    67 B    0.770    66 B    0.763
                            65 B    0.669    70 B    0.149
    70   5 B    3.475 --    68 B    1.123    85 H    0.972    67 B    0.962
                            69 B    0.149
    71   1 H    0.981 --    31 B    0.953
    72   1 H    0.994 --    31 B    0.511    32 B    0.453
    73   1 H    0.977 --    33 B    0.950
    74   1 H    0.979 --    37 B    0.915
    75   1 H    0.984 --    38 B    0.937
    76   1 H    0.983 --    40 B    0.921
    77   1 H    0.977 --    41 B    0.927
    78   1 H    0.979 --    50 B    0.954
    79   1 H    0.978 --    51 B    0.923
    80   1 H    0.975 --    60 B    0.941
    81   1 H    0.982 --    61 B    0.922
    82   1 H    0.990 --    64 B    0.979
    83   1 H    0.985 --    65 B    0.953
    84   1 H    0.984 --    69 B    0.958
    85   1 H    0.982 --    70 B    0.972
 ---------------------------------------------------------------------------

Topologies differ in total number of bonds
Writing topology from bond orders to xtbtopo.mol

molecular dipole:
                 x           y           z       tot (Debye)
 q only:       -0.317       0.196      -5.682
   full:       -1.076      -0.533      -4.461      11.741
molecular quadrupole (traceless):
                xx          xy          yy          xz          yz          zz
 q only:       22.964       6.696      34.450     -29.650      28.406     -57.414
  q+dip:       37.225      14.835      24.371     -32.409      23.014     -61.596
   full:       26.756      12.315      23.492     -32.584      24.977     -50.248

           -------------------------------------------------
          |                Geometry Summary                 |
           -------------------------------------------------

      molecular mass/u    :      717.7977039
   center of mass at/Å    :        0.2417291      -0.0478105       3.1938802
  moments of inertia/u·Å² :        0.9214492E+04   0.1149423E+05   0.1555338E+05
rotational constants/cm⁻¹ :        0.1829469E-02   0.1466617E-02   0.1083856E-02

 * 109 selected distances

     #   Z          #   Z                                           value/Å
     2   6 C        3   6 C                                       1.4287459
     3   6 C        4   6 C                                       1.3676263
     5   6 C        6   6 C                                       1.4019455
     6   6 C        7   6 C                                       1.3783219
     7   6 C        8   6 C                                       1.3868017
     8   6 C        9   6 C                                       1.3872272
     5   6 C       10   6 C                                       1.4006086
     9   6 C       10   6 C                                       1.3795083
     4   6 C       11   8 O                                       1.3616174
    11   8 O       12   6 C                                       1.3540278
    12   6 C       13   6 C                                       1.3879197
    13   6 C       14   6 C                                       1.3910180
    14   6 C       15   8 O                                       1.3488887
    14   6 C       16   6 C                                       1.3997611
    16   6 C       17   8 O                                       1.3628227
    16   6 C       18   6 C                                       1.3942990
    18   6 C       19   8 O                                       1.3500321
    12   6 C       20   6 C                                       1.3972798
    18   6 C       20   6 C                                       1.4034856
     3   6 C       21   1 H                                       1.0758592
     6   6 C       22   1 H                                       1.0781967
     7   6 C       23   1 H                                       1.0801463
     8   6 C       24   1 H                                       1.0796220
     9   6 C       25   1 H                                       1.0803338
    10   6 C       26   1 H                                       1.0779144
    13   6 C       27   1 H                                       1.0782541
    15   8 O       28   1 H                                       0.9952652
    17   8 O       29   1 H                                       0.9677842 (min)
    31   5 B       32   5 B                                       1.5866460
    32   5 B       33   5 B                                       1.6696589
    31   5 B       34   5 B                                       1.6096752
    33   5 B       35   5 B                                       1.5573965
    36   5 B       37   5 B                                       1.5995686
    37   5 B       38   5 B                                       1.6398157
    35   5 B       39   5 B                                       1.6682965
    36   5 B       39   5 B                                       1.6361318
    38   5 B       40   5 B                                       1.6278635
    34   5 B       41   5 B                                       1.6603386
    34   5 B       42   5 B                                       1.6238558
    41   5 B       42   5 B                                       1.5940527
    35   5 B       43   5 B                                       1.6529981
    42   5 B       43   5 B                                       1.6504097
    41   5 B       44   5 B                                       1.6888374
    42   5 B       44   5 B                                       1.6216636
    43   5 B       45   5 B                                       1.6311430
    39   5 B       46   5 B                                       1.6245619
    45   5 B       46   5 B                                       1.6834680
    39   5 B       47   5 B                                       1.6499723
    46   5 B       47   5 B                                       1.6688214
    40   5 B       48   5 B                                       1.5985060
    47   5 B       48   5 B                                       1.5869658
    46   5 B       49   5 B                                       1.5627534
    47   5 B       49   5 B                                       1.7058927
    48   5 B       50   5 B                                       1.6367166
    44   5 B       51   5 B                                       1.6821792
    44   5 B       52   5 B                                       1.6669763
    51   5 B       52   5 B                                       1.6082605
    45   5 B       53   5 B                                       1.6666187
    52   5 B       53   5 B                                       1.6073049
    51   5 B       54   5 B                                       1.6390978
    52   5 B       54   5 B                                       1.6575234
    53   5 B       55   5 B                                       1.6032366
    45   5 B       56   5 B                                       1.6660703
    49   5 B       56   5 B                                       1.7543056
    53   5 B       56   5 B                                       1.6873090
    55   5 B       56   5 B                                       1.6412387
    49   5 B       57   5 B                                       1.6550426
    56   5 B       57   5 B                                       1.6988997
    50   5 B       58   5 B                                       1.5786598
    57   5 B       58   5 B                                       1.6031419
    56   5 B       59   5 B                                       1.6729456
    57   5 B       59   5 B                                       1.6997998
    58   5 B       60   5 B                                       1.6763096
    54   5 B       61   5 B                                       1.6942378
    54   5 B       62   5 B                                       1.6264810
    61   5 B       62   5 B                                       1.6231284
    55   5 B       63   5 B                                       1.7165264
    62   5 B       63   5 B                                       1.6010718
    61   5 B       64   5 B                                       1.6101725
    62   5 B       64   5 B                                       1.5824484
    63   5 B       65   5 B                                       1.6553390
    55   5 B       66   5 B                                       1.6705662
    63   5 B       66   5 B                                       1.6864209
    65   5 B       66   5 B                                       1.6187573
    59   5 B       67   5 B                                       1.7044204
    66   5 B       67   5 B                                       1.7628403
    59   5 B       68   5 B                                       1.7762701 (max)
    60   5 B       68   5 B                                       1.5996543
    67   5 B       68   5 B                                       1.6909224
    66   5 B       69   5 B                                       1.6195684
    67   5 B       69   5 B                                       1.6656082
    67   5 B       70   5 B                                       1.5962097
    68   5 B       70   5 B                                       1.5502194
    31   5 B       71   1 H                                       1.1704840
    31   5 B       72   1 H                                       1.3030988
    32   5 B       72   1 H                                       1.3385274
    33   5 B       73   1 H                                       1.1782143
    37   5 B       74   1 H                                       1.1874697
    38   5 B       75   1 H                                       1.1787132
    40   5 B       76   1 H                                       1.1767884
    41   5 B       77   1 H                                       1.1706323
    50   5 B       78   1 H                                       1.1771185
    51   5 B       79   1 H                                       1.1703997
    60   5 B       80   1 H                                       1.1815413
    61   5 B       81   1 H                                       1.1684262
    64   5 B       82   1 H                                       1.1584420
    65   5 B       83   1 H                                       1.1682511
    69   5 B       84   1 H                                       1.1700393
    70   5 B       85   1 H                                       1.1647970

 * 6 distinct bonds (by element types)

   Z      Z             #   av. dist./Å        max./Å        min./Å
   1 H    5 B          16     1.1914340     1.3385274     1.1584420
   5 B    5 B          65     1.6454122     1.7762701     1.5502194
   1 H    6 C           7     1.0786181     1.0803338     1.0758592
   6 C    6 C          14     1.3931820     1.4287459     1.3676263
   1 H    8 O           2     0.9815247     0.9952652     0.9677842
   6 C    8 O           5     1.3554778     1.3628227     1.3488887


optimized geometry written to: xtbopt.xyz


           -------------------------------------------------
          | TOTAL ENERGY             -113.784960996438 Eh   |
          | GRADIENT NORM               0.001719490588 Eh/α |
          | HOMO-LUMO GAP               0.048429416020 eV   |
           -------------------------------------------------

------------------------------------------------------------------------
 * finished run on 2026/09/01 at 20:38:00.957     
------------------------------------------------------------------------
 total:
 * wall-time:     0 d,  0 h,  0 min, 19.928 sec
 *  cpu-time:     0 d,  0 h,  3 min, 42.984 sec
 * ratio c/w:    11.190 speedup
 SCF:
 * wall-time:     0 d,  0 h,  0 min,  0.398 sec
 *  cpu-time:     0 d,  0 h,  0 min,  5.078 sec
 * ratio c/w:    12.759 speedup
 ANC optimizer:
 * wall-time:     0 d,  0 h,  0 min, 19.481 sec
 *  cpu-time:     0 d,  0 h,  3 min, 37.547 sec
 * ratio c/w:    11.167 speedup

