85
Baicalein/B40H15 GFN2 opt
O      -0.37210351     -1.00589767      2.95035930
C      -0.46283334     -0.90697172      4.29438485
C      -1.64151267     -0.59092997      4.95482579
C      -1.70310941     -0.53288181      6.33420146
C      -2.87356588     -0.24378158      7.11055944
C      -4.11795705      0.04637692      6.52257888
C      -5.21834228      0.32662594      7.30167254
C      -5.12810341      0.32683293      8.68669409
C      -3.90878676      0.04065955      9.28432950
C      -2.80089945     -0.23889326      8.51633189
O      -0.56477573     -0.77505162      7.09305746
C       0.62344792     -0.99766165      6.47915167
C       1.73890927     -1.12881393      7.28504273
C       2.99391138     -1.34098986      6.71692818
O       4.08971002     -1.47037891      7.51069167
C       3.12587758     -1.40862679      5.33315603
O       4.37778288     -1.59787560      4.79116440
C       2.00324340     -1.27695145      4.52027130
O       2.20444722     -1.32171897      3.16701021
C       0.73401100     -1.08122327      5.07807020
H      -2.53061010     -0.41913762      4.37413883
H      -4.22373568      0.05887506      5.45076922
H      -6.16237772      0.55025432      6.82537071
H      -5.99530970      0.54764982      9.29086613
H      -3.82630097      0.03720009     10.36207167
H      -1.85698125     -0.46001420      8.98817164
H       1.64562302     -1.06565572      8.35481941
H       4.84714288     -1.61335293      6.92603693
H       4.28328486     -1.70130170      3.82843538
H       1.31830153     -1.27623068      2.74404643
B      -3.88219841     -3.10823629      1.17737822
B      -3.97417275     -1.74398295      0.38127521
B      -4.15605767     -0.43945560     -0.62569313
B      -2.53018581     -2.76818346      0.34727770
B      -2.82817295      0.19944543     -0.12149897
B      -4.02684736     -0.17039469      1.18245235
B      -4.70554518      0.57986706      2.41213070
B      -4.58415263      2.18829977      2.74358507
B      -2.47054648      0.26932457      1.46624742
B      -3.08719707      2.49730395      3.30286774
B      -1.11334990     -3.59585847      0.23314924
B      -1.15127979     -2.02665693     -0.06870763
B      -1.29507535     -0.39152656      0.21125195
B       0.30511597     -2.69719763     -0.01853164
B       0.06617414      0.42157387      0.52307931
B      -0.91552498     -0.04161244      2.00678667
B      -1.68941208      1.55699566      2.06352807
B      -1.97338235      3.10405364      2.30036727
B      -0.08906810      1.48483572      1.85189384
B      -1.18244518      4.50620117      2.24034888
B       1.84660476     -3.35194156     -0.00979726
B       1.70493051     -1.75706819      0.08446461
B       1.62085351     -0.18177972      0.32812326
B       3.13961804     -2.47852246      0.51722893
B       2.91191277      0.77960988      0.68522996
B       1.37618795      1.33129302      0.99661584
B       1.11820881      2.58596278      2.15504449
B       0.27338064      3.93505525      2.01492410
B       2.50974757      2.54365638      1.29033806
B       1.08888225      3.95523384      0.54646177
B       4.47128206     -2.93247264      1.43698449
B       4.37976447     -1.45756427      0.74987336
B       4.42937896      0.15586280      0.60709501
B       5.53059318     -1.76547382      1.77997775
B       5.57998923      1.32821231      0.32826207
B       4.23062897      1.71583635      1.19725414
B       3.93916597      3.44794573      1.38905187
B       2.67952135      4.19898889      0.57448361
B       5.44715040      2.82018614      1.19475690
B       4.08855419      4.83807583      0.62425392
H      -4.10455731     -3.82628880      2.07276076
H      -4.93421439     -2.70001034      0.54849290
H      -5.04939821     -0.28595130     -1.37803182
H      -5.22125625     -0.04130140      3.28403047
H      -5.50881327      2.91403848      2.70388752
H      -2.90715586      2.28529650      4.45117572
H      -1.03184220     -4.76192029      0.27287934
H      -1.60100815      5.60469678      2.28365595
H       1.95843984     -4.46622012     -0.35308555
H       0.49972435      3.74240417     -0.45943003
H       4.56939038     -4.00791077      1.88454850
H       6.48552369     -1.44615712      2.36292551
H       6.60308111      1.14683947     -0.21080738
H       6.45367609      3.26022605      1.60661585
H       4.82600855      5.71812113      0.41990458
