90
Drug@B48H12 canonical clean complex
O      1.264929     -2.140354      9.942864
C      0.868296     -1.352437      9.091321
C     -0.557067     -1.032911      8.934890
C     -0.927317     -0.166764      7.980191
C     -2.341420      0.202984      7.779129
C     -2.691786      1.545551      7.571217
C     -4.024690      1.913452      7.370869
C     -5.023391      0.942638      7.369121
C     -4.690781     -0.395903      7.564057
C     -3.357867     -0.764603      7.765335
O     -0.045868      0.475183      7.123243
C      1.294877      0.198535      7.234119
C      2.151205      0.853947      6.344094
C      3.523601      0.614463      6.409843
O      4.378542      1.243150      5.550459
C      4.033831     -0.272262      7.357903
O      5.378765     -0.515186      7.432682
C      3.179658     -0.926243      8.245220
O      3.757047     -1.784178      9.149202
C      1.806069     -0.688714      8.180881
H     -1.245225     -1.514337      9.617563
H     -1.927962      2.320475      7.570704
H     -4.281863      2.958236      7.215713
H     -6.060338      1.228691      7.211878
H     -5.468722     -1.155361      7.554910
H     -3.124628     -1.818748      7.897881
H      1.736670      1.540745      5.612557
H      3.877818      1.814752      4.948458
H      5.480672     -1.158604      8.161272
H      3.036944     -2.166196      9.703053
B     -6.925574     -4.651113      0.258651
B     -5.109772     -2.249293      0.322202
B     -3.591500     -2.181365      0.212799
B      0.999259     -2.875448      0.063787
B      2.475853     -3.012223     -0.270859
B      5.299353     -3.831373     -0.667177
B      6.318286     -4.835948     -1.155795
B     -6.434811     -3.158276      0.286374
B     -6.751986     -1.633834      0.316446
B     -2.052572     -2.317325      0.334938
B     -0.484105     -2.461901      0.257444
B      4.018432     -2.901059     -0.287234
B      5.753195     -2.281523     -0.302825
B      6.830072     -3.228788     -1.092903
B     -7.656446     -0.254969      0.343088
B     -6.037404     -0.139472      0.191282
B     -4.431555     -0.535693      0.223935
B     -2.737864     -0.660395      0.328987
B     -1.051797     -0.915695      0.641867
B      0.517067     -1.172154      0.725732
B      3.123140     -1.483076     -0.063477
B      4.700072     -1.133969      0.340157
B      6.266701     -0.787165      0.251702
B      7.671979     -0.351666      1.032714
B     -6.918082      1.212094      0.191543
B     -3.418449      0.780084      0.080928
B     -1.654248      0.532626      0.123936
B      1.862187     -0.403738      0.324587
B      3.584717     -0.150377      0.785151
B      6.990973      0.611062     -0.106825
B      8.307368      1.062865      0.631577
B     -7.619446      2.804022      0.298592
B     -6.123847      2.518506     -0.176534
B     -3.588598      2.327656     -0.236793
B     -0.906130      1.819502     -0.419754
B      1.623430      1.019912     -0.410817
B      3.010841      1.309010      0.529678
B      6.372866      1.858188     -0.915986
B     -6.527660      4.045620     -0.160807
B     -4.873588      3.494810     -0.388449
B     -3.415521      3.880123     -0.606384
B     -2.023468      3.220559     -0.676715
B     -0.497363      3.279553     -0.896985
B      0.710715      2.332441     -0.745678
B      2.335338      2.478091     -0.475438
B      3.816082      2.619470     -0.094099
B      5.369811      2.864588     -0.148865
B      6.055136      4.080007      0.631212
H      6.204101      5.147675      0.146336
H      8.218389     -1.121032      1.726840
H      6.622436      1.981791     -2.067388
H     -7.089961     -5.250634     -0.753775
H     -6.791161      5.181470     -0.285186
H      9.156919      1.846573      0.789984
H     -8.827690     -0.375757      0.328558
H      6.783879     -5.868988     -1.446538
H     -8.724710      3.001220      0.638842
H      7.891803     -2.883539     -1.473727
H      6.428164      3.999644      1.748458
H     -7.224878     -5.282314      1.218688
