      -----------------------------------------------------------      
     |                   =====================                   |     
     |                           x T B                           |     
     |                   =====================                   |     
     |                         S. Grimme                         |     
     |          Mulliken Center for Theoretical Chemistry        |     
     |                    University of Bonn                     |     
      -----------------------------------------------------------      

   * xtb version 6.7.1pre (5071a88) compiled by 'Marcel@Raven' on 2024-07-23

   xtb is free software: you can redistribute it and/or modify it under
   the terms of the GNU Lesser General Public License as published by
   the Free Software Foundation, either version 3 of the License, or
   (at your option) any later version.
   
   xtb is distributed in the hope that it will be useful,
   but WITHOUT ANY WARRANTY; without even the implied warranty of
   MERCHANTABILITY or FITNESS FOR A PARTICULAR PURPOSE.  See the
   GNU Lesser General Public License for more details.
   
   Cite this work as:
   * C. Bannwarth, E. Caldeweyher, S. Ehlert, A. Hansen, P. Pracht,
     J. Seibert, S. Spicher, S. Grimme, WIREs Comput. Mol. Sci., 2020, 11,
     e01493. DOI: 10.1002/wcms.1493
   
   for GFN2-xTB:
   * C. Bannwarth, S. Ehlert and S. Grimme., J. Chem. Theory Comput., 2019,
     15, 1652-1671. DOI: 10.1021/acs.jctc.8b01176
   for GFN1-xTB:
   * S. Grimme, C. Bannwarth, P. Shushkov, J. Chem. Theory Comput., 2017,
     13, 1989-2009. DOI: 10.1021/acs.jctc.7b00118
   for GFN0-xTB:
   * P. Pracht, E. Caldeweyher, S. Ehlert, S. Grimme, ChemRxiv, 2019, preprint.
     DOI: 10.26434/chemrxiv.8326202.v1
   for GFN-FF:
   * S. Spicher and S. Grimme, Angew. Chem. Int. Ed., 2020, 59, 15665-15673.
     DOI: 10.1002/anie.202004239
   
   for ALPB and GBSA implicit solvation:
   * S. Ehlert, M. Stahn, S. Spicher, S. Grimme, J. Chem. Theory Comput.,
     2021, 17, 4250-4261. DOI: 10.1021/acs.jctc.1c00471
   
   for ddCOSMO and CPCM-X implicit solvation:
   * M. Stahn, S. Ehlert, S. Grimme, J. Phys. Chem. A,
     2023, XX, XXXX-XXXX. DOI: 10.1021/acs.jpca.3c04382
   
   for DFT-D4:
   * E. Caldeweyher, C. Bannwarth and S. Grimme, J. Chem. Phys., 2017,
     147, 034112. DOI: 10.1063/1.4993215
   * E. Caldeweyher, S. Ehlert, A. Hansen, H. Neugebauer, S. Spicher,
     C. Bannwarth and S. Grimme, J. Chem. Phys., 2019, 150, 154122.
     DOI: 10.1063/1.5090222
   * E. Caldeweyher, J.-M. Mewes, S. Ehlert and S. Grimme, Phys. Chem. Chem. Phys.
     2020, 22, 8499-8512. DOI: 10.1039/D0CP00502A
   
   for sTDA-xTB:
   * S. Grimme and C. Bannwarth, J. Chem. Phys., 2016, 145, 054103.
     DOI: 10.1063/1.4959605
   
   in the mass-spec context:
   * V. Asgeirsson, C. Bauer and S. Grimme, Chem. Sci., 2017, 8, 4879.
     DOI: 10.1039/c7sc00601b
   * J. Koopman and S. Grimme, ACS Omega 2019, 4, 12, 15120-15133.
     DOI: 10.1021/acsomega.9b02011
   
   for metadynamics refer to:
   * S. Grimme, J. Chem. Theory Comput., 2019, 155, 2847-2862
     DOI: 10.1021/acs.jctc.9b00143
   
   for SPH calculations refer to:
   * S. Spicher and S. Grimme, J. Chem. Theory Comput., 2021, 17, 1701-1714
     DOI: 10.1021/acs.jctc.0c01306
   
   for ONIOM refer to:
   * C. Plett, A. Katbashev, S. Ehlert, S. Grimme, M. Bursch,
     Phys. Chem. Chem. Phys., 2023, 25, 17860-17868. DOI: 10.1039/D3CP02178E
   
   for DIPRO refer to:
   * J. Kohn, N. Gildemeister, S. Grimme, D. Fazzi, A. Hansen,
     J. Chem. Phys., 2023, just accepted.
   
   for PTB refer to:
   * S. Grimme, M. Mueller, A. Hansen, J. Chem. Phys., 2023, 158, 124111.
     DOI: 10.1063/5.0137838
   
   with help from (in alphabetical order)
   P. Atkinson, C. Bannwarth, F. Bohle, G. Brandenburg, E. Caldeweyher
   M. Checinski, S. Dohm, S. Ehlert, S. Ehrlich, I. Gerasimov, C. Hölzer
   A. Katbashev, J. Kohn, J. Koopman, C. Lavigne, S. Lehtola, F. März, M. Müller,
   F. Musil, H. Neugebauer, J. Pisarek, C. Plett, P. Pracht, F. Pultar,
   J. Seibert, P. Shushkov, S. Spicher, M. Stahn, M. Steiner, T. Strunk,
   J. Stückrath, T. Rose, and J. Unsleber
   
 * started run on 2026/08/31 at 20:22:31.442     
   ID    Z sym.   atoms
    1    8 O      1, 11, 15, 17, 19
    2    6 C      2-10, 12-14, 16, 18, 20
    3    1 H      21-30, 84-90
    4    5 B      31-83

           -------------------------------------------------
          |                Calculation Setup                |
           -------------------------------------------------

          program call               : "c:\Users\Andre\Proyectos doctorado\kras-pancreatic-gC3N4-ai\tools\xtb\xtb-6.7.1\bin\xtb.exe" "c:\Users\Andre\Proyectos doctorado\borophene-alzheimer-tau-ai\calculations\tau\Baicalein\Baicalein_B48H12_complex.xyz" --gfn 2 --sp --chrg 0 --uhf 0 --iterations 500 --norestart
          coordinate file            : c:\Users\Andre\Proyectos doctorado\borophene-alzheimer-tau-ai\calculations\tau\Baicalein\Baicalein_B48H12_complex.xyz
          omp threads                :                    16


molecular fragmentation (1/2 indicates fragments):
111111111111111111111111111111111111111111111111111111111111111111111111
111111111111221111
# atoms in fragment 1/2:    88     2
 fragment masses (1/2) :      848.26        2.02
CMA distance (Bohr)    :  16.592
constraining FC (au)   :  0.0500

           -------------------------------------------------
          |                 G F N 2 - x T B                 |
           -------------------------------------------------

        Reference                      10.1021/acs.jctc.8b01176
      * Hamiltonian:
        H0-scaling (s, p, d)           1.850000    2.230000    2.230000
        zeta-weighting                 0.500000
      * Dispersion:
        s8                             2.700000
        a1                             0.520000
        a2                             5.000000
        s9                             5.000000
      * Repulsion:
        kExp                           1.500000    1.000000
        rExp                           1.000000
      * Coulomb:
        alpha                          2.000000
        third order                    shell-resolved
        anisotropic                    true
        a3                             3.000000
        a5                             4.000000
        cn-shift                       1.200000
        cn-exp                         4.000000
        max-rad                        5.000000


          ...................................................
          :                      SETUP                      :
          :.................................................:
          :  # basis functions                 309          :
          :  # atomic orbitals                 309          :
          :  # shells                          163          :
          :  # electrons                       266          :
          :  max. iterations                   500          :
          :  Hamiltonian                  GFN2-xTB          :
          :  restarted?                      false          :
          :  GBSA solvation                  false          :
          :  PC potential                    false          :
          :  electronic temp.          300.0000000     K    :
          :  accuracy                    1.0000000          :
          :  -> integral cutoff          0.2500000E+02      :
          :  -> integral neglect         0.1000000E-07      :
          :  -> SCF convergence          0.1000000E-05 Eh   :
          :  -> wf. convergence          0.1000000E-03 e    :
          :  Broyden damping             0.4000000          :
          :  net charge                          0          :
          :  unpaired electrons                  0          :
          ...................................................

 iter      E             dE          RMSdq      gap      omega  full diag
   1   -123.9236286 -0.123924E+03  0.179E+01    0.14       0.0  T
   2    -40.6648264  0.832588E+02  0.152E+01    0.06       1.0  T
   3    405.3204086  0.445985E+03  0.285E+01    0.25       1.0  T
   4     34.4116950 -0.370909E+03  0.174E+01    0.02       1.0  T
   5    174.4530415  0.140041E+03  0.208E+01    0.09       1.0  T
   6    -85.3993190 -0.259852E+03  0.122E+01    0.32       1.0  T
   7    -28.7452839  0.566540E+02  0.124E+01    0.02       1.0  T
   8    -43.3699674 -0.146247E+02  0.130E+01    0.06       1.0  T
   9   -109.6770947 -0.663071E+02  0.805E+00    0.00       1.0  T
  10   -108.8985377  0.778557E+00  0.779E+00    0.02       1.0  T
  11   -118.1969059 -0.929837E+01  0.749E+00    0.17       1.0  T
  12   -124.6606944 -0.646379E+01  0.648E+00    0.05       1.0  T
  13   -124.3803918  0.280303E+00  0.618E+00    0.08       1.0  T
  14   -123.8854529  0.494939E+00  0.617E+00    0.08       1.0  T
  15   -124.5678851 -0.682432E+00  0.586E+00    0.08       1.0  T
  16   -124.4800863  0.877988E-01  0.592E+00    0.11       1.0  T
  17   -124.3405797  0.139507E+00  0.583E+00    0.16       1.0  T
  18   -124.2778316  0.627481E-01  0.539E+00    0.07       1.0  T
  19   -125.2691325 -0.991301E+00  0.469E+00    0.07       1.0  T
  20   -125.1576982  0.111434E+00  0.456E+00    0.02       1.0  T
  21   -125.2432892 -0.855910E-01  0.456E+00    0.07       1.0  T
  22   -124.9513343  0.291955E+00  0.447E+00    0.08       1.0  T
  23   -125.0237121 -0.723778E-01  0.439E+00    0.05       1.0  T
  24   -124.7247204  0.298992E+00  0.378E+00    0.02       1.0  T
  25   -124.9831170 -0.258397E+00  0.328E+00    0.06       1.0  T
  26   -125.1711520 -0.188035E+00  0.274E+00    0.04       1.0  T
  27   -125.7803016 -0.609150E+00  0.227E+00    0.03       1.0  T
  28   -125.8404665 -0.601649E-01  0.223E+00    0.07       1.0  T
  29   -125.7989593  0.415072E-01  0.227E+00    0.06       1.0  T
  30   -125.6915999  0.107359E+00  0.239E+00    0.10       1.0  T
  31   -125.6562955  0.353045E-01  0.232E+00    0.10       1.0  T
  32   -125.7136846 -0.573891E-01  0.202E+00    0.04       1.0  T
  33   -125.5437277  0.169957E+00  0.206E+00    0.01       1.0  T
  34   -125.8950588 -0.351331E+00  0.168E+00    0.01       1.0  T
  35   -125.9652685 -0.702096E-01  0.162E+00    0.01       1.0  T
  36   -126.0391540 -0.738855E-01  0.144E+00    0.03       1.0  T
  37   -126.1083510 -0.691970E-01  0.128E+00    0.03       1.0  T
  38   -126.1633071 -0.549560E-01  0.109E+00    0.04       1.0  T
  39   -126.0433983  0.119909E+00  0.142E+00    0.02       1.0  T
  40   -126.2169022 -0.173504E+00  0.915E-01    0.05       1.0  T
  41   -126.1905305  0.263717E-01  0.996E-01    0.03       1.0  T
  42   -126.2381061 -0.475756E-01  0.787E-01    0.05       1.0  T
  43   -126.2593077 -0.212016E-01  0.629E-01    0.06       1.0  T
  44   -126.2669869 -0.767919E-02  0.576E-01    0.06       1.0  T
  45   -126.2670471 -0.602407E-04  0.575E-01    0.06       1.0  T
  46   -126.2576646  0.938256E-02  0.644E-01    0.07       1.0  T
  47   -126.2748733 -0.172087E-01  0.509E-01    0.07       1.0  T
  48   -126.2834608 -0.858755E-02  0.421E-01    0.08       1.0  T
  49   -126.2859299 -0.246913E-02  0.383E-01    0.08       1.0  T
  50   -126.2842370  0.169289E-02  0.381E-01    0.08       1.0  T
  51   -126.2826405  0.159653E-02  0.393E-01    0.08       1.0  T
  52   -126.2827058 -0.653372E-04  0.380E-01    0.07       1.0  T
  53   -126.2857983 -0.309244E-02  0.339E-01    0.07       1.0  T
  54   -126.2872305 -0.143217E-02  0.313E-01    0.07       1.0  T
  55   -126.2873768 -0.146337E-03  0.288E-01    0.07       1.0  T
  56   -126.2897208 -0.234404E-02  0.239E-01    0.07       1.0  T
  57   -126.2894837  0.237098E-03  0.237E-01    0.07       1.0  T
  58   -126.2895855 -0.101760E-03  0.234E-01    0.07       1.0  T
  59   -126.2913878 -0.180235E-02  0.193E-01    0.07       1.0  T
  60   -126.2917181 -0.330216E-03  0.169E-01    0.08       1.0  T
  61   -126.2942912 -0.257313E-02  0.114E-01    0.09       1.0  T
  62   -126.2953468 -0.105566E-02  0.896E-02    0.09       1.0  T
  63   -126.2953952 -0.483592E-04  0.833E-02    0.10       1.0  T
  64   -126.2953191  0.760578E-04  0.822E-02    0.10       1.0  T
  65   -126.2955298 -0.210667E-03  0.648E-02    0.10       1.0  T
  66   -126.2956199 -0.900951E-04  0.554E-02    0.10       1.0  T
  67   -126.2956680 -0.480524E-04  0.474E-02    0.10       1.0  T
  68   -126.2957041 -0.361733E-04  0.397E-02    0.10       1.0  T
  69   -126.2957166 -0.124758E-04  0.344E-02    0.10       1.0  T
  70   -126.2956996  0.170493E-04  0.300E-02    0.10       1.0  T
  71   -126.2956970  0.253915E-05  0.279E-02    0.10       1.0  T
  72   -126.2956994 -0.242679E-05  0.263E-02    0.10       1.0  T
  73   -126.2956908  0.863007E-05  0.268E-02    0.10       1.0  T
  74   -126.2957238 -0.329762E-04  0.214E-02    0.10       1.0  T
  75   -126.2957327 -0.889703E-05  0.187E-02    0.10       1.0  T
  76   -126.2957429 -0.102591E-04  0.165E-02    0.10       1.0  T
  77   -126.2957621 -0.191793E-04  0.107E-02    0.10       1.0  T
  78   -126.2957666 -0.444312E-05  0.825E-03    0.10       1.3  T
  79   -126.2957673 -0.731752E-06  0.747E-03    0.10       1.4  T
  80   -126.2957684 -0.108461E-05  0.621E-03    0.10       1.7  T
  81   -126.2957693 -0.959713E-06  0.481E-03    0.10       2.2  T
  82   -126.2957700 -0.633295E-06  0.379E-03    0.10       2.8  T
  83   -126.2957701 -0.115675E-06  0.296E-03    0.10       3.6  T
  84   -126.2957702 -0.837456E-07  0.241E-03    0.10       4.4  T
  85   -126.2957706 -0.399851E-06  0.201E-03    0.10       5.3  T
  86   -126.2957707 -0.746748E-07  0.178E-03    0.10       5.9  T
  87   -126.2957708 -0.148597E-06  0.146E-03    0.10       7.2  T
  88   -126.2957710 -0.168966E-06  0.959E-04    0.10      11.0  T
  89   -126.2957710 -0.295203E-07  0.801E-04    0.10      13.2  T

   *** convergence criteria satisfied after 89 iterations ***

         #    Occupation            Energy/Eh            Energy/eV
      -------------------------------------------------------------
         1        2.0000           -0.6809624             -18.5299
       ...           ...                  ...                  ...
       127        2.0000           -0.2369354              -6.4473
       128        2.0000           -0.2309276              -6.2839
       129        2.0000           -0.2259112              -6.1474
       130        2.0000           -0.2243081              -6.1037
       131        1.9997           -0.2216277              -6.0308
       132        1.9635           -0.2171566              -5.9091
       133        1.6631           -0.2148872              -5.8474 (HOMO)
       134        0.2118           -0.2113436              -5.7510 (LUMO)
       135        0.1168           -0.2107291              -5.7342
       136        0.0424           -0.2097292              -5.7070
       137        0.0026           -0.2070715              -5.6347
       138        0.0001           -0.2038140              -5.5461
       ...           ...                  ...                  ...
       309                          1.6393971              44.6103
      -------------------------------------------------------------
                  HL-Gap            0.0035435 Eh            0.0964 eV
             Fermi-level           -0.2133703 Eh           -5.8061 eV

 SCC (total)                   0 d,  0 h,  0 min,  1.827 sec
 SCC setup                      ...        0 min,  0.000 sec (  0.000%)
 Dispersion                     ...        0 min,  0.001 sec (  0.055%)
 classical contributions        ...        0 min,  0.001 sec (  0.055%)
 integral evaluation            ...        0 min,  0.009 sec (  0.493%)
 iterations                     ...        0 min,  1.795 sec ( 98.249%)
 molecular gradient             ...        0 min,  0.020 sec (  1.095%)
 printout                       ...        0 min,  0.001 sec (  0.055%)

         :::::::::::::::::::::::::::::::::::::::::::::::::::::
         ::                     SUMMARY                     ::
         :::::::::::::::::::::::::::::::::::::::::::::::::::::
         :: total energy            -124.102680499319 Eh    ::
         :: gradient norm              0.520543429739 Eh/a0 ::
         :: HOMO-LUMO gap              0.096424820337 eV    ::
         ::.................................................::
         :: SCC energy              -126.290929773723 Eh    ::
         :: -> isotropic ES            0.440905920150 Eh    ::
         :: -> anisotropic ES         -0.007125033716 Eh    ::
         :: -> anisotropic XC         -0.073763085770 Eh    ::
         :: -> dispersion             -0.141666937109 Eh    ::
         :: repulsion energy           2.188249274404 Eh    ::
         :: add. restraining           0.000000000000 Eh    ::
         :: total charge              -0.000000000001 e     ::
         :::::::::::::::::::::::::::::::::::::::::::::::::::::

           -------------------------------------------------
          |                Property Printout                |
           -------------------------------------------------

    * Orbital Energies and Occupations

         #    Occupation            Energy/Eh            Energy/eV
      -------------------------------------------------------------
         1        2.0000           -0.6809624             -18.5299
       ...           ...                  ...                  ...
       121        2.0000           -0.2528977              -6.8817
       122        2.0000           -0.2507888              -6.8243
       123        2.0000           -0.2504229              -6.8144
       124        2.0000           -0.2483735              -6.7586
       125        2.0000           -0.2452528              -6.6737
       126        2.0000           -0.2414612              -6.5705
       127        2.0000           -0.2369354              -6.4473
       128        2.0000           -0.2309276              -6.2839
       129        2.0000           -0.2259112              -6.1474
       130        2.0000           -0.2243081              -6.1037
       131        1.9997           -0.2216277              -6.0308
       132        1.9635           -0.2171566              -5.9091
       133        1.6631           -0.2148872              -5.8474 (HOMO)
       134        0.2118           -0.2113436              -5.7510 (LUMO)
       135        0.1168           -0.2107291              -5.7342
       136        0.0424           -0.2097292              -5.7070
       137        0.0026           -0.2070715              -5.6347
       138        0.0001           -0.2038140              -5.5461
       139        0.0000           -0.2024147              -5.5080
       140        0.0000           -0.1976504              -5.3783
       141                         -0.1960117              -5.3337
       142                         -0.1957184              -5.3258
       143                         -0.1868559              -5.0846
       144                         -0.1854652              -5.0468
       ...                                ...                  ...
       309                          1.6393971              44.6103
      -------------------------------------------------------------
                  HL-Gap            0.0035435 Eh            0.0964 eV
             Fermi-level           -0.2133703 Eh           -5.8061 eV

     #   Z          covCN         q      C6AA      α(0)
     1   8 O        0.858    -0.519    24.219     6.598
     2   6 C        2.837     0.191    23.930     8.017
     3   6 C        2.897    -0.120    31.051     9.136
     4   6 C        2.854     0.103    25.721     8.312
     5   6 C        2.967    -0.006    28.177     8.707
     6   6 C        2.917    -0.047    29.156     8.855
     7   6 C        2.910    -0.050    29.232     8.866
     8   6 C        2.912    -0.056    29.386     8.889
     9   6 C        2.910    -0.047    29.164     8.855
    10   6 C        2.916    -0.050    29.238     8.867
    11   8 O        1.707    -0.234    17.880     5.709
    12   6 C        2.872     0.110    25.560     8.288
    13   6 C        2.962    -0.184    32.822     9.397
    14   6 C        2.846     0.047    26.935     8.506
    15   8 O        2.851    -0.242    17.968     5.725
    16   6 C        2.843     0.076    26.294     8.404
    17   8 O        1.657    -0.407    20.986     6.184
    18   6 C        2.844     0.081    26.176     8.385
    19   8 O        1.656    -0.448    21.807     6.304
    20   6 C        2.971    -0.095    30.392     9.043
    21   1 H        0.925     0.040     2.450     2.448
    22   1 H        0.925     0.035     2.519     2.482
    23   1 H        0.925     0.029     2.602     2.523
    24   1 H        0.925     0.023     2.691     2.565
    25   1 H        0.925     0.024     2.669     2.555
    26   1 H        0.925     0.032     2.558     2.501
    27   1 H        1.359     0.160     1.319     1.793
    28   1 H        1.986     0.451     0.392     0.977
    29   1 H        0.804     0.317     0.671     1.287
    30   1 H        0.802     0.339     0.614     1.231
    31   5 B        2.887    -0.006    21.530     7.745
    32   5 B        2.890     0.025    20.973     7.644
    33   5 B        2.890     0.031    20.879     7.626
    34   5 B        2.890     0.029    20.912     7.632
    35   5 B        2.890     0.038    20.757     7.604
    36   5 B        2.887     0.012    21.212     7.687
    37   5 B        2.916     0.008    21.262     7.694
    38   5 B        3.868    -0.012    22.958     7.722
    39   5 B        3.868     0.006    22.629     7.666
    40   5 B        3.868     0.005    22.637     7.668
    41   5 B        3.868    -0.000    22.743     7.686
    42   5 B        2.916     0.056    20.444     7.545
    43   5 B        3.266    -0.012    21.598     7.750
    44   5 B        2.314     0.067    30.836    10.819
    45   5 B        1.958     0.028    43.112    13.808
    46   5 B        1.958     0.019    43.434    13.859
    47   5 B        1.958     0.028    43.099    13.806
    48   5 B        2.911    -0.065    22.598     7.933
    49   5 B        2.939    -0.002    21.433     7.724
    50   5 B        2.936    -0.094    23.147     8.027
    51   5 B        1.958    -0.050    45.996    14.263
    52   5 B        1.973    -0.054    46.043    14.264
    53   5 B        2.356     0.016    29.537    10.319
    54   5 B        1.960     0.016    43.510    13.871
    55   5 B        3.266    -0.011    21.577     7.747
    56   5 B        2.314     0.071    30.745    10.803
    57   5 B        1.958     0.029    43.081    13.803
    58   5 B        2.427     0.019    25.797     9.214
    59   5 B        3.700     0.020    22.195     7.625
    60   5 B        2.911    -0.045    22.230     7.868
    61   5 B        2.916     0.008    21.259     7.694
    62   5 B        3.868    -0.010    22.926     7.716
    63   5 B        3.868     0.005    22.640     7.668
    64   5 B        3.868    -0.017    23.062     7.739
    65   5 B        4.107    -0.028    23.269     7.772
    66   5 B        2.914    -0.010    21.591     7.754
    67   5 B        2.887    -0.007    21.542     7.747
    68   5 B        2.890     0.022    21.029     7.654
    69   5 B        2.890     0.027    20.949     7.639
    70   5 B        2.890     0.025    20.976     7.644
    71   5 B        2.890     0.000    21.412     7.723
    72   5 B        1.934    -0.004    44.363    14.014
    73   5 B        3.822     0.043    21.931     7.549
    74   5 B        3.822     0.039    22.009     7.563
    75   5 B        3.822     0.044    21.918     7.547
    76   5 B        3.822     0.044    21.921     7.547
    77   5 B        3.822     0.050    21.813     7.529
    78   5 B        3.822     0.044    21.927     7.548
    79   5 B        3.822     0.039    22.014     7.563
    80   5 B        3.822     0.038    22.034     7.567
    81   5 B        3.822    -0.004    22.791     7.696
    82   5 B        3.822     0.030    22.172     7.590
    83   5 B        3.381     0.118    19.431     7.348
    84   1 H        0.954    -0.081     4.921     3.468
    85   1 H        0.956     0.012     2.857     2.642
    86   1 H        0.956     0.011     2.875     2.650
    87   1 H        0.954    -0.082     4.957     3.480
    88   1 H        0.954    -0.073     4.701     3.389
    89   1 H        0.956     0.004     2.979     2.698
    90   1 H        0.956    -0.013     3.295     2.837

 Mol. C6AA /au·bohr⁶  :     154858.802467
 Mol. C8AA /au·bohr⁸  :    5264084.985082
 Mol. α(0) /au        :        669.807129


Wiberg/Mayer (AO) data.
largest (>0.10) Wiberg bond orders for each atom

 ---------------------------------------------------------------------------
     #   Z sym  total        # sym  WBO       # sym  WBO       # sym  WBO
 ---------------------------------------------------------------------------
     1   8 O    1.844 --     2 C    1.530
     2   6 C    3.870 --     1 O    1.530     3 C    1.146    20 C    1.088
     3   6 C    3.942 --     4 C    1.567     2 C    1.146    21 H    0.966
     4   6 C    3.840 --     3 C    1.567     5 C    1.069    11 O    1.029
     5   6 C    3.945 --     6 C    1.354    10 C    1.350     4 C    1.069
     6   6 C    3.955 --     7 C    1.461     5 C    1.354    22 H    0.970
     7   6 C    3.981 --     6 C    1.461     8 C    1.412    23 H    0.970
     8   6 C    3.930 --     9 C    1.412     7 C    1.412    24 H    0.971
     9   6 C    3.982 --    10 C    1.466     8 C    1.412    25 H    0.971
    10   6 C    3.950 --     9 C    1.466     5 C    1.350    26 H    0.970
    11   8 O    2.320 --    12 C    1.057     4 C    1.029
    12   6 C    3.911 --    13 C    1.323    20 C    1.313    11 O    1.057
    13   6 C    3.903 --    12 C    1.323    14 C    1.274    27 H    0.779
                            52 B    0.109
    14   6 C    3.863 --    16 C    1.318    13 C    1.274    15 O    0.980
    15   8 O    2.445 --    14 C    0.980    59 B    0.515    28 H    0.505
                            53 B    0.237
    16   6 C    3.929 --    18 C    1.324    14 C    1.318    17 O    1.054
    17   8 O    2.084 --    16 C    1.054    29 H    0.872
    18   6 C    3.897 --    16 C    1.324    20 C    1.273    19 O    1.058
    19   8 O    2.052 --    18 C    1.058    30 H    0.810
    20   6 C    3.966 --    12 C    1.313    18 C    1.273     2 C    1.088
    21   1 H    0.998 --     3 C    0.966
    22   1 H    0.999 --     6 C    0.970
    23   1 H    0.998 --     7 C    0.970
    24   1 H    0.999 --     8 C    0.971
    25   1 H    0.999 --     9 C    0.971
    26   1 H    0.999 --    10 C    0.970
    27   1 H    0.974 --    13 C    0.779    58 B    0.131
    28   1 H    0.796 --    15 O    0.505    59 B    0.161
    29   1 H    0.899 --    17 O    0.872
    30   1 H    0.884 --    19 O    0.810
    31   5 B    3.264 --    37 B    1.088    73 B    0.948    84 H    0.866
                            32 B    0.107    43 B    0.104
    32   5 B    3.415 --    74 B    0.987    73 B    0.978    38 B    0.938
                            33 B    0.144    31 B    0.107
    33   5 B    3.508 --    75 B    1.024    74 B    0.988    39 B    0.929
                            34 B    0.160    32 B    0.144
    34   5 B    3.445 --    76 B    1.009    75 B    0.980    40 B    0.910
                            33 B    0.160    35 B    0.121
    35   5 B    3.447 --    76 B    0.976    77 B    0.954    41 B    0.915
                            36 B    0.182    34 B    0.121
    36   5 B    3.447 --    77 B    1.102    42 B    1.001    88 H    0.862
                            35 B    0.182    48 B    0.101
    37   5 B    3.418 --    43 B    1.179    31 B    1.088    73 B    0.733
                            85 H    0.108
    38   5 B    3.663 --    44 B    1.164    32 B    0.938    74 B    0.683
                            73 B    0.674
    39   5 B    3.633 --    45 B    1.154    33 B    0.929    75 B    0.666
                            74 B    0.657
    40   5 B    3.639 --    46 B    1.167    34 B    0.910    76 B    0.663
                            75 B    0.659
    41   5 B    3.649 --    47 B    1.211    35 B    0.915    76 B    0.667
                            77 B    0.628
    42   5 B    3.483 --    48 B    1.236    36 B    1.001    77 B    0.708
                            89 H    0.161    54 B    0.109
    43   5 B    3.585 --    37 B    1.179    49 B    0.972    85 H    0.693
                            83 B    0.378    31 B    0.104
    44   5 B    3.362 --    50 B    1.272    38 B    1.164    83 B    0.368
                            56 B    0.178
    45   5 B    3.267 --    51 B    1.452    39 B    1.154    57 B    0.243
    46   5 B    3.325 --    52 B    1.432    40 B    1.167    58 B    0.145
    47   5 B    3.286 --    53 B    1.392    41 B    1.211    59 B    0.104
    48   5 B    3.558 --    54 B    1.284    42 B    1.236    89 H    0.654
                            60 B    0.126    36 B    0.101
    49   5 B    3.588 --    83 B    1.006    43 B    0.972    55 B    0.968
                            85 H    0.144    86 H    0.144
    50   5 B    3.660 --    44 B    1.272    56 B    1.268    83 B    0.902
    51   5 B    3.377 --    57 B    1.453    45 B    1.452    52 B    0.127
    52   5 B    3.455 --    46 B    1.432    58 B    1.337    51 B    0.127
                            13 C    0.109
    53   5 B    3.163 --    47 B    1.392    59 B    1.214    15 O    0.237
    54   5 B    3.331 --    60 B    1.335    48 B    1.284    90 H    0.160
                            89 H    0.138    42 B    0.109
    55   5 B    3.584 --    61 B    1.181    49 B    0.968    86 H    0.694
                            83 B    0.377    67 B    0.106
    56   5 B    3.352 --    50 B    1.268    62 B    1.158    83 B    0.365
                            44 B    0.178
    57   5 B    3.270 --    51 B    1.453    63 B    1.147    45 B    0.243
    58   5 B    3.298 --    52 B    1.337    64 B    1.098    46 B    0.145
                            27 H    0.131
    59   5 B    3.228 --    53 B    1.214    65 B    0.941    15 O    0.515
                            28 H    0.161    47 B    0.104
    60   5 B    3.453 --    54 B    1.335    66 B    1.030    90 H    0.689
                            48 B    0.126
    61   5 B    3.418 --    55 B    1.181    67 B    1.089    78 B    0.729
                            86 H    0.107
    62   5 B    3.664 --    56 B    1.158    68 B    0.943    79 B    0.681
                            78 B    0.676
    63   5 B    3.637 --    57 B    1.147    69 B    0.941    80 B    0.664
                            79 B    0.657
    64   5 B    3.673 --    58 B    1.098    70 B    0.978    80 B    0.683
                            81 B    0.660
    65   5 B    3.705 --    71 B    1.025    59 B    0.941    81 B    0.750
                            82 B    0.673
    66   5 B    3.632 --    72 B    1.619    60 B    1.030    82 B    0.690
    67   5 B    3.264 --    61 B    1.089    78 B    0.947    87 H    0.865
                            68 B    0.106    55 B    0.106
    68   5 B    3.413 --    79 B    0.984    78 B    0.978    62 B    0.943
                            69 B    0.140    67 B    0.106
    69   5 B    3.491 --    80 B    1.005    79 B    0.992    63 B    0.941
                            70 B    0.161    68 B    0.140
    70   5 B    3.504 --    81 B    0.989    80 B    0.985    64 B    0.978
                            69 B    0.161    71 B    0.116
    71   5 B    3.537 --    65 B    1.025    82 B    0.970    81 B    0.959
                            72 B    0.180    70 B    0.116
    72   5 B    3.139 --    66 B    1.619    82 B    1.116    71 B    0.180
    73   5 B    3.596 --    32 B    0.978    31 B    0.948    37 B    0.733
                            38 B    0.674
    74   5 B    3.598 --    33 B    0.988    32 B    0.987    38 B    0.683
                            39 B    0.657
    75   5 B    3.601 --    33 B    1.024    34 B    0.980    39 B    0.666
                            40 B    0.659
    76   5 B    3.601 --    34 B    1.009    35 B    0.976    41 B    0.667
                            40 B    0.663
    77   5 B    3.605 --    36 B    1.102    35 B    0.954    42 B    0.708
                            41 B    0.628
    78   5 B    3.594 --    68 B    0.978    67 B    0.947    61 B    0.729
                            62 B    0.676
    79   5 B    3.599 --    69 B    0.992    68 B    0.984    62 B    0.681
                            63 B    0.657
    80   5 B    3.607 --    69 B    1.005    70 B    0.985    64 B    0.683
                            63 B    0.664
    81   5 B    3.655 --    70 B    0.989    71 B    0.959    65 B    0.750
                            64 B    0.660
    82   5 B    3.627 --    72 B    1.116    71 B    0.970    66 B    0.690
                            65 B    0.673
    83   5 B    3.600 --    49 B    1.006    50 B    0.902    43 B    0.378
                            55 B    0.377    44 B    0.368    56 B    0.365
    84   1 H    0.979 --    31 B    0.866
    85   1 H    0.992 --    43 B    0.693    49 B    0.144    37 B    0.108
    86   1 H    0.992 --    55 B    0.694    49 B    0.144    61 B    0.107
    87   1 H    0.979 --    67 B    0.865
    88   1 H    0.989 --    36 B    0.862
    89   1 H    0.990 --    48 B    0.654    42 B    0.161    54 B    0.138
    90   1 H    0.971 --    60 B    0.689    54 B    0.160
 ---------------------------------------------------------------------------

Topologies differ in total number of bonds
Writing topology from bond orders to xtbtopo.mol

molecular dipole:
                 x           y           z       tot (Debye)
 q only:       -0.942       1.276      -5.725
   full:       -2.105       1.165      -3.583      10.969
molecular quadrupole (traceless):
                xx          xy          yy          xz          yz          zz
 q only:      -13.298      10.005      59.404     -16.260      22.510     -46.106
  q+dip:       34.429       4.374      82.303      -1.148      24.240    -116.732
   full:       26.112       4.196      47.795      -1.397      26.099     -73.907


           -------------------------------------------------
          | TOTAL ENERGY             -124.102680499319 Eh   |
          | GRADIENT NORM               0.520543429739 Eh/α |
          | HOMO-LUMO GAP               0.096424820337 eV   |
           -------------------------------------------------

------------------------------------------------------------------------
 * finished run on 2026/08/31 at 20:22:33.320     
------------------------------------------------------------------------
 total:
 * wall-time:     0 d,  0 h,  0 min,  1.877 sec
 *  cpu-time:     0 d,  0 h,  0 min, 17.453 sec
 * ratio c/w:     9.298 speedup
 SCF:
 * wall-time:     0 d,  0 h,  0 min,  1.828 sec
 *  cpu-time:     0 d,  0 h,  0 min, 17.094 sec
 * ratio c/w:     9.351 speedup

normal termination of xtb
