85
 energy: -113.784611773505 gnorm: 0.011496716854 xtb: 6.7.1pre (5071a88)
O           -2.18116386889198        2.11386968294364        8.72625611313345
C           -1.48306029154497        1.37957222297683        7.99234202348583
C           -0.12028547789743        1.05719998589317        8.25135357605414
C            0.61728388608043        0.25519911113055        7.41957248786062
C            1.99751142270163       -0.12568970387010        7.63089644556096
C            2.66696468899193       -0.90729722447982        6.67425742196007
C            3.97627836650542       -1.29358780826051        6.86213209636758
C            4.66069060081544       -0.91426728160519        8.00715695845724
C            4.01359722663466       -0.14126781859997        8.96216359795275
C            2.70518866446933        0.24928006507211        8.78294776276081
O            0.08290055444795       -0.27135621621916        6.27518427012247
C           -1.22306810444613       -0.05040376756406        5.98715486560262
C           -1.74624450328753       -0.67304843398847        4.86158845491609
C           -3.08470125808778       -0.48807843375258        4.53125419213513
O           -3.64954485650152       -1.08392716958090        3.46550600132200
C           -3.89773291614362        0.35124106846364        5.30027125399886
O           -5.19972795024934        0.54615463891872        4.95204699435640
C           -3.37019200352723        0.97129260268528        6.43058178412628
O           -4.18002966194692        1.75825583051784        7.16576817621904
C           -2.02697715262527        0.76764384560817        6.78487061871562
H            0.31762436827450        1.46692140050964        9.14390413507000
H            2.13933484562303       -1.21356712566571        5.78510612242148
H            4.46189244170401       -1.89849748258037        6.11097965797152
H            5.68471425973186       -1.21797095568787        8.16164919462236
H            4.54035893246948        0.15338927031002        9.85766295883856
H            2.22414209322172        0.84068696294000        9.54410553001376
H           -1.12110111089887       -1.32530431499517        4.27362710630687
H           -3.04104484535804       -1.66996356677172        2.99237516045889
H           -5.57661569019467        1.13728649410753        5.61815029531308
H           -3.60764705978366        2.07278711670648        7.93214479769648
B           -5.02933984544499       -2.45637958487693        1.13602528335012
B           -4.37994174353351       -1.40955931714985        0.10934535691728
B           -3.86263094509032       -0.69203562117313       -1.30219993881681
B           -3.43999430295053       -2.57139864418478        0.92560209425830
B           -2.56556565222445       -0.13684627821452       -0.62023044350588
B           -4.14887244420194        0.38048131569940        0.07792015954744
B           -4.89009664596497        1.71032018965235        0.55063828884856
B           -4.43999157038517        3.27238161393186        0.29599365660081
B           -2.70883249913478        0.70880298241297        0.78899068168227
B           -3.19117540737261        3.73652861095173        1.23142223139805
B           -2.30766173011117       -3.56853550122721        1.66557834905472
B           -1.83307041275810       -2.24824388632170        0.92180107406765
B           -1.48565643783304       -0.70016084241828        0.49474760606347
B           -0.66767330237428       -3.17257923945598        1.54053085019179
B           -0.14811555475002       -0.09257680743104        1.19947244284648
B           -1.51854608500320        0.51550769532683        1.88744009520051
B           -1.73250768560847        1.98459559350959        1.13883294590437
B           -1.71076820700455        3.49411383763932        0.66017180897051
B           -0.31406079670215        1.51567274209408        1.97673058275546
B           -0.43482195180006        4.39994099593403        0.22773532374568
B            0.67756834505880       -4.11456075582669        1.88262833006561
B            0.89299597454653       -2.54130748259087        1.74159029834149
B            1.19722950319779       -0.98142419882304        1.56264658707070
B            2.11732147182086       -3.44694877827505        2.37917112187405
B            2.62199130401607       -0.22469014506886        1.73044292929918
B            1.26034574319817        0.67254871133575        1.71358279608068
B            1.10353003023732        2.35554557819072        1.89067893358967
B            0.71926233609142        3.52084305619582        0.85232015544287
B            2.54971843908392        1.65471992878769        1.37751711211772
B            1.55558247622867        2.58046518887585       -0.24075697499553
B            3.29710193972374       -4.03889170267091        3.37360737275578
B            3.57368500071742       -2.68603855846353        2.50665889382322
B            3.95659986340567       -1.21766979403474        1.92184600477047
B            4.63659515033606       -3.15862223017980        3.55630099681791
B            5.33073451889630       -0.53278519365105        1.25851500468546
B            4.14802922672891        0.42946528942563        1.83411324710091
B            4.16062257085097        2.12727632984655        1.21074457133832
B            3.14826046222879        2.53486758869196       -0.05232452351022
B            5.52299543595771        1.19421420548266        1.42493178784705
B            4.66646931063530        2.85382082489901       -0.11087397083264
H           -5.76625936270347       -2.87634415127312        1.93856530544300
H           -5.64278900950556       -1.90506057492578        0.16424981003937
H           -4.40744523703237       -0.82921648539801       -2.33751452362904
H           -5.79800021502246        1.61679882571077        1.30823453276211
H           -5.07642281941552        3.98110484952960       -0.39863603326964
H           -3.44484988463765        4.08936029703799        2.32761711220000
H           -2.59963833491825       -4.53911476111822        2.24541799171412
H           -0.39940221377409        5.34065651885729       -0.47474599525988
H            0.57020020632767       -5.27127932528866        1.74597009770773
H            1.00247604770848        1.92926262628317       -1.06046019444156
H            3.17653763856434       -5.01755174473906        3.99873589733734
H            5.65826059907348       -3.03335765062595        4.09928718400059
H            6.27503493759099       -1.12147825859410        0.90114569349371
H            6.59682956722848        1.57319182223326        1.70160737348142
H            5.58615359755414        3.32007130008210       -0.65526242862144
