      -----------------------------------------------------------      
     |                   =====================                   |     
     |                           x T B                           |     
     |                   =====================                   |     
     |                         S. Grimme                         |     
     |          Mulliken Center for Theoretical Chemistry        |     
     |                    University of Bonn                     |     
      -----------------------------------------------------------      

   * xtb version 6.7.1pre (5071a88) compiled by 'Marcel@Raven' on 2024-07-23

   xtb is free software: you can redistribute it and/or modify it under
   the terms of the GNU Lesser General Public License as published by
   the Free Software Foundation, either version 3 of the License, or
   (at your option) any later version.
   
   xtb is distributed in the hope that it will be useful,
   but WITHOUT ANY WARRANTY; without even the implied warranty of
   MERCHANTABILITY or FITNESS FOR A PARTICULAR PURPOSE.  See the
   GNU Lesser General Public License for more details.
   
   Cite this work as:
   * C. Bannwarth, E. Caldeweyher, S. Ehlert, A. Hansen, P. Pracht,
     J. Seibert, S. Spicher, S. Grimme, WIREs Comput. Mol. Sci., 2020, 11,
     e01493. DOI: 10.1002/wcms.1493
   
   for GFN2-xTB:
   * C. Bannwarth, S. Ehlert and S. Grimme., J. Chem. Theory Comput., 2019,
     15, 1652-1671. DOI: 10.1021/acs.jctc.8b01176
   for GFN1-xTB:
   * S. Grimme, C. Bannwarth, P. Shushkov, J. Chem. Theory Comput., 2017,
     13, 1989-2009. DOI: 10.1021/acs.jctc.7b00118
   for GFN0-xTB:
   * P. Pracht, E. Caldeweyher, S. Ehlert, S. Grimme, ChemRxiv, 2019, preprint.
     DOI: 10.26434/chemrxiv.8326202.v1
   for GFN-FF:
   * S. Spicher and S. Grimme, Angew. Chem. Int. Ed., 2020, 59, 15665-15673.
     DOI: 10.1002/anie.202004239
   
   for ALPB and GBSA implicit solvation:
   * S. Ehlert, M. Stahn, S. Spicher, S. Grimme, J. Chem. Theory Comput.,
     2021, 17, 4250-4261. DOI: 10.1021/acs.jctc.1c00471
   
   for ddCOSMO and CPCM-X implicit solvation:
   * M. Stahn, S. Ehlert, S. Grimme, J. Phys. Chem. A,
     2023, XX, XXXX-XXXX. DOI: 10.1021/acs.jpca.3c04382
   
   for DFT-D4:
   * E. Caldeweyher, C. Bannwarth and S. Grimme, J. Chem. Phys., 2017,
     147, 034112. DOI: 10.1063/1.4993215
   * E. Caldeweyher, S. Ehlert, A. Hansen, H. Neugebauer, S. Spicher,
     C. Bannwarth and S. Grimme, J. Chem. Phys., 2019, 150, 154122.
     DOI: 10.1063/1.5090222
   * E. Caldeweyher, J.-M. Mewes, S. Ehlert and S. Grimme, Phys. Chem. Chem. Phys.
     2020, 22, 8499-8512. DOI: 10.1039/D0CP00502A
   
   for sTDA-xTB:
   * S. Grimme and C. Bannwarth, J. Chem. Phys., 2016, 145, 054103.
     DOI: 10.1063/1.4959605
   
   in the mass-spec context:
   * V. Asgeirsson, C. Bauer and S. Grimme, Chem. Sci., 2017, 8, 4879.
     DOI: 10.1039/c7sc00601b
   * J. Koopman and S. Grimme, ACS Omega 2019, 4, 12, 15120-15133.
     DOI: 10.1021/acsomega.9b02011
   
   for metadynamics refer to:
   * S. Grimme, J. Chem. Theory Comput., 2019, 155, 2847-2862
     DOI: 10.1021/acs.jctc.9b00143
   
   for SPH calculations refer to:
   * S. Spicher and S. Grimme, J. Chem. Theory Comput., 2021, 17, 1701-1714
     DOI: 10.1021/acs.jctc.0c01306
   
   for ONIOM refer to:
   * C. Plett, A. Katbashev, S. Ehlert, S. Grimme, M. Bursch,
     Phys. Chem. Chem. Phys., 2023, 25, 17860-17868. DOI: 10.1039/D3CP02178E
   
   for DIPRO refer to:
   * J. Kohn, N. Gildemeister, S. Grimme, D. Fazzi, A. Hansen,
     J. Chem. Phys., 2023, just accepted.
   
   for PTB refer to:
   * S. Grimme, M. Mueller, A. Hansen, J. Chem. Phys., 2023, 158, 124111.
     DOI: 10.1063/5.0137838
   
   with help from (in alphabetical order)
   P. Atkinson, C. Bannwarth, F. Bohle, G. Brandenburg, E. Caldeweyher
   M. Checinski, S. Dohm, S. Ehlert, S. Ehrlich, I. Gerasimov, C. Hölzer
   A. Katbashev, J. Kohn, J. Koopman, C. Lavigne, S. Lehtola, F. März, M. Müller,
   F. Musil, H. Neugebauer, J. Pisarek, C. Plett, P. Pracht, F. Pultar,
   J. Seibert, P. Shushkov, S. Spicher, M. Stahn, M. Steiner, T. Strunk,
   J. Stückrath, T. Rose, and J. Unsleber
   
 * started run on 2026/09/01 at 16:34:38.948     
   ID    Z sym.   atoms
    1    8 O      1, 11, 15, 17, 19
    2    6 C      2-10, 12-14, 16, 18, 20
    3    1 H      21-30, 79-90
    4    5 B      31-78

           -------------------------------------------------
          |                Calculation Setup                |
           -------------------------------------------------

          program call               : "c:\Users\Andre\Proyectos doctorado\kras-pancreatic-gC3N4-ai\tools\xtb\xtb-6.7.1\bin\xtb.exe" "c:\Users\Andre\Proyectos doctorado\borophene-alzheimer-tau-ai\calculations\tau\Baicalein\Baicalein_B48H12_clean_complex.xyz" --gfn 2 --sp --chrg 0 --uhf 0 --etemp 300 --iterations 500 --norestart
          coordinate file            : c:\Users\Andre\Proyectos doctorado\borophene-alzheimer-tau-ai\calculations\tau\Baicalein\Baicalein_B48H12_clean_complex.xyz
          omp threads                :                    16


molecular fragmentation (1/2 indicates fragments):
111111111111111111111111111111222222222222222222222222222222222222222222
222222222222222222
# atoms in fragment 1/2:    30    60
 fragment masses (1/2) :      270.24      531.02
CMA distance (Bohr)    :  14.640
constraining FC (au)   :  0.0500

           -------------------------------------------------
          |                 G F N 2 - x T B                 |
           -------------------------------------------------

        Reference                      10.1021/acs.jctc.8b01176
      * Hamiltonian:
        H0-scaling (s, p, d)           1.850000    2.230000    2.230000
        zeta-weighting                 0.500000
      * Dispersion:
        s8                             2.700000
        a1                             0.520000
        a2                             5.000000
        s9                             5.000000
      * Repulsion:
        kExp                           1.500000    1.000000
        rExp                           1.000000
      * Coulomb:
        alpha                          2.000000
        third order                    shell-resolved
        anisotropic                    true
        a3                             3.000000
        a5                             4.000000
        cn-shift                       1.200000
        cn-exp                         4.000000
        max-rad                        5.000000


          ...................................................
          :                      SETUP                      :
          :.................................................:
          :  # basis functions                 294          :
          :  # atomic orbitals                 294          :
          :  # shells                          158          :
          :  # electrons                       256          :
          :  max. iterations                   500          :
          :  Hamiltonian                  GFN2-xTB          :
          :  restarted?                      false          :
          :  GBSA solvation                  false          :
          :  PC potential                    false          :
          :  electronic temp.          300.0000000     K    :
          :  accuracy                    1.0000000          :
          :  -> integral cutoff          0.2500000E+02      :
          :  -> integral neglect         0.1000000E-07      :
          :  -> SCF convergence          0.1000000E-05 Eh   :
          :  -> wf. convergence          0.1000000E-03 e    :
          :  Broyden damping             0.4000000          :
          :  net charge                          0          :
          :  unpaired electrons                  0          :
          ...................................................

 iter      E             dE          RMSdq      gap      omega  full diag
   1   -122.8995075 -0.122900E+03  0.155E+01    0.39       0.0  T
   2   -118.8180460  0.408146E+01  0.100E+01    0.22       1.0  T
   3    -29.6787784  0.891393E+02  0.176E+01    0.17       1.0  T
   4    -60.4913363 -0.308126E+02  0.132E+01    0.14       1.0  T
   5    -88.1152625 -0.276239E+02  0.908E+00    0.18       1.0  T
   6    -62.6127452  0.255025E+02  0.105E+01    0.11       1.0  T
   7   -109.8006989 -0.471880E+02  0.604E+00    0.03       1.0  T
   8   -116.6035338 -0.680283E+01  0.469E+00    0.02       1.0  T
   9   -121.5320042 -0.492847E+01  0.305E+00    0.21       1.0  T
  10   -123.2924765 -0.176047E+01  0.242E+00    0.26       1.0  T
  11   -123.3837373 -0.912607E-01  0.202E+00    0.37       1.0  T
  12   -123.4853128 -0.101575E+00  0.187E+00    0.38       1.0  T
  13   -123.4425777  0.427350E-01  0.145E+00    0.45       1.0  T
  14   -123.2238757  0.218702E+00  0.139E+00    0.16       1.0  T
  15   -123.5323504 -0.308475E+00  0.839E-01    0.32       1.0  T
  16   -123.2402565  0.292094E+00  0.131E+00    0.22       1.0  T
  17   -123.5196138 -0.279357E+00  0.831E-01    0.00       1.0  T
  18   -123.5597835 -0.401697E-01  0.668E-01    0.03       1.0  T
  19   -123.5686822 -0.889875E-02  0.554E-01    0.04       1.0  T
  20   -123.5761694 -0.748712E-02  0.373E-01    0.09       1.0  T
  21   -123.5756829  0.486426E-03  0.311E-01    0.12       1.0  T
  22   -123.5756926 -0.966201E-05  0.282E-01    0.12       1.0  T
  23   -123.5765599 -0.867343E-03  0.250E-01    0.15       1.0  T
  24   -123.5783078 -0.174783E-02  0.215E-01    0.15       1.0  T
  25   -123.5811022 -0.279437E-02  0.169E-01    0.14       1.0  T
  26   -123.5851072 -0.400503E-02  0.105E-01    0.11       1.0  T
  27   -123.5854905 -0.383359E-03  0.984E-02    0.11       1.0  T
  28   -123.5856301 -0.139579E-03  0.950E-02    0.11       1.0  T
  29   -123.5858975 -0.267406E-03  0.849E-02    0.11       1.0  T
  30   -123.5866536 -0.756087E-03  0.545E-02    0.10       1.0  T
  31   -123.5871419 -0.488298E-03  0.198E-02    0.09       1.0  T
  32   -123.5871557 -0.137557E-04  0.159E-02    0.09       1.0  T
  33   -123.5871667 -0.110157E-04  0.125E-02    0.09       1.0  T
  34   -123.5871720 -0.535764E-05  0.105E-02    0.09       1.0  T
  35   -123.5871757 -0.364447E-05  0.754E-03    0.09       1.4  T
  36   -123.5871773 -0.159412E-05  0.551E-03    0.09       1.9  T
  37   -123.5871770  0.276494E-06  0.407E-03    0.09       2.6  T
  38   -123.5871784 -0.137481E-05  0.277E-03    0.09       3.8  T
  39   -123.5871773  0.108276E-05  0.282E-03    0.09       3.7  T
  40   -123.5871784 -0.113580E-05  0.182E-03    0.09       5.8  T
  41   -123.5871789 -0.448989E-06  0.110E-03    0.09       9.6  T
  42   -123.5871790 -0.868077E-07  0.661E-04    0.09      16.0  T
  43   -123.5871790 -0.626071E-07  0.363E-04    0.09      29.0  T

   *** convergence criteria satisfied after 43 iterations ***

         #    Occupation            Energy/Eh            Energy/eV
      -------------------------------------------------------------
         1        2.0000           -0.7228757             -19.6704
       ...           ...                  ...                  ...
       122        2.0000           -0.2894657              -7.8768
       123        2.0000           -0.2858766              -7.7791
       124        2.0000           -0.2846750              -7.7464
       125        2.0000           -0.2812662              -7.6536
       126        2.0000           -0.2784526              -7.5771
       127        2.0000           -0.2751931              -7.4884
       128        1.6934           -0.2638764              -7.1804 (HOMO)
       129        0.3065           -0.2606289              -7.0921 (LUMO)
       130        0.0000           -0.2515426              -6.8448
       131                         -0.2369257              -6.4471
       132                         -0.2331057              -6.3431
       133                         -0.2306155              -6.2754
       ...                                ...                  ...
       294                          1.2072512              32.8510
      -------------------------------------------------------------
                  HL-Gap            0.0032474 Eh            0.0884 eV
             Fermi-level           -0.2622527 Eh           -7.1363 eV

 SCC (total)                   0 d,  0 h,  0 min,  0.714 sec
 SCC setup                      ...        0 min,  0.000 sec (  0.000%)
 Dispersion                     ...        0 min,  0.002 sec (  0.280%)
 classical contributions        ...        0 min,  0.000 sec (  0.000%)
 integral evaluation            ...        0 min,  0.007 sec (  0.980%)
 iterations                     ...        0 min,  0.684 sec ( 95.798%)
 molecular gradient             ...        0 min,  0.019 sec (  2.661%)
 printout                       ...        0 min,  0.002 sec (  0.280%)

         :::::::::::::::::::::::::::::::::::::::::::::::::::::
         ::                     SUMMARY                     ::
         :::::::::::::::::::::::::::::::::::::::::::::::::::::
         :: total energy            -121.833534899887 Eh    ::
         :: gradient norm              0.072461161149 Eh/a0 ::
         :: HOMO-LUMO gap              0.088367239813 eV    ::
         ::.................................................::
         :: SCC energy              -123.585860772234 Eh    ::
         :: -> isotropic ES            0.377143920008 Eh    ::
         :: -> anisotropic ES          0.003246752186 Eh    ::
         :: -> anisotropic XC         -0.031486357985 Eh    ::
         :: -> dispersion             -0.102730795084 Eh    ::
         :: repulsion energy           1.752325872347 Eh    ::
         :: add. restraining           0.000000000000 Eh    ::
         :: total charge              -0.000000000001 e     ::
         :::::::::::::::::::::::::::::::::::::::::::::::::::::

           -------------------------------------------------
          |                Property Printout                |
           -------------------------------------------------

    * Orbital Energies and Occupations

         #    Occupation            Energy/Eh            Energy/eV
      -------------------------------------------------------------
         1        2.0000           -0.7228757             -19.6704
       ...           ...                  ...                  ...
       116        2.0000           -0.3074780              -8.3669
       117        2.0000           -0.3047858              -8.2936
       118        2.0000           -0.3016413              -8.2081
       119        2.0000           -0.3005027              -8.1771
       120        2.0000           -0.2972160              -8.0877
       121        2.0000           -0.2942384              -8.0066
       122        2.0000           -0.2894657              -7.8768
       123        2.0000           -0.2858766              -7.7791
       124        2.0000           -0.2846750              -7.7464
       125        2.0000           -0.2812662              -7.6536
       126        2.0000           -0.2784526              -7.5771
       127        2.0000           -0.2751931              -7.4884
       128        1.6934           -0.2638764              -7.1804 (HOMO)
       129        0.3065           -0.2606289              -7.0921 (LUMO)
       130        0.0000           -0.2515426              -6.8448
       131                         -0.2369257              -6.4471
       132                         -0.2331057              -6.3431
       133                         -0.2306155              -6.2754
       134                         -0.2304289              -6.2703
       135                         -0.2255257              -6.1369
       136                         -0.2242704              -6.1027
       137                         -0.2107426              -5.7346
       138                         -0.2106156              -5.7311
       139                         -0.2069270              -5.6308
       ...                                ...                  ...
       294                          1.2072512              32.8510
      -------------------------------------------------------------
                  HL-Gap            0.0032474 Eh            0.0884 eV
             Fermi-level           -0.2622527 Eh           -7.1363 eV

     #   Z          covCN         q      C6AA      α(0)
     1   8 O        0.858    -0.470    23.126     6.448
     2   6 C        2.837     0.211    23.539     7.951
     3   6 C        2.897    -0.104    30.625     9.074
     4   6 C        2.854     0.126    25.240     8.234
     5   6 C        2.967    -0.001    28.039     8.686
     6   6 C        2.917    -0.034    28.843     8.807
     7   6 C        2.910    -0.036    28.885     8.813
     8   6 C        2.912    -0.038    28.946     8.822
     9   6 C        2.910    -0.034    28.840     8.806
    10   6 C        2.916    -0.038    28.955     8.824
    11   8 O        1.707    -0.231    17.826     5.700
    12   6 C        2.872     0.122    25.310     8.247
    13   6 C        2.913    -0.122    31.106     9.145
    14   6 C        2.841     0.121    25.327     8.248
    15   8 O        1.659    -0.373    20.341     6.088
    16   6 C        2.843     0.095    25.889     8.339
    17   8 O        1.657    -0.380    20.466     6.107
    18   6 C        2.844     0.113    25.512     8.278
    19   8 O        1.656    -0.414    21.118     6.204
    20   6 C        2.971    -0.084    30.089     8.998
    21   1 H        0.925     0.060     2.200     2.320
    22   1 H        0.925     0.038     2.474     2.460
    23   1 H        0.925     0.031     2.576     2.510
    24   1 H        0.925     0.029     2.598     2.520
    25   1 H        0.925     0.034     2.534     2.489
    26   1 H        0.925     0.037     2.494     2.470
    27   1 H        0.925     0.050     2.315     2.379
    28   1 H        0.804     0.309     0.695     1.310
    29   1 H        0.804     0.327     0.645     1.262
    30   1 H        0.802     0.349     0.591     1.208
    31   5 B        2.839     0.116    19.505     7.375
    32   5 B        3.803     0.032    22.127     7.584
    33   5 B        3.718    -0.016    22.918     7.739
    34   5 B        2.746     0.019    21.216     7.710
    35   5 B        2.911    -0.042    22.158     7.855
    36   5 B        3.855     0.016    22.430     7.633
    37   5 B        2.869     0.064    20.328     7.526
    38   5 B        2.921     0.003    21.351     7.710
    39   5 B        3.823     0.060    21.640     7.499
    40   5 B        3.767     0.025    22.233     7.608
    41   5 B        3.849     0.005    22.636     7.668
    42   5 B        4.346     0.056    21.725     7.510
    43   5 B        4.682     0.090    21.143     7.409
    44   5 B        3.801     0.069    21.481     7.473
    45   5 B        3.829     0.062    21.605     7.492
    46   5 B        3.950     0.049    21.857     7.533
    47   5 B        4.552     0.061    21.646     7.496
    48   5 B        5.635     0.110    20.810     7.350
    49   5 B        4.742     0.035    22.110     7.576
    50   5 B        3.678     0.041    21.743     7.562
    51   5 B        4.781     0.082    21.274     7.432
    52   5 B        4.465     0.031    22.178     7.588
    53   5 B        3.855     0.048    21.857     7.535
    54   5 B        3.833     0.045    21.909     7.545
    55   5 B        3.834     0.012    22.510     7.647
    56   5 B        3.803    -0.019    23.074     7.745
    57   5 B        3.806     0.008    22.572     7.660
    58   5 B        4.226    -0.012    22.967     7.722
    59   5 B        3.802     0.019    22.359     7.624
    60   5 B        3.878     0.032    22.156     7.585
    61   5 B        2.888     0.107    19.617     7.392
    62   5 B        3.778     0.080    21.269     7.439
    63   5 B        3.898     0.054    21.753     7.516
    64   5 B        3.709     0.039    21.875     7.565
    65   5 B        3.761     0.030    22.131     7.591
    66   5 B        3.854     0.043    21.943     7.550
    67   5 B        4.286     0.044    21.940     7.547
    68   5 B        2.876     0.087    19.943     7.454
    69   5 B        3.771     0.081    21.246     7.436
    70   5 B        3.795     0.010    22.533     7.655
    71   5 B        2.925     0.012    21.187     7.680
    72   5 B        3.663     0.007    22.286     7.669
    73   5 B        2.926     0.025    20.962     7.640
    74   5 B        3.840    -0.000    22.737     7.686
    75   5 B        3.860     0.016    22.437     7.634
    76   5 B        2.912     0.006    21.308     7.703
    77   5 B        2.915     0.010    21.237     7.690
    78   5 B        2.842     0.138    19.166     7.311
    79   1 H        0.935    -0.134     6.930     4.116
    80   1 H        0.939    -0.095     5.387     3.629
    81   1 H        0.934    -0.131     6.760     4.065
    82   1 H        0.932    -0.148     7.585     4.306
    83   1 H        0.938    -0.128     6.662     4.035
    84   1 H        0.940    -0.137     7.055     4.153
    85   1 H        0.936    -0.115     6.099     3.861
    86   1 H        0.939    -0.147     7.536     4.292
    87   1 H        0.938    -0.128     6.627     4.025
    88   1 H        0.936    -0.137     7.050     4.152
    89   1 H        0.935    -0.134     6.902     4.108
    90   1 H        0.933    -0.148     7.590     4.308

 Mol. C6AA /au·bohr⁶  :     136321.807019
 Mol. C8AA /au·bohr⁸  :    4366654.419697
 Mol. α(0) /au        :        593.343863


Wiberg/Mayer (AO) data.
largest (>0.10) Wiberg bond orders for each atom

 ---------------------------------------------------------------------------
     #   Z sym  total        # sym  WBO       # sym  WBO       # sym  WBO
 ---------------------------------------------------------------------------
     1   8 O    1.925 --     2 C    1.594
     2   6 C    3.878 --     1 O    1.594     3 C    1.124    20 C    1.079
     3   6 C    3.947 --     4 C    1.609     2 C    1.124    21 H    0.964
     4   6 C    3.826 --     3 C    1.609     5 C    1.052    11 O    1.039
     5   6 C    3.957 --     6 C    1.372    10 C    1.369     4 C    1.052
     6   6 C    3.963 --     7 C    1.455     5 C    1.372    22 H    0.970
                             9 C    0.106
     7   6 C    3.986 --     6 C    1.455     8 C    1.426    23 H    0.971
                            10 C    0.106
     8   6 C    3.950 --     7 C    1.426     9 C    1.425    24 H    0.971
     9   6 C    3.986 --    10 C    1.457     8 C    1.425    25 H    0.971
                             6 C    0.106
    10   6 C    3.962 --     9 C    1.457     5 C    1.369    26 H    0.970
                             7 C    0.106
    11   8 O    2.325 --    12 C    1.053     4 C    1.039
    12   6 C    3.925 --    13 C    1.369    20 C    1.308    11 O    1.053
    13   6 C    3.954 --    12 C    1.369    14 C    1.365    27 H    0.964
    14   6 C    3.921 --    13 C    1.365    16 C    1.309    15 O    1.080
    15   8 O    2.120 --    14 C    1.080    28 H    0.884
    16   6 C    3.943 --    18 C    1.328    14 C    1.309    17 O    1.078
    17   8 O    2.113 --    16 C    1.078    29 H    0.867
    18   6 C    3.920 --    16 C    1.328    20 C    1.296    19 O    1.095
    19   8 O    2.112 --    18 C    1.095    30 H    0.805
    20   6 C    3.978 --    12 C    1.308    18 C    1.296     2 C    1.079
    21   1 H    0.996 --     3 C    0.964
    22   1 H    0.999 --     6 C    0.970
    23   1 H    0.998 --     7 C    0.971
    24   1 H    0.999 --     8 C    0.971
    25   1 H    0.998 --     9 C    0.971
    26   1 H    0.999 --    10 C    0.970
    27   1 H    0.997 --    13 C    0.964
    28   1 H    0.904 --    15 O    0.884
    29   1 H    0.893 --    17 O    0.867
    30   1 H    0.878 --    19 O    0.805
    31   5 B    3.281 --    38 B    1.205    90 H    0.944    82 H    0.940
    32   5 B    3.545 --    33 B    1.199    38 B    0.852    39 B    0.530
                            47 B    0.485    46 B    0.140
    33   5 B    3.575 --    32 B    1.199    40 B    1.122    48 B    0.464
                            47 B    0.453
    34   5 B    3.372 --    35 B    1.376    41 B    1.081    50 B    0.428
                            51 B    0.105
    35   5 B    3.532 --    34 B    1.376    42 B    1.115    51 B    0.622
    36   5 B    3.565 --    37 B    1.305    42 B    0.751    43 B    0.686
                            44 B    0.680
    37   5 B    3.386 --    36 B    1.305    86 H    0.968    44 B    0.817
                            43 B    0.129
    38   5 B    3.394 --    31 B    1.205    39 B    1.070    32 B    0.852
    39   5 B    3.504 --    38 B    1.070    45 B    0.818    46 B    0.709
                            32 B    0.530
    40   5 B    3.443 --    33 B    1.122    41 B    0.997    49 B    0.545
                            48 B    0.443
    41   5 B    3.540 --    34 B    1.081    40 B    0.997    50 B    0.643
                            49 B    0.613
    42   5 B    3.527 --    35 B    1.115    36 B    0.751    51 B    0.636
                            43 B    0.459    52 B    0.321
    43   5 B    3.623 --    44 B    0.902    53 B    0.691    36 B    0.686
                            52 B    0.572    42 B    0.459    37 B    0.129
    44   5 B    3.565 --    88 H    0.937    43 B    0.902    37 B    0.817
                            36 B    0.680
    45   5 B    3.567 --    85 H    0.923    55 B    0.832    39 B    0.818
                            46 B    0.802
    46   5 B    3.646 --    55 B    0.850    47 B    0.811    45 B    0.802
                            39 B    0.709    32 B    0.140
    47   5 B    3.554 --    46 B    0.811    56 B    0.796    48 B    0.646
                            32 B    0.485    33 B    0.453
    48   5 B    3.670 --    56 B    0.727    57 B    0.704    47 B    0.646
                            49 B    0.517    33 B    0.464    40 B    0.443
    49   5 B    3.566 --    50 B    0.949    57 B    0.720    41 B    0.613
                            40 B    0.545    48 B    0.517
    50   5 B    3.496 --    58 B    1.039    49 B    0.949    41 B    0.643
                            34 B    0.428
    51   5 B    3.615 --    59 B    0.684    52 B    0.644    58 B    0.640
                            42 B    0.636    35 B    0.622    34 B    0.105
    52   5 B    3.599 --    59 B    1.023    53 B    0.770    51 B    0.644
                            43 B    0.572    42 B    0.321
    53   5 B    3.671 --    60 B    0.832    54 B    0.806    52 B    0.770
                            43 B    0.691    61 B    0.163
    54   5 B    3.623 --    61 B    1.009    80 H    0.908    53 B    0.806
                            60 B    0.737
    55   5 B    3.572 --    63 B    0.879    46 B    0.850    45 B    0.832
                            62 B    0.722
    56   5 B    3.626 --    64 B    1.107    47 B    0.796    48 B    0.727
                            57 B    0.598
    57   5 B    3.513 --    65 B    1.090    49 B    0.720    48 B    0.704
                            56 B    0.598
    58   5 B    3.595 --    50 B    1.039    66 B    0.898    51 B    0.640
                            59 B    0.463    67 B    0.266
    59   5 B    3.585 --    52 B    1.023    67 B    0.968    51 B    0.684
                            58 B    0.463
    60   5 B    3.602 --    61 B    0.960    68 B    0.898    53 B    0.832
                            54 B    0.737
    61   5 B    3.427 --    54 B    1.009    84 H    0.972    60 B    0.960
                            68 B    0.181    53 B    0.163
    62   5 B    3.545 --    87 H    0.955    69 B    0.862    63 B    0.826
                            55 B    0.722
    63   5 B    3.638 --    55 B    0.879    69 B    0.875    62 B    0.826
                            70 B    0.765
    64   5 B    3.596 --    56 B    1.107    71 B    0.828    70 B    0.688
                            72 B    0.549
    65   5 B    3.605 --    57 B    1.090    73 B    0.861    74 B    0.698
                            72 B    0.585
    66   5 B    3.554 --    58 B    0.898    74 B    0.789    75 B    0.709
                            67 B    0.662
    67   5 B    3.578 --    59 B    0.968    76 B    0.752    75 B    0.684
                            66 B    0.662    58 B    0.266
    68   5 B    3.435 --    77 B    0.989    81 H    0.934    60 B    0.898
                            61 B    0.181    78 B    0.158
    69   5 B    3.540 --    83 H    0.957    63 B    0.875    62 B    0.862
                            70 B    0.659
    70   5 B    3.578 --    71 B    1.260    63 B    0.765    64 B    0.688
                            69 B    0.659
    71   5 B    3.545 --    70 B    1.260    72 B    1.114    64 B    0.828
    72   5 B    3.550 --    73 B    1.115    71 B    1.114    65 B    0.585
                            64 B    0.549
    73   5 B    3.518 --    74 B    1.162    72 B    1.115    65 B    0.861
    74   5 B    3.594 --    73 B    1.162    66 B    0.789    75 B    0.739
                            65 B    0.698
    75   5 B    3.577 --    76 B    1.197    74 B    0.739    66 B    0.709
                            67 B    0.684
    76   5 B    3.516 --    75 B    1.197    77 B    1.062    67 B    0.752
                            78 B    0.120
    77   5 B    3.391 --    78 B    1.063    76 B    1.062    68 B    0.989
    78   5 B    3.278 --    77 B    1.063    79 H    0.953    89 H    0.952
                            68 B    0.158    76 B    0.120
    79   1 H    0.979 --    78 B    0.953
    80   1 H    0.985 --    54 B    0.908
    81   1 H    0.981 --    68 B    0.934
    82   1 H    0.969 --    31 B    0.940
    83   1 H    0.980 --    69 B    0.957
    84   1 H    0.981 --    61 B    0.972
    85   1 H    0.977 --    45 B    0.923
    86   1 H    0.977 --    37 B    0.968
    87   1 H    0.978 --    62 B    0.955
    88   1 H    0.973 --    44 B    0.937
    89   1 H    0.979 --    78 B    0.952
    90   1 H    0.970 --    31 B    0.944
 ---------------------------------------------------------------------------

Topologies differ in total number of bonds
Writing topology from bond orders to xtbtopo.mol

molecular dipole:
                 x           y           z       tot (Debye)
 q only:       -2.337       1.295      -5.154
   full:       -2.329       2.077      -4.497      13.912
molecular quadrupole (traceless):
                xx          xy          yy          xz          yz          zz
 q only:      -32.854     -28.728      55.311     -22.183      14.672     -22.457
  q+dip:       11.484     -30.340      37.578     -34.281      14.109     -49.062
   full:       -8.241     -31.119      26.791     -32.443      18.603     -18.550


           -------------------------------------------------
          | TOTAL ENERGY             -121.833534899887 Eh   |
          | GRADIENT NORM               0.072461161149 Eh/α |
          | HOMO-LUMO GAP               0.088367239813 eV   |
           -------------------------------------------------

------------------------------------------------------------------------
 * finished run on 2026/09/01 at 16:34:39.709     
------------------------------------------------------------------------
 total:
 * wall-time:     0 d,  0 h,  0 min,  0.760 sec
 *  cpu-time:     0 d,  0 h,  0 min,  7.078 sec
 * ratio c/w:     9.313 speedup
 SCF:
 * wall-time:     0 d,  0 h,  0 min,  0.715 sec
 *  cpu-time:     0 d,  0 h,  0 min,  6.781 sec
 * ratio c/w:     9.484 speedup

normal termination of xtb
