85
 energy: -113.784960996438 gnorm: 0.001719490588 xtb: 6.7.1pre (5071a88)
O            2.14446885458423       -2.26931625284218        9.26066369638901
C            1.44173983857922       -1.49782493620903        8.57486577488615
C            0.13517390929231       -1.05954945097394        8.95184655450936
C           -0.60564411180419       -0.21510169450456        8.17178373504747
C           -1.92654293543701        0.29386343021878        8.50339297590974
C           -2.63520342381996        1.04532477759556        7.55547045657507
C           -3.88478914276996        1.55208927340040        7.84094586759414
C           -4.46366649160127        1.32740151991479        9.08095996069587
C           -3.77315277730568        0.58908206265265       10.03094639312440
C           -2.52286562732516        0.07718035692669        9.75205298583880
O           -0.14790287240654        0.23467524240252        6.97087766399874
C            1.09044430264232       -0.11701720617843        6.55111618982767
C            1.52527903479699        0.39357975703276        5.33599060287353
C            2.79700626999310        0.08552160603916        4.86403642864025
O            3.25127612605796        0.56564436271354        3.68818714105030
C            3.64119199524367       -0.74441267364849        5.61095706896180
O            4.89462938572854       -1.03905025176395        5.16444965115907
C            3.19306940039815       -1.27127497590268        6.82160627574203
O            4.02414551400200       -2.08046541411773        7.51233755948907
C            1.91182653314745       -0.96092764126027        7.30313800447600
H           -0.25242277397976       -1.42215829702500        9.88766514352209
H           -2.18708128163987        1.22409395202276        6.59124225305041
H           -4.41192348617046        2.12690939735377        7.09366613086568
H           -5.44120892326000        1.72602316076653        9.30700213399986
H           -4.21552864387350        0.41508837848285       11.00107556949695
H           -2.00256086027763       -0.48344576157400       10.51157949387688
H            0.87334486085631        1.04648222606005        4.77801938392016
H            2.55114634171346        1.10210714587549        3.22712462183960
H            5.28977034199412       -1.62496253660761        5.82564295320094
H            3.50962263922127       -2.34238819562149        8.33376594109764
B           -4.86207192122437       -2.64037745548140        0.27987241267881
B           -4.62343043255987       -1.14534580543073       -0.19486492575418
B           -4.55952829715886        0.33841667735439       -0.95783650404493
B           -3.46523418135057       -2.44933532067897       -0.49691645283055
B           -3.08981802372467        0.52001897361389       -0.47569983910837
B           -4.34282300118314        0.29526651666512        0.81685041300086
B           -4.95824694316797        0.96688584678078        2.13168884883873
B           -4.52202889267063        2.42344585218024        2.74580755208163
B           -2.73923182026756        0.30671933052763        1.14133616071758
B           -3.10224243226730        2.44448381259747        3.54186218360576
B           -2.23221738329849       -3.51043910898353       -0.82925970195824
B           -1.96013458010852       -1.93978011842257       -0.83148447175342
B           -1.72694455409707       -0.39731224900530       -0.29272026112557
B           -0.65651053483707       -2.90375768866473       -0.86470960762198
B           -0.20291911273526       -0.05565112501514        0.17764233884813
B           -1.26522829787499       -0.29679388618865        1.46115830574070
B           -1.66263722778975        1.24150471248159        1.97171475261306
B           -1.83583139798487        2.68946335818600        2.59771753766187
B           -0.07479787049514        0.62459994434159        1.88080865920052
B           -0.74501202412163        3.90736566511237        2.52243304101116
B            0.72522509374058       -3.82039240976330       -0.58131254774578
B            0.85507413657851       -2.22149549007611       -0.69606920302105
B            1.21857177052258       -0.67866254250420       -0.42967774335161
B            2.02361226843760       -3.08714592774049        0.09926170209311
B            2.60516608219088        0.01876320291632       -0.02803040392695
B            1.24900487993311        0.54424057967633        0.73247234515828
B            1.22102757856223        1.64368178903376        2.02734912382864
B            0.56188137666989        3.09892026946801        2.16103008336720
B            2.45029973507303        1.70211147159020        0.85483270983931
B            1.01279410312405        3.23033540094122        0.55186225780106
B            2.84112240918514       -3.50068888316657        1.52442852792881
B            3.42078564797632       -2.36718652062961        0.51759769241984
B            4.01674816215871       -0.89466996884250        0.31771260161185
B            4.03493294828133       -2.51563573764952        1.96843483550109
B            5.42617031123692       -0.03052604570047        0.23445817270081
B            4.03656656015063        0.79126675946472        0.35291811303231
B            3.95421788042344        2.50036720643637        0.77694627139694
B            2.58908741772292        3.39486816182877        0.33478683402198
B            5.33515222999078        1.75054833195567        0.22463992469428
B            4.00552058538800        4.02412675061191        0.30428367019011
H           -5.29627563617317       -3.45602470915922        0.99835641158291
H           -5.77328717162854       -1.83037816808906       -0.18018637862192
H           -5.40999293036518        0.77144895673789       -1.64876461617103
H           -5.68022359193032        0.32642150179433        2.82352634266129
H           -5.25291986011145        3.34625653810840        2.68594625309319
H           -3.09520045706378        2.14839076828805        4.68076958183788
H           -2.42256600429769       -4.64643022608375       -1.03823673433450
H           -0.96086140041449        5.06325581106335        2.57660710208182
H            0.69198431175660       -4.97594523972829       -0.76414586399793
H            0.22709631802390        3.18111063273820       -0.32921413199328
H            2.43525825199229       -4.38590171124795        2.17010030235466
H            4.80101811967264       -2.24213810324776        2.79323797931487
H            6.53179289190172       -0.40729517242803        0.21314574124677
H            6.34366041690637        2.27559013765918       -0.05146508364853
H            4.73814749662424        4.90671929284459        0.10170007292843
