85
Baicalein 0 deg on B40H15
O      1.264929     -2.140354     11.170080
C      0.868296     -1.352437     10.318537
C     -0.557067     -1.032911     10.162106
C     -0.927317     -0.166764      9.207407
C     -2.341420      0.202984      9.006345
C     -2.691786      1.545551      8.798433
C     -4.024690      1.913452      8.598085
C     -5.023391      0.942638      8.596337
C     -4.690781     -0.395903      8.791273
C     -3.357867     -0.764603      8.992551
O     -0.045868      0.475183      8.350459
C      1.294877      0.198535      8.461335
C      2.151205      0.853947      7.571310
C      3.523601      0.614463      7.637059
O      4.378542      1.243150      6.777675
C      4.033831     -0.272262      8.585119
O      5.378765     -0.515186      8.659898
C      3.179658     -0.926243      9.472436
O      3.757047     -1.784178     10.376418
C      1.806069     -0.688714      9.408097
H     -1.245225     -1.514337     10.844779
H     -1.927962      2.320475      8.797920
H     -4.281863      2.958236      8.442929
H     -6.060338      1.228691      8.439094
H     -5.468722     -1.155361      8.782126
H     -3.124628     -1.818748      9.125097
H      1.736670      1.540745      6.839773
H      3.877818      1.814752      6.175674
H      5.480672     -1.158604      9.388488
H      3.036944     -2.166196     10.930269
B     -4.780602     -2.604513      0.317266
B     -4.569465     -1.356683     -0.648004
B     -4.463861     -0.247381     -1.882945
B     -3.396531     -2.661979     -0.502827
B     -3.038009      0.177607     -1.404773
B     -4.390872      0.342644     -0.192397
B     -5.031012      1.403078      0.819222
B     -4.620094      2.986388      0.997562
B     -2.808851      0.512803      0.199513
B     -3.218551      3.227540      1.793236
B     -2.161133     -3.775821     -0.584343
B     -1.876928     -2.248084     -0.933414
B     -1.697164     -0.613334     -0.835751
B     -0.584443     -3.218984     -0.835049
B     -0.219751     -0.148448     -0.311803
B     -1.394985      0.035818      0.852087
B     -1.775686      1.662110      0.759224
B     -1.897502      3.236989      0.882584
B     -0.215292      1.037200      1.069695
B     -0.752118      4.348002      0.558417
B      0.826501     -4.112870     -0.740049
B      0.925144     -2.505404     -0.749723
B      1.214364     -0.948979     -0.586972
B      2.200665     -3.402586     -0.168167
B      2.622046     -0.195651     -0.292977
B      1.234081      0.551562      0.142600
B      1.124844      2.000923      1.042986
B      0.536600      3.437229      0.618007
B      2.458015      1.672646      0.087495
B      1.213646      3.017073     -0.852963
B      3.220244     -3.850820      1.104428
B      3.624046     -2.653486      0.063737
B      4.025027     -1.121930     -0.236552
B      4.417376     -2.835474      1.420329
B      5.363640     -0.241898     -0.689778
B      4.104119      0.531009     -0.013477
B      4.018093      2.321775     -0.033810
B      2.821838      3.096833     -0.912930
B      5.422007      1.458254     -0.185288
B      4.296118      3.550090     -1.013979
H     -5.168734     -3.094856      1.310677
H     -5.716063     -2.076392     -0.393509
H     -5.264034     -0.120717     -2.741690
H     -5.771097      1.007443      1.664604
H     -5.364514      3.843125      0.672044
H     -3.234300      3.224974      2.975674
H     -2.359297     -4.926237     -0.473225
H     -0.896482      5.475480      0.244253
H      0.822346     -5.249794     -1.023329
H      0.553695      2.694294     -1.783686
H      2.970323     -4.817556      1.717250
H      5.263074     -2.512454      2.156542
H      6.384778     -0.646686     -1.095590
H      6.503197      1.838169      0.065012
H      5.138890      4.252414     -1.415442
