90
Drug@B48H12 complex
O      1.264929     -2.140354      5.779843
C      0.868296     -1.352437      4.928300
C     -0.557067     -1.032911      4.771869
C     -0.927317     -0.166764      3.817170
C     -2.341420      0.202984      3.616108
C     -2.691786      1.545551      3.408196
C     -4.024690      1.913452      3.207848
C     -5.023391      0.942638      3.206100
C     -4.690781     -0.395903      3.401036
C     -3.357867     -0.764603      3.602314
O     -0.045868      0.475183      2.960222
C      1.294877      0.198535      3.071098
C      2.151205      0.853947      2.181073
C      3.523601      0.614463      2.246822
O      4.378542      1.243150      1.387438
C      4.033831     -0.272262      3.194882
O      5.378765     -0.515186      3.269661
C      3.179658     -0.926243      4.082199
O      3.757047     -1.784178      4.986181
C      1.806069     -0.688714      4.017860
H     -1.245225     -1.514337      5.454542
H     -1.927962      2.320475      3.407683
H     -4.281863      2.958236      3.052692
H     -6.060338      1.228691      3.048857
H     -5.468722     -1.155361      3.391889
H     -3.124628     -1.818748      3.734860
H      1.736670      1.540745      1.449536
H      3.877818      1.814752      0.785437
H      5.480672     -1.158604      3.998251
H      3.036944     -2.166196      5.540032
B     -7.500000     -4.500000      0.000000
B     -4.500000     -4.500000      0.000000
B     -1.500000     -4.500000      0.000000
B      1.500000     -4.500000      0.000000
B      4.500000     -4.500000      0.000000
B      7.500000     -4.500000      0.000000
B     -7.500000     -3.000000      0.000000
B     -4.500000     -3.000000      0.000000
B     -1.500000     -3.000000      0.000000
B      1.500000     -3.000000      0.000000
B      4.500000     -3.000000      0.000000
B      7.500000     -3.000000      0.000000
B     -7.500000     -1.500000      0.000000
B     -4.500000     -1.500000      0.000000
B     -1.500000     -1.500000      0.000000
B      1.500000     -1.500000      0.000000
B      4.500000     -1.500000      0.000000
B      7.500000     -1.500000      0.000000
B     -7.500000      0.000000      0.000000
B     -4.500000      0.000000      0.000000
B     -1.500000      0.000000      0.000000
B      1.500000      0.000000      0.000000
B      4.500000      0.000000      0.000000
B      7.500000      0.000000      0.000000
B     -7.500000      1.500000      0.000000
B     -4.500000      1.500000      0.000000
B     -1.500000      1.500000      0.000000
B      1.500000      1.500000      0.000000
B      4.500000      1.500000      0.000000
B      7.500000      1.500000      0.000000
B     -7.500000      3.000000      0.000000
B     -4.500000      3.000000      0.000000
B     -1.500000      3.000000      0.000000
B      1.500000      3.000000      0.000000
B      4.500000      3.000000      0.000000
B      7.500000      3.000000      0.000000
B     -7.500000      4.500000      0.000000
B     -4.500000      4.500000      0.000000
B     -1.500000      4.500000      0.000000
B      1.500000      4.500000      0.000000
B      4.500000      4.500000      0.000000
B      7.500000      4.500000      0.000000
B     -6.000000     -3.750000      0.000000
B     -3.000000     -3.750000      0.000000
B      0.000000     -3.750000      0.000000
B      3.000000     -3.750000      0.000000
B      6.000000     -3.750000      0.000000
B     -6.000000      3.750000      0.000000
B     -3.000000      3.750000      0.000000
B      0.000000      3.750000      0.000000
B      3.000000      3.750000      0.000000
B      6.000000      3.750000      0.000000
B     -6.000000      0.000000      0.000000
H     -8.600000     -4.500000      0.000000
H     -8.600000     -1.500000      0.000000
H     -8.600000      1.500000      0.000000
H     -8.600000      4.500000      0.000000
H      8.600000     -4.500000      0.000000
H      8.600000     -1.500000      0.000000
H      8.600000      1.500000      0.000000
