90
 energy: -125.243836830552 gnorm: 0.011644246200 xtb: 6.7.1pre (5071a88)
O           -2.29202135213640       -1.37146456006271       10.06680866613585
C           -1.47258147302535       -0.90620872216251        9.23651768631567
C           -1.14548766004581        0.46988964599323        9.11150691858857
C           -0.23892289103958        0.93060170754437        8.19067554684468
C            0.14647033784715        2.31481738847636        8.02596536990977
C            1.32637504750947        2.63817349407498        7.33023109402500
C            1.72258948625566        3.94751569611249        7.17201516105773
C            0.95210494317002        4.98239870513068        7.69228280336587
C           -0.22315999863128        4.68363262281656        8.37045590302425
C           -0.62344624557664        3.37642878422304        8.53787769084371
O            0.41161572804489        0.07949938550432        7.33458349717044
C            0.14403974728521       -1.24950470625631        7.39234965060467
C            0.80707269838176       -2.08106961888255        6.49645002581319
C            0.57241145171707       -3.45216759231806        6.50967824777788
O            1.19834096248619       -4.28253160650505        5.63213422773337
C           -0.32408742557651       -4.00212023823945        7.42617851173405
O           -0.55479787219214       -5.34819304490142        7.45649964258768
C           -0.99554600866096       -3.16537554777000        8.32140787075226
O           -1.86090757938462       -3.72655565860718        9.19069813940409
C           -0.76701473295632       -1.78279210739010        8.30334413507656
H           -1.61932110171505        1.15381157882671        9.78402985179744
H            1.93376099330318        1.83813043689158        6.93922758478471
H            2.64314129298596        4.17225185988188        6.65265570912112
H            1.26333176865811        6.00990812470446        7.57073024897211
H           -0.83213295211740        5.48588317761128        8.76732615509236
H           -1.54750771549186        3.17203169227267        9.05271335346689
H            1.51040424631804       -1.64912786219222        5.80257137686538
H            1.77261802212384       -3.76794305035831        5.05381342713616
H           -1.19143200500577       -5.49486823640933        8.17096202625915
H           -2.21923969999385       -2.93766659831106        9.72866296671432
B           -6.19220216898267       -3.00426962037897       -0.39868009644299
B           -3.76515389164574       -3.48951356392034        0.97052757452081
B           -1.01737940007117       -4.15156195274254        2.28746239615911
B            1.74822292277322       -4.16075192575254        1.80223023805076
B            3.02088667708935       -3.61936700883496        1.04716908076011
B            5.83516388288494       -3.86548779904129       -0.26666161556956
B           -4.62625436776404       -2.40686244167846       -0.34702161243497
B           -2.56568557931625       -2.23242848825106        1.03862782352804
B           -1.22888322466717       -2.38766325210062        2.04648469127423
B            0.32565502470096       -3.12109553838301        1.63896715374572
B            3.15702024563697       -2.06798556495870        0.43186443532111
B            5.16239913844498       -2.57475890724110       -0.94790560491873
B           -4.25075165507184       -1.09474841152719       -1.23710056546371
B           -3.11791502205338       -1.30274218398343       -0.07000855783041
B           -0.84155550348127       -0.87892622702537        2.38229232434246
B            0.44856776502931       -1.49149977113933        1.22587347518477
B            4.24267263150231       -1.23662421598513       -0.31508498580901
B            6.75534034870434       -2.52419563846683       -0.80027985660828
B           -4.79927417606993       -0.66736566753454       -2.75948599701108
B           -3.13520416408472        0.14361865322738       -0.71932088235466
B           -1.05536347938612        0.65843669745541        2.37597911691821
B           -0.00085524830818       -0.01314085932471        1.17059615009265
B            4.90780147072342        0.25409599092728       -0.38411879857238
B            5.78738063483108       -1.07955301587093       -1.02940479085188
B           -5.58382768753094        0.82533022564355       -2.85912887461452
B           -2.83553479974609        1.60684461454965       -0.44732855121907
B           -1.31872398107415        2.16479484658192        2.16789075572295
B            0.16774583338136        1.55988178689369        1.29458272904877
B            4.27212867011294        1.64629612449513        0.21508178292602
B            6.23116545722184        0.41603556116474       -1.55238410256902
B           -5.63121074710688        1.74731606069366       -1.44656175220578
B           -3.31630959496319        2.96894979158386        0.01870381602055
B           -1.74987996327669        3.64435854078172        1.83344502576009
B           -0.08865412596531        3.18501032466934        1.45953005057371
B            2.95766205368700        2.25049437194872        0.86133938644109
B            5.75736733971075        1.69831439296145       -0.66975851836462
B           -6.56185680656349        2.84678217738809       -0.93333161297926
B           -4.48213597328844        3.98561449295220        0.56352663536585
B           -1.79137465095190        5.23200579531294        1.32560806607452
B            1.15590968446329        4.39632074166443        1.42563109107437
B            2.57984718015058        3.89855501345594        1.01750745152981
B            5.34036271028101        3.03040580299771       -0.05425348974086
B           -5.17413952153499       -3.75456210927159        0.40938014033709
B           -2.43233947729689       -3.65735587205058        1.79532863399188
B            0.41351521806352       -4.67855146705345        2.31648460023730
B            1.76580859903115       -2.36606742950502        1.15796503138434
B            4.32594065851163       -3.44446667720408        0.22359600337498
B           -5.05691539975977        2.87817015391170       -0.34058186122376
B           -3.07152402728178        4.42555217449822        1.00899001542475
B           -0.30308478392496        4.91235623644652        1.49246210381033
B            1.45313170423686        2.54918240552969        1.20998609401942
B            4.05461966789642        3.56106048409976        0.58576288751871
B           -4.49986178499872        0.55689956357991       -1.69946272610719
H           -7.18737315488868       -2.68308647151060       -0.92772905157133
H           -4.70891495470400       -1.37330341255986       -3.69704193557110
H           -6.11040931442697        1.20238004249684       -3.83882519682188
H           -7.52892116930002        3.49030705040341       -0.80140966911758
H            6.24629476013816       -4.96551855248025       -0.30046073198386
H            7.90620139429506       -2.52935480477587       -1.02279955959513
H            6.91399111349770        0.55005258253903       -2.50666125189339
