      -----------------------------------------------------------      
     |                   =====================                   |     
     |                           x T B                           |     
     |                   =====================                   |     
     |                         S. Grimme                         |     
     |          Mulliken Center for Theoretical Chemistry        |     
     |                    University of Bonn                     |     
      -----------------------------------------------------------      

   * xtb version 6.7.1pre (5071a88) compiled by 'Marcel@Raven' on 2024-07-23

   xtb is free software: you can redistribute it and/or modify it under
   the terms of the GNU Lesser General Public License as published by
   the Free Software Foundation, either version 3 of the License, or
   (at your option) any later version.
   
   xtb is distributed in the hope that it will be useful,
   but WITHOUT ANY WARRANTY; without even the implied warranty of
   MERCHANTABILITY or FITNESS FOR A PARTICULAR PURPOSE.  See the
   GNU Lesser General Public License for more details.
   
   Cite this work as:
   * C. Bannwarth, E. Caldeweyher, S. Ehlert, A. Hansen, P. Pracht,
     J. Seibert, S. Spicher, S. Grimme, WIREs Comput. Mol. Sci., 2020, 11,
     e01493. DOI: 10.1002/wcms.1493
   
   for GFN2-xTB:
   * C. Bannwarth, S. Ehlert and S. Grimme., J. Chem. Theory Comput., 2019,
     15, 1652-1671. DOI: 10.1021/acs.jctc.8b01176
   for GFN1-xTB:
   * S. Grimme, C. Bannwarth, P. Shushkov, J. Chem. Theory Comput., 2017,
     13, 1989-2009. DOI: 10.1021/acs.jctc.7b00118
   for GFN0-xTB:
   * P. Pracht, E. Caldeweyher, S. Ehlert, S. Grimme, ChemRxiv, 2019, preprint.
     DOI: 10.26434/chemrxiv.8326202.v1
   for GFN-FF:
   * S. Spicher and S. Grimme, Angew. Chem. Int. Ed., 2020, 59, 15665-15673.
     DOI: 10.1002/anie.202004239
   
   for ALPB and GBSA implicit solvation:
   * S. Ehlert, M. Stahn, S. Spicher, S. Grimme, J. Chem. Theory Comput.,
     2021, 17, 4250-4261. DOI: 10.1021/acs.jctc.1c00471
   
   for ddCOSMO and CPCM-X implicit solvation:
   * M. Stahn, S. Ehlert, S. Grimme, J. Phys. Chem. A,
     2023, XX, XXXX-XXXX. DOI: 10.1021/acs.jpca.3c04382
   
   for DFT-D4:
   * E. Caldeweyher, C. Bannwarth and S. Grimme, J. Chem. Phys., 2017,
     147, 034112. DOI: 10.1063/1.4993215
   * E. Caldeweyher, S. Ehlert, A. Hansen, H. Neugebauer, S. Spicher,
     C. Bannwarth and S. Grimme, J. Chem. Phys., 2019, 150, 154122.
     DOI: 10.1063/1.5090222
   * E. Caldeweyher, J.-M. Mewes, S. Ehlert and S. Grimme, Phys. Chem. Chem. Phys.
     2020, 22, 8499-8512. DOI: 10.1039/D0CP00502A
   
   for sTDA-xTB:
   * S. Grimme and C. Bannwarth, J. Chem. Phys., 2016, 145, 054103.
     DOI: 10.1063/1.4959605
   
   in the mass-spec context:
   * V. Asgeirsson, C. Bauer and S. Grimme, Chem. Sci., 2017, 8, 4879.
     DOI: 10.1039/c7sc00601b
   * J. Koopman and S. Grimme, ACS Omega 2019, 4, 12, 15120-15133.
     DOI: 10.1021/acsomega.9b02011
   
   for metadynamics refer to:
   * S. Grimme, J. Chem. Theory Comput., 2019, 155, 2847-2862
     DOI: 10.1021/acs.jctc.9b00143
   
   for SPH calculations refer to:
   * S. Spicher and S. Grimme, J. Chem. Theory Comput., 2021, 17, 1701-1714
     DOI: 10.1021/acs.jctc.0c01306
   
   for ONIOM refer to:
   * C. Plett, A. Katbashev, S. Ehlert, S. Grimme, M. Bursch,
     Phys. Chem. Chem. Phys., 2023, 25, 17860-17868. DOI: 10.1039/D3CP02178E
   
   for DIPRO refer to:
   * J. Kohn, N. Gildemeister, S. Grimme, D. Fazzi, A. Hansen,
     J. Chem. Phys., 2023, just accepted.
   
   for PTB refer to:
   * S. Grimme, M. Mueller, A. Hansen, J. Chem. Phys., 2023, 158, 124111.
     DOI: 10.1063/5.0137838
   
   with help from (in alphabetical order)
   P. Atkinson, C. Bannwarth, F. Bohle, G. Brandenburg, E. Caldeweyher
   M. Checinski, S. Dohm, S. Ehlert, S. Ehrlich, I. Gerasimov, C. Hölzer
   A. Katbashev, J. Kohn, J. Koopman, C. Lavigne, S. Lehtola, F. März, M. Müller,
   F. Musil, H. Neugebauer, J. Pisarek, C. Plett, P. Pracht, F. Pultar,
   J. Seibert, P. Shushkov, S. Spicher, M. Stahn, M. Steiner, T. Strunk,
   J. Stückrath, T. Rose, and J. Unsleber
   
 * started run on 2026/09/01 at 16:38:13.099     
   ID    Z sym.   atoms
    1    6 C      1, 3-8, 10, 11, 13-17, 19-28
    2    8 O      2, 9, 12
    3    7 N      18
    4    1 H      29-57, 106-117
    5    5 B      58-105

           -------------------------------------------------
          |                Calculation Setup                |
           -------------------------------------------------

          program call               : "c:\Users\Andre\Proyectos doctorado\kras-pancreatic-gC3N4-ai\tools\xtb\xtb-6.7.1\bin\xtb.exe" "c:\Users\Andre\Proyectos doctorado\borophene-alzheimer-tau-ai\calculations\tau\Donepezil\Donepezil_opt_180deg.xyz" --opt vloose --gfn 2 --chrg 0 --uhf 0 --etemp 300 --iterations 500 --cycles 15 --norestart
          coordinate file            : c:\Users\Andre\Proyectos doctorado\borophene-alzheimer-tau-ai\calculations\tau\Donepezil\Donepezil_opt_180deg.xyz
          omp threads                :                    16


molecular fragmentation (1/2 indicates fragments):
111111111111111111111111111111111111111111111111111111111222222222222222
222222222222222222222222222222222222222222222
# atoms in fragment 1/2:    57    60
 fragment masses (1/2) :      379.49      531.02
CMA distance (Bohr)    :  13.551
constraining FC (au)   :  0.0500

           -------------------------------------------------
          |                 G F N 2 - x T B                 |
           -------------------------------------------------

        Reference                      10.1021/acs.jctc.8b01176
      * Hamiltonian:
        H0-scaling (s, p, d)           1.850000    2.230000    2.230000
        zeta-weighting                 0.500000
      * Dispersion:
        s8                             2.700000
        a1                             0.520000
        a2                             5.000000
        s9                             5.000000
      * Repulsion:
        kExp                           1.500000    1.000000
        rExp                           1.000000
      * Coulomb:
        alpha                          2.000000
        third order                    shell-resolved
        anisotropic                    true
        a3                             3.000000
        a5                             4.000000
        cn-shift                       1.200000
        cn-exp                         4.000000
        max-rad                        5.000000


          ...................................................
          :                      SETUP                      :
          :.................................................:
          :  # basis functions                 345          :
          :  # atomic orbitals                 345          :
          :  # shells                          193          :
          :  # electrons                       304          :
          :  max. iterations                   500          :
          :  Hamiltonian                  GFN2-xTB          :
          :  restarted?                      false          :
          :  GBSA solvation                  false          :
          :  PC potential                    false          :
          :  electronic temp.          300.0000000     K    :
          :  accuracy                    1.0000000          :
          :  -> integral cutoff          0.2500000E+02      :
          :  -> integral neglect         0.1000000E-07      :
          :  -> SCF convergence          0.1000000E-05 Eh   :
          :  -> wf. convergence          0.1000000E-03 e    :
          :  Broyden damping             0.4000000          :
          :  net charge                          0          :
          :  unpaired electrons                  0          :
          ...................................................

 iter      E             dE          RMSdq      gap      omega  full diag
   1   -146.9806184 -0.146981E+03  0.136E+01    0.31       0.0  T
   2   -142.3522840  0.462833E+01  0.887E+00    0.27       1.0  T
   3    -43.1664339  0.991859E+02  0.161E+01    0.15       1.0  T
   4    -76.7987732 -0.336323E+02  0.118E+01    0.06       1.0  T
   5    -97.2767457 -0.204780E+02  0.898E+00    0.04       1.0  T
   6    -78.7307851  0.185460E+02  0.944E+00    0.12       1.0  T
   7   -126.4124739 -0.476817E+02  0.651E+00    0.07       1.0  T
   8   -145.4592275 -0.190468E+02  0.337E+00    0.24       1.0  T
   9   -146.5759669 -0.111674E+01  0.255E+00    0.06       1.0  T
  10   -147.4338585 -0.857892E+00  0.221E+00    0.38       1.0  T
  11   -147.5567148 -0.122856E+00  0.185E+00    0.45       1.0  T
  12   -147.6022930 -0.455782E-01  0.173E+00    0.46       1.0  T
  13   -147.5252068  0.770862E-01  0.125E+00    0.53       1.0  T
  14   -147.6565583 -0.131351E+00  0.781E-01    0.43       1.0  T
  15   -147.6768173 -0.202590E-01  0.740E-01    0.42       1.0  T
  16   -147.6828516 -0.603434E-02  0.671E-01    0.22       1.0  T
  17   -147.6854304 -0.257881E-02  0.662E-01    0.04       1.0  T
  18   -147.7002941 -0.148637E-01  0.587E-01    0.19       1.0  T
  19   -147.3588736  0.341421E+00  0.119E+00    0.12       1.0  T
  20   -147.4208870 -0.620134E-01  0.107E+00    0.09       1.0  T
  21   -147.6784913 -0.257604E+00  0.458E-01    0.04       1.0  T
  22   -147.6859674 -0.747614E-02  0.329E-01    0.04       1.0  T
  23   -147.7053644 -0.193970E-01  0.215E-01    0.07       1.0  T
  24   -147.7087392 -0.337476E-02  0.187E-01    0.09       1.0  T
  25   -147.7112936 -0.255449E-02  0.188E-01    0.13       1.0  T
  26   -147.7125914 -0.129775E-02  0.163E-01    0.14       1.0  T
  27   -147.7153224 -0.273102E-02  0.104E-01    0.13       1.0  T
  28   -147.7161179 -0.795526E-03  0.741E-02    0.11       1.0  T
  29   -147.7161581 -0.401262E-04  0.709E-02    0.11       1.0  T
  30   -147.7164513 -0.293228E-03  0.679E-02    0.11       1.0  T
  31   -147.7166515 -0.200227E-03  0.582E-02    0.10       1.0  T
  32   -147.7166298  0.217254E-04  0.515E-02    0.10       1.0  T
  33   -147.7172646 -0.634852E-03  0.240E-02    0.10       1.0  T
  34   -147.7173774 -0.112732E-03  0.116E-02    0.11       1.0  T
  35   -147.7173990 -0.216736E-04  0.721E-03    0.11       1.3  T
  36   -147.7173988  0.244436E-06  0.690E-03    0.11       1.3  T
  37   -147.7173993 -0.538237E-06  0.553E-03    0.11       1.7  T
  38   -147.7173995 -0.141335E-06  0.494E-03    0.11       1.9  T
  39   -147.7174011 -0.160446E-05  0.414E-03    0.11       2.2  T
  40   -147.7174011  0.706015E-08  0.403E-03    0.11       2.3  T
  41   -147.7174008  0.233684E-06  0.404E-03    0.11       2.3  T
  42   -147.7174021 -0.122106E-05  0.333E-03    0.11       2.8  T
  43   -147.7174040 -0.188513E-05  0.206E-03    0.11       4.5  T
  44   -147.7174049 -0.953502E-06  0.585E-04    0.11      15.8  T
  45   -147.7174049 -0.119920E-07  0.489E-04    0.11      18.9  T

   *** convergence criteria satisfied after 45 iterations ***

         #    Occupation            Energy/Eh            Energy/eV
      -------------------------------------------------------------
         1        2.0000           -0.7033117             -19.1381
       ...           ...                  ...                  ...
       146        2.0000           -0.2798558              -7.6153
       147        2.0000           -0.2763376              -7.5195
       148        2.0000           -0.2755935              -7.4993
       149        2.0000           -0.2719189              -7.3993
       150        2.0000           -0.2687755              -7.3138
       151        2.0000           -0.2657874              -7.2324
       152        1.7929           -0.2543052              -6.9200 (HOMO)
       153        0.2071           -0.2502041              -6.8084 (LUMO)
       154        0.0000           -0.2416697              -6.5762
       155                         -0.2274156              -6.1883
       156                         -0.2239435              -6.0938
       157                         -0.2210239              -6.0144
       ...                                ...                  ...
       345                          1.2175014              33.1299
      -------------------------------------------------------------
                  HL-Gap            0.0041012 Eh            0.1116 eV
             Fermi-level           -0.2522547 Eh           -6.8642 eV

 SCC (total)                   0 d,  0 h,  0 min,  1.103 sec
 SCC setup                      ...        0 min,  0.001 sec (  0.091%)
 Dispersion                     ...        0 min,  0.003 sec (  0.272%)
 classical contributions        ...        0 min,  0.000 sec (  0.000%)
 integral evaluation            ...        0 min,  0.008 sec (  0.725%)
 iterations                     ...        0 min,  1.001 sec ( 90.752%)
 molecular gradient             ...        0 min,  0.086 sec (  7.797%)
 printout                       ...        0 min,  0.003 sec (  0.272%)

         :::::::::::::::::::::::::::::::::::::::::::::::::::::
         ::                     SUMMARY                     ::
         :::::::::::::::::::::::::::::::::::::::::::::::::::::
         :: total energy            -145.586873014427 Eh    ::
         :: gradient norm              0.056816892338 Eh/a0 ::
         :: HOMO-LUMO gap              0.111598497347 eV    ::
         ::.................................................::
         :: SCC energy              -147.715157507891 Eh    ::
         :: -> isotropic ES            0.347761222503 Eh    ::
         :: -> anisotropic ES          0.014556867398 Eh    ::
         :: -> anisotropic XC         -0.003752705799 Eh    ::
         :: -> dispersion             -0.129870500830 Eh    ::
         :: repulsion energy           2.128284493463 Eh    ::
         :: add. restraining           0.000000000000 Eh    ::
         :: total charge              -0.000000000000 e     ::
         :::::::::::::::::::::::::::::::::::::::::::::::::::::

      ----------------------------------------------------------- 
     |                   =====================                   |
     |                        A N C O P T                        |
     |                   =====================                   |
     |               Approximate Normal Coordinate               |
     |                Rational Function Optimizer                |
      ----------------------------------------------------------- 
      ----------------------------------------------------------- 
     |                   =====================                   |
     |                        A N C O P T                        |
     |                   =====================                   |
     |               Approximate Normal Coordinate               |
     |                Rational Function Optimizer                |
      ----------------------------------------------------------- 

          ...................................................
          :                      SETUP                      :
          :.................................................:
          :   optimization level            normal          :
          :   max. optcycles                    15          :
          :   ANC micro-cycles                  15          :
          :   degrees of freedom               345          :
          :.................................................:
          :   RF solver                   davidson          :
          :   write xtbopt.log                true          :
          :   linear?                        false          :
          :   energy convergence         0.5000000E-05 Eh   :
          :   grad. convergence          0.1000000E-02 Eh/α :
          :   maxmium RF displ.          1.0000000          :
          :   Hlow (freq-cutoff)         0.1000000E-01      :
          :   Hmax (freq-cutoff)         5.0000000          :
          :   S6 in model hess.         20.0000000          :
          ...................................................

generating ANC from exact Hessian ...
Using Lindh-Hessian (1995)
 Shifting diagonal of input Hessian by   1.033616830057632E-002
 Lowest  eigenvalues of input Hessian
    0.010000    0.010058    0.010081    0.010106    0.010171    0.010230
    0.010241    0.010288    0.000000    0.000000    0.000000    0.000000
    0.000000    0.000000    0.010366    0.010375    0.010432    0.010455
 Highest eigenvalues
    1.882105    1.929304    1.943971    2.004372    2.110269    2.216278
 

........................................................................
.............................. CYCLE    1 ..............................
........................................................................

 iter      E             dE          RMSdq      gap      omega  full diag
   1   -147.7174049 -0.147717E+03  0.586E-04    0.11       0.0  T
   2   -147.7173947  0.101286E-04  0.589E-03    0.11       1.6  T
   3   -147.7174049 -0.102054E-04  0.284E-04    0.11      32.6  T
   4   -147.7174049  0.118013E-08  0.266E-04    0.11      34.8  T
   5   -147.7174049 -0.653336E-08  0.206E-04    0.11      44.9  T
     SCC iter.                  ...        0 min,  0.129 sec
     gradient                   ...        0 min,  0.024 sec
 * total energy  :  -145.5868730 Eh     change       -0.2895240E-07 Eh
   gradient norm :     0.0568368 Eh/α   predicted     0.0000000E+00 (-100.00%)
   displ. norm   :     0.3123226 α      lambda       -0.9880722E-02
   maximum displ.:     0.1035903 α      in ANC's #130, #109, #65, ...

........................................................................
.............................. CYCLE    2 ..............................
........................................................................

 iter      E             dE          RMSdq      gap      omega  full diag
   1   -147.7316069 -0.147732E+03  0.283E-01    0.05       0.0  T
   2   -147.7116134  0.199934E-01  0.410E-01    0.44       1.0  T
   3   -147.7322752 -0.206618E-01  0.296E-01    0.26       1.0  T
   4   -147.7383163 -0.604107E-02  0.220E-01    0.36       1.0  T
   5   -147.7436380 -0.532170E-02  0.170E-01    0.23       1.0  T
   6   -147.7320123  0.116257E-01  0.250E-01    0.05       1.0  T
   7   -147.7501071 -0.180948E-01  0.497E-02    0.11       1.0  T
   8   -147.7493962  0.710973E-03  0.741E-02    0.14       1.0  T
   9   -147.7499168 -0.520591E-03  0.563E-02    0.13       1.0  T
  10   -147.7507907 -0.873958E-03  0.900E-03    0.11       1.0  T
  11   -147.7507955 -0.473164E-05  0.658E-03    0.11       1.4  T
  12   -147.7507931  0.231025E-05  0.781E-03    0.11       1.2  T
  13   -147.7508042 -0.110897E-04  0.419E-03    0.11       2.2  T
  14   -147.7508073 -0.304520E-05  0.235E-03    0.11       3.9  T
  15   -147.7508080 -0.687086E-06  0.175E-03    0.11       5.3  T
  16   -147.7508088 -0.835216E-06  0.302E-04    0.11      30.6  T
  17   -147.7508088  0.319785E-07  0.458E-04    0.11      20.2  T
     SCC iter.                  ...        0 min,  0.374 sec
     gradient                   ...        0 min,  0.026 sec
 * total energy  :  -145.5934572 Eh     change       -0.6584192E-02 Eh
   gradient norm :     0.0262177 Eh/α   predicted    -0.5422837E-02 ( -17.64%)
   displ. norm   :     0.2791329 α      lambda       -0.2659193E-02
   maximum displ.:     0.1092716 α      in ANC's #45, #65, #44, ...

........................................................................
.............................. CYCLE    3 ..............................
........................................................................

 iter      E             dE          RMSdq      gap      omega  full diag
   1   -147.7612719 -0.147761E+03  0.163E-01    0.07       0.0  T
   2   -147.7463983  0.148736E-01  0.283E-01    0.39       1.0  T
   3   -147.7575749 -0.111766E-01  0.199E-01    0.26       1.0  T
   4   -147.7613988 -0.382390E-02  0.137E-01    0.18       1.0  T
   5   -147.7558088  0.558996E-02  0.195E-01    0.06       1.0  T
   6   -147.7650612 -0.925231E-02  0.721E-02    0.09       1.0  T
   7   -147.7654498 -0.388660E-03  0.633E-02    0.13       1.0  T
   8   -147.7663420 -0.892191E-03  0.322E-02    0.12       1.0  T
   9   -147.7665128 -0.170790E-03  0.189E-02    0.11       1.0  T
  10   -147.7666072 -0.944326E-04  0.513E-03    0.10       1.8  T
  11   -147.7666132 -0.596509E-05  0.275E-03    0.11       3.4  T
  12   -147.7666139 -0.699662E-06  0.232E-03    0.11       4.0  T
  13   -147.7666146 -0.738364E-06  0.152E-03    0.11       6.1  T
  14   -147.7666152 -0.594616E-06  0.435E-04    0.11      21.2  T
  15   -147.7666151  0.141641E-06  0.804E-04    0.11      11.5  T
     SCC iter.                  ...        0 min,  0.327 sec
     gradient                   ...        0 min,  0.027 sec
 * total energy  :  -145.5950884 Eh     change       -0.1631129E-02 Eh
   gradient norm :     0.0103928 Eh/α   predicted    -0.1434272E-02 ( -12.07%)
   displ. norm   :     0.2535512 α      lambda       -0.8246477E-03
   maximum displ.:     0.0977670 α      in ANC's #45, #19, #39, ...

........................................................................
.............................. CYCLE    4 ..............................
........................................................................

 iter      E             dE          RMSdq      gap      omega  full diag
   1   -147.7681922 -0.147768E+03  0.124E-01    0.08       0.0  T
   2   -147.7571480  0.110443E-01  0.220E-01    0.35       1.0  T
   3   -147.7686020 -0.114541E-01  0.808E-02    0.11       1.0  T
   4   -147.7657292  0.287285E-02  0.125E-01    0.09       1.0  T
   5   -147.7645173  0.121186E-02  0.130E-01    0.07       1.0  T
   6   -147.7693024 -0.478512E-02  0.362E-02    0.12       1.0  T
   7   -147.7694276 -0.125130E-03  0.275E-02    0.12       1.0  T
   8   -147.7696319 -0.204360E-03  0.547E-03    0.11       1.7  T
   9   -147.7696343 -0.239609E-05  0.387E-03    0.11       2.4  T
  10   -147.7696372 -0.290967E-05  0.182E-03    0.10       5.1  T
  11   -147.7696376 -0.389399E-06  0.126E-03    0.11       7.3  T
  12   -147.7696379 -0.262955E-06  0.750E-04    0.10      12.3  T
  13   -147.7696380 -0.854424E-07  0.475E-04    0.11      19.5  T
     SCC iter.                  ...        0 min,  0.343 sec
     gradient                   ...        0 min,  0.029 sec
 * total energy  :  -145.5955010 Eh     change       -0.4125918E-03 Eh
   gradient norm :     0.0074590 Eh/α   predicted    -0.4388429E-03 (   6.36%)
   displ. norm   :     0.3529035 α      lambda       -0.9354212E-03
   maximum displ.:     0.1228034 α      in ANC's #45, #19, #24, ...

........................................................................
.............................. CYCLE    5 ..............................
........................................................................

 iter      E             dE          RMSdq      gap      omega  full diag
   1   -147.7681304 -0.147768E+03  0.155E-01    0.08       0.0  T
   2   -147.7559101  0.122203E-01  0.233E-01    0.35       1.0  T
   3   -147.7644509 -0.854086E-02  0.143E-01    0.08       1.0  T
   4   -147.7576206  0.683030E-02  0.189E-01    0.13       1.0  T
   5   -147.7684698 -0.108492E-01  0.652E-02    0.12       1.0  T
   6   -147.7693754 -0.905582E-03  0.310E-02    0.10       1.0  T
   7   -147.7694607 -0.852790E-04  0.274E-02    0.11       1.0  T
   8   -147.7696709 -0.210290E-03  0.588E-03    0.10       1.6  T
   9   -147.7696295  0.414682E-04  0.132E-02    0.11       1.0  T
  10   -147.7696748 -0.453474E-04  0.364E-03    0.10       2.5  T
  11   -147.7696775 -0.264021E-05  0.189E-03    0.10       4.9  T
  12   -147.7696778 -0.323509E-06  0.152E-03    0.10       6.1  T
  13   -147.7696781 -0.317711E-06  0.926E-04    0.10      10.0  T
  14   -147.7696783 -0.183329E-06  0.456E-04    0.10      20.3  T
     SCC iter.                  ...        0 min,  0.326 sec
     gradient                   ...        0 min,  0.033 sec
 * total energy  :  -145.5959047 Eh     change       -0.4037378E-03 Eh
   gradient norm :     0.0102440 Eh/α   predicted    -0.5259618E-03 (  30.27%)
   displ. norm   :     0.1910992 α      lambda       -0.4655855E-03
   maximum displ.:     0.0640815 α      in ANC's #10, #19, #24, ...

........................................................................
.............................. CYCLE    6 ..............................
........................................................................

 iter      E             dE          RMSdq      gap      omega  full diag
   1   -147.7681458 -0.147768E+03  0.729E-02    0.11       0.0  T
   2   -147.7659243  0.222147E-02  0.997E-02    0.08       1.0  T
   3   -147.7631241  0.280020E-02  0.134E-01    0.18       1.0  T
   4   -147.7648004 -0.167621E-02  0.106E-01    0.11       1.0  T
   5   -147.7669832 -0.218283E-02  0.638E-02    0.13       1.0  T
   6   -147.7675690 -0.585788E-03  0.448E-02    0.12       1.0  T
   7   -147.7680224 -0.453398E-03  0.229E-02    0.11       1.0  T
   8   -147.7681535 -0.131147E-03  0.783E-03    0.11       1.2  T
   9   -147.7681714 -0.178313E-04  0.164E-03    0.10       5.7  T
  10   -147.7681715 -0.135836E-06  0.144E-03    0.10       6.4  T
  11   -147.7681716 -0.124579E-06  0.122E-03    0.10       7.6  T
  12   -147.7681720 -0.401877E-06  0.322E-04    0.10      28.7  T
  13   -147.7681720  0.704446E-07  0.575E-04    0.10      16.1  T
     SCC iter.                  ...        0 min,  0.765 sec
     gradient                   ...        0 min,  0.029 sec
 * total energy  :  -145.5962015 Eh     change       -0.2968155E-03 Eh
   gradient norm :     0.0077386 Eh/α   predicted    -0.2412998E-03 ( -18.70%)
   displ. norm   :     0.3575985 α      lambda       -0.6619925E-03
   maximum displ.:     0.1279080 α      in ANC's #10, #14, #19, ...

........................................................................
.............................. CYCLE    7 ..............................
........................................................................

 iter      E             dE          RMSdq      gap      omega  full diag
   1   -147.7651788 -0.147765E+03  0.108E-01    0.11       0.0  T
   2   -147.7594246  0.575427E-02  0.155E-01    0.07       1.0  T
   3   -147.7579233  0.150122E-02  0.166E-01    0.21       1.0  T
   4   -147.7595575 -0.163415E-02  0.146E-01    0.15       1.0  T
   5   -147.7615010 -0.194351E-02  0.112E-01    0.16       1.0  T
   6   -147.7630827 -0.158171E-02  0.849E-02    0.14       1.0  T
   7   -147.7644810 -0.139831E-02  0.507E-02    0.12       1.0  T
   8   -147.7651098 -0.628777E-03  0.197E-02    0.11       1.0  T
   9   -147.7652208 -0.111031E-03  0.500E-03    0.11       1.8  T
  10   -147.7652192  0.162999E-05  0.497E-03    0.11       1.9  T
  11   -147.7652249 -0.574777E-05  0.234E-03    0.10       3.9  T
  12   -147.7652263 -0.131840E-05  0.755E-04    0.10      12.3  T
  13   -147.7652258  0.414729E-06  0.136E-03    0.10       6.8  T
  14   -147.7652262 -0.405563E-06  0.722E-04    0.10      12.8  T
  15   -147.7652264 -0.114402E-06  0.336E-04    0.10      27.5  T
     SCC iter.                  ...        0 min,  0.388 sec
     gradient                   ...        0 min,  0.027 sec
 * total energy  :  -145.5965658 Eh     change       -0.3642810E-03 Eh
   gradient norm :     0.0068298 Eh/α   predicted    -0.3733240E-03 (   2.48%)
   displ. norm   :     0.3979452 α      lambda       -0.5167401E-03
   maximum displ.:     0.1497577 α      in ANC's #10, #14, #19, ...

........................................................................
.............................. CYCLE    8 ..............................
........................................................................

 iter      E             dE          RMSdq      gap      omega  full diag
   1   -147.7630780 -0.147763E+03  0.124E-01    0.09       0.0  T
   2   -147.7522556  0.108224E-01  0.210E-01    0.32       1.0  T
   3   -147.7562456 -0.398999E-02  0.165E-01    0.07       1.0  T
   4   -147.7518148  0.443076E-02  0.188E-01    0.20       1.0  T
   5   -147.7590749 -0.726004E-02  0.129E-01    0.17       1.0  T
   6   -147.7615498 -0.247488E-02  0.887E-02    0.14       1.0  T
   7   -147.7635565 -0.200672E-02  0.356E-02    0.12       1.0  T
   8   -147.7639092 -0.352717E-03  0.117E-02    0.11       1.0  T
   9   -147.7637175  0.191691E-03  0.274E-02    0.11       1.0  T
  10   -147.7639141 -0.196602E-03  0.930E-03    0.11       1.0  T
  11   -147.7639140  0.648639E-07  0.926E-03    0.11       1.0  T
  12   -147.7639374 -0.233313E-04  0.200E-03    0.10       4.6  T
  13   -147.7639381 -0.699542E-06  0.107E-03    0.10       8.6  T
  14   -147.7639384 -0.309386E-06  0.412E-04    0.10      22.4  T
  15   -147.7639384 -0.252302E-07  0.272E-04    0.10      34.0  T
     SCC iter.                  ...        0 min,  0.385 sec
     gradient                   ...        0 min,  0.027 sec
 * total energy  :  -145.5969001 Eh     change       -0.3342651E-03 Eh
   gradient norm :     0.0079627 Eh/α   predicted    -0.2992928E-03 ( -10.46%)
   displ. norm   :     0.5070236 α      lambda       -0.6593939E-03
   maximum displ.:     0.1998109 α      in ANC's #10, #14, #19, ...

........................................................................
.............................. CYCLE    9 ..............................
........................................................................

 iter      E             dE          RMSdq      gap      omega  full diag
   1   -147.7614389 -0.147761E+03  0.164E-01    0.07       0.0  T
   2   -147.7463468  0.150921E-01  0.269E-01    0.38       1.0  T
   3   -147.7588370 -0.124902E-01  0.165E-01    0.17       1.0  T
   4   -147.7635893 -0.475223E-02  0.868E-02    0.10       1.0  T
   5   -147.7099181  0.536712E-01  0.427E-01    0.02       1.0  T
   6   -147.7605967 -0.506786E-01  0.122E-01    0.17       1.0  T
   7   -147.7624271 -0.183039E-02  0.927E-02    0.15       1.0  T
   8   -147.7640201 -0.159304E-02  0.528E-02    0.12       1.0  T
   9   -147.7647007 -0.680590E-03  0.206E-02    0.11       1.0  T
  10   -147.7647111 -0.103183E-04  0.187E-02    0.11       1.0  T
  11   -147.7648100 -0.989698E-04  0.418E-03    0.10       2.2  T
  12   -147.7648100  0.532718E-07  0.375E-03    0.10       2.5  T
  13   -147.7648139 -0.390289E-05  0.113E-03    0.10       8.2  T
  14   -147.7648137  0.222736E-06  0.140E-03    0.10       6.6  T
  15   -147.7648139 -0.296872E-06  0.961E-04    0.10       9.6  T
  16   -147.7648142 -0.262790E-06  0.191E-04    0.10      48.3  T
     SCC iter.                  ...        0 min,  0.455 sec
     gradient                   ...        0 min,  0.029 sec
 * total energy  :  -145.5973766 Eh     change       -0.4765616E-03 Eh
   gradient norm :     0.0084478 Eh/α   predicted    -0.4144619E-03 ( -13.03%)
   displ. norm   :     0.5303806 α      lambda       -0.6414108E-03
   maximum displ.:     0.2301559 α      in ANC's #10, #14, #15, ...

........................................................................
.............................. CYCLE   10 ..............................
........................................................................

 iter      E             dE          RMSdq      gap      omega  full diag
   1   -147.7681378 -0.147768E+03  0.136E-01    0.09       0.0  T
   2   -147.7559836  0.121542E-01  0.220E-01    0.31       1.0  T
   3   -147.7505232  0.546032E-02  0.249E-01    0.05       1.0  T
   4   -147.7575939 -0.707066E-02  0.195E-01    0.27       1.0  T
   5   -147.7599341 -0.234016E-02  0.174E-01    0.23       1.0  T
   6   -147.7619676 -0.203351E-02  0.151E-01    0.20       1.0  T
   7   -147.7632947 -0.132716E-02  0.135E-01    0.18       1.0  T
   8   -147.7673199 -0.402522E-02  0.734E-02    0.13       1.0  T
   9   -147.7686477 -0.132774E-02  0.309E-02    0.11       1.0  T
  10   -147.7686716 -0.239040E-04  0.314E-02    0.11       1.0  T
  11   -147.7689157 -0.244113E-03  0.115E-02    0.11       1.0  T
  12   -147.7689348 -0.191269E-04  0.858E-03    0.10       1.1  T
  13   -147.7689531 -0.182679E-04  0.206E-03    0.10       4.5  T
  14   -147.7689490  0.405904E-05  0.427E-03    0.10       2.2  T
  15   -147.7689542 -0.515895E-05  0.584E-04    0.10      15.8  T
  16   -147.7689542 -0.164062E-07  0.511E-04    0.10      18.1  T
  17   -147.7689542  0.284999E-07  0.599E-04    0.10      15.4  T
     SCC iter.                  ...        0 min,  0.434 sec
     gradient                   ...        0 min,  0.026 sec
 * total energy  :  -145.5978230 Eh     change       -0.4463404E-03 Eh
   gradient norm :     0.0071756 Eh/α   predicted    -0.4109218E-03 (  -7.94%)
   displ. norm   :     0.5626396 α      lambda       -0.5770055E-03
   maximum displ.:     0.2579471 α      in ANC's #10, #14, #15, ...

........................................................................
.............................. CYCLE   11 ..............................
........................................................................

 iter      E             dE          RMSdq      gap      omega  full diag
   1   -147.7716355 -0.147772E+03  0.121E-01    0.09       0.0  T
   2   -147.7650233  0.661226E-02  0.164E-01    0.19       1.0  T
   3   -147.6614071  0.103616E+00  0.603E-01    0.01       1.0  T
   4   -147.7589337 -0.975266E-01  0.210E-01    0.19       1.0  T
   5   -147.7653458 -0.641204E-02  0.148E-01    0.19       1.0  T
   6   -147.7667123 -0.136655E-02  0.133E-01    0.18       1.0  T
   7   -147.7677043 -0.991952E-03  0.118E-01    0.16       1.0  T
   8   -147.7689385 -0.123419E-02  0.991E-02    0.15       1.0  T
   9   -147.7697914 -0.852948E-03  0.825E-02    0.14       1.0  T
  10   -147.7708872 -0.109580E-02  0.561E-02    0.12       1.0  T
  11   -147.7715068 -0.619618E-03  0.317E-02    0.11       1.0  T
  12   -147.7717943 -0.287495E-03  0.620E-03    0.10       1.5  T
  13   -147.7717990 -0.466873E-05  0.439E-03    0.10       2.1  T
  14   -147.7717950  0.401594E-05  0.575E-03    0.10       1.6  T
  15   -147.7718041 -0.908681E-05  0.953E-04    0.10       9.7  T
  16   -147.7718043 -0.270967E-06  0.283E-04    0.10      32.6  T
  17   -147.7718040  0.295819E-06  0.104E-03    0.10       8.9  T
  18   -147.7718043 -0.261023E-06  0.445E-04    0.10      20.8  T
     SCC iter.                  ...        0 min,  0.421 sec
     gradient                   ...        0 min,  0.028 sec
 * total energy  :  -145.5982660 Eh     change       -0.4430384E-03 Eh
   gradient norm :     0.0063996 Eh/α   predicted    -0.3798365E-03 ( -14.27%)
   displ. norm   :     0.6345303 α      lambda       -0.6354580E-03
   maximum displ.:     0.2977194 α      in ANC's #10, #14, #15, ...

........................................................................
.............................. CYCLE   12 ..............................
........................................................................

 iter      E             dE          RMSdq      gap      omega  full diag
   1   -147.7709125 -0.147771E+03  0.136E-01    0.08       0.0  T
   2   -147.7584980  0.124145E-01  0.226E-01    0.34       1.0  T
   3   -147.7654493 -0.695137E-02  0.154E-01    0.07       1.0  T
   4   -147.7590295  0.641981E-02  0.191E-01    0.17       1.0  T
   5   -147.7687921 -0.976260E-02  0.104E-01    0.14       1.0  T
   6   -147.7717918 -0.299964E-02  0.253E-02    0.11       1.0  T
   7   -147.7717181  0.736961E-04  0.301E-02    0.11       1.0  T
   8   -147.7719707 -0.252669E-03  0.770E-03    0.10       1.2  T
   9   -147.7718381  0.132589E-03  0.220E-02    0.11       1.0  T
  10   -147.7719747 -0.136600E-03  0.519E-03    0.10       1.8  T
  11   -147.7719793 -0.452354E-05  0.314E-03    0.10       2.9  T
  12   -147.7719812 -0.188883E-05  0.157E-03    0.10       5.9  T
  13   -147.7719817 -0.590505E-06  0.531E-04    0.10      17.4  T
  14   -147.7719818 -0.441548E-07  0.243E-04    0.10      38.0  T
     SCC iter.                  ...        0 min,  0.328 sec
     gradient                   ...        0 min,  0.026 sec
 * total energy  :  -145.5988078 Eh     change       -0.5417922E-03 Eh
   gradient norm :     0.0070551 Eh/α   predicted    -0.4456528E-03 ( -17.74%)
   displ. norm   :     0.6898662 α      lambda       -0.7554450E-03
   maximum displ.:     0.3359651 α      in ANC's #10, #14, #15, ...

........................................................................
.............................. CYCLE   13 ..............................
........................................................................

 iter      E             dE          RMSdq      gap      omega  full diag
   1   -147.7696187 -0.147770E+03  0.147E-01    0.08       0.0  T
   2   -147.7539494  0.156693E-01  0.258E-01    0.37       1.0  T
   3   -147.7690611 -0.151117E-01  0.118E-01    0.12       1.0  T
   4   -147.7634931  0.556805E-02  0.179E-01    0.06       1.0  T
   5   -147.7685243 -0.503121E-02  0.102E-01    0.13       1.0  T
   6   -147.7714070 -0.288270E-02  0.318E-02    0.10       1.0  T
   7   -147.7715382 -0.131176E-03  0.222E-02    0.11       1.0  T
   8   -147.7716683 -0.130077E-03  0.526E-03    0.10       1.8  T
   9   -147.7716582  0.100084E-04  0.763E-03    0.10       1.2  T
  10   -147.7716739 -0.156704E-04  0.230E-03    0.10       4.0  T
  11   -147.7716745 -0.562905E-06  0.180E-03    0.10       5.1  T
  12   -147.7716752 -0.703732E-06  0.672E-04    0.10      13.8  T
  13   -147.7716752 -0.544289E-07  0.453E-04    0.10      20.4  T
     SCC iter.                  ...        0 min,  0.303 sec
     gradient                   ...        0 min,  0.027 sec
 * total energy  :  -145.5994616 Eh     change       -0.6538531E-03 Eh
   gradient norm :     0.0070597 Eh/α   predicted    -0.5574904E-03 ( -14.74%)
   displ. norm   :     0.7416336 α      lambda       -0.8079070E-03
   maximum displ.:     0.3723675 α      in ANC's #10, #14, #15, ...

........................................................................
.............................. CYCLE   14 ..............................
........................................................................

 iter      E             dE          RMSdq      gap      omega  full diag
   1   -147.7699500 -0.147770E+03  0.137E-01    0.08       0.0  T
   2   -147.7540183  0.159318E-01  0.254E-01    0.37       1.0  T
   3   -147.7698037 -0.157854E-01  0.102E-01    0.11       1.0  T
   4   -147.7596309  0.101728E-01  0.212E-01    0.05       1.0  T
   5   -147.7670888 -0.745798E-02  0.122E-01    0.14       1.0  T
   6   -147.7710445 -0.395563E-02  0.482E-02    0.11       1.0  T
   7   -147.7715266 -0.482180E-03  0.195E-02    0.10       1.0  T
   8   -147.7716104 -0.837463E-04  0.771E-03    0.10       1.2  T
   9   -147.7715949  0.155381E-04  0.109E-02    0.10       1.0  T
  10   -147.7716244 -0.295910E-04  0.428E-03    0.10       2.2  T
  11   -147.7716275 -0.301421E-05  0.294E-03    0.10       3.1  T
  12   -147.7716296 -0.208970E-05  0.935E-04    0.10       9.9  T
  13   -147.7716296 -0.516309E-08  0.886E-04    0.10      10.4  T
  14   -147.7716298 -0.207662E-06  0.276E-04    0.10      33.4  T
     SCC iter.                  ...        0 min,  0.321 sec
     gradient                   ...        0 min,  0.027 sec
 * total energy  :  -145.6001663 Eh     change       -0.7046679E-03 Eh
   gradient norm :     0.0074182 Eh/α   predicted    -0.6261398E-03 ( -11.14%)
   displ. norm   :     0.7722221 α      lambda       -0.8405652E-03
   maximum displ.:     0.3934956 α      in ANC's #10, #14, #15, ...

........................................................................
.............................. CYCLE   15 ..............................
........................................................................

 iter      E             dE          RMSdq      gap      omega  full diag
   1   -147.7657115 -0.147766E+03  0.168E-01    0.07       0.0  T
   2   -147.7461588  0.195527E-01  0.301E-01    0.39       1.0  T
   3   -147.7608770 -0.147182E-01  0.198E-01    0.20       1.0  T
   4   -147.7683296 -0.745255E-02  0.899E-02    0.12       1.0  T
   5   -147.6711342  0.971954E-01  0.573E-01    0.01       1.0  T
   6   -147.7623911 -0.912569E-01  0.159E-01    0.19       1.0  T
   7   -147.7652292 -0.283806E-02  0.128E-01    0.16       1.0  T
   8   -147.7676232 -0.239403E-02  0.862E-02    0.13       1.0  T
   9   -147.7690668 -0.144362E-02  0.501E-02    0.12       1.0  T
  10   -147.7694610 -0.394163E-03  0.327E-02    0.11       1.0  T
  11   -147.7697374 -0.276386E-03  0.118E-02    0.10       1.0  T
  12   -147.7697604 -0.230122E-04  0.723E-03    0.10       1.3  T
  13   -147.7697752 -0.147911E-04  0.181E-03    0.10       5.1  T
  14   -147.7697721  0.304830E-05  0.359E-03    0.10       2.6  T
  15   -147.7697756 -0.350484E-05  0.116E-03    0.10       7.9  T
  16   -147.7697760 -0.340679E-06  0.411E-04    0.10      22.5  T
  17   -147.7697760 -0.454749E-07  0.842E-05    0.10     109.8  T
     SCC iter.                  ...        0 min,  0.447 sec
     gradient                   ...        0 min,  0.026 sec
 * total energy  :  -145.6009223 Eh     change       -0.7559423E-03 Eh
   gradient norm :     0.0079464 Eh/α   predicted    -0.6709166E-03 ( -11.25%)
   displ. norm   :     0.7665816 α      lambda       -0.9299111E-03
   maximum displ.:     0.4074151 α      in ANC's #10, #14, #15, ...

   *** FAILED TO CONVERGE GEOMETRY OPTIMIZATION IN 15 ITERATIONS ***


 ANCopt (total)                0 d,  0 h,  0 min,  6.446 sec
 optimizer setup                ...        0 min,  0.001 sec (  0.016%)
 model hessian                  ...        0 min,  0.047 sec (  0.729%)
 ANC generation                 ...        0 min,  0.019 sec (  0.295%)
 coordinate transformation      ...        0 min,  0.004 sec (  0.062%)
 single point calculation       ...        0 min,  6.341 sec ( 98.371%)
 optimization log               ...        0 min,  0.025 sec (  0.388%)
 hessian update                 ...        0 min,  0.001 sec (  0.016%)
 rational function              ...        0 min,  0.004 sec (  0.062%)

================
 final structure:
================
117
 xtb: 6.7.1pre (5071a88)
C           -7.04492350311735        2.04333243165725        8.53669953510977
O           -7.08374128168326        0.85337343189855        7.79043266706247
C           -5.91750608450088        0.39831084608081        7.24581448939845
C           -4.66971021017944        0.97498609310883        7.46891146934410
C           -3.55746700499670        0.44373632028633        6.85327061621868
C           -3.66836443592932       -0.64738993703760        5.98885277986736
C           -4.91384853874020       -1.25072764390539        5.77404480703760
C           -6.02994828167231       -0.74479690531709        6.41028338088362
O           -7.28932990015810       -1.25892952020778        6.29220923265213
C           -7.43555717166660       -2.50513821695994        5.65503865446416
C           -2.38189210230113       -0.96743132799868        5.41677988358304
O           -2.10173984739637       -1.79145860734639        4.55556604591601
C           -1.33580300045423       -0.03311274090862        6.06083653964058
C           -0.26761872016222       -0.87365948913796        6.76970281757196
C            1.09146885972441       -0.18604507976299        6.92725966325846
C            1.03886150302594        1.09057688524417        7.76147071245312
C            2.39586954940664        1.80250293361513        7.71178445504928
N            3.48470119089189        0.86290051923546        7.50367738060564
C            4.76642180114369        1.47473664863641        7.81057114921740
C            5.91203616844461        0.57540579284557        7.43676763163821
C            6.90137671286035        0.26280342302438        8.35839034941812
C            7.94697757579680       -0.57481244160955        8.01118135652186
C            8.00934310763781       -1.10905255470828        6.73729418826062
C            7.02828831656226       -0.79928428302691        5.80939047187230
C            5.98591214205530        0.03919331914634        6.15679370468153
C            3.25089770042034       -0.36582480860546        8.23899223053580
C            2.09780137267664       -1.14105832118851        7.58833243184426
C           -2.13731706448078        0.90193696384207        6.98182081370883
H           -6.63971217075272        2.87454475188357        7.94966922024544
H           -6.45980390228226        1.92944838544029        9.45553736775274
H           -8.08013182880153        2.26386792424985        8.80098186329075
H           -4.56484179624838        1.82728016989218        8.12164102160965
H           -4.97036656574262       -2.10720962242747        5.12358304255601
H           -7.22301233288839       -2.44416339682556        4.58307677388097
H           -6.79251183849975       -3.26440099712013        6.10954834520052
H           -8.47871461626006       -2.78495050266629        5.79654950302379
H           -0.85439672061514        0.52742447595397        5.25348279778349
H           -0.64642573177386       -1.17248768160967        7.75100029677288
H           -0.11883646635314       -1.78549280671943        6.18481976291937
H            1.46676775993341        0.07931058590645        5.93461150960198
H            0.27455471127285        1.76869281410313        7.38969330029475
H            0.78587894766848        0.82873859344235        8.79150735841400
H            2.53585338884901        2.38601307688393        8.64516556796820
H            2.42039374188729        2.51379590613514        6.87332958427244
H            4.84034554816285        1.74925877438444        8.88080148517627
H            4.83213194729313        2.40296869580819        7.22730684112631
H            6.85060576740856        0.67760680931296        9.35510306601852
H            8.70719971715595       -0.81435085363912        8.74050513068673
H            8.82128406954216       -1.76747021425018        6.46898469780625
H            7.07960283919935       -1.21019667612065        4.81281690731641
H            5.21235256870589        0.28103237261366        5.44514544223082
H            3.02748555506198       -0.15676045870791        9.29947477778827
H            4.16357357543475       -0.96676365344493        8.21045579462833
H            2.48949533939474       -1.82946024846701        6.83830006460699
H            1.59560375162494       -1.73729305091024        8.35359178580457
H           -1.81401258970744        0.81745927886999        8.02051333166417
H           -2.04246988896930        1.95008498518146        6.68804332096146
B           -6.92109215398415       -4.65311475087089        0.69403357607355
B           -5.12204690037008       -2.23207315634128        0.55632547020197
B           -3.60380271669321       -2.19705074225749        0.39032412695440
B            0.98935325150007       -2.87909901896370        0.31508998721264
B            2.46658261228848       -3.02625280255081       -0.03138239957611
B            5.26715046848065       -3.77212199615587       -0.65474502372257
B            6.21751122938419       -4.69173713570616       -1.38529507931410
B           -6.44025075270276       -3.15722661585580        0.61141566715071
B           -6.76719290179902       -1.63603403404827        0.59821016094167
B           -2.07143333189565       -2.34527139275759        0.51275117279192
B           -0.50339403759549       -2.48372169456805        0.47271332296693
B            4.00347806839518       -2.88821697237344       -0.10728283524464
B            5.73792129715032       -2.28158428826294       -0.12221701225011
B            6.80464772144526       -3.15794731550102       -1.00513482635297
B           -7.63888408470662       -0.24694936306572        0.63730751790162
B           -6.03448592156397       -0.15761281719026        0.37234715937944
B           -4.43099642052261       -0.56598223422680        0.38514907186072
B           -2.73484958022467       -0.68148596852698        0.45795869951738
B           -1.06105551811048       -0.92633545553281        0.80763185639193
B            0.50382264149872       -1.20026619357288        0.92958602763092
B            3.10364290462217       -1.47482512202228        0.10142947894089
B            4.67518541813067       -1.16320028532693        0.56071675477357
B            6.24175359606345       -0.80050695600510        0.47272955279356
B            7.66208147022007       -0.37345075027179        1.22154085072729
B           -6.89584415622896        1.19798942108889        0.31107739360029
B           -3.41099531554607        0.75266364505854        0.17442651041154
B           -1.66164759112094        0.52344787850582        0.26683032003735
B            1.83712224170326       -0.40825476936472        0.50490938104769
B            3.56300678909444       -0.16598658271414        0.99094252275299
B            6.96137260598281        0.59978386219852        0.10340267072709
B            8.31443173643932        1.02623330098206        0.78676930800547
B           -7.55185690867591        2.80695771913525        0.44785591686942
B           -6.16868719981438        2.46780626351322       -0.26437025653956
B           -3.59261610865801        2.27694798897100       -0.22960977109765
B           -0.89861524661398        1.79871533103477       -0.29126032067222
B            1.61261030391854        1.01671767252092       -0.21486780071453
B            2.98588729537573        1.29255916263036        0.75268423653414
B            6.33858120106804        1.85032445481714       -0.69736657280679
B           -6.51467964026797        4.00965788265449       -0.18993698454710
B           -4.89232002266580        3.41087009531050       -0.47967219723705
B           -3.43474401912551        3.80979870099746       -0.67262265625846
B           -2.02813044441537        3.18272899950259       -0.64933303619273
B           -0.49607250561787        3.26084585145301       -0.78364996432139
B            0.71563970198436        2.33361920275052       -0.57560161060252
B            2.32914196617545        2.47603768783101       -0.25342344318164
B            3.80302600238832        2.60850125086951        0.15166441362722
B            5.35640077945753        2.85557669350962        0.09500474288581
B            6.04709386455032        4.05795798642358        0.88992812471649
H            6.17939960275290        5.14176647703240        0.43904764891275
H            8.23431855350659       -1.13597812061325        1.90273734458035
H            6.56504994671645        1.97352830932332       -1.85326408046242
H           -7.07553820516890       -5.33187779728660       -0.26850088877100
H           -6.77217591319287        5.14210075311293       -0.34741098241941
H            9.19414444950578        1.78537916536206        0.90705159263797
H           -8.80723658198585       -0.31350234196805        0.73812965588458
H            6.62525961027517       -5.64948084348155       -1.91782624607142
H           -8.59192777908577        3.03084240286941        0.93656265976152
H            7.89773077755546       -2.81861445027612       -1.27974815532292
H            6.44070901320880        3.93893590973825        1.99671219194641
H           -7.21618879540796       -5.20507026964014        1.70118663551270
 
 Bond Distances (Angstroems)
 ---------------------------
C1-O2=1.4051         C1-H29=1.0953        C1-H30=1.0953        C1-H31=1.0909        O2-C1=1.4051         O2-C3=1.3652         
C3-O2=1.3652         C3-C4=1.3926         C3-C8=1.4204         C4-C3=1.3926         C4-C5=1.3778         C4-H32=1.0786        
C5-C4=1.3778         C5-C6=1.3965         C5-C28=1.4978        C6-C5=1.3965         C6-C7=1.4005         C6-C11=1.4439        
C7-C6=1.4005         C7-C8=1.3807         C7-H33=1.0770        C8-C3=1.4204         C8-C7=1.3807         C8-O9=1.3654         
O9-C8=1.3654         O9-C10=1.4073        C10-O9=1.4073        C10-H34=1.0945       C10-H35=1.0939       C10-H36=1.0893       
C11-C6=1.4439        C11-O12=1.2244       C11-C13=1.5434       O12-C11=1.2244       C13-C11=1.5434       C13-C14=1.5330       
C13-C28=1.5378       C13-H37=1.0944       C14-C13=1.5330       C14-C15=1.5313       C14-H38=1.0935       C14-H39=1.0935       
C15-C14=1.5313       C15-C16=1.5259       C15-C27=1.5368       C15-H40=1.0939       C16-C15=1.5259       C16-C17=1.5332       
C16-H41=1.0873       C16-H42=1.0925       C17-C16=1.5332       C17-N18=1.4532       C17-H43=1.1096       C17-H44=1.0998       
N18-C17=1.4532       N18-C19=1.4530       N18-C26=1.4509       C19-N18=1.4530       C19-C20=1.5036       C19-H45=1.1073       
C19-H46=1.0982       C20-C19=1.5036       C20-C21=1.3878       C20-C25=1.3897       C21-C20=1.3878       C21-C22=1.3840       
C21-H47=1.0808       C22-C21=1.3840       C22-C23=1.3828       C22-H48=1.0804       C23-C22=1.3828       C23-C24=1.3854       
C23-H49=1.0792       C24-C23=1.3854       C24-C25=1.3821       C24-H50=1.0792       C25-C20=1.3897       C25-C24=1.3821       
C25-H51=1.0786       C26-N18=1.4509       C26-C27=1.5343       C26-H52=1.1037       C26-H53=1.0931       C27-C15=1.5368       
C27-C26=1.5343       C27-H54=1.0908       C27-H55=1.0924       C28-C5=1.4978        C28-C13=1.5378       C28-H56=1.0911       
C28-H57=1.0927       H29-C1=1.0953        H30-C1=1.0953        H31-C1=1.0909        H32-C4=1.0786        H33-C7=1.0770        
H34-C10=1.0945       H35-C10=1.0939       H36-C10=1.0893       H37-C13=1.0944       H38-C14=1.0935       H39-C14=1.0935       
H40-C15=1.0939       H41-C16=1.0873       H42-C16=1.0925       H43-C17=1.1096       H44-C17=1.0998       H45-C19=1.1073       
H46-C19=1.0982       H47-C21=1.0808       H48-C22=1.0804       H49-C23=1.0792       H50-C24=1.0792       H51-C25=1.0786       
H52-C26=1.1037       H53-C26=1.0931       H54-C27=1.0908       H55-C27=1.0924       H56-C28=1.0911       H57-C28=1.0927       
B58-B65=1.5734       B58-H109=1.1879      B58-H117=1.1858      B59-B60=1.5277       B59-B65=1.6114       B59-B66=1.7503       
B59-B74=1.8118       B60-B59=1.5277       B60-B67=1.5444       B60-B74=1.8288       B60-B75=1.7483       B61-B62=1.5244       
B61-B68=1.5522       B61-B77=1.8525       B62-B61=1.5244       B62-B69=1.5449       B62-B78=1.6824       B63-B64=1.5108       
B63-B69=1.6364       B63-B70=1.6513       B63-B71=1.6923       B64-B63=1.5108       B64-B71=1.6858       B64-H113=1.1692      
B65-B58=1.5734       B65-B59=1.6114       B65-B66=1.5560       B66-B59=1.7503       B66-B65=1.5560       B66-B72=1.6404       
B66-B73=1.6654       B67-B60=1.5444       B67-B68=1.5746       B67-B75=1.7920       B67-B76=1.7667       B68-B61=1.5522       
B68-B67=1.5746       B68-B76=1.6878       B68-B77=1.6942       B69-B62=1.5449       B69-B63=1.6364       B69-B70=1.8375       
B69-B78=1.6885       B69-B79=1.9680       B70-B63=1.6513       B70-B69=1.8375       B70-B71=1.6387       B70-B79=1.6872       
B70-B80=1.6737       B71-B63=1.6923       B71-B64=1.6858       B71-B70=1.6387       B71-H115=1.1770      B72-B66=1.6404       
B72-B73=1.6286       B72-B82=1.6572       B72-H112=1.1746      B73-B66=1.6654       B73-B72=1.6286       B73-B74=1.6547       
B73-B82=1.6073       B74-B59=1.8118       B74-B60=1.8288       B74-B73=1.6547       B74-B75=1.7016       B74-B83=1.6804       
B75-B60=1.7483       B75-B67=1.7920       B75-B74=1.7016       B75-B76=1.7274       B75-B83=1.6107       B75-B84=1.6249       
B76-B67=1.7667       B76-B68=1.6878       B76-B75=1.7274       B76-B77=1.5933       B76-B84=1.6598       B77-B61=1.8525       
B77-B68=1.6942       B77-B76=1.5933       B77-B85=1.6079       B78-B62=1.6824       B78-B69=1.6885       B78-B79=1.6667       
B78-B85=1.7042       B78-B86=1.6478       B79-B69=1.9680       B79-B70=1.6872       B79-B78=1.6667       B79-B80=1.6104       
B79-B86=1.5545       B80-B70=1.6737       B80-B79=1.6104       B80-B81=1.6615       B80-B87=1.6171       B81-B80=1.6615       
B81-B87=1.6396       B81-B88=1.6043       B81-H107=1.1717      B82-B72=1.6572       B82-B73=1.6073       B82-B89=1.7429       
B82-B90=1.5724       B83-B74=1.6804       B83-B75=1.6107       B83-B84=1.7667       B83-B91=1.5873       B84-B75=1.6249       
B84-B76=1.6598       B84-B83=1.7667       B84-B92=1.5874       B85-B77=1.6079       B85-B78=1.7042       B85-B86=1.8093       
B85-B93=1.6122       B85-B94=2.0673       B86-B78=1.6478       B86-B79=1.5545       B86-B85=1.8093       B86-B94=1.5866       
B87-B80=1.6171       B87-B81=1.6396       B87-B88=1.5747       B87-B95=1.6103       B88-B81=1.6043       B88-B87=1.5747       
B88-H111=1.1682      B89-B82=1.7429       B89-B90=1.5923       B89-B96=1.7114       B89-H114=1.1708      B90-B82=1.5724       
B90-B89=1.5923       B90-B96=1.5819       B90-B97=1.6015       B91-B83=1.5873       B91-B97=1.7429       B91-B98=1.6034       
B91-B99=1.8559       B92-B84=1.5874       B92-B99=1.8220       B92-B100=1.5945      B92-B101=1.7242      B93-B85=1.6122       
B93-B94=1.7024       B93-B101=1.6337      B93-B102=1.6262      B94-B85=2.0673       B94-B86=1.5866       B94-B93=1.7024       
B94-B102=1.6865      B94-B103=1.6615      B95-B87=1.6103       B95-B104=1.6134      B95-H108=1.1843      B96-B89=1.7114       
B96-B90=1.5819       B96-B97=1.7534       B96-H110=1.1720      B97-B90=1.6015       B97-B91=1.7429       B97-B96=1.7534       
B97-B98=1.5235       B98-B91=1.6034       B98-B97=1.5235       B98-B99=1.5402       B99-B91=1.8559       B99-B92=1.8220       
B99-B98=1.5402       B99-B100=1.5399      B100-B92=1.5945      B100-B99=1.5399      B100-B101=1.5399     B101-B92=1.7242      
B101-B93=1.6337      B101-B100=1.5399     B101-B102=1.6515     B102-B93=1.6262      B102-B94=1.6865      B102-B101=1.6515     
B102-B103=1.5343     B103-B94=1.6615      B103-B102=1.5343     B103-B104=1.5739     B104-B95=1.6134      B104-B103=1.5739     
B104-B105=1.5983     B105-B104=1.5983     B105-H106=1.1813     B105-H116=1.1807     H106-B105=1.1813     H107-B81=1.1717      
H108-B95=1.1843      H109-B58=1.1879      H110-B96=1.1720      H111-B88=1.1682      H112-B72=1.1746      H113-B64=1.1692      
H114-B89=1.1708      H115-B71=1.1770      H116-B105=1.1807     H117-B58=1.1858      
 B  H  Rav=1.1770 sigma=0.0066  Rmin=1.1682  Rmax=1.1879    12
 B  B  Rav=1.6583 sigma=0.0994  Rmin=1.5108  Rmax=2.0673    89
 C  H  Rav=1.0913 sigma=0.0083  Rmin=1.0770  Rmax=1.1096    29
 C  C  Rav=1.4522 sigma=0.0682  Rmin=1.3778  Rmax=1.5434    23
 N  C  Rav=1.4524 sigma=0.0010  Rmin=1.4509  Rmax=1.4532     3
 O  C  Rav=1.3535 sigma=0.0671  Rmin=1.2244  Rmax=1.4073     5
 
 selected bond angles (degree)
 --------------------
H29-C1-O2=111.61               H30-C1-O2=111.85               H30-C1-H29=109.32              H31-C1-O2=105.88               
H31-C1-H29=109.12              H31-C1-H30=108.95              C3-O2-C1=118.07                C4-C3-O2=124.30                
C8-C3-O2=115.80                C8-C3-C4=119.90                C5-C4-C3=119.48                H32-C4-C3=120.75               
H32-C4-C5=119.77               C6-C5-C4=120.91                C28-C5-C4=127.53               C28-C5-C6=111.56               
C7-C6-C5=120.14                C11-C6-C5=110.35               C11-C6-C7=129.50               C8-C7-C6=119.36                
H33-C7-C6=118.81               H33-C7-C8=121.82               C7-C8-C3=120.13                O9-C8-C3=115.27                
O9-C8-C7=124.59                C10-O9-C8=117.93               H34-C10-O9=111.96              H35-C10-O9=111.44              
H35-C10-H34=109.36             H36-C10-O9=105.56              H36-C10-H34=109.12             H36-C10-H35=109.31             
 
 selected dihedral angles (degree)
 ---------------------------------
C3-O2-C1-H29= 56.72           C3-O2-C1-H30=293.88           C3-O2-C1-H31=175.33           C4-C3-O2-C1=  5.43            
C8-C3-O2-C1=185.03            C5-C4-C3-O2=180.85            C5-C4-C3-C8=  1.26            H32-C4-C3-O2=  1.22           
H32-C4-C3-C8=181.63           C6-C5-C4-C3=  1.28            C6-C5-C4-H32=180.92           C28-C5-C4-C3=181.09           
C28-C5-C4-H32=  0.73          C7-C6-C5-C4=357.61            C7-C6-C5-C28=177.77           C11-C6-C5-C4=176.79           
C11-C6-C5-C28=356.95          C8-C7-C6-C5=  0.87            C8-C7-C6-C11=181.87           H33-C7-C6-C5=181.62           
H33-C7-C6-C11=  2.61          C7-C8-C3-O2=177.63            C7-C8-C3-C4=357.25            O9-C8-C3-O2=358.30            
O9-C8-C3-C4=177.92            C3-C8-C7-C6=  1.66            C3-C8-C7-H33=180.89           O9-C8-C7-C6=180.91            
O9-C8-C7-H33=  0.15           C10-O9-C8-C3=189.80           C10-O9-C8-C7= 10.51           H34-C10-O9-C8=290.77          
H35-C10-O9-C8= 53.60          H36-C10-O9-C8=172.16          
 
 CMA Distance (Angstroems)
 ---------------------------
R(CMA):  6.7966
           -------------------------------------------------
          |                Final Singlepoint                |
           -------------------------------------------------

          ...................................................
          :                      SETUP                      :
          :.................................................:
          :  # basis functions                 345          :
          :  # atomic orbitals                 345          :
          :  # shells                          193          :
          :  # electrons                       304          :
          :  max. iterations                   500          :
          :  Hamiltonian                  GFN2-xTB          :
          :  restarted?                      false          :
          :  GBSA solvation                  false          :
          :  PC potential                    false          :
          :  electronic temp.          300.0000000     K    :
          :  accuracy                    1.0000000          :
          :  -> integral cutoff          0.2500000E+02      :
          :  -> integral neglect         0.1000000E-07      :
          :  -> SCF convergence          0.1000000E-05 Eh   :
          :  -> wf. convergence          0.1000000E-03 e    :
          :  Broyden damping             0.4000000          :
          :  net charge                          0          :
          :  unpaired electrons                  0          :
          ...................................................

 iter      E             dE          RMSdq      gap      omega  full diag
   1   -147.7716102 -0.147772E+03  0.121E-01    0.09       0.0  T
   2   -147.7582425  0.133677E-01  0.225E-01    0.26       1.0  T
   3   -147.7573141  0.928465E-03  0.225E-01    0.05       1.0  T
   4   -147.7559938  0.132023E-02  0.232E-01    0.22       1.0  T
   5   -147.7638643 -0.787049E-02  0.164E-01    0.19       1.0  T
   6   -147.7672670 -0.340262E-02  0.130E-01    0.16       1.0  T
   7   -147.7685249 -0.125796E-02  0.111E-01    0.15       1.0  T
   8   -147.7710701 -0.254516E-02  0.635E-02    0.12       1.0  T
   9   -147.7718569 -0.786806E-03  0.355E-02    0.11       1.0  T
  10   -147.7721027 -0.245851E-03  0.220E-02    0.10       1.0  T
  11   -147.7722199 -0.117117E-03  0.834E-03    0.10       1.1  T
  12   -147.7722390 -0.191756E-04  0.161E-03    0.10       5.7  T
  13   -147.7722387  0.321138E-06  0.182E-03    0.10       5.1  T
  14   -147.7722394 -0.644637E-06  0.832E-04    0.10      11.1  T
  15   -147.7722394 -0.892257E-08  0.819E-04    0.10      11.3  T

   *** convergence criteria satisfied after 15 iterations ***

         #    Occupation            Energy/Eh            Energy/eV
      -------------------------------------------------------------
         1        2.0000           -0.7042555             -19.1638
       ...           ...                  ...                  ...
       146        2.0000           -0.2793714              -7.6021
       147        2.0000           -0.2754120              -7.4943
       148        2.0000           -0.2746155              -7.4727
       149        2.0000           -0.2728053              -7.4234
       150        2.0000           -0.2686689              -7.3109
       151        2.0000           -0.2662659              -7.2455
       152        1.7370           -0.2526715              -6.8755 (HOMO)
       153        0.2630           -0.2490846              -6.7779 (LUMO)
       154        0.0000           -0.2404209              -6.5422
       155                         -0.2270431              -6.1782
       156                         -0.2236383              -6.0855
       157                         -0.2198948              -5.9836
       ...                                ...                  ...
       345                          1.2152021              33.0673
      -------------------------------------------------------------
                  HL-Gap            0.0035870 Eh            0.0976 eV
             Fermi-level           -0.2508781 Eh           -6.8267 eV

 SCC (total)                   0 d,  0 h,  0 min,  0.457 sec
 SCC setup                      ...        0 min,  0.001 sec (  0.219%)
 Dispersion                     ...        0 min,  0.001 sec (  0.219%)
 classical contributions        ...        0 min,  0.000 sec (  0.000%)
 integral evaluation            ...        0 min,  0.008 sec (  1.751%)
 iterations                     ...        0 min,  0.419 sec ( 91.685%)
 molecular gradient             ...        0 min,  0.026 sec (  5.689%)
 printout                       ...        0 min,  0.002 sec (  0.438%)

         :::::::::::::::::::::::::::::::::::::::::::::::::::::
         ::                     SUMMARY                     ::
         :::::::::::::::::::::::::::::::::::::::::::::::::::::
         :: total energy            -145.601758577754 Eh    ::
         :: gradient norm              0.008780521212 Eh/a0 ::
         :: HOMO-LUMO gap              0.097606287514 eV    ::
         ::.................................................::
         :: SCC energy              -147.769646157875 Eh    ::
         :: -> isotropic ES            0.344989849068 Eh    ::
         :: -> anisotropic ES          0.011392303584 Eh    ::
         :: -> anisotropic XC         -0.004901256312 Eh    ::
         :: -> dispersion             -0.133236747873 Eh    ::
         :: repulsion energy           2.167887580121 Eh    ::
         :: add. restraining           0.000000000000 Eh    ::
         :: total charge               0.000000000000 e     ::
         :::::::::::::::::::::::::::::::::::::::::::::::::::::

           -------------------------------------------------
          |                Property Printout                |
           -------------------------------------------------

    * Orbital Energies and Occupations

         #    Occupation            Energy/Eh            Energy/eV
      -------------------------------------------------------------
         1        2.0000           -0.7042555             -19.1638
       ...           ...                  ...                  ...
       140        2.0000           -0.2979134              -8.1066
       141        2.0000           -0.2951340              -8.0310
       142        2.0000           -0.2917407              -7.9387
       143        2.0000           -0.2911634              -7.9230
       144        2.0000           -0.2870486              -7.8110
       145        2.0000           -0.2844349              -7.7399
       146        2.0000           -0.2793714              -7.6021
       147        2.0000           -0.2754120              -7.4943
       148        2.0000           -0.2746155              -7.4727
       149        2.0000           -0.2728053              -7.4234
       150        2.0000           -0.2686689              -7.3109
       151        2.0000           -0.2662659              -7.2455
       152        1.7370           -0.2526715              -6.8755 (HOMO)
       153        0.2630           -0.2490846              -6.7779 (LUMO)
       154        0.0000           -0.2404209              -6.5422
       155                         -0.2270431              -6.1782
       156                         -0.2236383              -6.0855
       157                         -0.2198948              -5.9836
       158                         -0.2161664              -5.8822
       159                         -0.2153368              -5.8596
       160                         -0.2138984              -5.8205
       161                         -0.2027033              -5.5158
       162                         -0.2010031              -5.4696
       163                         -0.1966521              -5.3512
       ...                                ...                  ...
       345                          1.2152021              33.0673
      -------------------------------------------------------------
                  HL-Gap            0.0035870 Eh            0.0976 eV
             Fermi-level           -0.2508781 Eh           -6.8267 eV

     #   Z          covCN         q      C6AA      α(0)
     1   6 C        3.645     0.034    20.326     6.480
     2   8 O        1.705    -0.254    18.216     5.762
     3   6 C        2.867     0.116    25.445     8.269
     4   6 C        2.912    -0.085    30.135     9.002
     5   6 C        3.022    -0.009    28.208     8.712
     6   6 C        3.002    -0.049    29.208     8.865
     7   6 C        2.911    -0.078    29.939     8.972
     8   6 C        2.864     0.116    25.435     8.267
     9   8 O        1.705    -0.263    18.353     5.784
    10   6 C        3.646     0.027    20.460     6.501
    11   6 C        2.859     0.199    23.763     7.990
    12   8 O        0.856    -0.438    22.463     6.354
    13   6 C        3.876    -0.052    21.462     6.587
    14   6 C        3.806    -0.066    21.767     6.642
    15   6 C        3.855    -0.022    20.937     6.508
    16   6 C        3.808    -0.067    21.772     6.642
    17   6 C        3.767     0.011    20.430     6.442
    18   7 N        2.730    -0.179    24.871     7.407
    19   6 C        3.766     0.005    20.529     6.458
    20   6 C        2.971     0.009    27.818     8.651
    21   6 C        2.925    -0.040    28.996     8.831
    22   6 C        2.919    -0.033    28.814     8.803
    23   6 C        2.921    -0.035    28.876     8.812
    24   6 C        2.919    -0.036    28.897     8.815
    25   6 C        2.925    -0.040    28.992     8.830
    26   6 C        3.762     0.013    20.406     6.439
    27   6 C        3.809    -0.069    21.812     6.648
    28   6 C        3.828    -0.072    21.854     6.652
    29   1 H        0.924     0.040     2.450     2.448
    30   1 H        0.924     0.040     2.452     2.449
    31   1 H        0.924     0.062     2.171     2.304
    32   1 H        0.926     0.035     2.512     2.479
    33   1 H        0.926     0.058     2.227     2.334
    34   1 H        0.924     0.048     2.341     2.393
    35   1 H        0.924     0.044     2.392     2.419
    36   1 H        0.925     0.064     2.149     2.293
    37   1 H        0.924     0.047     2.364     2.404
    38   1 H        0.924     0.033     2.548     2.496
    39   1 H        0.924     0.055     2.264     2.353
    40   1 H        0.924     0.046     2.375     2.410
    41   1 H        0.925     0.039     2.464     2.455
    42   1 H        0.924     0.032     2.560     2.502
    43   1 H        0.922     0.002     3.019     2.717
    44   1 H        0.923     0.027     2.627     2.535
    45   1 H        0.922     0.006     2.954     2.688
    46   1 H        0.923     0.040     2.444     2.445
    47   1 H        0.926     0.026     2.639     2.540
    48   1 H        0.926     0.029     2.597     2.520
    49   1 H        0.926     0.031     2.565     2.505
    50   1 H        0.926     0.041     2.441     2.443
    51   1 H        0.926     0.050     2.321     2.382
    52   1 H        0.923     0.005     2.973     2.696
    53   1 H        0.924     0.032     2.557     2.501
    54   1 H        0.924     0.037     2.483     2.464
    55   1 H        0.924     0.033     2.538     2.491
    56   1 H        0.924     0.050     2.318     2.381
    57   1 H        0.924     0.036     2.499     2.472
    58   5 B        2.840     0.116    19.503     7.375
    59   5 B        3.873     0.037    22.058     7.569
    60   5 B        3.739    -0.009    22.823     7.715
    61   5 B        2.795     0.020    21.133     7.683
    62   5 B        2.908    -0.040    22.128     7.850
    63   5 B        3.857     0.017    22.428     7.632
    64   5 B        2.870     0.060    20.388     7.537
    65   5 B        2.920     0.002    21.367     7.713
    66   5 B        3.826     0.055    21.728     7.514
    67   5 B        3.758     0.032    22.092     7.585
    68   5 B        3.852     0.011    22.526     7.649
    69   5 B        4.402     0.049    21.843     7.530
    70   5 B        4.687     0.091    21.127     7.406
    71   5 B        3.805     0.066    21.535     7.482
    72   5 B        3.830     0.063    21.592     7.490
    73   5 B        3.983     0.051    21.810     7.525
    74   5 B        4.603     0.066    21.554     7.480
    75   5 B        5.639     0.115    20.721     7.334
    76   5 B        4.733     0.048    21.877     7.536
    77   5 B        3.727     0.046    21.799     7.544
    78   5 B        4.778     0.083    21.257     7.429
    79   5 B        4.514     0.028    22.237     7.598
    80   5 B        3.855     0.045    21.905     7.543
    81   5 B        3.834     0.043    21.951     7.552
    82   5 B        3.833     0.013    22.489     7.644
    83   5 B        3.810    -0.018    23.064     7.743
    84   5 B        3.815     0.004    22.642     7.671
    85   5 B        4.229    -0.013    22.982     7.724
    86   5 B        3.794     0.019    22.356     7.624
    87   5 B        3.878     0.030    22.183     7.590
    88   5 B        2.887     0.103    19.685     7.405
    89   5 B        3.782     0.079    21.281     7.440
    90   5 B        3.895     0.052    21.787     7.522
    91   5 B        3.706     0.039    21.874     7.567
    92   5 B        3.751     0.033    22.071     7.583
    93   5 B        3.855     0.044    21.926     7.547
    94   5 B        4.294     0.046    21.913     7.542
    95   5 B        2.876     0.086    19.960     7.458
    96   5 B        3.776     0.079    21.285     7.442
    97   5 B        3.798     0.008    22.569     7.660
    98   5 B        2.926     0.010    21.226     7.688
    99   5 B        3.651     0.004    22.270     7.678
   100   5 B        2.926     0.020    21.044     7.655
   101   5 B        3.842    -0.001    22.758     7.689
   102   5 B        3.859     0.015    22.462     7.638
   103   5 B        2.912     0.006    21.307     7.703
   104   5 B        2.916     0.008    21.262     7.695
   105   5 B        2.842     0.138    19.170     7.311
   106   1 H        0.935    -0.139     7.126     4.174
   107   1 H        0.938    -0.106     5.763     3.753
   108   1 H        0.934    -0.135     6.939     4.119
   109   1 H        0.932    -0.151     7.713     4.343
   110   1 H        0.938    -0.133     6.846     4.091
   111   1 H        0.940    -0.144     7.395     4.252
   112   1 H        0.937    -0.114     6.074     3.853
   113   1 H        0.939    -0.152     7.766     4.357
   114   1 H        0.939    -0.129     6.699     4.046
   115   1 H        0.937    -0.140     7.173     4.187
   116   1 H        0.935    -0.139     7.158     4.183
   117   1 H        0.933    -0.151     7.755     4.354

 Mol. C6AA /au·bohr⁶  :     191739.028520
 Mol. C8AA /au·bohr⁸  :    5766160.133434
 Mol. α(0) /au        :        694.847184


Wiberg/Mayer (AO) data.
largest (>0.10) Wiberg bond orders for each atom

 ---------------------------------------------------------------------------
     #   Z sym  total        # sym  WBO       # sym  WBO       # sym  WBO
 ---------------------------------------------------------------------------
     1   6 C    3.948 --     2 O    0.990    31 H    0.979    29 H    0.976
                            30 H    0.975
     2   8 O    2.221 --     3 C    1.061     1 C    0.990
     3   6 C    3.860 --     4 C    1.373     8 C    1.245     2 O    1.061
     4   6 C    3.976 --     5 C    1.428     3 C    1.373    32 H    0.963
     5   6 C    3.943 --     4 C    1.428     6 C    1.317    28 C    1.013
     6   6 C    3.949 --     5 C    1.317     7 C    1.304    11 C    1.111
     7   6 C    3.929 --     8 C    1.443     6 C    1.304    33 H    0.962
     8   6 C    3.936 --     7 C    1.443     3 C    1.245     9 O    1.057
     9   8 O    2.226 --     8 C    1.057    10 C    0.986
    10   6 C    3.944 --     9 O    0.986    36 H    0.979    35 H    0.977
                            34 H    0.975
    11   6 C    3.830 --    12 O    1.688     6 C    1.111    13 C    0.947
    12   8 O    1.910 --    11 C    1.688
    13   6 C    3.992 --    28 C    0.997    14 C    0.985    37 H    0.954
                            11 C    0.947
    14   6 C    3.988 --    15 C    0.995    13 C    0.985    38 H    0.975
                            39 H    0.971
    15   6 C    3.994 --    16 C    0.999    14 C    0.995    27 C    0.992
                            40 H    0.967
    16   6 C    3.996 --    17 C    1.000    15 C    0.999    42 H    0.978
                            41 H    0.973
    17   6 C    3.988 --    18 N    1.003    16 C    1.000    44 H    0.975
                            43 H    0.965
    18   7 N    3.120 --    26 C    1.003    17 C    1.003    19 C    0.998
    19   6 C    3.988 --    20 C    1.005    18 N    0.998    45 H    0.960
                            46 H    0.959
    20   6 C    3.989 --    21 C    1.419    25 C    1.406    19 C    1.005
                            23 C    0.110
    21   6 C    3.992 --    22 C    1.439    20 C    1.419    47 H    0.969
                            24 C    0.110
    22   6 C    3.992 --    23 C    1.444    21 C    1.439    48 H    0.971
                            25 C    0.112
    23   6 C    3.993 --    22 C    1.444    24 C    1.433    49 H    0.971
                            20 C    0.110
    24   6 C    3.992 --    25 C    1.453    23 C    1.433    50 H    0.970
                            21 C    0.110
    25   6 C    3.991 --    24 C    1.453    20 C    1.406    51 H    0.968
                            22 C    0.112
    26   6 C    3.988 --    18 N    1.003    27 C    0.999    53 H    0.972
                            52 H    0.967
    27   6 C    3.996 --    26 C    0.999    15 C    0.992    54 H    0.981
                            55 H    0.977
    28   6 C    3.997 --     5 C    1.013    13 C    0.997    57 H    0.964
                            56 H    0.959
    29   1 H    0.997 --     1 C    0.976
    30   1 H    0.997 --     1 C    0.975
    31   1 H    0.996 --     1 C    0.979
    32   1 H    0.998 --     4 C    0.963
    33   1 H    0.996 --     7 C    0.962
    34   1 H    0.998 --    10 C    0.975
    35   1 H    0.998 --    10 C    0.977
    36   1 H    0.995 --    10 C    0.979
    37   1 H    0.993 --    13 C    0.954
    38   1 H    0.999 --    14 C    0.975
    39   1 H    0.997 --    14 C    0.971
    40   1 H    0.998 --    15 C    0.967
    41   1 H    0.998 --    16 C    0.973
    42   1 H    0.999 --    16 C    0.978
    43   1 H    1.000 --    17 C    0.965
    44   1 H    0.999 --    17 C    0.975
    45   1 H    1.000 --    19 C    0.960
    46   1 H    0.998 --    19 C    0.959
    47   1 H    0.999 --    21 C    0.969
    48   1 H    0.999 --    22 C    0.971
    49   1 H    0.999 --    23 C    0.971
    50   1 H    0.998 --    24 C    0.970
    51   1 H    0.998 --    25 C    0.968
    52   1 H    1.000 --    26 C    0.967
    53   1 H    0.999 --    26 C    0.972
    54   1 H    0.999 --    27 C    0.981
    55   1 H    0.999 --    27 C    0.977
    56   1 H    0.995 --    28 C    0.959
    57   1 H    0.996 --    28 C    0.964
    58   5 B    3.280 --    65 B    1.205   117 H    0.944   109 H    0.942
    59   5 B    3.549 --    60 B    1.163    65 B    0.848    66 B    0.535
                            74 B    0.514    73 B    0.155
    60   5 B    3.566 --    59 B    1.163    67 B    1.136    74 B    0.472
                            75 B    0.461
    61   5 B    3.363 --    62 B    1.365    68 B    1.070    77 B    0.460
                            78 B    0.101
    62   5 B    3.528 --    61 B    1.365    69 B    1.136    78 B    0.608
    63   5 B    3.568 --    64 B    1.308    69 B    0.731    70 B    0.696
                            71 B    0.695
    64   5 B    3.394 --    63 B    1.308   113 H    0.968    71 B    0.824
                            70 B    0.126
    65   5 B    3.394 --    58 B    1.205    66 B    1.076    59 B    0.848
    66   5 B    3.510 --    65 B    1.076    72 B    0.832    73 B    0.690
                            59 B    0.535
    67   5 B    3.428 --    60 B    1.136    68 B    1.000    76 B    0.522
                            75 B    0.440
    68   5 B    3.540 --    61 B    1.070    67 B    1.000    77 B    0.649
                            76 B    0.617
    69   5 B    3.535 --    62 B    1.136    63 B    0.731    78 B    0.643
                            70 B    0.459    79 B    0.333
    70   5 B    3.620 --    71 B    0.895    63 B    0.696    80 B    0.693
                            79 B    0.572    69 B    0.459    64 B    0.126
    71   5 B    3.576 --   115 H    0.937    70 B    0.895    64 B    0.824
                            63 B    0.695
    72   5 B    3.565 --   112 H    0.923    66 B    0.832    82 B    0.813
                            73 B    0.801
    73   5 B    3.644 --    82 B    0.865    74 B    0.805    72 B    0.801
                            66 B    0.690    59 B    0.155
    74   5 B    3.560 --    73 B    0.805    83 B    0.764    75 B    0.642
                            59 B    0.514    60 B    0.472
    75   5 B    3.667 --    83 B    0.729    84 B    0.702    74 B    0.642
                            76 B    0.525    60 B    0.461    67 B    0.440
    76   5 B    3.552 --    77 B    0.944    84 B    0.717    68 B    0.617
                            75 B    0.525    67 B    0.522
    77   5 B    3.493 --    85 B    1.020    76 B    0.944    68 B    0.649
                            61 B    0.460
    78   5 B    3.613 --    86 B    0.680    79 B    0.646    85 B    0.646
                            69 B    0.643    62 B    0.608    61 B    0.101
    79   5 B    3.607 --    86 B    1.025    80 B    0.766    78 B    0.646
                            70 B    0.572    69 B    0.333
    80   5 B    3.671 --    87 B    0.825    81 B    0.815    79 B    0.766
                            70 B    0.693    88 B    0.162
    81   5 B    3.629 --    88 B    1.010   107 H    0.908    80 B    0.815
                            87 B    0.736
    82   5 B    3.596 --    90 B    0.880    73 B    0.865    72 B    0.813
                            89 B    0.720
    83   5 B    3.621 --    91 B    1.111    74 B    0.764    75 B    0.729
                            84 B    0.622
    84   5 B    3.539 --    92 B    1.086    76 B    0.717    75 B    0.702
                            83 B    0.622
    85   5 B    3.594 --    77 B    1.020    93 B    0.916    78 B    0.646
                            86 B    0.455    94 B    0.269
    86   5 B    3.589 --    79 B    1.025    94 B    0.974    78 B    0.680
                            85 B    0.455
    87   5 B    3.605 --    88 B    0.970    95 B    0.901    80 B    0.825
                            81 B    0.736
    88   5 B    3.436 --    81 B    1.010   111 H    0.970    87 B    0.970
                            95 B    0.182    80 B    0.162
    89   5 B    3.545 --   114 H    0.954    96 B    0.865    90 B    0.827
                            82 B    0.720
    90   5 B    3.630 --    82 B    0.880    96 B    0.872    89 B    0.827
                            97 B    0.769
    91   5 B    3.598 --    83 B    1.111    98 B    0.831    97 B    0.689
                            99 B    0.546
    92   5 B    3.601 --    84 B    1.086   100 B    0.853   101 B    0.704
                            99 B    0.578
    93   5 B    3.555 --    85 B    0.916   101 B    0.778   102 B    0.707
                            94 B    0.659
    94   5 B    3.577 --    86 B    0.974   103 B    0.751   102 B    0.682
                            93 B    0.659    85 B    0.269
    95   5 B    3.437 --   104 B    0.988   108 H    0.934    87 B    0.901
                            88 B    0.182   105 B    0.156
    96   5 B    3.546 --   110 H    0.956    90 B    0.872    89 B    0.865
                            97 B    0.658
    97   5 B    3.581 --    98 B    1.254    90 B    0.769    91 B    0.689
                            96 B    0.658
    98   5 B    3.544 --    97 B    1.254    99 B    1.115    91 B    0.831
    99   5 B    3.547 --   100 B    1.126    98 B    1.115    92 B    0.578
                            91 B    0.546
   100   5 B    3.521 --   101 B    1.165    99 B    1.126    92 B    0.853
   101   5 B    3.590 --   100 B    1.165    93 B    0.778   102 B    0.743
                            92 B    0.704
   102   5 B    3.580 --   103 B    1.199   101 B    0.743    93 B    0.707
                            94 B    0.682
   103   5 B    3.520 --   102 B    1.199   104 B    1.059    94 B    0.751
                           105 B    0.120
   104   5 B    3.395 --   105 B    1.069   103 B    1.059    95 B    0.988
   105   5 B    3.283 --   104 B    1.069   106 H    0.953   116 H    0.951
                            95 B    0.156   103 B    0.120
   106   1 H    0.978 --   105 B    0.953
   107   1 H    0.982 --    81 B    0.908
   108   1 H    0.980 --    95 B    0.934
   109   1 H    0.968 --    58 B    0.942
   110   1 H    0.979 --    96 B    0.956
   111   1 H    0.979 --    88 B    0.970
   112   1 H    0.978 --    72 B    0.923
   113   1 H    0.975 --    64 B    0.968
   114   1 H    0.978 --    89 B    0.954
   115   1 H    0.973 --    71 B    0.937
   116   1 H    0.977 --   105 B    0.951
   117   1 H    0.969 --    58 B    0.944
 ---------------------------------------------------------------------------

Topologies differ in total number of bonds
Writing topology from bond orders to xtbtopo.mol

molecular dipole:
                 x           y           z       tot (Debye)
 q only:       -0.780       1.062      -2.012
   full:       -0.277       2.052      -0.645       5.514
molecular quadrupole (traceless):
                xx          xy          yy          xz          yz          zz
 q only:      -81.482     -36.849      25.396      23.299       7.897      56.086
  q+dip:      -43.848     -41.049      -6.544      22.251      15.384      50.392
   full:      -61.348     -40.549     -13.601      25.065      15.756      74.949

           -------------------------------------------------
          |                Geometry Summary                 |
           -------------------------------------------------

      molecular mass/u    :      910.5174967
   center of mass at/Å    :       -0.0899480      -0.0366947       2.9748847
  moments of inertia/u·Å² :        0.1449734E+05   0.2643564E+05   0.3350939E+05
rotational constants/cm⁻¹ :        0.1162808E-02   0.6376859E-03   0.5030718E-03

 * 141 selected distances

     #   Z          #   Z                                           value/Å
     1   6 C        2   8 O                                       1.4051419
     2   8 O        3   6 C                                       1.3652091
     3   6 C        4   6 C                                       1.3925952
     4   6 C        5   6 C                                       1.3777973
     5   6 C        6   6 C                                       1.3964503
     6   6 C        7   6 C                                       1.4004963
     3   6 C        8   6 C                                       1.4203701
     7   6 C        8   6 C                                       1.3807405
     8   6 C        9   8 O                                       1.3653997
     9   8 O       10   6 C                                       1.4072687
    11   6 C       12   8 O                                       1.2244165
    13   6 C       14   6 C                                       1.5329802
    14   6 C       15   6 C                                       1.5312600
    15   6 C       16   6 C                                       1.5259226
    16   6 C       17   6 C                                       1.5332249
    17   6 C       18   7 N                                       1.4531745
    18   7 N       19   6 C                                       1.4530435
    20   6 C       21   6 C                                       1.3877693
    21   6 C       22   6 C                                       1.3839928
    22   6 C       23   6 C                                       1.3827837
    23   6 C       24   6 C                                       1.3854351
    20   6 C       25   6 C                                       1.3897176
    24   6 C       25   6 C                                       1.3821296
    18   7 N       26   6 C                                       1.4509026
    15   6 C       27   6 C                                       1.5368061
    26   6 C       27   6 C                                       1.5342675
    13   6 C       28   6 C                                       1.5378411
     1   6 C       29   1 H                                       1.0953150
     1   6 C       30   1 H                                       1.0952615
     1   6 C       31   1 H                                       1.0909343
     4   6 C       32   1 H                                       1.0786374
     7   6 C       33   1 H                                       1.0769663 (min)
    10   6 C       34   1 H                                       1.0945299
    10   6 C       35   1 H                                       1.0938768
    10   6 C       36   1 H                                       1.0892648
    13   6 C       37   1 H                                       1.0944287
    14   6 C       38   1 H                                       1.0934981
    14   6 C       39   1 H                                       1.0934645
    15   6 C       40   1 H                                       1.0938983
    16   6 C       41   1 H                                       1.0873016
    16   6 C       42   1 H                                       1.0924904
    17   6 C       43   1 H                                       1.1096306
    17   6 C       44   1 H                                       1.0997936
    19   6 C       45   1 H                                       1.1073483
    19   6 C       46   1 H                                       1.0982395
    21   6 C       47   1 H                                       1.0807756
    22   6 C       48   1 H                                       1.0803841
    23   6 C       49   1 H                                       1.0792368
    24   6 C       50   1 H                                       1.0791855
    25   6 C       51   1 H                                       1.0785750
    26   6 C       52   1 H                                       1.1037411
    26   6 C       53   1 H                                       1.0931236
    27   6 C       54   1 H                                       1.0908117
    27   6 C       55   1 H                                       1.0923921
    28   6 C       56   1 H                                       1.0911208
    28   6 C       57   1 H                                       1.0926645
    59   5 B       60   5 B                                       1.5276940
    61   5 B       62   5 B                                       1.5244358
    63   5 B       64   5 B                                       1.5108214
    58   5 B       65   5 B                                       1.5734408
    59   5 B       65   5 B                                       1.6113987
    65   5 B       66   5 B                                       1.5559861
    60   5 B       67   5 B                                       1.5443815
    61   5 B       68   5 B                                       1.5522446
    67   5 B       68   5 B                                       1.5746489
    62   5 B       69   5 B                                       1.5449475
    63   5 B       69   5 B                                       1.6364203
    63   5 B       70   5 B                                       1.6513372
    63   5 B       71   5 B                                       1.6923008
    64   5 B       71   5 B                                       1.6857529
    70   5 B       71   5 B                                       1.6387379
    66   5 B       72   5 B                                       1.6404057
    66   5 B       73   5 B                                       1.6654139
    72   5 B       73   5 B                                       1.6285819
    73   5 B       74   5 B                                       1.6547231
    60   5 B       75   5 B                                       1.7483109 (max)
    74   5 B       75   5 B                                       1.7016336
    68   5 B       76   5 B                                       1.6877823
    75   5 B       76   5 B                                       1.7273707
    68   5 B       77   5 B                                       1.6942481
    76   5 B       77   5 B                                       1.5933471
    62   5 B       78   5 B                                       1.6823832
    69   5 B       78   5 B                                       1.6884730
    70   5 B       79   5 B                                       1.6871839
    78   5 B       79   5 B                                       1.6666737
    70   5 B       80   5 B                                       1.6737380
    79   5 B       80   5 B                                       1.6104113
    80   5 B       81   5 B                                       1.6614533
    72   5 B       82   5 B                                       1.6572215
    73   5 B       82   5 B                                       1.6072803
    74   5 B       83   5 B                                       1.6803671
    75   5 B       83   5 B                                       1.6106983
    75   5 B       84   5 B                                       1.6248565
    76   5 B       84   5 B                                       1.6598341
    77   5 B       85   5 B                                       1.6078932
    78   5 B       85   5 B                                       1.7042428
    78   5 B       86   5 B                                       1.6478190
    79   5 B       86   5 B                                       1.5545003
    80   5 B       87   5 B                                       1.6171174
    81   5 B       87   5 B                                       1.6396378
    81   5 B       88   5 B                                       1.6042765
    87   5 B       88   5 B                                       1.5746805
    82   5 B       90   5 B                                       1.5723653
    89   5 B       90   5 B                                       1.5923092
    83   5 B       91   5 B                                       1.5873483
    84   5 B       92   5 B                                       1.5874480
    85   5 B       93   5 B                                       1.6121513
    86   5 B       94   5 B                                       1.5865655
    93   5 B       94   5 B                                       1.7023912
    87   5 B       95   5 B                                       1.6102648
    89   5 B       96   5 B                                       1.7114335
    90   5 B       96   5 B                                       1.5819475
    90   5 B       97   5 B                                       1.6015111
    91   5 B       98   5 B                                       1.6033764
    97   5 B       98   5 B                                       1.5234507
    98   5 B       99   5 B                                       1.5402341
    92   5 B      100   5 B                                       1.5944637
    99   5 B      100   5 B                                       1.5399173
    92   5 B      101   5 B                                       1.7241786
    93   5 B      101   5 B                                       1.6336815
   100   5 B      101   5 B                                       1.5398962
    93   5 B      102   5 B                                       1.6261979
    94   5 B      102   5 B                                       1.6864724
   101   5 B      102   5 B                                       1.6515059
    94   5 B      103   5 B                                       1.6615188
   102   5 B      103   5 B                                       1.5342677
    95   5 B      104   5 B                                       1.6134011
   103   5 B      104   5 B                                       1.5739219
   104   5 B      105   5 B                                       1.5983371
   105   5 B      106   1 H                                       1.1812871
    81   5 B      107   1 H                                       1.1717219
    95   5 B      108   1 H                                       1.1843000
    58   5 B      109   1 H                                       1.1878745
    96   5 B      110   1 H                                       1.1719767
    88   5 B      111   1 H                                       1.1681888
    72   5 B      112   1 H                                       1.1745817
    64   5 B      113   1 H                                       1.1692397
    89   5 B      114   1 H                                       1.1707717
    71   5 B      115   1 H                                       1.1770260
   105   5 B      116   1 H                                       1.1807076
    58   5 B      117   1 H                                       1.1857885

 * 6 distinct bonds (by element types)

   Z      Z             #   av. dist./Å        max./Å        min./Å
   1 H    5 B          12     1.1769553     1.1878745     1.1681888
   5 B    5 B          73     1.6221598     1.7483109     1.5108214
   1 H    6 C          29     1.0912721     1.1096306     1.0769663
   6 C    6 C          19     1.4427674     1.5378411     1.3777973
   6 C    7 N           3     1.4523735     1.4531745     1.4509026
   6 C    8 O           5     1.3534872     1.4072687     1.2244165


optimized geometry written to: xtbopt.xyz


           -------------------------------------------------
          | TOTAL ENERGY             -145.601758577754 Eh   |
          | GRADIENT NORM               0.008780521212 Eh/α |
          | HOMO-LUMO GAP               0.097606287514 eV   |
           -------------------------------------------------

------------------------------------------------------------------------
 * finished run on 2026/09/01 at 16:38:21.180     
------------------------------------------------------------------------
 total:
 * wall-time:     0 d,  0 h,  0 min,  8.079 sec
 *  cpu-time:     0 d,  0 h,  1 min,  9.250 sec
 * ratio c/w:     8.572 speedup
 SCF:
 * wall-time:     0 d,  0 h,  0 min,  1.105 sec
 *  cpu-time:     0 d,  0 h,  0 min, 10.344 sec
 * ratio c/w:     9.361 speedup
 ANC optimizer:
 * wall-time:     0 d,  0 h,  0 min,  6.913 sec
 *  cpu-time:     0 d,  0 h,  0 min, 58.359 sec
 * ratio c/w:     8.442 speedup

