112
 energy: -137.539039116543 gnorm: 0.001588968889 xtb: 6.7.1pre (5071a88)
C            6.99049843836631       -0.51972981052376        9.77091193911973
O            6.99589301284091       -0.02053046661248        8.45957554771197
C            5.84182591770210       -0.08870111716169        7.73686088773384
C            4.64130477107116       -0.60970895225152        8.21066298662240
C            3.53759069555361       -0.62445254089170        7.38365578570251
C            3.62067422406609       -0.12284059763628        6.08438371419488
C            4.82105314222861        0.40617128272717        5.59334996561641
C            5.92823929174672        0.42137494353141        6.41375497932050
O            7.15399099122301        0.90059653771448        6.05764781001084
C            7.31161176319591        1.38904944332431        4.74635431022677
C            2.35544218376972       -0.25672925130135        5.41459283143106
O            2.08092562905416        0.01347017607132        4.24959607673539
C            1.33349576289940       -0.76344342443246        6.43469921264642
C            0.32513199782903        0.37175717572911        6.68413841711135
C           -1.08188554887993       -0.08234279093368        7.07721092295633
C           -1.13061512741759       -0.91843504741232        8.35428508898779
C           -2.55116202829471       -1.45959831883207        8.56053477852680
N           -3.53584202402701       -0.58716928501895        7.94596947119299
C           -4.88571841869893       -0.91723473995635        8.35331950177594
C           -5.90446081646193       -0.15198034465925        7.55251205241789
C           -7.03602109045041        0.37694234771330        8.15690449013610
C           -7.96892556129792        1.07787191557761        7.41162152296287
C           -7.77127694878303        1.26782555337113        6.05534532055851
C           -6.64076736891749        0.74920306666607        5.44532346873703
C           -5.71772099461728        0.03680319737573        6.18815180021391
C           -3.18633716554518        0.80411803434686        8.15591960960208
C           -1.98732864867272        1.14593695518379        7.26409522994642
C            2.16250191056744       -1.15080268703937        7.67161635162431
H            6.75353839926607       -1.58917843739278        9.79567790058039
H            6.28206869089945        0.02166216760729       10.40778682006838
H            8.00018508908295       -0.36746976211402       10.14905730566068
H            4.56710422736195       -1.00379079199042        9.21195451769848
H            4.85096450858529        0.78136259039974        4.58439455760651
H            7.09300972374255        0.61929816588584        4.00031887250609
H            6.67500260675049        2.26067120359514        4.56401975167001
H            8.35658993078277        1.68403167155234        4.66921915666716
H            0.80109858532640       -1.62024077109739        6.01417304037134
H            0.72821767118405        1.03648840791050        7.45147103818326
H            0.23242820134316        0.95135613779188        5.76218836748597
H           -1.48997892960921       -0.69626736289001        6.26927860529640
H           -0.43709400159150       -1.75611694204336        8.29740293151610
H           -0.83605043899501       -0.29537544077478        9.20112719686089
H           -2.74241309854055       -1.58438470016106        9.64312281937815
H           -2.65100244044683       -2.44423311618685        8.09143914908475
H           -5.04905008971330       -0.73927411802328        9.43386477267686
H           -5.02614285497571       -1.99033441499093        8.17418604146743
H           -7.18828211764955        0.24121297744850        9.21892064270636
H           -8.84649620235936        1.48278033847681        7.89464936544003
H           -8.49408001488657        1.82169327230123        5.47491090356328
H           -6.47594813716694        0.90520229595258        4.39072851250237
H           -4.83231100679506       -0.36656998395677        5.72250047700458
H           -2.95097091676680        0.99930012360133        9.21756152787954
H           -4.04066790313131        1.42819574776739        7.88999365930910
H           -2.33667913115657        1.48764796443149        6.29043835223325
H           -1.42125569698440        1.95941552542063        7.72101839474493
H            1.76119019672655       -0.71968798671644        8.58960964586849
H            2.19690328416072       -2.23517717299111        7.80314497856886
B           -4.53877710284991       -3.04692204608649        0.74699732483514
B           -4.29836003301967       -1.69422246010906       -0.04543551826116
B           -4.13951195533403       -0.44603128730804       -1.14123364645823
B           -3.03363584377385       -2.93509853858202        0.18507241617349
B           -2.80687573554095       -0.01277687853239       -0.46174054016222
B           -4.28403240278470       -0.04924685202635        0.60099969139130
B           -5.12290709636968        0.83278561513826        1.63619738712710
B           -4.88750637266009        2.40990327331971        2.03459787978656
B           -2.77473525954291        0.19603519400227        1.18904445627160
B           -3.57671223398011        2.69895434893530        2.96245250039538
B           -1.71585005616893       -3.94049982949639        0.27345202899602
B           -1.51915722391306       -2.38190688912844        0.00048127314377
B           -1.47813000518153       -0.74364368404703        0.19718187190974
B           -0.18041207849385       -3.23256555697362        0.33095334875773
B           -0.09661677770293       -0.18105212054608        0.85797170923834
B           -1.37574863056100       -0.18605377569088        1.92953730888336
B           -1.91642501674799        1.39312210940835        1.92344804393723
B           -2.21490802395507        2.93507012175548        2.15170239122559
B           -0.32588063604853        0.91400982937268        2.29684163731865
B           -1.17766384117737        4.17551142009373        1.94985094777298
B            1.22750041988357       -3.99767683853511        0.80786352936914
B            1.25247637650770       -2.40667863969411        0.59531968079983
B            1.43070492617074       -0.82161552140212        0.68632822359642
B            2.39838528510980       -3.11202121096136        1.56823382971407
B            2.70994240693037        0.04764301705806        1.15074693307931
B            1.21593115591311        0.63820981055610        1.47941696300527
B            0.90316154008815        2.01308895264581        2.41896374364076
B            0.19510790118064        3.39839787196888        2.02062947493139
B            2.33807637275236        1.85840775795502        1.55019379858884
B            0.99468493799532        3.10604002604095        0.57749749537978
B            3.19940798637430       -3.45164077579054        2.98943906660738
B            3.71370426132974       -2.24390970476137        2.01917884459656
B            4.13041702571168       -0.74588328490369        1.59084736483869
B            4.35911080405909       -2.43203196847198        3.44499066896438
B            5.48214051996193        0.19688923325877        1.42480601887190
B            4.05200228557797        0.92866923534231        1.62436324160558
B            3.80774925427169        2.70311359551999        1.57797536126318
B            2.58624386747225        3.35352233546931        0.62471043051719
B            5.29394148925732        1.96668778335677        1.60039077351514
B            3.98788539444082        3.99910009616070        0.65768819961245
H           -5.06014406847326       -3.68503427573302        1.58036437980364
H           -5.38483887537617       -2.48528225900607       -0.06950924072229
H           -4.85491120367581       -0.26886706832227       -2.06183394211145
H           -5.90969698932316        0.26426129361960        2.32462440817455
H           -5.68990272794912        3.22878848126644        1.75321631802310
H           -3.67594535837248        2.57017474648178        4.13309746291527
H           -1.82508938314177       -5.10703678153695        0.28681331762424
H           -1.42907397839167        5.29712950134215        1.68992445722559
H            1.34412057652519       -5.15811635392686        0.69280525314577
H            0.42287910293954        2.75698172985014       -0.39980845854761
H            2.88211159783116       -4.35660111489792        3.66111089416033
H            5.12129569143532       -2.14242331105422        4.27565626019848
H            6.60909909620290       -0.12445779067362        1.39534472953618
H            6.31280041456927        2.50150675685247        1.82613046645406
H            4.77791809550314        4.80010583817803        0.34533716292190
