      -----------------------------------------------------------      
     |                   =====================                   |     
     |                           x T B                           |     
     |                   =====================                   |     
     |                         S. Grimme                         |     
     |          Mulliken Center for Theoretical Chemistry        |     
     |                    University of Bonn                     |     
      -----------------------------------------------------------      

   * xtb version 6.7.1pre (5071a88) compiled by 'Marcel@Raven' on 2024-07-23

   xtb is free software: you can redistribute it and/or modify it under
   the terms of the GNU Lesser General Public License as published by
   the Free Software Foundation, either version 3 of the License, or
   (at your option) any later version.
   
   xtb is distributed in the hope that it will be useful,
   but WITHOUT ANY WARRANTY; without even the implied warranty of
   MERCHANTABILITY or FITNESS FOR A PARTICULAR PURPOSE.  See the
   GNU Lesser General Public License for more details.
   
   Cite this work as:
   * C. Bannwarth, E. Caldeweyher, S. Ehlert, A. Hansen, P. Pracht,
     J. Seibert, S. Spicher, S. Grimme, WIREs Comput. Mol. Sci., 2020, 11,
     e01493. DOI: 10.1002/wcms.1493
   
   for GFN2-xTB:
   * C. Bannwarth, S. Ehlert and S. Grimme., J. Chem. Theory Comput., 2019,
     15, 1652-1671. DOI: 10.1021/acs.jctc.8b01176
   for GFN1-xTB:
   * S. Grimme, C. Bannwarth, P. Shushkov, J. Chem. Theory Comput., 2017,
     13, 1989-2009. DOI: 10.1021/acs.jctc.7b00118
   for GFN0-xTB:
   * P. Pracht, E. Caldeweyher, S. Ehlert, S. Grimme, ChemRxiv, 2019, preprint.
     DOI: 10.26434/chemrxiv.8326202.v1
   for GFN-FF:
   * S. Spicher and S. Grimme, Angew. Chem. Int. Ed., 2020, 59, 15665-15673.
     DOI: 10.1002/anie.202004239
   
   for ALPB and GBSA implicit solvation:
   * S. Ehlert, M. Stahn, S. Spicher, S. Grimme, J. Chem. Theory Comput.,
     2021, 17, 4250-4261. DOI: 10.1021/acs.jctc.1c00471
   
   for ddCOSMO and CPCM-X implicit solvation:
   * M. Stahn, S. Ehlert, S. Grimme, J. Phys. Chem. A,
     2023, XX, XXXX-XXXX. DOI: 10.1021/acs.jpca.3c04382
   
   for DFT-D4:
   * E. Caldeweyher, C. Bannwarth and S. Grimme, J. Chem. Phys., 2017,
     147, 034112. DOI: 10.1063/1.4993215
   * E. Caldeweyher, S. Ehlert, A. Hansen, H. Neugebauer, S. Spicher,
     C. Bannwarth and S. Grimme, J. Chem. Phys., 2019, 150, 154122.
     DOI: 10.1063/1.5090222
   * E. Caldeweyher, J.-M. Mewes, S. Ehlert and S. Grimme, Phys. Chem. Chem. Phys.
     2020, 22, 8499-8512. DOI: 10.1039/D0CP00502A
   
   for sTDA-xTB:
   * S. Grimme and C. Bannwarth, J. Chem. Phys., 2016, 145, 054103.
     DOI: 10.1063/1.4959605
   
   in the mass-spec context:
   * V. Asgeirsson, C. Bauer and S. Grimme, Chem. Sci., 2017, 8, 4879.
     DOI: 10.1039/c7sc00601b
   * J. Koopman and S. Grimme, ACS Omega 2019, 4, 12, 15120-15133.
     DOI: 10.1021/acsomega.9b02011
   
   for metadynamics refer to:
   * S. Grimme, J. Chem. Theory Comput., 2019, 155, 2847-2862
     DOI: 10.1021/acs.jctc.9b00143
   
   for SPH calculations refer to:
   * S. Spicher and S. Grimme, J. Chem. Theory Comput., 2021, 17, 1701-1714
     DOI: 10.1021/acs.jctc.0c01306
   
   for ONIOM refer to:
   * C. Plett, A. Katbashev, S. Ehlert, S. Grimme, M. Bursch,
     Phys. Chem. Chem. Phys., 2023, 25, 17860-17868. DOI: 10.1039/D3CP02178E
   
   for DIPRO refer to:
   * J. Kohn, N. Gildemeister, S. Grimme, D. Fazzi, A. Hansen,
     J. Chem. Phys., 2023, just accepted.
   
   for PTB refer to:
   * S. Grimme, M. Mueller, A. Hansen, J. Chem. Phys., 2023, 158, 124111.
     DOI: 10.1063/5.0137838
   
   with help from (in alphabetical order)
   P. Atkinson, C. Bannwarth, F. Bohle, G. Brandenburg, E. Caldeweyher
   M. Checinski, S. Dohm, S. Ehlert, S. Ehrlich, I. Gerasimov, C. Hölzer
   A. Katbashev, J. Kohn, J. Koopman, C. Lavigne, S. Lehtola, F. März, M. Müller,
   F. Musil, H. Neugebauer, J. Pisarek, C. Plett, P. Pracht, F. Pultar,
   J. Seibert, P. Shushkov, S. Spicher, M. Stahn, M. Steiner, T. Strunk,
   J. Stückrath, T. Rose, and J. Unsleber
   
 * started run on 2026/09/01 at 16:34:47.114     
   ID    Z sym.   atoms
    1    6 C      1, 3-8, 10, 11, 13-17, 19-28
    2    8 O      2, 9, 12
    3    7 N      18
    4    1 H      29-57, 106-117
    5    5 B      58-105

           -------------------------------------------------
          |                Calculation Setup                |
           -------------------------------------------------

          program call               : "c:\Users\Andre\Proyectos doctorado\kras-pancreatic-gC3N4-ai\tools\xtb\xtb-6.7.1\bin\xtb.exe" "c:\Users\Andre\Proyectos doctorado\borophene-alzheimer-tau-ai\calculations\tau\Donepezil\Donepezil_B48H12_clean_complex.xyz" --gfn 2 --sp --chrg 0 --uhf 0 --etemp 300 --iterations 500 --norestart
          coordinate file            : c:\Users\Andre\Proyectos doctorado\borophene-alzheimer-tau-ai\calculations\tau\Donepezil\Donepezil_B48H12_clean_complex.xyz
          omp threads                :                    16


molecular fragmentation (1/2 indicates fragments):
111111111111111111111111111111111111111111111111111111111222222222222222
222222222222222222222222222222222222222222222
# atoms in fragment 1/2:    57    60
 fragment masses (1/2) :      379.49      531.02
CMA distance (Bohr)    :  13.534
constraining FC (au)   :  0.0500

           -------------------------------------------------
          |                 G F N 2 - x T B                 |
           -------------------------------------------------

        Reference                      10.1021/acs.jctc.8b01176
      * Hamiltonian:
        H0-scaling (s, p, d)           1.850000    2.230000    2.230000
        zeta-weighting                 0.500000
      * Dispersion:
        s8                             2.700000
        a1                             0.520000
        a2                             5.000000
        s9                             5.000000
      * Repulsion:
        kExp                           1.500000    1.000000
        rExp                           1.000000
      * Coulomb:
        alpha                          2.000000
        third order                    shell-resolved
        anisotropic                    true
        a3                             3.000000
        a5                             4.000000
        cn-shift                       1.200000
        cn-exp                         4.000000
        max-rad                        5.000000


          ...................................................
          :                      SETUP                      :
          :.................................................:
          :  # basis functions                 345          :
          :  # atomic orbitals                 345          :
          :  # shells                          193          :
          :  # electrons                       304          :
          :  max. iterations                   500          :
          :  Hamiltonian                  GFN2-xTB          :
          :  restarted?                      false          :
          :  GBSA solvation                  false          :
          :  PC potential                    false          :
          :  electronic temp.          300.0000000     K    :
          :  accuracy                    1.0000000          :
          :  -> integral cutoff          0.2500000E+02      :
          :  -> integral neglect         0.1000000E-07      :
          :  -> SCF convergence          0.1000000E-05 Eh   :
          :  -> wf. convergence          0.1000000E-03 e    :
          :  Broyden damping             0.4000000          :
          :  net charge                          0          :
          :  unpaired electrons                  0          :
          ...................................................

 iter      E             dE          RMSdq      gap      omega  full diag
   1   -146.9842216 -0.146984E+03  0.136E+01    0.30       0.0  T
   2   -143.1552640  0.382896E+01  0.881E+00    0.20       1.0  T
   3    -41.5109531  0.101644E+03  0.164E+01    0.18       1.0  T
   4    -92.6429042 -0.511320E+02  0.104E+01    0.15       1.0  T
   5   -118.9850401 -0.263421E+02  0.794E+00    0.06       1.0  T
   6   -135.3520860 -0.163670E+02  0.495E+00    0.13       1.0  T
   7    -98.1704543  0.371816E+02  0.777E+00    0.17       1.0  T
   8   -145.8348519 -0.476644E+02  0.305E+00    0.36       1.0  T
   9   -147.4801457 -0.164529E+01  0.209E+00    0.53       1.0  T
  10   -147.5495931 -0.694475E-01  0.173E+00    0.24       1.0  T
  11   -147.6159287 -0.663356E-01  0.154E+00    0.38       1.0  T
  12   -147.6205017 -0.457300E-02  0.132E+00    0.35       1.0  T
  13   -147.5955472  0.249544E-01  0.954E-01    0.38       1.0  T
  14   -147.2753603  0.320187E+00  0.136E+00    0.14       1.0  T
  15   -147.6444084 -0.369048E+00  0.716E-01    0.18       1.0  T
  16   -147.2567198  0.387689E+00  0.138E+00    0.26       1.0  T
  17   -147.3336563 -0.769365E-01  0.125E+00    0.14       1.0  T
  18   -147.5926843 -0.259028E+00  0.760E-01    0.01       1.0  T
  19   -147.7031910 -0.110507E+00  0.354E-01    0.20       1.0  T
  20   -147.7090705 -0.587943E-02  0.302E-01    0.20       1.0  T
  21   -147.7097014 -0.630965E-03  0.271E-01    0.18       1.0  T
  22   -147.7138601 -0.415863E-02  0.143E-01    0.15       1.0  T
  23   -147.7138946 -0.345155E-04  0.121E-01    0.17       1.0  T
  24   -147.7135489  0.345649E-03  0.118E-01    0.18       1.0  T
  25   -147.7136113 -0.623839E-04  0.107E-01    0.18       1.0  T
  26   -147.7137570 -0.145672E-03  0.943E-02    0.18       1.0  T
  27   -147.7143384 -0.581364E-03  0.772E-02    0.16       1.0  T
  28   -147.7152702 -0.931857E-03  0.551E-02    0.15       1.0  T
  29   -147.7155380 -0.267746E-03  0.473E-02    0.14       1.0  T
  30   -147.7155592 -0.212832E-04  0.466E-02    0.14       1.0  T
  31   -147.7157916 -0.232368E-03  0.383E-02    0.13       1.0  T
  32   -147.7161338 -0.342194E-03  0.159E-02    0.12       1.0  T
  33   -147.7161682 -0.344326E-04  0.107E-02    0.12       1.0  T
  34   -147.7161355  0.327406E-04  0.149E-02    0.11       1.0  T
  35   -147.7161441 -0.860611E-05  0.135E-02    0.11       1.0  T
  36   -147.7161696 -0.255311E-04  0.920E-03    0.11       1.0  T
  37   -147.7161810 -0.113251E-04  0.646E-03    0.12       1.4  T
  38   -147.7161866 -0.565434E-05  0.460E-03    0.12       2.0  T
  39   -147.7161912 -0.460323E-05  0.192E-03    0.12       4.8  T
  40   -147.7161921 -0.916482E-06  0.320E-04    0.12      28.9  T
  41   -147.7161921  0.323746E-08  0.258E-04    0.12      35.8  T

   *** convergence criteria satisfied after 41 iterations ***

         #    Occupation            Energy/Eh            Energy/eV
      -------------------------------------------------------------
         1        2.0000           -0.7014598             -19.0877
       ...           ...                  ...                  ...
       146        2.0000           -0.2786406              -7.5822
       147        2.0000           -0.2754314              -7.4949
       148        2.0000           -0.2747726              -7.4769
       149        2.0000           -0.2705105              -7.3610
       150        2.0000           -0.2680383              -7.2937
       151        2.0000           -0.2649025              -7.2084
       152        1.8164           -0.2532984              -6.8926 (HOMO)
       153        0.1835           -0.2489432              -6.7741 (LUMO)
       154        0.0001           -0.2412782              -6.5655
       155                         -0.2267586              -6.1704
       156                         -0.2239982              -6.0953
       157                         -0.2234768              -6.0811
       ...                                ...                  ...
       345                          1.2176700              33.1345
      -------------------------------------------------------------
                  HL-Gap            0.0043552 Eh            0.1185 eV
             Fermi-level           -0.2511210 Eh           -6.8334 eV

 SCC (total)                   0 d,  0 h,  0 min,  1.119 sec
 SCC setup                      ...        0 min,  0.002 sec (  0.179%)
 Dispersion                     ...        0 min,  0.013 sec (  1.162%)
 classical contributions        ...        0 min,  0.001 sec (  0.089%)
 integral evaluation            ...        0 min,  0.018 sec (  1.609%)
 iterations                     ...        0 min,  1.053 sec ( 94.102%)
 molecular gradient             ...        0 min,  0.029 sec (  2.592%)
 printout                       ...        0 min,  0.003 sec (  0.268%)

         :::::::::::::::::::::::::::::::::::::::::::::::::::::
         ::                     SUMMARY                     ::
         :::::::::::::::::::::::::::::::::::::::::::::::::::::
         :: total energy            -145.585592660181 Eh    ::
         :: gradient norm              0.056098707045 Eh/a0 ::
         :: HOMO-LUMO gap              0.118511390578 eV    ::
         ::.................................................::
         :: SCC energy              -147.713876997554 Eh    ::
         :: -> isotropic ES            0.348634853097 Eh    ::
         :: -> anisotropic ES          0.014964102060 Eh    ::
         :: -> anisotropic XC         -0.003614134082 Eh    ::
         :: -> dispersion             -0.129695874275 Eh    ::
         :: repulsion energy           2.128284337373 Eh    ::
         :: add. restraining           0.000000000000 Eh    ::
         :: total charge              -0.000000000004 e     ::
         :::::::::::::::::::::::::::::::::::::::::::::::::::::

           -------------------------------------------------
          |                Property Printout                |
           -------------------------------------------------

    * Orbital Energies and Occupations

         #    Occupation            Energy/Eh            Energy/eV
      -------------------------------------------------------------
         1        2.0000           -0.7014598             -19.0877
       ...           ...                  ...                  ...
       140        2.0000           -0.2970241              -8.0824
       141        2.0000           -0.2942318              -8.0065
       142        2.0000           -0.2913935              -7.9292
       143        2.0000           -0.2903509              -7.9009
       144        2.0000           -0.2863983              -7.7933
       145        2.0000           -0.2835370              -7.7154
       146        2.0000           -0.2786406              -7.5822
       147        2.0000           -0.2754314              -7.4949
       148        2.0000           -0.2747726              -7.4769
       149        2.0000           -0.2705105              -7.3610
       150        2.0000           -0.2680383              -7.2937
       151        2.0000           -0.2649025              -7.2084
       152        1.8164           -0.2532984              -6.8926 (HOMO)
       153        0.1835           -0.2489432              -6.7741 (LUMO)
       154        0.0001           -0.2412782              -6.5655
       155                         -0.2267586              -6.1704
       156                         -0.2239982              -6.0953
       157                         -0.2234768              -6.0811
       158                         -0.2227533              -6.0614
       159                         -0.2198402              -5.9822
       160                         -0.2135260              -5.8103
       161                         -0.2076819              -5.6513
       162                         -0.2003835              -5.4527
       163                         -0.1962098              -5.3391
       ...                                ...                  ...
       345                          1.2176700              33.1345
      -------------------------------------------------------------
                  HL-Gap            0.0043552 Eh            0.1185 eV
             Fermi-level           -0.2511210 Eh           -6.8334 eV

     #   Z          covCN         q      C6AA      α(0)
     1   6 C        3.639     0.032    20.400     6.496
     2   8 O        1.703    -0.256    18.247     5.767
     3   6 C        2.857     0.119    25.374     8.256
     4   6 C        2.912    -0.084    30.112     8.998
     5   6 C        3.029    -0.008    28.188     8.709
     6   6 C        3.007    -0.043    29.057     8.842
     7   6 C        2.907    -0.068    29.702     8.936
     8   6 C        2.862     0.119    25.383     8.258
     9   8 O        1.703    -0.261    18.329     5.780
    10   6 C        3.640     0.026    20.491     6.510
    11   6 C        2.878     0.208    23.605     7.965
    12   8 O        0.857    -0.420    22.076     6.299
    13   6 C        3.871    -0.049    21.408     6.579
    14   6 C        3.802    -0.064    21.736     6.638
    15   6 C        3.848    -0.021    20.915     6.505
    16   6 C        3.801    -0.064    21.727     6.637
    17   6 C        3.755     0.008    20.500     6.456
    18   7 N        2.724    -0.182    24.932     7.416
    19   6 C        3.756     0.003    20.581     6.468
    20   6 C        2.959     0.009    27.825     8.652
    21   6 C        2.914    -0.039    28.980     8.827
    22   6 C        2.910    -0.032    28.804     8.800
    23   6 C        2.912    -0.035    28.860     8.809
    24   6 C        2.910    -0.036    28.889     8.813
    25   6 C        2.914    -0.039    28.966     8.825
    26   6 C        3.752     0.014    20.394     6.440
    27   6 C        3.803    -0.067    21.789     6.646
    28   6 C        3.829    -0.073    21.864     6.653
    29   1 H        0.924     0.043     2.406     2.426
    30   1 H        0.924     0.043     2.412     2.429
    31   1 H        0.924     0.062     2.179     2.308
    32   1 H        0.925     0.037     2.487     2.466
    33   1 H        0.925     0.066     2.134     2.285
    34   1 H        0.924     0.053     2.287     2.365
    35   1 H        0.924     0.046     2.375     2.410
    36   1 H        0.924     0.063     2.167     2.302
    37   1 H        0.924     0.052     2.294     2.369
    38   1 H        0.924     0.034     2.524     2.484
    39   1 H        0.923     0.054     2.268     2.355
    40   1 H        0.923     0.040     2.449     2.447
    41   1 H        0.924     0.037     2.489     2.467
    42   1 H        0.924     0.031     2.573     2.509
    43   1 H        0.923     0.009     2.909     2.667
    44   1 H        0.924     0.029     2.598     2.521
    45   1 H        0.923     0.012     2.858     2.644
    46   1 H        0.923     0.041     2.439     2.442
    47   1 H        0.925     0.028     2.613     2.528
    48   1 H        0.925     0.031     2.574     2.509
    49   1 H        0.925     0.032     2.559     2.502
    50   1 H        0.925     0.035     2.510     2.477
    51   1 H        0.925     0.043     2.408     2.427
    52   1 H        0.923     0.008     2.929     2.676
    53   1 H        0.924     0.031     2.569     2.506
    54   1 H        0.923     0.036     2.508     2.476
    55   1 H        0.924     0.034     2.535     2.490
    56   1 H        0.924     0.052     2.299     2.371
    57   1 H        0.924     0.040     2.445     2.445
    58   5 B        2.839     0.115    19.518     7.378
    59   5 B        3.803     0.029    22.176     7.593
    60   5 B        3.718    -0.019    22.960     7.746
    61   5 B        2.746     0.013    21.311     7.727
    62   5 B        2.911    -0.047    22.258     7.873
    63   5 B        3.855     0.014    22.480     7.641
    64   5 B        2.869     0.060    20.402     7.540
    65   5 B        2.921    -0.001    21.414     7.722
    66   5 B        3.823     0.058    21.673     7.505
    67   5 B        3.767     0.020    22.311     7.621
    68   5 B        3.849     0.002    22.695     7.678
    69   5 B        4.346     0.053    21.779     7.519
    70   5 B        4.682     0.088    21.167     7.413
    71   5 B        3.801     0.067    21.512     7.479
    72   5 B        3.829     0.061    21.627     7.496
    73   5 B        3.950     0.048    21.870     7.535
    74   5 B        4.552     0.059    21.672     7.501
    75   5 B        5.635     0.109    20.821     7.352
    76   5 B        4.742     0.033    22.131     7.580
    77   5 B        3.678     0.040    21.756     7.564
    78   5 B        4.781     0.081    21.292     7.435
    79   5 B        4.465     0.027    22.239     7.598
    80   5 B        3.855     0.046    21.893     7.541
    81   5 B        3.833     0.042    21.958     7.553
    82   5 B        3.834     0.009    22.558     7.656
    83   5 B        3.803    -0.020    23.091     7.748
    84   5 B        3.806     0.008    22.560     7.658
    85   5 B        4.226    -0.011    22.958     7.720
    86   5 B        3.802     0.020    22.350     7.623
    87   5 B        3.878     0.031    22.170     7.588
    88   5 B        2.888     0.103    19.695     7.407
    89   5 B        3.778     0.078    21.295     7.443
    90   5 B        3.898     0.054    21.761     7.517
    91   5 B        3.709     0.038    21.888     7.567
    92   5 B        3.761     0.031    22.122     7.590
    93   5 B        3.854     0.043    21.952     7.551
    94   5 B        4.286     0.051    21.811     7.525
    95   5 B        2.876     0.086    19.961     7.458
    96   5 B        3.771     0.080    21.269     7.440
    97   5 B        3.795     0.008    22.571     7.661
    98   5 B        2.925     0.011    21.210     7.685
    99   5 B        3.663     0.006    22.299     7.671
   100   5 B        2.926     0.025    20.960     7.639
   101   5 B        3.840     0.001    22.708     7.681
   102   5 B        3.860     0.017    22.423     7.631
   103   5 B        2.912     0.009    21.251     7.693
   104   5 B        2.915     0.009    21.248     7.692
   105   5 B        2.842     0.141    19.124     7.303
   106   1 H        0.935    -0.137     7.071     4.158
   107   1 H        0.939    -0.104     5.688     3.729
   108   1 H        0.934    -0.134     6.909     4.110
   109   1 H        0.932    -0.153     7.858     4.383
   110   1 H        0.938    -0.132     6.843     4.090
   111   1 H        0.940    -0.144     7.369     4.244
   112   1 H        0.936    -0.120     6.303     3.925
   113   1 H        0.939    -0.153     7.832     4.375
   114   1 H        0.938    -0.132     6.833     4.087
   115   1 H        0.936    -0.142     7.282     4.219
   116   1 H        0.935    -0.139     7.166     4.185
   117   1 H        0.933    -0.154     7.902     4.395

 Mol. C6AA /au·bohr⁶  :     191747.153222
 Mol. C8AA /au·bohr⁸  :    5767283.038538
 Mol. α(0) /au        :        694.923902


Wiberg/Mayer (AO) data.
largest (>0.10) Wiberg bond orders for each atom

 ---------------------------------------------------------------------------
     #   Z sym  total        # sym  WBO       # sym  WBO       # sym  WBO
 ---------------------------------------------------------------------------
     1   6 C    3.947 --     2 O    0.986    31 H    0.979    29 H    0.977
                            30 H    0.977
     2   8 O    2.220 --     3 C    1.062     1 C    0.986
     3   6 C    3.882 --     4 C    1.373     8 C    1.260     2 O    1.062
     4   6 C    3.975 --     5 C    1.420     3 C    1.373    32 H    0.965
     5   6 C    3.961 --     4 C    1.420     6 C    1.331    28 C    1.014
     6   6 C    3.963 --     7 C    1.335     5 C    1.331    11 C    1.081
     7   6 C    3.944 --     8 C    1.419     6 C    1.335    33 H    0.961
     8   6 C    3.936 --     7 C    1.419     3 C    1.260     9 O    1.062
     9   8 O    2.228 --     8 C    1.062    10 C    0.983
    10   6 C    3.942 --     9 O    0.983    36 H    0.979    35 H    0.977
                            34 H    0.977
    11   6 C    3.853 --    12 O    1.723     6 C    1.081    13 C    0.961
    12   8 O    1.948 --    11 C    1.723
    13   6 C    3.993 --    28 C    0.992    14 C    0.987    11 C    0.961
                            37 H    0.949
    14   6 C    3.988 --    15 C    0.994    13 C    0.987    38 H    0.974
                            39 H    0.970
    15   6 C    3.994 --    16 C    1.001    14 C    0.994    27 C    0.991
                            40 H    0.969
    16   6 C    3.996 --    15 C    1.001    17 C    0.999    42 H    0.979
                            41 H    0.974
    17   6 C    3.987 --    16 C    0.999    18 N    0.999    44 H    0.976
                            43 H    0.969
    18   7 N    3.105 --    26 C    1.003    17 C    0.999    19 C    0.994
    19   6 C    3.987 --    20 C    1.003    18 N    0.994    45 H    0.964
                            46 H    0.960
    20   6 C    3.987 --    21 C    1.417    25 C    1.409    19 C    1.003
                            23 C    0.110
    21   6 C    3.990 --    22 C    1.440    20 C    1.417    47 H    0.969
                            24 C    0.110
    22   6 C    3.991 --    23 C    1.441    21 C    1.440    48 H    0.971
                            25 C    0.113
    23   6 C    3.991 --    22 C    1.441    24 C    1.436    49 H    0.971
                            20 C    0.110
    24   6 C    3.992 --    25 C    1.448    23 C    1.436    50 H    0.971
                            21 C    0.110
    25   6 C    3.990 --    24 C    1.448    20 C    1.409    51 H    0.969
                            22 C    0.113
    26   6 C    3.987 --    18 N    1.003    27 C    1.001    53 H    0.974
                            52 H    0.968
    27   6 C    3.995 --    26 C    1.001    15 C    0.991    54 H    0.981
                            55 H    0.977
    28   6 C    3.997 --     5 C    1.014    13 C    0.992    57 H    0.965
                            56 H    0.960
    29   1 H    0.997 --     1 C    0.977
    30   1 H    0.997 --     1 C    0.977
    31   1 H    0.996 --     1 C    0.979
    32   1 H    0.998 --     4 C    0.965
    33   1 H    0.995 --     7 C    0.961
    34   1 H    0.997 --    10 C    0.977
    35   1 H    0.998 --    10 C    0.977
    36   1 H    0.996 --    10 C    0.979
    37   1 H    0.992 --    13 C    0.949
    38   1 H    0.999 --    14 C    0.974
    39   1 H    0.997 --    14 C    0.970
    40   1 H    0.998 --    15 C    0.969
    41   1 H    0.998 --    16 C    0.974
    42   1 H    0.999 --    16 C    0.979
    43   1 H    1.000 --    17 C    0.969
    44   1 H    0.999 --    17 C    0.976
    45   1 H    1.000 --    19 C    0.964
    46   1 H    0.998 --    19 C    0.960
    47   1 H    0.999 --    21 C    0.969
    48   1 H    0.999 --    22 C    0.971
    49   1 H    0.998 --    23 C    0.971
    50   1 H    0.998 --    24 C    0.971
    51   1 H    0.998 --    25 C    0.969
    52   1 H    1.000 --    26 C    0.968
    53   1 H    0.999 --    26 C    0.974
    54   1 H    0.999 --    27 C    0.981
    55   1 H    0.999 --    27 C    0.977
    56   1 H    0.995 --    28 C    0.960
    57   1 H    0.997 --    28 C    0.965
    58   5 B    3.287 --    65 B    1.208   117 H    0.944   109 H    0.940
    59   5 B    3.549 --    60 B    1.200    65 B    0.855    66 B    0.532
                            74 B    0.484    73 B    0.139
    60   5 B    3.578 --    59 B    1.200    67 B    1.122    75 B    0.466
                            74 B    0.452
    61   5 B    3.385 --    62 B    1.384    68 B    1.082    77 B    0.428
                            78 B    0.105
    62   5 B    3.548 --    61 B    1.384    69 B    1.117    78 B    0.621
    63   5 B    3.567 --    64 B    1.308    69 B    0.751    70 B    0.685
                            71 B    0.680
    64   5 B    3.394 --    63 B    1.308   113 H    0.967    71 B    0.824
                            70 B    0.128
    65   5 B    3.401 --    58 B    1.208    66 B    1.072    59 B    0.855
    66   5 B    3.508 --    65 B    1.072    72 B    0.817    73 B    0.707
                            59 B    0.532
    67   5 B    3.451 --    60 B    1.122    68 B    0.999    76 B    0.550
                            75 B    0.443
    68   5 B    3.543 --    61 B    1.082    67 B    0.999    77 B    0.644
                            76 B    0.612
    69   5 B    3.529 --    62 B    1.117    63 B    0.751    78 B    0.638
                            70 B    0.458    79 B    0.320
    70   5 B    3.623 --    71 B    0.900    80 B    0.692    63 B    0.685
                            79 B    0.575    69 B    0.458    64 B    0.128
    71   5 B    3.568 --   115 H    0.937    70 B    0.900    64 B    0.824
                            63 B    0.680
    72   5 B    3.571 --   112 H    0.923    82 B    0.835    66 B    0.817
                            73 B    0.803
    73   5 B    3.646 --    82 B    0.850    74 B    0.811    72 B    0.803
                            66 B    0.707    59 B    0.139
    74   5 B    3.557 --    73 B    0.811    83 B    0.799    75 B    0.647
                            59 B    0.484    60 B    0.452
    75   5 B    3.671 --    83 B    0.726    84 B    0.704    74 B    0.647
                            76 B    0.517    60 B    0.466    67 B    0.443
    76   5 B    3.571 --    77 B    0.948    84 B    0.721    68 B    0.612
                            67 B    0.550    75 B    0.517
    77   5 B    3.498 --    85 B    1.040    76 B    0.948    68 B    0.644
                            61 B    0.428
    78   5 B    3.617 --    86 B    0.684    79 B    0.644    85 B    0.640
                            69 B    0.638    62 B    0.621    61 B    0.105
    79   5 B    3.604 --    86 B    1.025    80 B    0.772    78 B    0.644
                            70 B    0.575    69 B    0.320
    80   5 B    3.672 --    87 B    0.831    81 B    0.804    79 B    0.772
                            70 B    0.692    88 B    0.162
    81   5 B    3.628 --    88 B    1.017   107 H    0.909    80 B    0.804
                            87 B    0.737
    82   5 B    3.577 --    90 B    0.879    73 B    0.850    72 B    0.835
                            89 B    0.724
    83   5 B    3.629 --    91 B    1.107    74 B    0.799    75 B    0.726
                            84 B    0.597
    84   5 B    3.515 --    92 B    1.090    76 B    0.721    75 B    0.704
                            83 B    0.597
    85   5 B    3.595 --    77 B    1.040    93 B    0.894    78 B    0.640
                            86 B    0.464    94 B    0.266
    86   5 B    3.594 --    79 B    1.025    94 B    0.965    78 B    0.684
                            85 B    0.464
    87   5 B    3.604 --    88 B    0.963    95 B    0.899    80 B    0.831
                            81 B    0.737
    88   5 B    3.435 --    81 B    1.017   111 H    0.971    87 B    0.963
                            95 B    0.182    80 B    0.162
    89   5 B    3.549 --   114 H    0.954    96 B    0.864    90 B    0.827
                            82 B    0.724
    90   5 B    3.638 --    82 B    0.879    96 B    0.875    89 B    0.827
                            97 B    0.765
    91   5 B    3.598 --    83 B    1.107    98 B    0.827    97 B    0.690
                            99 B    0.548
    92   5 B    3.604 --    84 B    1.090   100 B    0.861   101 B    0.696
                            99 B    0.586
    93   5 B    3.557 --    85 B    0.894   101 B    0.789   102 B    0.712
                            94 B    0.664
    94   5 B    3.572 --    86 B    0.965   103 B    0.748   102 B    0.682
                            93 B    0.664    85 B    0.266
    95   5 B    3.438 --   104 B    0.990   108 H    0.933    87 B    0.899
                            88 B    0.182   105 B    0.158
    96   5 B    3.542 --   110 H    0.956    90 B    0.875    89 B    0.864
                            97 B    0.660
    97   5 B    3.581 --    98 B    1.261    90 B    0.765    91 B    0.690
                            96 B    0.660
    98   5 B    3.546 --    97 B    1.261    99 B    1.115    91 B    0.827
    99   5 B    3.552 --   100 B    1.116    98 B    1.115    92 B    0.586
                            91 B    0.548
   100   5 B    3.520 --   101 B    1.160    99 B    1.116    92 B    0.861
   101   5 B    3.593 --   100 B    1.160    93 B    0.789   102 B    0.740
                            92 B    0.696
   102   5 B    3.580 --   103 B    1.195   101 B    0.740    93 B    0.712
                            94 B    0.682
   103   5 B    3.514 --   102 B    1.195   104 B    1.061    94 B    0.748
                           105 B    0.121
   104   5 B    3.395 --   105 B    1.064   103 B    1.061    95 B    0.990
   105   5 B    3.280 --   104 B    1.064   106 H    0.953   116 H    0.952
                            95 B    0.158   103 B    0.121
   106   1 H    0.978 --   105 B    0.953
   107   1 H    0.983 --    81 B    0.909
   108   1 H    0.980 --    95 B    0.933
   109   1 H    0.968 --    58 B    0.940
   110   1 H    0.979 --    96 B    0.956
   111   1 H    0.979 --    88 B    0.971
   112   1 H    0.976 --    72 B    0.923
   113   1 H    0.975 --    64 B    0.967
   114   1 H    0.977 --    89 B    0.954
   115   1 H    0.972 --    71 B    0.937
   116   1 H    0.977 --   105 B    0.952
   117   1 H    0.969 --    58 B    0.944
 ---------------------------------------------------------------------------

Topologies differ in total number of bonds
Writing topology from bond orders to xtbtopo.mol

molecular dipole:
                 x           y           z       tot (Debye)
 q only:       -1.967      -0.586      -1.517
   full:       -1.605      -0.087      -0.437       4.233
molecular quadrupole (traceless):
                xx          xy          yy          xz          yz          zz
 q only:      -86.822     -37.639      20.681      -4.053     -32.563      66.141
  q+dip:      -47.040     -41.696      -9.417     -12.939     -40.519      56.457
   full:      -65.258     -41.065     -17.677     -11.034     -36.483      82.935


           -------------------------------------------------
          | TOTAL ENERGY             -145.585592660181 Eh   |
          | GRADIENT NORM               0.056098707045 Eh/α |
          | HOMO-LUMO GAP               0.118511390578 eV   |
           -------------------------------------------------

------------------------------------------------------------------------
 * finished run on 2026/09/01 at 16:34:48.297     
------------------------------------------------------------------------
 total:
 * wall-time:     0 d,  0 h,  0 min,  1.181 sec
 *  cpu-time:     0 d,  0 h,  0 min,  9.391 sec
 * ratio c/w:     7.951 speedup
 SCF:
 * wall-time:     0 d,  0 h,  0 min,  1.121 sec
 *  cpu-time:     0 d,  0 h,  0 min,  9.094 sec
 * ratio c/w:     8.112 speedup

normal termination of xtb
