      -----------------------------------------------------------      
     |                   =====================                   |     
     |                           x T B                           |     
     |                   =====================                   |     
     |                         S. Grimme                         |     
     |          Mulliken Center for Theoretical Chemistry        |     
     |                    University of Bonn                     |     
      -----------------------------------------------------------      

   * xtb version 6.7.1pre (5071a88) compiled by 'Marcel@Raven' on 2024-07-23

   xtb is free software: you can redistribute it and/or modify it under
   the terms of the GNU Lesser General Public License as published by
   the Free Software Foundation, either version 3 of the License, or
   (at your option) any later version.
   
   xtb is distributed in the hope that it will be useful,
   but WITHOUT ANY WARRANTY; without even the implied warranty of
   MERCHANTABILITY or FITNESS FOR A PARTICULAR PURPOSE.  See the
   GNU Lesser General Public License for more details.
   
   Cite this work as:
   * C. Bannwarth, E. Caldeweyher, S. Ehlert, A. Hansen, P. Pracht,
     J. Seibert, S. Spicher, S. Grimme, WIREs Comput. Mol. Sci., 2020, 11,
     e01493. DOI: 10.1002/wcms.1493
   
   for GFN2-xTB:
   * C. Bannwarth, S. Ehlert and S. Grimme., J. Chem. Theory Comput., 2019,
     15, 1652-1671. DOI: 10.1021/acs.jctc.8b01176
   for GFN1-xTB:
   * S. Grimme, C. Bannwarth, P. Shushkov, J. Chem. Theory Comput., 2017,
     13, 1989-2009. DOI: 10.1021/acs.jctc.7b00118
   for GFN0-xTB:
   * P. Pracht, E. Caldeweyher, S. Ehlert, S. Grimme, ChemRxiv, 2019, preprint.
     DOI: 10.26434/chemrxiv.8326202.v1
   for GFN-FF:
   * S. Spicher and S. Grimme, Angew. Chem. Int. Ed., 2020, 59, 15665-15673.
     DOI: 10.1002/anie.202004239
   
   for ALPB and GBSA implicit solvation:
   * S. Ehlert, M. Stahn, S. Spicher, S. Grimme, J. Chem. Theory Comput.,
     2021, 17, 4250-4261. DOI: 10.1021/acs.jctc.1c00471
   
   for ddCOSMO and CPCM-X implicit solvation:
   * M. Stahn, S. Ehlert, S. Grimme, J. Phys. Chem. A,
     2023, XX, XXXX-XXXX. DOI: 10.1021/acs.jpca.3c04382
   
   for DFT-D4:
   * E. Caldeweyher, C. Bannwarth and S. Grimme, J. Chem. Phys., 2017,
     147, 034112. DOI: 10.1063/1.4993215
   * E. Caldeweyher, S. Ehlert, A. Hansen, H. Neugebauer, S. Spicher,
     C. Bannwarth and S. Grimme, J. Chem. Phys., 2019, 150, 154122.
     DOI: 10.1063/1.5090222
   * E. Caldeweyher, J.-M. Mewes, S. Ehlert and S. Grimme, Phys. Chem. Chem. Phys.
     2020, 22, 8499-8512. DOI: 10.1039/D0CP00502A
   
   for sTDA-xTB:
   * S. Grimme and C. Bannwarth, J. Chem. Phys., 2016, 145, 054103.
     DOI: 10.1063/1.4959605
   
   in the mass-spec context:
   * V. Asgeirsson, C. Bauer and S. Grimme, Chem. Sci., 2017, 8, 4879.
     DOI: 10.1039/c7sc00601b
   * J. Koopman and S. Grimme, ACS Omega 2019, 4, 12, 15120-15133.
     DOI: 10.1021/acsomega.9b02011
   
   for metadynamics refer to:
   * S. Grimme, J. Chem. Theory Comput., 2019, 155, 2847-2862
     DOI: 10.1021/acs.jctc.9b00143
   
   for SPH calculations refer to:
   * S. Spicher and S. Grimme, J. Chem. Theory Comput., 2021, 17, 1701-1714
     DOI: 10.1021/acs.jctc.0c01306
   
   for ONIOM refer to:
   * C. Plett, A. Katbashev, S. Ehlert, S. Grimme, M. Bursch,
     Phys. Chem. Chem. Phys., 2023, 25, 17860-17868. DOI: 10.1039/D3CP02178E
   
   for DIPRO refer to:
   * J. Kohn, N. Gildemeister, S. Grimme, D. Fazzi, A. Hansen,
     J. Chem. Phys., 2023, just accepted.
   
   for PTB refer to:
   * S. Grimme, M. Mueller, A. Hansen, J. Chem. Phys., 2023, 158, 124111.
     DOI: 10.1063/5.0137838
   
   with help from (in alphabetical order)
   P. Atkinson, C. Bannwarth, F. Bohle, G. Brandenburg, E. Caldeweyher
   M. Checinski, S. Dohm, S. Ehlert, S. Ehrlich, I. Gerasimov, C. Hölzer
   A. Katbashev, J. Kohn, J. Koopman, C. Lavigne, S. Lehtola, F. März, M. Müller,
   F. Musil, H. Neugebauer, J. Pisarek, C. Plett, P. Pracht, F. Pultar,
   J. Seibert, P. Shushkov, S. Spicher, M. Stahn, M. Steiner, T. Strunk,
   J. Stückrath, T. Rose, and J. Unsleber
   
 * started run on 2026/09/01 at 16:37:57.845     
   ID    Z sym.   atoms
    1    6 C      1, 3-8, 10, 11, 13-17, 19-28
    2    8 O      2, 9, 12
    3    7 N      18
    4    1 H      29-57, 106-117
    5    5 B      58-105

           -------------------------------------------------
          |                Calculation Setup                |
           -------------------------------------------------

          program call               : "c:\Users\Andre\Proyectos doctorado\kras-pancreatic-gC3N4-ai\tools\xtb\xtb-6.7.1\bin\xtb.exe" "c:\Users\Andre\Proyectos doctorado\borophene-alzheimer-tau-ai\calculations\tau\Donepezil\Donepezil_opt_0deg.xyz" --opt vloose --gfn 2 --chrg 0 --uhf 0 --etemp 300 --iterations 500 --cycles 15 --norestart
          coordinate file            : c:\Users\Andre\Proyectos doctorado\borophene-alzheimer-tau-ai\calculations\tau\Donepezil\Donepezil_opt_0deg.xyz
          omp threads                :                    16


molecular fragmentation (1/2 indicates fragments):
111111111111111111111111111111111111111111111111111111111222222222222222
222222222222222222222222222222222222222222222
# atoms in fragment 1/2:    57    60
 fragment masses (1/2) :      379.49      531.02
CMA distance (Bohr)    :  13.534
constraining FC (au)   :  0.0500

           -------------------------------------------------
          |                 G F N 2 - x T B                 |
           -------------------------------------------------

        Reference                      10.1021/acs.jctc.8b01176
      * Hamiltonian:
        H0-scaling (s, p, d)           1.850000    2.230000    2.230000
        zeta-weighting                 0.500000
      * Dispersion:
        s8                             2.700000
        a1                             0.520000
        a2                             5.000000
        s9                             5.000000
      * Repulsion:
        kExp                           1.500000    1.000000
        rExp                           1.000000
      * Coulomb:
        alpha                          2.000000
        third order                    shell-resolved
        anisotropic                    true
        a3                             3.000000
        a5                             4.000000
        cn-shift                       1.200000
        cn-exp                         4.000000
        max-rad                        5.000000


          ...................................................
          :                      SETUP                      :
          :.................................................:
          :  # basis functions                 345          :
          :  # atomic orbitals                 345          :
          :  # shells                          193          :
          :  # electrons                       304          :
          :  max. iterations                   500          :
          :  Hamiltonian                  GFN2-xTB          :
          :  restarted?                      false          :
          :  GBSA solvation                  false          :
          :  PC potential                    false          :
          :  electronic temp.          300.0000000     K    :
          :  accuracy                    1.0000000          :
          :  -> integral cutoff          0.2500000E+02      :
          :  -> integral neglect         0.1000000E-07      :
          :  -> SCF convergence          0.1000000E-05 Eh   :
          :  -> wf. convergence          0.1000000E-03 e    :
          :  Broyden damping             0.4000000          :
          :  net charge                          0          :
          :  unpaired electrons                  0          :
          ...................................................

 iter      E             dE          RMSdq      gap      omega  full diag
   1   -146.9842216 -0.146984E+03  0.136E+01    0.30       0.0  T
   2   -143.1552640  0.382896E+01  0.881E+00    0.20       1.0  T
   3    -41.5109531  0.101644E+03  0.164E+01    0.18       1.0  T
   4    -92.6429042 -0.511320E+02  0.104E+01    0.15       1.0  T
   5   -118.9850401 -0.263421E+02  0.794E+00    0.06       1.0  T
   6   -135.3520860 -0.163670E+02  0.495E+00    0.13       1.0  T
   7    -98.1704543  0.371816E+02  0.777E+00    0.17       1.0  T
   8   -145.8348519 -0.476644E+02  0.305E+00    0.36       1.0  T
   9   -147.4801457 -0.164529E+01  0.209E+00    0.53       1.0  T
  10   -147.5495931 -0.694475E-01  0.173E+00    0.24       1.0  T
  11   -147.6159287 -0.663356E-01  0.154E+00    0.38       1.0  T
  12   -147.6205017 -0.457300E-02  0.132E+00    0.35       1.0  T
  13   -147.5955472  0.249544E-01  0.954E-01    0.38       1.0  T
  14   -147.2753603  0.320187E+00  0.136E+00    0.14       1.0  T
  15   -147.6444084 -0.369048E+00  0.716E-01    0.18       1.0  T
  16   -147.2567198  0.387689E+00  0.138E+00    0.26       1.0  T
  17   -147.3336563 -0.769365E-01  0.125E+00    0.14       1.0  T
  18   -147.5926843 -0.259028E+00  0.760E-01    0.01       1.0  T
  19   -147.7031910 -0.110507E+00  0.354E-01    0.20       1.0  T
  20   -147.7090705 -0.587943E-02  0.302E-01    0.20       1.0  T
  21   -147.7097014 -0.630965E-03  0.271E-01    0.18       1.0  T
  22   -147.7138601 -0.415863E-02  0.143E-01    0.15       1.0  T
  23   -147.7138946 -0.345155E-04  0.121E-01    0.17       1.0  T
  24   -147.7135489  0.345649E-03  0.118E-01    0.18       1.0  T
  25   -147.7136113 -0.623839E-04  0.107E-01    0.18       1.0  T
  26   -147.7137570 -0.145672E-03  0.943E-02    0.18       1.0  T
  27   -147.7143384 -0.581364E-03  0.772E-02    0.16       1.0  T
  28   -147.7152702 -0.931857E-03  0.551E-02    0.15       1.0  T
  29   -147.7155380 -0.267746E-03  0.473E-02    0.14       1.0  T
  30   -147.7155592 -0.212832E-04  0.466E-02    0.14       1.0  T
  31   -147.7157916 -0.232368E-03  0.383E-02    0.13       1.0  T
  32   -147.7161338 -0.342194E-03  0.159E-02    0.12       1.0  T
  33   -147.7161682 -0.344326E-04  0.107E-02    0.12       1.0  T
  34   -147.7161355  0.327406E-04  0.149E-02    0.11       1.0  T
  35   -147.7161441 -0.860611E-05  0.135E-02    0.11       1.0  T
  36   -147.7161696 -0.255311E-04  0.920E-03    0.11       1.0  T
  37   -147.7161810 -0.113251E-04  0.646E-03    0.12       1.4  T
  38   -147.7161866 -0.565434E-05  0.460E-03    0.12       2.0  T
  39   -147.7161912 -0.460323E-05  0.192E-03    0.12       4.8  T
  40   -147.7161921 -0.916482E-06  0.320E-04    0.12      28.9  T
  41   -147.7161921  0.323746E-08  0.258E-04    0.12      35.8  T

   *** convergence criteria satisfied after 41 iterations ***

         #    Occupation            Energy/Eh            Energy/eV
      -------------------------------------------------------------
         1        2.0000           -0.7014598             -19.0877
       ...           ...                  ...                  ...
       146        2.0000           -0.2786406              -7.5822
       147        2.0000           -0.2754314              -7.4949
       148        2.0000           -0.2747726              -7.4769
       149        2.0000           -0.2705105              -7.3610
       150        2.0000           -0.2680383              -7.2937
       151        2.0000           -0.2649025              -7.2084
       152        1.8164           -0.2532984              -6.8926 (HOMO)
       153        0.1835           -0.2489432              -6.7741 (LUMO)
       154        0.0001           -0.2412782              -6.5655
       155                         -0.2267586              -6.1704
       156                         -0.2239982              -6.0953
       157                         -0.2234768              -6.0811
       ...                                ...                  ...
       345                          1.2176700              33.1345
      -------------------------------------------------------------
                  HL-Gap            0.0043552 Eh            0.1185 eV
             Fermi-level           -0.2511210 Eh           -6.8334 eV

 SCC (total)                   0 d,  0 h,  0 min,  1.002 sec
 SCC setup                      ...        0 min,  0.001 sec (  0.100%)
 Dispersion                     ...        0 min,  0.003 sec (  0.299%)
 classical contributions        ...        0 min,  0.000 sec (  0.000%)
 integral evaluation            ...        0 min,  0.009 sec (  0.898%)
 iterations                     ...        0 min,  0.960 sec ( 95.808%)
 molecular gradient             ...        0 min,  0.026 sec (  2.595%)
 printout                       ...        0 min,  0.003 sec (  0.299%)

         :::::::::::::::::::::::::::::::::::::::::::::::::::::
         ::                     SUMMARY                     ::
         :::::::::::::::::::::::::::::::::::::::::::::::::::::
         :: total energy            -145.585592660181 Eh    ::
         :: gradient norm              0.056098707045 Eh/a0 ::
         :: HOMO-LUMO gap              0.118511390578 eV    ::
         ::.................................................::
         :: SCC energy              -147.713876997554 Eh    ::
         :: -> isotropic ES            0.348634853097 Eh    ::
         :: -> anisotropic ES          0.014964102060 Eh    ::
         :: -> anisotropic XC         -0.003614134082 Eh    ::
         :: -> dispersion             -0.129695874275 Eh    ::
         :: repulsion energy           2.128284337373 Eh    ::
         :: add. restraining           0.000000000000 Eh    ::
         :: total charge              -0.000000000004 e     ::
         :::::::::::::::::::::::::::::::::::::::::::::::::::::

      ----------------------------------------------------------- 
     |                   =====================                   |
     |                        A N C O P T                        |
     |                   =====================                   |
     |               Approximate Normal Coordinate               |
     |                Rational Function Optimizer                |
      ----------------------------------------------------------- 
      ----------------------------------------------------------- 
     |                   =====================                   |
     |                        A N C O P T                        |
     |                   =====================                   |
     |               Approximate Normal Coordinate               |
     |                Rational Function Optimizer                |
      ----------------------------------------------------------- 

          ...................................................
          :                      SETUP                      :
          :.................................................:
          :   optimization level            normal          :
          :   max. optcycles                    15          :
          :   ANC micro-cycles                  15          :
          :   degrees of freedom               345          :
          :.................................................:
          :   RF solver                   davidson          :
          :   write xtbopt.log                true          :
          :   linear?                        false          :
          :   energy convergence         0.5000000E-05 Eh   :
          :   grad. convergence          0.1000000E-02 Eh/α :
          :   maxmium RF displ.          1.0000000          :
          :   Hlow (freq-cutoff)         0.1000000E-01      :
          :   Hmax (freq-cutoff)         5.0000000          :
          :   S6 in model hess.         20.0000000          :
          ...................................................

generating ANC from exact Hessian ...
Using Lindh-Hessian (1995)
 Shifting diagonal of input Hessian by   1.033936662306023E-002
 Lowest  eigenvalues of input Hessian
    0.010000    0.010067    0.010083    0.010108    0.010172    0.010234
    0.010241    0.010290    0.000000    0.000000    0.000000    0.000000
    0.000000    0.000000    0.010365    0.010379    0.010435    0.010459
 Highest eigenvalues
    1.882107    1.929298    1.943974    2.004374    2.110273    2.216277
 

........................................................................
.............................. CYCLE    1 ..............................
........................................................................

 iter      E             dE          RMSdq      gap      omega  full diag
   1   -147.7161921 -0.147716E+03  0.104E-04    0.12       0.0  T
   2   -147.7161921  0.122450E-07  0.229E-04    0.12      40.4  T
   3   -147.7161921 -0.459329E-08  0.182E-04    0.12      50.8  T
     SCC iter.                  ...        0 min,  0.072 sec
     gradient                   ...        0 min,  0.026 sec
 * total energy  :  -145.5855927 Eh     change       -0.7342521E-08 Eh
   gradient norm :     0.0560839 Eh/α   predicted     0.0000000E+00 (-100.00%)
   displ. norm   :     0.3117535 α      lambda       -0.9831722E-02
   maximum displ.:     0.1029901 α      in ANC's #130, #109, #65, ...

........................................................................
.............................. CYCLE    2 ..............................
........................................................................

 iter      E             dE          RMSdq      gap      omega  full diag
   1   -147.7404025 -0.147740E+03  0.221E-01    0.06       0.0  T
   2   -147.7291180  0.112845E-01  0.314E-01    0.34       1.0  T
   3   -147.7394806 -0.103626E-01  0.222E-01    0.30       1.0  T
   4   -147.7421826 -0.270199E-02  0.178E-01    0.29       1.0  T
   5   -147.7492090 -0.702636E-02  0.770E-02    0.11       1.0  T
   6   -147.6039229  0.145286E+00  0.713E-01    0.02       1.0  T
   7   -147.7468435 -0.142921E+00  0.111E-01    0.19       1.0  T
   8   -147.7474455 -0.601946E-03  0.103E-01    0.18       1.0  T
   9   -147.7480662 -0.620720E-03  0.884E-02    0.17       1.0  T
  10   -147.7492083 -0.114214E-02  0.601E-02    0.15       1.0  T
  11   -147.7498325 -0.624123E-03  0.362E-02    0.13       1.0  T
  12   -147.7501839 -0.351401E-03  0.449E-03    0.12       2.1  T
  13   -147.7501841 -0.267493E-06  0.407E-03    0.12       2.3  T
  14   -147.7501847 -0.606096E-06  0.367E-03    0.12       2.5  T
  15   -147.7501883 -0.355158E-05  0.547E-04    0.12      16.9  T
  16   -147.7501883 -0.353710E-07  0.381E-04    0.12      24.3  T
  17   -147.7501883 -0.248075E-07  0.234E-04    0.12      39.5  T
     SCC iter.                  ...        0 min,  0.460 sec
     gradient                   ...        0 min,  0.025 sec
 * total energy  :  -145.5921356 Eh     change       -0.6542891E-02 Eh
   gradient norm :     0.0259588 Eh/α   predicted    -0.5393881E-02 ( -17.56%)
   displ. norm   :     0.2807919 α      lambda       -0.2688515E-02
   maximum displ.:     0.1071924 α      in ANC's #45, #65, #44, ...

........................................................................
.............................. CYCLE    3 ..............................
........................................................................

 iter      E             dE          RMSdq      gap      omega  full diag
   1   -147.7639109 -0.147764E+03  0.138E-01    0.08       0.0  T
   2   -147.7549721  0.893886E-02  0.222E-01    0.32       1.0  T
   3   -147.7627934 -0.782134E-02  0.129E-01    0.18       1.0  T
   4   -147.7652134 -0.242002E-02  0.773E-02    0.12       1.0  T
   5   -147.6883550  0.768585E-01  0.518E-01    0.01       1.0  T
   6   -147.7647920 -0.764370E-01  0.778E-02    0.15       1.0  T
   7   -147.7654989 -0.706910E-03  0.581E-02    0.14       1.0  T
   8   -147.7659037 -0.404739E-03  0.426E-02    0.13       1.0  T
   9   -147.7662247 -0.321015E-03  0.258E-02    0.12       1.0  T
  10   -147.7663717 -0.147008E-03  0.107E-02    0.12       1.0  T
  11   -147.7664011 -0.294111E-04  0.251E-03    0.11       3.7  T
  12   -147.7664026 -0.153472E-05  0.103E-03    0.11       9.0  T
  13   -147.7664027 -0.115756E-06  0.786E-04    0.11      11.8  T
  14   -147.7664028 -0.658619E-07  0.472E-04    0.11      19.6  T
     SCC iter.                  ...        0 min,  0.423 sec
     gradient                   ...        0 min,  0.026 sec
 * total energy  :  -145.5937054 Eh     change       -0.1569862E-02 Eh
   gradient norm :     0.0106764 Eh/α   predicted    -0.1451436E-02 (  -7.54%)
   displ. norm   :     0.2695763 α      lambda       -0.1030668E-02
   maximum displ.:     0.0995222 α      in ANC's #45, #44, #19, ...

........................................................................
.............................. CYCLE    4 ..............................
........................................................................

 iter      E             dE          RMSdq      gap      omega  full diag
   1   -147.7697142 -0.147770E+03  0.156E-01    0.10       0.0  T
   2   -147.7624040  0.731021E-02  0.195E-01    0.31       1.0  T
   3   -147.7292116  0.331924E-01  0.381E-01    0.03       1.0  T
   4   -147.7604581 -0.312465E-01  0.191E-01    0.31       1.0  T
   5   -147.7638711 -0.341306E-02  0.164E-01    0.31       1.0  T
   6   -147.7637415  0.129647E-03  0.159E-01    0.27       1.0  T
   7   -147.7649684 -0.122694E-02  0.144E-01    0.24       1.0  T
   8   -147.7661432 -0.117475E-02  0.127E-01    0.20       1.0  T
   9   -147.7668690 -0.725824E-03  0.114E-01    0.19       1.0  T
  10   -147.7697247 -0.285571E-02  0.514E-02    0.14       1.0  T
  11   -147.7704232 -0.698538E-03  0.930E-03    0.11       1.0  T
  12   -147.7703526  0.706803E-04  0.187E-02    0.12       1.0  T
  13   -147.7704370 -0.844278E-04  0.631E-03    0.11       1.5  T
  14   -147.7704401 -0.315485E-05  0.510E-03    0.11       1.8  T
  15   -147.7704469 -0.675956E-05  0.116E-03    0.11       8.0  T
  16   -147.7704464  0.553000E-06  0.183E-03    0.11       5.0  T
  17   -147.7704469 -0.569073E-06  0.112E-03    0.11       8.2  T
  18   -147.7704473 -0.338693E-06  0.278E-04    0.11      33.2  T
  19   -147.7704473 -0.255349E-08  0.262E-04    0.11      35.3  T
     SCC iter.                  ...        0 min,  0.586 sec
     gradient                   ...        0 min,  0.034 sec
 * total energy  :  -145.5939967 Eh     change       -0.2912595E-03 Eh
   gradient norm :     0.0093231 Eh/α   predicted    -0.5527865E-03 (  89.79%)
   displ. norm   :     0.2014959 α      lambda       -0.7901778E-03
   maximum displ.:     0.0611176 α      in ANC's #45, #19, #2, ...

........................................................................
.............................. CYCLE    5 ..............................
........................................................................

 iter      E             dE          RMSdq      gap      omega  full diag
   1   -147.7693298 -0.147769E+03  0.103E-01    0.11       0.0  T
   2   -147.7677403  0.158951E-02  0.973E-02    0.15       1.0  T
   3   -147.5998173  0.167923E+00  0.766E-01    0.03       1.0  T
   4   -147.7661249 -0.166308E+00  0.109E-01    0.16       1.0  T
   5   -147.7674362 -0.131136E-02  0.840E-02    0.16       1.0  T
   6   -147.7677140 -0.277753E-03  0.759E-02    0.15       1.0  T
   7   -147.7683815 -0.667527E-03  0.598E-02    0.14       1.0  T
   8   -147.7686824 -0.300941E-03  0.493E-02    0.13       1.0  T
   9   -147.7689784 -0.295912E-03  0.374E-02    0.13       1.0  T
  10   -147.7691992 -0.220837E-03  0.244E-02    0.12       1.0  T
  11   -147.7693250 -0.125763E-03  0.120E-02    0.12       1.0  T
  12   -147.7693636 -0.386020E-04  0.177E-03    0.11       5.2  T
  13   -147.7693641 -0.557167E-06  0.857E-04    0.11      10.8  T
  14   -147.7693635  0.577457E-06  0.168E-03    0.11       5.5  T
  15   -147.7693641 -0.527715E-06  0.897E-04    0.11      10.3  T
     SCC iter.                  ...        0 min,  0.444 sec
     gradient                   ...        0 min,  0.027 sec
 * total energy  :  -145.5944843 Eh     change       -0.4875847E-03 Eh
   gradient norm :     0.0062637 Eh/α   predicted    -0.4111309E-03 ( -15.68%)
   displ. norm   :     0.2629429 α      lambda       -0.5413651E-03
   maximum displ.:     0.0862206 α      in ANC's #19, #24, #10, ...

........................................................................
.............................. CYCLE    6 ..............................
........................................................................

 iter      E             dE          RMSdq      gap      omega  full diag
   1   -147.7664487 -0.147766E+03  0.123E-01    0.11       0.0  T
   2   -147.7661515  0.297177E-03  0.838E-02    0.10       1.0  T
   3   -147.7560774  0.100741E-01  0.202E-01    0.29       1.0  T
   4   -147.7655231 -0.944571E-02  0.597E-02    0.13       1.0  T
   5   -147.7661700 -0.646896E-03  0.328E-02    0.12       1.0  T
   6   -147.7664200 -0.250063E-03  0.133E-02    0.11       1.0  T
   7   -147.7664264 -0.638116E-05  0.128E-02    0.12       1.0  T
   8   -147.7664273 -0.889929E-06  0.121E-02    0.11       1.0  T
   9   -147.7664687 -0.413871E-04  0.295E-03    0.11       3.1  T
  10   -147.7664694 -0.669320E-06  0.230E-03    0.11       4.0  T
  11   -147.7664705 -0.109279E-05  0.112E-03    0.11       8.2  T
  12   -147.7664706 -0.177156E-06  0.667E-04    0.11      13.9  T
  13   -147.7664707 -0.696787E-07  0.431E-04    0.11      21.5  T
     SCC iter.                  ...        0 min,  0.301 sec
     gradient                   ...        0 min,  0.026 sec
 * total energy  :  -145.5946346 Eh     change       -0.1503608E-03 Eh
   gradient norm :     0.0076067 Eh/α   predicted    -0.2893977E-03 (  92.47%)
   displ. norm   :     0.2386146 α      lambda       -0.5174925E-03
   maximum displ.:     0.0824549 α      in ANC's #19, #10, #24, ...

........................................................................
.............................. CYCLE    7 ..............................
........................................................................

 iter      E             dE          RMSdq      gap      omega  full diag
   1   -147.7656406 -0.147766E+03  0.992E-02    0.11       0.0  T
   2   -147.7647147  0.925899E-03  0.826E-02    0.14       1.0  T
   3   -147.5706620  0.194053E+00  0.821E-01    0.04       1.0  T
   4   -147.7614769 -0.190815E+00  0.124E-01    0.15       1.0  T
   5   -147.7646061 -0.312918E-02  0.626E-02    0.14       1.0  T
   6   -147.7647459 -0.139756E-03  0.567E-02    0.14       1.0  T
   7   -147.7651351 -0.389237E-03  0.439E-02    0.13       1.0  T
   8   -147.7653251 -0.189951E-03  0.348E-02    0.13       1.0  T
   9   -147.7654785 -0.153453E-03  0.262E-02    0.12       1.0  T
  10   -147.7655807 -0.102124E-03  0.176E-02    0.12       1.0  T
  11   -147.7656448 -0.641400E-04  0.919E-03    0.12       1.0  T
  12   -147.7656652 -0.204199E-04  0.289E-03    0.11       3.2  T
  13   -147.7656673 -0.211789E-05  0.911E-04    0.11      10.2  T
  14   -147.7656673  0.440161E-08  0.855E-04    0.11      10.8  T
  15   -147.7656673 -0.424393E-09  0.853E-04    0.11      10.8  T
     SCC iter.                  ...        0 min,  0.319 sec
     gradient                   ...        0 min,  0.026 sec
 * total energy  :  -145.5949864 Eh     change       -0.3517700E-03 Eh
   gradient norm :     0.0060929 Eh/α   predicted    -0.2734786E-03 ( -22.26%)
   displ. norm   :     0.3355715 α      lambda       -0.4257288E-03
   maximum displ.:     0.1275671 α      in ANC's #10, #14, #24, ...

........................................................................
.............................. CYCLE    8 ..............................
........................................................................

 iter      E             dE          RMSdq      gap      omega  full diag
   1   -147.7658469 -0.147766E+03  0.113E-01    0.10       0.0  T
   2   -147.7618472  0.399974E-02  0.137E-01    0.19       1.0  T
   3   -147.6799854  0.818618E-01  0.545E-01    0.00       1.0  T
   4   -147.7571146 -0.771292E-01  0.179E-01    0.20       1.0  T
   5   -147.7618100 -0.469539E-02  0.125E-01    0.20       1.0  T
   6   -147.7620979 -0.287919E-03  0.118E-01    0.19       1.0  T
   7   -147.7630888 -0.990925E-03  0.103E-01    0.17       1.0  T
   8   -147.7636483 -0.559504E-03  0.915E-02    0.16       1.0  T
   9   -147.7644409 -0.792598E-03  0.747E-02    0.15       1.0  T
  10   -147.7650819 -0.640996E-03  0.569E-02    0.14       1.0  T
  11   -147.7657065 -0.624594E-03  0.317E-02    0.13       1.0  T
  12   -147.7659868 -0.280353E-03  0.268E-03    0.11       3.5  T
  13   -147.7659817  0.510395E-05  0.509E-03    0.11       1.8  T
  14   -147.7659866 -0.484417E-05  0.270E-03    0.11       3.4  T
  15   -147.7659861  0.492920E-06  0.306E-03    0.11       3.0  T
  16   -147.7659885 -0.242748E-05  0.708E-04    0.11      13.1  T
  17   -147.7659884  0.907403E-07  0.904E-04    0.11      10.2  T
  18   -147.7659886 -0.162667E-06  0.491E-04    0.11      18.8  T
     SCC iter.                  ...        0 min,  0.398 sec
     gradient                   ...        0 min,  0.027 sec
 * total energy  :  -145.5952928 Eh     change       -0.3064378E-03 Eh
   gradient norm :     0.0055649 Eh/α   predicted    -0.2368365E-03 ( -22.71%)
   displ. norm   :     0.5277455 α      lambda       -0.5905463E-03
   maximum displ.:     0.2087596 α      in ANC's #10, #14, #24, ...

........................................................................
.............................. CYCLE    9 ..............................
........................................................................

 iter      E             dE          RMSdq      gap      omega  full diag
   1   -147.7654025 -0.147765E+03  0.175E-01    0.10       0.0  T
   2   -147.7577334  0.766914E-02  0.198E-01    0.29       1.0  T
   3   -147.6319453  0.125788E+00  0.677E-01    0.02       1.0  T
   4   -147.7531851 -0.121240E+00  0.228E-01    0.27       1.0  T
   5   -147.7581074 -0.492221E-02  0.175E-01    0.34       1.0  T
   6   -147.7588365 -0.729154E-03  0.169E-01    0.32       1.0  T
   7   -147.7591472 -0.310640E-03  0.162E-01    0.29       1.0  T
   8   -147.7600844 -0.937222E-03  0.151E-01    0.25       1.0  T
   9   -147.7603388 -0.254466E-03  0.147E-01    0.24       1.0  T
  10   -147.7614425 -0.110364E-02  0.131E-01    0.21       1.0  T
  11   -147.7627572 -0.131473E-02  0.110E-01    0.18       1.0  T
  12   -147.7652173 -0.246005E-02  0.554E-02    0.14       1.0  T
  13   -147.7654306 -0.213341E-03  0.483E-02    0.13       1.0  T
  14   -147.7657991 -0.368537E-03  0.316E-02    0.12       1.0  T
  15   -147.7656849  0.114264E-03  0.376E-02    0.13       1.0  T
  16   -147.7660778 -0.392904E-03  0.115E-03    0.11       8.0  T
  17   -147.7660769  0.844466E-06  0.205E-03    0.11       4.5  T
  18   -147.7660755  0.145991E-05  0.301E-03    0.11       3.1  T
  19   -147.7660780 -0.250189E-05  0.453E-04    0.11      20.4  T
  20   -147.7660779  0.583888E-07  0.646E-04    0.11      14.3  T
  21   -147.7660780 -0.499035E-07  0.486E-04    0.11      19.0  T
     SCC iter.                  ...        0 min,  0.437 sec
     gradient                   ...        0 min,  0.026 sec
 * total energy  :  -145.5956462 Eh     change       -0.3534046E-03 Eh
   gradient norm :     0.0069831 Eh/α   predicted    -0.3775263E-03 (   6.83%)
   displ. norm   :     0.4757314 α      lambda       -0.5357136E-03
   maximum displ.:     0.1991528 α      in ANC's #10, #14, #24, ...

........................................................................
.............................. CYCLE   10 ..............................
........................................................................

 iter      E             dE          RMSdq      gap      omega  full diag
   1   -147.7661193 -0.147766E+03  0.143E-01    0.10       0.0  T
   2   -147.7594375  0.668187E-02  0.177E-01    0.25       1.0  T
   3   -147.6738283  0.856092E-01  0.563E-01    0.00       1.0  T
   4   -147.7548308 -0.810025E-01  0.211E-01    0.26       1.0  T
   5   -147.7597085 -0.487773E-02  0.158E-01    0.27       1.0  T
   6   -147.7603706 -0.662105E-03  0.152E-01    0.25       1.0  T
   7   -147.7609918 -0.621203E-03  0.142E-01    0.23       1.0  T
   8   -147.7621146 -0.112278E-02  0.127E-01    0.20       1.0  T
   9   -147.7625761 -0.461505E-03  0.119E-01    0.19       1.0  T
  10   -147.7639603 -0.138423E-02  0.957E-02    0.16       1.0  T
  11   -147.7655452 -0.158487E-02  0.584E-02    0.14       1.0  T
  12   -147.7664538 -0.908604E-03  0.146E-02    0.12       1.0  T
  13   -147.7664142  0.395710E-04  0.187E-02    0.12       1.0  T
  14   -147.7664786 -0.643793E-04  0.109E-02    0.11       1.0  T
  15   -147.7664942 -0.155392E-04  0.804E-03    0.11       1.2  T
  16   -147.7665022 -0.806797E-05  0.591E-03    0.11       1.6  T
  17   -147.7665121 -0.985359E-05  0.618E-04    0.11      15.0  T
  18   -147.7665110  0.104294E-05  0.202E-03    0.11       4.6  T
  19   -147.7665122 -0.113307E-05  0.288E-04    0.11      32.1  T
  20   -147.7665122  0.854129E-08  0.340E-04    0.11      27.2  T
  21   -147.7665122 -0.179327E-07  0.225E-04    0.11      41.0  T
     SCC iter.                  ...        0 min,  0.445 sec
     gradient                   ...        0 min,  0.026 sec
 * total energy  :  -145.5960122 Eh     change       -0.3659662E-03 Eh
   gradient norm :     0.0072862 Eh/α   predicted    -0.3284815E-03 ( -10.24%)
   displ. norm   :     0.4751620 α      lambda       -0.5089202E-03
   maximum displ.:     0.2138313 α      in ANC's #10, #14, #15, ...

........................................................................
.............................. CYCLE   11 ..............................
........................................................................

 iter      E             dE          RMSdq      gap      omega  full diag
   1   -147.7683394 -0.147768E+03  0.128E-01    0.10       0.0  T
   2   -147.7644952  0.384415E-02  0.137E-01    0.18       1.0  T
   3   -147.5848392  0.179656E+00  0.791E-01    0.04       1.0  T
   4   -147.7598540 -0.175015E+00  0.182E-01    0.18       1.0  T
   5   -147.7639615 -0.410754E-02  0.126E-01    0.20       1.0  T
   6   -147.7647292 -0.767655E-03  0.116E-01    0.18       1.0  T
   7   -147.7655694 -0.840186E-03  0.102E-01    0.17       1.0  T
   8   -147.7663082 -0.738806E-03  0.876E-02    0.16       1.0  T
   9   -147.7668948 -0.586616E-03  0.745E-02    0.15       1.0  T
  10   -147.7675843 -0.689507E-03  0.561E-02    0.14       1.0  T
  11   -147.7680105 -0.426181E-03  0.401E-02    0.13       1.0  T
  12   -147.7684311 -0.420562E-03  0.114E-02    0.11       1.0  T
  13   -147.7684654 -0.343054E-04  0.216E-03    0.11       4.3  T
  14   -147.7684556  0.976412E-05  0.629E-03    0.11       1.5  T
  15   -147.7684643 -0.873152E-05  0.278E-03    0.11       3.3  T
  16   -147.7684665 -0.217781E-05  0.302E-04    0.11      30.6  T
  17   -147.7684662  0.345651E-06  0.114E-03    0.11       8.1  T
  18   -147.7684664 -0.268518E-06  0.595E-04    0.11      15.5  T
  19   -147.7684665 -0.876278E-07  0.226E-04    0.11      40.9  T
     SCC iter.                  ...        0 min,  0.443 sec
     gradient                   ...        0 min,  0.025 sec
 * total energy  :  -145.5963531 Eh     change       -0.3409388E-03 Eh
   gradient norm :     0.0057890 Eh/α   predicted    -0.3119129E-03 (  -8.51%)
   displ. norm   :     0.4813755 α      lambda       -0.3957007E-03
   maximum displ.:     0.2296010 α      in ANC's #10, #14, #15, ...

........................................................................
.............................. CYCLE   12 ..............................
........................................................................

 iter      E             dE          RMSdq      gap      omega  full diag
   1   -147.7705021 -0.147771E+03  0.112E-01    0.10       0.0  T
   2   -147.7664639  0.403823E-02  0.134E-01    0.18       1.0  T
   3   -147.6670084  0.994554E-01  0.593E-01    0.01       1.0  T
   4   -147.7639320 -0.969236E-01  0.161E-01    0.18       1.0  T
   5   -147.7663407 -0.240865E-02  0.122E-01    0.19       1.0  T
   6   -147.7672380 -0.897320E-03  0.110E-01    0.18       1.0  T
   7   -147.7679692 -0.731245E-03  0.966E-02    0.16       1.0  T
   8   -147.7687822 -0.812956E-03  0.810E-02    0.15       1.0  T
   9   -147.7692487 -0.466496E-03  0.697E-02    0.14       1.0  T
  10   -147.7699090 -0.660357E-03  0.505E-02    0.13       1.0  T
  11   -147.7703729 -0.463852E-03  0.300E-02    0.12       1.0  T
  12   -147.7706139 -0.241029E-03  0.760E-03    0.11       1.2  T
  13   -147.7706294 -0.154387E-04  0.103E-03    0.11       9.0  T
  14   -147.7706250  0.434013E-05  0.405E-03    0.11       2.3  T
  15   -147.7706286 -0.362199E-05  0.181E-03    0.11       5.1  T
  16   -147.7706295 -0.885501E-06  0.457E-04    0.11      20.2  T
  17   -147.7706294  0.911978E-07  0.714E-04    0.11      12.9  T
     SCC iter.                  ...        0 min,  0.375 sec
     gradient                   ...        0 min,  0.027 sec
 * total energy  :  -145.5966713 Eh     change       -0.3181565E-03 Eh
   gradient norm :     0.0050997 Eh/α   predicted    -0.2436996E-03 ( -23.40%)
   displ. norm   :     0.5583606 α      lambda       -0.4781089E-03
   maximum displ.:     0.2782304 α      in ANC's #10, #14, #15, ...

........................................................................
.............................. CYCLE   13 ..............................
........................................................................

 iter      E             dE          RMSdq      gap      omega  full diag
   1   -147.7729882 -0.147773E+03  0.118E-01    0.10       0.0  T
   2   -147.7669723  0.601584E-02  0.160E-01    0.22       1.0  T
   3   -147.7129678  0.540046E-01  0.452E-01    0.02       1.0  T
   4   -147.7653305 -0.523627E-01  0.178E-01    0.21       1.0  T
   5   -147.7672208 -0.189024E-02  0.144E-01    0.22       1.0  T
   6   -147.7685948 -0.137406E-02  0.130E-01    0.20       1.0  T
   7   -147.7693300 -0.735147E-03  0.118E-01    0.18       1.0  T
   8   -147.7704046 -0.107460E-02  0.100E-01    0.17       1.0  T
   9   -147.7713111 -0.906541E-03  0.825E-02    0.15       1.0  T
  10   -147.7722399 -0.928785E-03  0.591E-02    0.14       1.0  T
  11   -147.7730189 -0.779043E-03  0.272E-02    0.12       1.0  T
  12   -147.7732221 -0.203206E-03  0.586E-03    0.11       1.6  T
  13   -147.7732296 -0.747798E-05  0.245E-03    0.11       3.8  T
  14   -147.7732156  0.140460E-04  0.743E-03    0.11       1.2  T
  15   -147.7732310 -0.154014E-04  0.784E-04    0.11      11.8  T
  16   -147.7732310 -0.648340E-07  0.619E-04    0.11      14.9  T
  17   -147.7732309  0.111109E-06  0.860E-04    0.11      10.7  T
     SCC iter.                  ...        0 min,  0.377 sec
     gradient                   ...        0 min,  0.026 sec
 * total energy  :  -145.5970678 Eh     change       -0.3964633E-03 Eh
   gradient norm :     0.0064616 Eh/α   predicted    -0.3135852E-03 ( -20.90%)
   displ. norm   :     0.6304572 α      lambda       -0.5592013E-03
   maximum displ.:     0.3245229 α      in ANC's #10, #14, #15, ...

........................................................................
.............................. CYCLE   14 ..............................
........................................................................

 iter      E             dE          RMSdq      gap      omega  full diag
   1   -147.7731223 -0.147773E+03  0.121E-01    0.09       0.0  T
   2   -147.7647591  0.836324E-02  0.189E-01    0.29       1.0  T
   3   -147.7637371  0.102197E-02  0.188E-01    0.06       1.0  T
   4   -147.7650481 -0.131100E-02  0.174E-01    0.21       1.0  T
   5   -147.7687654 -0.371731E-02  0.130E-01    0.19       1.0  T
   6   -147.7704542 -0.168884E-02  0.105E-01    0.17       1.0  T
   7   -147.7725301 -0.207583E-02  0.638E-02    0.14       1.0  T
   8   -147.7736357 -0.110566E-02  0.199E-02    0.12       1.0  T
   9   -147.7734414  0.194315E-03  0.332E-02    0.12       1.0  T
  10   -147.7736356 -0.194167E-03  0.200E-02    0.12       1.0  T
  11   -147.7737382 -0.102567E-03  0.714E-03    0.11       1.3  T
  12   -147.7737519 -0.137364E-04  0.109E-03    0.11       8.5  T
  13   -147.7737519  0.371289E-07  0.109E-03    0.11       8.5  T
  14   -147.7737520 -0.150802E-06  0.795E-04    0.11      11.6  T
  15   -147.7737522 -0.168724E-06  0.219E-04    0.11      42.1  T
     SCC iter.                  ...        0 min,  0.328 sec
     gradient                   ...        0 min,  0.028 sec
 * total energy  :  -145.5975528 Eh     change       -0.4850775E-03 Eh
   gradient norm :     0.0066622 Eh/α   predicted    -0.3907372E-03 ( -19.45%)
   displ. norm   :     0.6801365 α      lambda       -0.5943037E-03
   maximum displ.:     0.3611374 α      in ANC's #10, #14, #15, ...

........................................................................
.............................. CYCLE   15 ..............................
........................................................................

 iter      E             dE          RMSdq      gap      omega  full diag
   1   -147.7717751 -0.147772E+03  0.121E-01    0.10       0.0  T
   2   -147.7643205  0.745458E-02  0.178E-01    0.25       1.0  T
   3   -147.7456287  0.186918E-01  0.301E-01    0.04       1.0  T
   4   -147.7643816 -0.187528E-01  0.175E-01    0.23       1.0  T
   5   -147.7657510 -0.136942E-02  0.149E-01    0.22       1.0  T
   6   -147.7675966 -0.184561E-02  0.128E-01    0.19       1.0  T
   7   -147.7681476 -0.550981E-03  0.119E-01    0.18       1.0  T
   8   -147.7697361 -0.158857E-02  0.934E-02    0.16       1.0  T
   9   -147.7710860 -0.134983E-02  0.626E-02    0.14       1.0  T
  10   -147.7718272 -0.741230E-03  0.356E-02    0.12       1.0  T
  11   -147.7721763 -0.349071E-03  0.696E-03    0.11       1.3  T
  12   -147.7721887 -0.124046E-04  0.207E-03    0.11       4.5  T
  13   -147.7721893 -0.645448E-06  0.105E-03    0.11       8.8  T
  14   -147.7721849  0.441452E-05  0.408E-03    0.11       2.3  T
  15   -147.7721895 -0.456716E-05  0.608E-04    0.11      15.2  T
  16   -147.7721895 -0.666500E-07  0.368E-04    0.11      25.1  T
  17   -147.7721895  0.597898E-07  0.581E-04    0.11      15.9  T
     SCC iter.                  ...        0 min,  0.359 sec
     gradient                   ...        0 min,  0.025 sec
 * total energy  :  -145.5980808 Eh     change       -0.5279380E-03 Eh
   gradient norm :     0.0063003 Eh/α   predicted    -0.4346126E-03 ( -17.68%)
   displ. norm   :     0.6957545 α      lambda       -0.6253585E-03
   maximum displ.:     0.3843096 α      in ANC's #10, #14, #15, ...

   *** FAILED TO CONVERGE GEOMETRY OPTIMIZATION IN 15 ITERATIONS ***


 ANCopt (total)                0 d,  0 h,  0 min,  6.447 sec
 optimizer setup                ...        0 min,  0.000 sec (  0.000%)
 model hessian                  ...        0 min,  0.048 sec (  0.745%)
 ANC generation                 ...        0 min,  0.021 sec (  0.326%)
 coordinate transformation      ...        0 min,  0.003 sec (  0.047%)
 single point calculation       ...        0 min,  6.340 sec ( 98.340%)
 optimization log               ...        0 min,  0.026 sec (  0.403%)
 hessian update                 ...        0 min,  0.002 sec (  0.031%)
 rational function              ...        0 min,  0.003 sec (  0.047%)

================
 final structure:
================
117
 xtb: 6.7.1pre (5071a88)
C            7.05590198014744       -2.11896006435161        8.50939881649544
O            7.10910380387182       -0.92842848330100        7.76534543463694
C            5.94422291315794       -0.43566605078883        7.25405386362856
C            4.69100504716091       -0.99895907341806        7.47599399549724
C            3.57712407809859       -0.42358156910469        6.90252625026577
C            3.69348814918169        0.70749985473339        6.09387413808093
C            4.94651224695146        1.28948182549259        5.86893724065478
C            6.06681210411063        0.73108546016975        6.45154244391089
O            7.33507834191389        1.21283608748811        6.31749206985249
C            7.51178631221483        2.42094141006979        5.61615192038467
C            2.39808413009199        1.10330168709102        5.58903733925149
O            2.11173666594476        2.02461197155621        4.83910885205912
C            1.35497379309027        0.12113256897623        6.16032140172517
C            0.26323949345069        0.90685347495354        6.89566548129051
C           -1.09131534430461        0.19895119981821        6.98786252840132
C           -1.04802279571102       -1.09973533993105        7.78828327580736
C           -2.39790904997669       -1.82010760419852        7.69391936025988
N           -3.49351336874616       -0.88132372419002        7.50877499834146
C           -4.77250961565645       -1.50869489329999        7.79343700723540
C           -5.91936762439099       -0.60197214900846        7.44249872777916
C           -6.92999647145140       -0.34359719284836        8.35778695517469
C           -7.96833054745985        0.51330030916365        8.03628796821134
C           -8.00243963788302        1.12305446369632        6.79555335766157
C           -7.00188538672303        0.86480639286977        5.87226559420848
C           -5.96832528338723        0.00517113552669        6.19287624343270
C           -3.26954813581906        0.32884792929000        8.27686561917374
C           -2.12664187390925        1.12921444180437        7.64084723292101
C            2.15074562585953       -0.86238324312949        7.03374322589985
H            6.64288652105040       -2.94520743104153        7.91971632757430
H            6.46830439989145       -2.00010951593539        9.42659056511952
H            8.08714041422379       -2.35076086920529        8.77585700717711
H            4.58289665285236       -1.87661894244904        8.09404886706955
H            5.00341335643609        2.16618059855141        5.24552407623851
H            7.24072743472250        2.31995689949610        4.56053694411071
H            6.93141695265413        3.23276198205772        6.06686731394366
H            8.57364851790079        2.65235161598594        5.69420218238863
H            0.89567528936237       -0.39353266519261        5.31016839076698
H            0.61776639735754        1.15605219656267        7.89931445568554
H            0.11641022234777        1.84632216195989        6.35618645241846
H           -1.43031709289635       -0.04327417538244        5.97647848769040
H           -0.27104237978452       -1.76214504440261        7.41541708585216
H           -0.81857765905117       -0.86343782501931        8.82900098091688
H           -2.54448312475728       -2.43663157900858        8.60399982686974
H           -2.40572907482297       -2.50038353124150        6.83082328062342
H           -4.84911182132627       -1.81317279936841        8.85525360135101
H           -4.83158327533537       -2.41933985073526        7.18439616469057
H           -6.90147858986772       -0.81323545472056        9.33058003959683
H           -8.74499316666353        0.71045237478625        8.76106726573631
H           -8.80507667075335        1.80067802437087        6.55001547911308
H           -7.02894333751962        1.33821600037891        4.90198025537318
H           -5.17645270677051       -0.19395174752240        5.48758369480986
H           -3.03821594663857        0.09396854836745        9.33071777377064
H           -4.18582003571252        0.92345338911888        8.26891873521359
H           -2.52594532155112        1.80940622332119        6.88773336925650
H           -1.64590805874989        1.73448205967445        8.41200134072225
H            1.84065478826011       -0.81090335648450        8.07908873560833
H            2.03359301891358       -1.89715131417303        6.70363184084422
B           -6.88353209622881       -4.65503791445417        0.64442947009558
B           -5.11632179276039       -2.21407454809349        0.47066604182640
B           -3.59871427321344       -2.19294903159641        0.29033411108139
B            0.99627700089954       -2.86387055638005        0.28264716949930
B            2.47914715000246       -3.00306421798205       -0.03017413821394
B            5.27063041840966       -3.76506646618308       -0.61559397979469
B            6.21790099943341       -4.69915493829519       -1.33138585480840
B           -6.42154504508769       -3.15642481220528        0.51073578863671
B           -6.76533597610206       -1.64117012422785        0.42828666447325
B           -2.06735264219462       -2.32723307609325        0.40759090356346
B           -0.49713112260576       -2.46827767803905        0.38891421209764
B            4.01671817157579       -2.85599600120158       -0.08361423092398
B            5.74029565534285       -2.26174872627280       -0.11445031349949
B            6.79672386925811       -3.14792880845348       -1.00377050894666
B           -7.64280765005006       -0.25457602582721        0.45429698207473
B           -6.03679848958264       -0.15865352537296        0.20366887796553
B           -4.43297892853439       -0.55160849085554        0.23485506490213
B           -2.73425841960300       -0.67383464153073        0.26994277835492
B           -1.06422424943437       -0.90275466161834        0.65547312740954
B            0.49575678459691       -1.16799473268413        0.84876636894808
B            3.10263046683100       -1.44547033780984        0.09500379527361
B            4.67555903289266       -1.13902668143521        0.55891074218134
B            6.24397594816200       -0.77769720242196        0.46817462843435
B            7.67762612641648       -0.35655259854662        1.19539525428827
B           -6.89147983664831        1.20197694494458        0.20901277778449
B           -3.41724166692030        0.76428440890085        0.03019916392221
B           -1.66351978014235        0.53777469211211        0.10317562811840
B            1.83921836646382       -0.36456574396699        0.48155530255518
B            3.56255510541271       -0.13926537496437        0.98793177754836
B            6.95987326275908        0.62116741788811        0.09246073422881
B            8.32581545840978        1.04289838920477        0.75344998104453
B           -7.52696666095511        2.80290669437518        0.46175647034834
B           -6.17245543638474        2.49868017275223       -0.31761225059560
B           -3.59666409453132        2.30362937145894       -0.30813897450882
B           -0.89808301422869        1.83762420601774       -0.38220032490446
B            1.61947479572197        1.07027928580427       -0.22356960747704
B            2.97069330015390        1.31677775948083        0.77430433689223
B            6.32955191323307        1.88011050611015       -0.68878597450806
B           -6.50597934275113        4.03510843492845       -0.14281612441959
B           -4.89186561120901        3.44648854699646       -0.49224375619101
B           -3.43342524286229        3.85700733912730       -0.66518326891629
B           -2.02121923895479        3.24063495651129       -0.66312078941481
B           -0.48657539373964        3.32680532417964       -0.76504310563371
B            0.72403188087347        2.39250737781255       -0.56520291457708
B            2.32941907256347        2.53281239649892       -0.20659683668311
B            3.80341003373404        2.64071775855083        0.20254853987134
B            5.35869252686565        2.86784778252496        0.13885161396526
B            6.07856843003313        4.03576013211271        0.95907699994743
H            6.23412150479477        5.12662121652962        0.53622987942417
H            8.25402614516821       -1.12358548864083        1.86680730375981
H            6.53975504529049        2.01967517410427       -1.84587170250799
H           -6.96744944975911       -5.39134338400182       -0.28227982282743
H           -6.76685096756231        5.17365072228369       -0.23777833659306
H            9.21171635818001        1.79445138975969        0.85176124918659
H           -8.81465912802625       -0.32018143152745        0.50331178575615
H            6.62762585729451       -5.66993899366563       -1.83482623545012
H           -8.54598893565403        3.00183600994267        1.00425706878555
H            7.87831715735644       -2.80098292556249       -1.31221231733880
H            6.51513905622282        3.86862021062144        2.04482073664139
H           -7.23630966220671       -5.15167527947737        1.66178715525470
 
 Bond Distances (Angstroems)
 ---------------------------
C1-O2=1.4049         C1-H29=1.0959        C1-H30=1.0957        C1-H31=1.0900        O2-C1=1.4049         O2-C3=1.3643         
C3-O2=1.3643         C3-C4=1.3918         C3-C8=1.4214         C4-C3=1.3918         C4-C5=1.3786         C4-H32=1.0789        
C5-C4=1.3786         C5-C6=1.3953         C5-C28=1.4981        C6-C5=1.3953         C6-C7=1.3998         C6-C11=1.4455        
C7-C6=1.3998         C7-C8=1.3807         C7-H33=1.0773        C8-C3=1.4214         C8-C7=1.3807         C8-O9=1.3633         
O9-C8=1.3633         O9-C10=1.4081        C10-O9=1.4081        C10-H34=1.0945       C10-H35=1.0950       C10-H36=1.0896       
C11-C6=1.4455        C11-O12=1.2220       C11-C13=1.5424       O12-C11=1.2220       C13-C11=1.5424       C13-C14=1.5330       
C13-C28=1.5373       C13-H37=1.0948       C14-C13=1.5330       C14-C15=1.5312       C14-H38=1.0932       C14-H39=1.0933       
C15-C14=1.5312       C15-C16=1.5262       C15-C27=1.5374       C15-H40=1.0938       C16-C15=1.5262       C16-C17=1.5330       
C16-H41=1.0870       C16-H42=1.0916       C17-C16=1.5330       C17-N18=1.4546       C17-H43=1.1090       C17-H44=1.0990       
N18-C17=1.4546       N18-C19=1.4527       N18-C26=1.4507       C19-N18=1.4527       C19-C20=1.5035       C19-H45=1.1073       
C19-H46=1.0971       C20-C19=1.5035       C20-C21=1.3878       C20-C25=1.3902       C21-C20=1.3878       C21-C22=1.3841       
C21-H47=1.0806       C22-C21=1.3841       C22-C23=1.3829       C22-H48=1.0805       C23-C22=1.3829       C23-C24=1.3857       
C23-H49=1.0787       C24-C23=1.3857       C24-C25=1.3820       C24-H50=1.0800       C25-C20=1.3902       C25-C24=1.3820       
C25-H51=1.0790       C26-N18=1.4507       C26-C27=1.5334       C26-H52=1.1042       C26-H53=1.0923       C27-C15=1.5374       
C27-C26=1.5334       C27-H54=1.0905       C27-H55=1.0918       C28-C5=1.4981        C28-C13=1.5373       C28-H56=1.0916       
C28-H57=1.0924       H29-C1=1.0959        H30-C1=1.0957        H31-C1=1.0900        H32-C4=1.0789        H33-C7=1.0773        
H34-C10=1.0945       H35-C10=1.0950       H36-C10=1.0896       H37-C13=1.0948       H38-C14=1.0932       H39-C14=1.0933       
H40-C15=1.0938       H41-C16=1.0870       H42-C16=1.0916       H43-C17=1.1090       H44-C17=1.0990       H45-C19=1.1073       
H46-C19=1.0971       H47-C21=1.0806       H48-C22=1.0805       H49-C23=1.0787       H50-C24=1.0800       H51-C25=1.0790       
H52-C26=1.1042       H53-C26=1.0923       H54-C27=1.0905       H55-C27=1.0918       H56-C28=1.0916       H57-C28=1.0924       
B58-B65=1.5739       B58-H109=1.1866      B58-H117=1.1858      B59-B60=1.5284       B59-B65=1.6104       B59-B66=1.7462       
B59-B74=1.8128       B60-B59=1.5284       B60-B67=1.5417       B60-B74=1.8420       B60-B75=1.7480       B61-B62=1.5219       
B61-B68=1.5486       B61-B77=1.8566       B62-B61=1.5219       B62-B69=1.5455       B62-B78=1.6824       B63-B64=1.5107       
B63-B69=1.6376       B63-B70=1.6528       B63-B71=1.6913       B64-B63=1.5107       B64-B71=1.6878       B64-H113=1.1678      
B65-B58=1.5739       B65-B59=1.6104       B65-B66=1.5560       B66-B59=1.7462       B66-B65=1.5560       B66-B72=1.6411       
B66-B73=1.6671       B67-B60=1.5417       B67-B68=1.5767       B67-B75=1.7881       B67-B76=1.7598       B68-B61=1.5486       
B68-B67=1.5767       B68-B76=1.6863       B68-B77=1.6994       B69-B62=1.5455       B69-B63=1.6376       B69-B70=1.8234       
B69-B78=1.6903       B69-B79=1.9480       B70-B63=1.6528       B70-B69=1.8234       B70-B71=1.6408       B70-B79=1.6875       
B70-B80=1.6720       B71-B63=1.6913       B71-B64=1.6878       B71-B70=1.6408       B71-H115=1.1770      B72-B66=1.6411       
B72-B73=1.6283       B72-B82=1.6572       B72-H112=1.1747      B73-B66=1.6671       B73-B72=1.6283       B73-B74=1.6516       
B73-B82=1.6068       B74-B59=1.8128       B74-B60=1.8420       B74-B73=1.6516       B74-B75=1.7035       B74-B83=1.6749       
B75-B60=1.7480       B75-B67=1.7881       B75-B74=1.7035       B75-B76=1.7292       B75-B83=1.6100       B75-B84=1.6255       
B76-B67=1.7598       B76-B68=1.6863       B76-B75=1.7292       B76-B77=1.5941       B76-B84=1.6551       B77-B61=1.8566       
B77-B68=1.6994       B77-B76=1.5941       B77-B85=1.6079       B78-B62=1.6824       B78-B69=1.6903       B78-B79=1.6683       
B78-B85=1.7070       B78-B86=1.6477       B79-B69=1.9480       B79-B70=1.6875       B79-B78=1.6683       B79-B80=1.6121       
B79-B86=1.5564       B80-B70=1.6720       B80-B79=1.6121       B80-B81=1.6618       B80-B87=1.6157       B81-B80=1.6618       
B81-B87=1.6394       B81-B88=1.6043       B81-H107=1.1711      B82-B72=1.6572       B82-B73=1.6068       B82-B89=1.7409       
B82-B90=1.5735       B83-B74=1.6749       B83-B75=1.6100       B83-B84=1.7698       B83-B91=1.5863       B84-B75=1.6255       
B84-B76=1.6551       B84-B83=1.7698       B84-B92=1.5846       B85-B77=1.6079       B85-B78=1.7070       B85-B86=1.8103       
B85-B93=1.6138       B85-B94=2.0476       B86-B78=1.6477       B86-B79=1.5564       B86-B85=1.8103       B86-B94=1.5862       
B87-B80=1.6157       B87-B81=1.6394       B87-B88=1.5750       B87-B95=1.6102       B88-B81=1.6043       B88-B87=1.5750       
B88-H111=1.1659      B89-B82=1.7409       B89-B90=1.5921       B89-B96=1.7106       B89-H114=1.1714      B90-B82=1.5735       
B90-B89=1.5921       B90-B96=1.5819       B90-B97=1.6027       B91-B83=1.5863       B91-B97=1.7371       B91-B98=1.6022       
B91-B99=1.8671       B92-B84=1.5846       B92-B99=1.8190       B92-B100=1.5917      B92-B101=1.7241      B93-B85=1.6138       
B93-B94=1.6977       B93-B101=1.6330      B93-B102=1.6258      B94-B85=2.0476       B94-B86=1.5862       B94-B93=1.6977       
B94-B102=1.6888      B94-B103=1.6653      B95-B87=1.6102       B95-B104=1.6134      B95-H108=1.1843      B96-B89=1.7106       
B96-B90=1.5819       B96-B97=1.7533       B96-H110=1.1719      B97-B90=1.6027       B97-B91=1.7371       B97-B96=1.7533       
B97-B98=1.5250       B98-B91=1.6022       B98-B97=1.5250       B98-B99=1.5409       B99-B91=1.8671       B99-B92=1.8190       
B99-B98=1.5409       B99-B100=1.5404      B100-B92=1.5917      B100-B99=1.5404      B100-B101=1.5422     B101-B92=1.7241      
B101-B93=1.6330      B101-B100=1.5422     B101-B102=1.6509     B102-B93=1.6258      B102-B94=1.6888      B102-B101=1.6509     
B102-B103=1.5335     B103-B94=1.6653      B103-B102=1.5335     B103-B104=1.5731     B104-B95=1.6134      B104-B103=1.5731     
B104-B105=1.5984     B105-B104=1.5984     B105-H106=1.1802     B105-H116=1.1821     H106-B105=1.1802     H107-B81=1.1711      
H108-B95=1.1843      H109-B58=1.1866      H110-B96=1.1719      H111-B88=1.1659      H112-B72=1.1747      H113-B64=1.1678      
H114-B89=1.1714      H115-B71=1.1770      H116-B105=1.1821     H117-B58=1.1858      
 B  H  Rav=1.1766 sigma=0.0068  Rmin=1.1659  Rmax=1.1866    12
 B  B  Rav=1.6578 sigma=0.0980  Rmin=1.5107  Rmax=2.0476    89
 C  H  Rav=1.0912 sigma=0.0082  Rmin=1.0773  Rmax=1.1090    29
 C  C  Rav=1.4522 sigma=0.0681  Rmin=1.3786  Rmax=1.5424    23
 N  C  Rav=1.4527 sigma=0.0016  Rmin=1.4507  Rmax=1.4546     3
 O  C  Rav=1.3525 sigma=0.0680  Rmin=1.2220  Rmax=1.4081     5
 
 selected bond angles (degree)
 --------------------
H29-C1-O2=111.60               H30-C1-O2=111.82               H30-C1-H29=109.27              H31-C1-O2=105.89               
H31-C1-H29=109.13              H31-C1-H30=109.01              C3-O2-C1=118.18                C4-C3-O2=124.26                
C8-C3-O2=115.75                C8-C3-C4=119.99                C5-C4-C3=119.49                H32-C4-C3=120.72               
H32-C4-C5=119.79               C6-C5-C4=120.80                C28-C5-C4=127.63               C28-C5-C6=111.57               
C7-C6-C5=120.32                C11-C6-C5=110.46               C11-C6-C7=129.21               C8-C7-C6=119.37                
H33-C7-C6=118.60               H33-C7-C8=122.04               C7-C8-C3=120.02                O9-C8-C3=115.20                
O9-C8-C7=124.78                C10-O9-C8=117.96               H34-C10-O9=111.72              H35-C10-O9=111.38              
H35-C10-H34=109.52             H36-C10-O9=105.60              H36-C10-H34=109.27             H36-C10-H35=109.24             
 
 selected dihedral angles (degree)
 ---------------------------------
C3-O2-C1-H29= 58.76           C3-O2-C1-H30=296.01           C3-O2-C1-H31=177.40           C4-C3-O2-C1=  3.35            
C8-C3-O2-C1=183.20            C5-C4-C3-O2=180.43            C5-C4-C3-C8=  0.58            H32-C4-C3-O2=  0.68           
H32-C4-C3-C8=180.83           C6-C5-C4-C3=  0.59            C6-C5-C4-H32=180.34           C28-C5-C4-C3=180.92           
C28-C5-C4-H32=  0.67          C7-C6-C5-C4=359.00            C7-C6-C5-C28=178.72           C11-C6-C5-C4=178.74           
C11-C6-C5-C28=358.46          C8-C7-C6-C5=  0.20            C8-C7-C6-C11=180.52           H33-C7-C6-C5=180.42           
H33-C7-C6-C11=  0.74          C7-C8-C3-O2=178.77            C7-C8-C3-C4=358.63            O9-C8-C3-O2=359.06            
O9-C8-C3-C4=178.92            C3-C8-C7-C6=  0.96            C3-C8-C7-H33=180.74           O9-C8-C7-C6=180.64            
O9-C8-C7-H33=  0.41           C10-O9-C8-C3=184.54           C10-O9-C8-C7=  4.85           H34-C10-O9-C8=294.61          
H35-C10-O9-C8= 57.45          H36-C10-O9-C8=175.92          
 
 CMA Distance (Angstroems)
 ---------------------------
R(CMA):  6.8751
           -------------------------------------------------
          |                Final Singlepoint                |
           -------------------------------------------------

          ...................................................
          :                      SETUP                      :
          :.................................................:
          :  # basis functions                 345          :
          :  # atomic orbitals                 345          :
          :  # shells                          193          :
          :  # electrons                       304          :
          :  max. iterations                   500          :
          :  Hamiltonian                  GFN2-xTB          :
          :  restarted?                      false          :
          :  GBSA solvation                  false          :
          :  PC potential                    false          :
          :  electronic temp.          300.0000000     K    :
          :  accuracy                    1.0000000          :
          :  -> integral cutoff          0.2500000E+02      :
          :  -> integral neglect         0.1000000E-07      :
          :  -> SCF convergence          0.1000000E-05 Eh   :
          :  -> wf. convergence          0.1000000E-03 e    :
          :  Broyden damping             0.4000000          :
          :  net charge                          0          :
          :  unpaired electrons                  0          :
          ...................................................

 iter      E             dE          RMSdq      gap      omega  full diag
   1   -147.7712510 -0.147771E+03  0.111E-01    0.10       0.0  T
   2   -147.7649961  0.625494E-02  0.161E-01    0.21       1.0  T
   3   -147.7329743  0.320218E-01  0.362E-01    0.03       1.0  T
   4   -147.7636191 -0.306448E-01  0.172E-01    0.20       1.0  T
   5   -147.7656274 -0.200832E-02  0.141E-01    0.20       1.0  T
   6   -147.7673597 -0.173226E-02  0.122E-01    0.19       1.0  T
   7   -147.7682753 -0.915620E-03  0.107E-01    0.17       1.0  T
   8   -147.7692496 -0.974304E-03  0.887E-02    0.15       1.0  T
   9   -147.7704317 -0.118210E-02  0.614E-02    0.14       1.0  T
  10   -147.7709540 -0.522256E-03  0.433E-02    0.13       1.0  T
  11   -147.7714345 -0.480504E-03  0.136E-02    0.11       1.0  T
  12   -147.7714863 -0.518282E-04  0.113E-03    0.11       8.2  T
  13   -147.7714848  0.152299E-05  0.254E-03    0.11       3.6  T
  14   -147.7714857 -0.918428E-06  0.173E-03    0.11       5.3  T
  15   -147.7714862 -0.513951E-06  0.102E-03    0.11       9.0  T
  16   -147.7714865 -0.276921E-06  0.219E-04    0.11      42.2  T
  17   -147.7714864  0.699033E-07  0.537E-04    0.11      17.2  T

   *** convergence criteria satisfied after 17 iterations ***

         #    Occupation            Energy/Eh            Energy/eV
      -------------------------------------------------------------
         1        2.0000           -0.7038073             -19.1516
       ...           ...                  ...                  ...
       146        2.0000           -0.2784092              -7.5759
       147        2.0000           -0.2744803              -7.4690
       148        2.0000           -0.2740232              -7.4565
       149        2.0000           -0.2718005              -7.3961
       150        2.0000           -0.2680940              -7.2952
       151        2.0000           -0.2650945              -7.2136
       152        1.7784           -0.2521138              -6.8604 (HOMO)
       153        0.2215           -0.2481563              -6.7527 (LUMO)
       154        0.0000           -0.2394948              -6.5170
       155                         -0.2266078              -6.1663
       156                         -0.2224835              -6.0541
       157                         -0.2205583              -6.0017
       ...                                ...                  ...
       345                          1.2204564              33.2103
      -------------------------------------------------------------
                  HL-Gap            0.0039575 Eh            0.1077 eV
             Fermi-level           -0.2501351 Eh           -6.8065 eV

 SCC (total)                   0 d,  0 h,  0 min,  0.402 sec
 SCC setup                      ...        0 min,  0.001 sec (  0.249%)
 Dispersion                     ...        0 min,  0.002 sec (  0.498%)
 classical contributions        ...        0 min,  0.000 sec (  0.000%)
 integral evaluation            ...        0 min,  0.006 sec (  1.493%)
 iterations                     ...        0 min,  0.363 sec ( 90.298%)
 molecular gradient             ...        0 min,  0.028 sec (  6.965%)
 printout                       ...        0 min,  0.002 sec (  0.497%)

         :::::::::::::::::::::::::::::::::::::::::::::::::::::
         ::                     SUMMARY                     ::
         :::::::::::::::::::::::::::::::::::::::::::::::::::::
         :: total energy            -145.598643349043 Eh    ::
         :: gradient norm              0.006576984990 Eh/a0 ::
         :: HOMO-LUMO gap              0.107689363546 eV    ::
         ::.................................................::
         :: SCC energy              -147.768816836458 Eh    ::
         :: -> isotropic ES            0.345690213059 Eh    ::
         :: -> anisotropic ES          0.012985182099 Eh    ::
         :: -> anisotropic XC         -0.004571761597 Eh    ::
         :: -> dispersion             -0.132329985133 Eh    ::
         :: repulsion energy           2.170173487415 Eh    ::
         :: add. restraining           0.000000000000 Eh    ::
         :: total charge               0.000000000000 e     ::
         :::::::::::::::::::::::::::::::::::::::::::::::::::::

           -------------------------------------------------
          |                Property Printout                |
           -------------------------------------------------

    * Orbital Energies and Occupations

         #    Occupation            Energy/Eh            Energy/eV
      -------------------------------------------------------------
         1        2.0000           -0.7038073             -19.1516
       ...           ...                  ...                  ...
       140        2.0000           -0.2968496              -8.0777
       141        2.0000           -0.2941691              -8.0047
       142        2.0000           -0.2907272              -7.9111
       143        2.0000           -0.2903159              -7.8999
       144        2.0000           -0.2855668              -7.7707
       145        2.0000           -0.2832795              -7.7084
       146        2.0000           -0.2784092              -7.5759
       147        2.0000           -0.2744803              -7.4690
       148        2.0000           -0.2740232              -7.4565
       149        2.0000           -0.2718005              -7.3961
       150        2.0000           -0.2680940              -7.2952
       151        2.0000           -0.2650945              -7.2136
       152        1.7784           -0.2521138              -6.8604 (HOMO)
       153        0.2215           -0.2481563              -6.7527 (LUMO)
       154        0.0000           -0.2394948              -6.5170
       155                         -0.2266078              -6.1663
       156                         -0.2224835              -6.0541
       157                         -0.2205583              -6.0017
       158                         -0.2199211              -5.9844
       159                         -0.2189595              -5.9582
       160                         -0.2127440              -5.7891
       161                         -0.2014888              -5.4828
       162                         -0.2005145              -5.4563
       163                         -0.1962239              -5.3395
       ...                                ...                  ...
       345                          1.2204564              33.2103
      -------------------------------------------------------------
                  HL-Gap            0.0039575 Eh            0.1077 eV
             Fermi-level           -0.2501351 Eh           -6.8065 eV

     #   Z          covCN         q      C6AA      α(0)
     1   6 C        3.645     0.034    20.336     6.481
     2   8 O        1.705    -0.252    18.179     5.757
     3   6 C        2.867     0.118    25.400     8.261
     4   6 C        2.912    -0.085    30.130     9.001
     5   6 C        3.021    -0.007    28.179     8.708
     6   6 C        3.003    -0.047    29.141     8.855
     7   6 C        2.911    -0.075    29.860     8.960
     8   6 C        2.864     0.119    25.387     8.259
     9   8 O        1.705    -0.259    18.298     5.775
    10   6 C        3.645     0.027    20.460     6.501
    11   6 C        2.858     0.205    23.661     7.973
    12   8 O        0.856    -0.427    22.238     6.322
    13   6 C        3.876    -0.053    21.475     6.589
    14   6 C        3.806    -0.067    21.782     6.644
    15   6 C        3.854    -0.022    20.925     6.506
    16   6 C        3.807    -0.067    21.776     6.643
    17   6 C        3.766     0.010    20.439     6.443
    18   7 N        2.730    -0.180    24.898     7.411
    19   6 C        3.766     0.005    20.531     6.458
    20   6 C        2.971     0.009    27.807     8.650
    21   6 C        2.925    -0.040    28.985     8.829
    22   6 C        2.919    -0.032    28.799     8.800
    23   6 C        2.921    -0.035    28.876     8.812
    24   6 C        2.919    -0.036    28.894     8.815
    25   6 C        2.925    -0.040    28.990     8.830
    26   6 C        3.762     0.013    20.402     6.439
    27   6 C        3.809    -0.069    21.814     6.648
    28   6 C        3.828    -0.072    21.856     6.652
    29   1 H        0.924     0.041     2.441     2.443
    30   1 H        0.924     0.040     2.451     2.448
    31   1 H        0.925     0.063     2.163     2.300
    32   1 H        0.926     0.036     2.499     2.472
    33   1 H        0.926     0.062     2.173     2.305
    34   1 H        0.924     0.052     2.292     2.368
    35   1 H        0.924     0.043     2.405     2.425
    36   1 H        0.925     0.064     2.150     2.293
    37   1 H        0.924     0.049     2.331     2.388
    38   1 H        0.924     0.033     2.541     2.493
    39   1 H        0.924     0.056     2.245     2.343
    40   1 H        0.924     0.042     2.416     2.431
    41   1 H        0.925     0.040     2.449     2.447
    42   1 H        0.924     0.033     2.548     2.496
    43   1 H        0.922     0.003     2.999     2.708
    44   1 H        0.923     0.028     2.620     2.531
    45   1 H        0.922     0.007     2.934     2.679
    46   1 H        0.924     0.041     2.435     2.440
    47   1 H        0.926     0.028     2.612     2.528
    48   1 H        0.926     0.031     2.574     2.509
    49   1 H        0.926     0.033     2.549     2.497
    50   1 H        0.926     0.035     2.513     2.479
    51   1 H        0.926     0.046     2.373     2.409
    52   1 H        0.923     0.006     2.963     2.692
    53   1 H        0.924     0.031     2.568     2.506
    54   1 H        0.924     0.037     2.495     2.470
    55   1 H        0.924     0.034     2.525     2.485
    56   1 H        0.924     0.050     2.318     2.381
    57   1 H        0.924     0.038     2.471     2.458
    58   5 B        2.840     0.116    19.513     7.377
    59   5 B        3.880     0.032    22.149     7.584
    60   5 B        3.725    -0.017    22.948     7.741
    61   5 B        2.790     0.011    21.293     7.713
    62   5 B        2.908    -0.042    22.162     7.856
    63   5 B        3.856     0.016    22.443     7.635
    64   5 B        2.870     0.059    20.416     7.543
    65   5 B        2.920     0.000    21.403     7.720
    66   5 B        3.827     0.053    21.769     7.521
    67   5 B        3.765     0.015    22.409     7.638
    68   5 B        3.851     0.004    22.651     7.670
    69   5 B        4.452     0.051    21.824     7.527
    70   5 B        4.701     0.090    21.134     7.407
    71   5 B        3.804     0.066    21.528     7.481
    72   5 B        3.830     0.062    21.609     7.493
    73   5 B        3.990     0.051    21.822     7.527
    74   5 B        4.589     0.061    21.637     7.495
    75   5 B        5.640     0.111    20.791     7.347
    76   5 B        4.738     0.037    22.064     7.568
    77   5 B        3.720     0.041    21.861     7.558
    78   5 B        4.776     0.082    21.279     7.433
    79   5 B        4.549     0.028    22.228     7.596
    80   5 B        3.856     0.046    21.893     7.541
    81   5 B        3.834     0.043    21.940     7.550
    82   5 B        3.834     0.012    22.512     7.648
    83   5 B        3.810    -0.021    23.126     7.753
    84   5 B        3.814     0.004    22.652     7.673
    85   5 B        4.266    -0.012    22.978     7.724
    86   5 B        3.793     0.025    22.249     7.606
    87   5 B        3.879     0.030    22.184     7.590
    88   5 B        2.888     0.104    19.677     7.404
    89   5 B        3.783     0.079    21.294     7.443
    90   5 B        3.895     0.052    21.792     7.523
    91   5 B        3.695     0.039    21.835     7.566
    92   5 B        3.754     0.034    22.055     7.580
    93   5 B        3.856     0.046    21.898     7.542
    94   5 B        4.334     0.057    21.707     7.507
    95   5 B        2.876     0.086    19.964     7.458
    96   5 B        3.777     0.079    21.281     7.441
    97   5 B        3.801     0.007    22.577     7.661
    98   5 B        2.926     0.011    21.204     7.684
    99   5 B        3.640     0.006    22.187     7.675
   100   5 B        2.926     0.025    20.968     7.641
   101   5 B        3.843     0.003    22.681     7.676
   102   5 B        3.859     0.019    22.392     7.626
   103   5 B        2.911     0.012    21.195     7.683
   104   5 B        2.916     0.009    21.242     7.691
   105   5 B        2.842     0.141    19.114     7.301
   106   1 H        0.935    -0.137     7.049     4.151
   107   1 H        0.939    -0.102     5.616     3.705
   108   1 H        0.934    -0.134     6.923     4.114
   109   1 H        0.933    -0.153     7.820     4.372
   110   1 H        0.938    -0.134     6.898     4.106
   111   1 H        0.940    -0.143     7.343     4.236
   112   1 H        0.937    -0.117     6.184     3.888
   113   1 H        0.940    -0.152     7.761     4.355
   114   1 H        0.939    -0.132     6.825     4.084
   115   1 H        0.937    -0.140     7.208     4.198
   116   1 H        0.935    -0.142     7.308     4.227
   117   1 H        0.933    -0.154     7.876     4.388

 Mol. C6AA /au·bohr⁶  :     191744.419956
 Mol. C8AA /au·bohr⁸  :    5766618.840705
 Mol. α(0) /au        :        694.886850


Wiberg/Mayer (AO) data.
largest (>0.10) Wiberg bond orders for each atom

 ---------------------------------------------------------------------------
     #   Z sym  total        # sym  WBO       # sym  WBO       # sym  WBO
 ---------------------------------------------------------------------------
     1   6 C    3.948 --     2 O    0.990    31 H    0.979    29 H    0.976
                            30 H    0.975
     2   8 O    2.226 --     3 C    1.064     1 C    0.990
     3   6 C    3.871 --     4 C    1.378     8 C    1.243     2 O    1.064
     4   6 C    3.977 --     5 C    1.423     3 C    1.378    32 H    0.963
     5   6 C    3.949 --     4 C    1.423     6 C    1.323    28 C    1.013
     6   6 C    3.955 --     5 C    1.323     7 C    1.308    11 C    1.104
     7   6 C    3.939 --     8 C    1.442     6 C    1.308    33 H    0.962
     8   6 C    3.937 --     7 C    1.442     3 C    1.243     9 O    1.063
     9   8 O    2.233 --     8 C    1.063    10 C    0.984
    10   6 C    3.943 --     9 O    0.984    36 H    0.979    35 H    0.976
                            34 H    0.975
    11   6 C    3.844 --    12 O    1.707     6 C    1.104    13 C    0.947
    12   8 O    1.935 --    11 C    1.707
    13   6 C    3.992 --    28 C    0.997    14 C    0.986    37 H    0.952
                            11 C    0.947
    14   6 C    3.989 --    15 C    0.996    13 C    0.986    38 H    0.974
                            39 H    0.970
    15   6 C    3.994 --    16 C    0.999    14 C    0.996    27 C    0.992
                            40 H    0.968
    16   6 C    3.996 --    17 C    1.001    15 C    0.999    42 H    0.978
                            41 H    0.973
    17   6 C    3.988 --    18 N    1.002    16 C    1.001    44 H    0.975
                            43 H    0.965
    18   7 N    3.120 --    26 C    1.003    17 C    1.002    19 C    0.998
    19   6 C    3.988 --    20 C    1.005    18 N    0.998    45 H    0.960
                            46 H    0.959
    20   6 C    3.989 --    21 C    1.419    25 C    1.405    19 C    1.005
                            23 C    0.110
    21   6 C    3.992 --    22 C    1.439    20 C    1.419    47 H    0.969
                            24 C    0.110
    22   6 C    3.992 --    23 C    1.444    21 C    1.439    48 H    0.971
                            25 C    0.112
    23   6 C    3.992 --    22 C    1.444    24 C    1.432    49 H    0.971
                            20 C    0.110
    24   6 C    3.993 --    25 C    1.454    23 C    1.432    50 H    0.971
                            21 C    0.110
    25   6 C    3.992 --    24 C    1.454    20 C    1.405    51 H    0.969
                            22 C    0.112
    26   6 C    3.988 --    18 N    1.003    27 C    0.999    53 H    0.972
                            52 H    0.967
    27   6 C    3.996 --    26 C    0.999    15 C    0.992    54 H    0.981
                            55 H    0.977
    28   6 C    3.997 --     5 C    1.013    13 C    0.997    57 H    0.964
                            56 H    0.958
    29   1 H    0.997 --     1 C    0.976
    30   1 H    0.997 --     1 C    0.975
    31   1 H    0.996 --     1 C    0.979
    32   1 H    0.998 --     4 C    0.963
    33   1 H    0.995 --     7 C    0.962
    34   1 H    0.997 --    10 C    0.975
    35   1 H    0.998 --    10 C    0.976
    36   1 H    0.995 --    10 C    0.979
    37   1 H    0.993 --    13 C    0.952
    38   1 H    0.999 --    14 C    0.974
    39   1 H    0.996 --    14 C    0.970
    40   1 H    0.998 --    15 C    0.968
    41   1 H    0.998 --    16 C    0.973
    42   1 H    0.999 --    16 C    0.978
    43   1 H    1.000 --    17 C    0.965
    44   1 H    0.999 --    17 C    0.975
    45   1 H    1.000 --    19 C    0.960
    46   1 H    0.998 --    19 C    0.959
    47   1 H    0.999 --    21 C    0.969
    48   1 H    0.999 --    22 C    0.971
    49   1 H    0.998 --    23 C    0.971
    50   1 H    0.998 --    24 C    0.971
    51   1 H    0.998 --    25 C    0.969
    52   1 H    1.000 --    26 C    0.967
    53   1 H    0.999 --    26 C    0.972
    54   1 H    0.999 --    27 C    0.981
    55   1 H    0.999 --    27 C    0.977
    56   1 H    0.995 --    28 C    0.958
    57   1 H    0.996 --    28 C    0.964
    58   5 B    3.280 --    65 B    1.204   117 H    0.944   109 H    0.942
    59   5 B    3.552 --    60 B    1.160    65 B    0.850    66 B    0.540
                            74 B    0.513    73 B    0.156
    60   5 B    3.573 --    59 B    1.160    67 B    1.152    75 B    0.464
                            74 B    0.457
    61   5 B    3.373 --    62 B    1.373    68 B    1.080    77 B    0.458
                            78 B    0.101
    62   5 B    3.528 --    61 B    1.373    69 B    1.122    78 B    0.609
    63   5 B    3.568 --    64 B    1.313    69 B    0.726    71 B    0.696
                            70 B    0.692
    64   5 B    3.397 --    63 B    1.313   113 H    0.968    71 B    0.826
                            70 B    0.124
    65   5 B    3.400 --    58 B    1.204    66 B    1.080    59 B    0.850
    66   5 B    3.516 --    65 B    1.080    72 B    0.832    73 B    0.688
                            59 B    0.540
    67   5 B    3.448 --    60 B    1.152    68 B    0.995    76 B    0.531
                            75 B    0.444
    68   5 B    3.541 --    61 B    1.080    67 B    0.995    77 B    0.645
                            76 B    0.615
    69   5 B    3.534 --    62 B    1.122    63 B    0.726    78 B    0.641
                            70 B    0.467    79 B    0.346
    70   5 B    3.617 --    71 B    0.890    80 B    0.694    63 B    0.692
                            79 B    0.572    69 B    0.467    64 B    0.124
    71   5 B    3.575 --   115 H    0.938    70 B    0.890    64 B    0.826
                            63 B    0.696
    72   5 B    3.564 --   112 H    0.922    66 B    0.832    82 B    0.816
                            73 B    0.798
    73   5 B    3.642 --    82 B    0.863    74 B    0.809    72 B    0.798
                            66 B    0.688    59 B    0.156
    74   5 B    3.564 --    73 B    0.809    83 B    0.778    75 B    0.641
                            59 B    0.513    60 B    0.457
    75   5 B    3.670 --    83 B    0.727    84 B    0.701    74 B    0.641
                            76 B    0.524    60 B    0.464    67 B    0.444
    76   5 B    3.564 --    77 B    0.941    84 B    0.723    68 B    0.615
                            67 B    0.531    75 B    0.524
    77   5 B    3.498 --    85 B    1.024    76 B    0.941    68 B    0.645
                            61 B    0.458
    78   5 B    3.612 --    86 B    0.684    85 B    0.644    79 B    0.642
                            69 B    0.641    62 B    0.609    61 B    0.101
    79   5 B    3.608 --    86 B    1.019    80 B    0.764    78 B    0.642
                            70 B    0.572    69 B    0.346
    80   5 B    3.670 --    87 B    0.827    81 B    0.813    79 B    0.764
                            70 B    0.694    88 B    0.163
    81   5 B    3.628 --    88 B    1.009   107 H    0.908    80 B    0.813
                            87 B    0.737
    82   5 B    3.601 --    90 B    0.879    73 B    0.863    72 B    0.816
                            89 B    0.720
    83   5 B    3.629 --    91 B    1.111    74 B    0.778    75 B    0.727
                            84 B    0.615
    84   5 B    3.546 --    92 B    1.088    76 B    0.723    75 B    0.701
                            83 B    0.615
    85   5 B    3.592 --    77 B    1.024    93 B    0.908    78 B    0.644
                            86 B    0.455    94 B    0.281
    86   5 B    3.589 --    79 B    1.019    94 B    0.972    78 B    0.684
                            85 B    0.455
    87   5 B    3.606 --    88 B    0.968    95 B    0.900    80 B    0.827
                            81 B    0.737
    88   5 B    3.436 --    81 B    1.009   111 H    0.971    87 B    0.968
                            95 B    0.183    80 B    0.163
    89   5 B    3.548 --   114 H    0.953    96 B    0.865    90 B    0.830
                            82 B    0.720
    90   5 B    3.629 --    82 B    0.879    96 B    0.869    89 B    0.830
                            97 B    0.769
    91   5 B    3.596 --    83 B    1.111    98 B    0.829    97 B    0.693
                            99 B    0.538
    92   5 B    3.597 --    84 B    1.088   100 B    0.854   101 B    0.699
                            99 B    0.579
    93   5 B    3.553 --    85 B    0.908   101 B    0.782   102 B    0.705
                            94 B    0.663
    94   5 B    3.570 --    86 B    0.972   103 B    0.738   102 B    0.677
                            93 B    0.663    85 B    0.281
    95   5 B    3.440 --   104 B    0.988   108 H    0.935    87 B    0.900
                            88 B    0.183   105 B    0.158
    96   5 B    3.546 --   110 H    0.956    90 B    0.869    89 B    0.865
                            97 B    0.658
    97   5 B    3.581 --    98 B    1.249    90 B    0.769    91 B    0.693
                            96 B    0.658
    98   5 B    3.543 --    97 B    1.249    99 B    1.120    91 B    0.829
    99   5 B    3.547 --   100 B    1.129    98 B    1.120    92 B    0.579
                            91 B    0.538
   100   5 B    3.521 --   101 B    1.158    99 B    1.129    92 B    0.854
   101   5 B    3.587 --   100 B    1.158    93 B    0.782   102 B    0.746
                            92 B    0.699
   102   5 B    3.580 --   103 B    1.197   101 B    0.746    93 B    0.705
                            94 B    0.677
   103   5 B    3.513 --   102 B    1.197   104 B    1.060    94 B    0.738
                           105 B    0.119
   104   5 B    3.394 --   105 B    1.066   103 B    1.060    95 B    0.988
   105   5 B    3.281 --   104 B    1.066   106 H    0.954   116 H    0.950
                            95 B    0.158   103 B    0.119
   106   1 H    0.979 --   105 B    0.954
   107   1 H    0.983 --    81 B    0.908
   108   1 H    0.980 --    95 B    0.935
   109   1 H    0.968 --    58 B    0.942
   110   1 H    0.978 --    96 B    0.956
   111   1 H    0.979 --    88 B    0.971
   112   1 H    0.977 --    72 B    0.922
   113   1 H    0.975 --    64 B    0.968
   114   1 H    0.977 --    89 B    0.953
   115   1 H    0.973 --    71 B    0.938
   116   1 H    0.977 --   105 B    0.950
   117   1 H    0.969 --    58 B    0.944
 ---------------------------------------------------------------------------

Topologies differ in total number of bonds
Writing topology from bond orders to xtbtopo.mol

molecular dipole:
                 x           y           z       tot (Debye)
 q only:       -1.878      -0.467      -1.838
   full:       -1.532       0.064      -0.625       4.208
molecular quadrupole (traceless):
                xx          xy          yy          xz          yz          zz
 q only:      -81.665     -37.194      21.275       5.482     -29.195      60.391
  q+dip:      -42.615     -41.323     -10.020      -3.314     -35.607      52.634
   full:      -60.066     -40.832     -17.848      -0.992     -31.756      77.914

           -------------------------------------------------
          |                Geometry Summary                 |
           -------------------------------------------------

      molecular mass/u    :      910.5174967
   center of mass at/Å    :        0.1882167       0.0528342       2.9708236
  moments of inertia/u·Å² :        0.1475459E+05   0.2649842E+05   0.3376535E+05
rotational constants/cm⁻¹ :        0.1142535E-02   0.6361750E-03   0.4992584E-03

 * 141 selected distances

     #   Z          #   Z                                           value/Å
     1   6 C        2   8 O                                       1.4049241
     2   8 O        3   6 C                                       1.3642513
     3   6 C        4   6 C                                       1.3918016
     4   6 C        5   6 C                                       1.3786427
     5   6 C        6   6 C                                       1.3952793
     6   6 C        7   6 C                                       1.3997748
     3   6 C        8   6 C                                       1.4213944
     7   6 C        8   6 C                                       1.3806909
     8   6 C        9   8 O                                       1.3632875
     9   8 O       10   6 C                                       1.4080563
    11   6 C       12   8 O                                       1.2219658
    13   6 C       14   6 C                                       1.5329620
    14   6 C       15   6 C                                       1.5311581
    15   6 C       16   6 C                                       1.5261503
    16   6 C       17   6 C                                       1.5329821
    17   6 C       18   7 N                                       1.4546281
    18   7 N       19   6 C                                       1.4527418
    20   6 C       21   6 C                                       1.3877612
    21   6 C       22   6 C                                       1.3841145
    22   6 C       23   6 C                                       1.3828906
    23   6 C       24   6 C                                       1.3857350
    20   6 C       25   6 C                                       1.3901714
    24   6 C       25   6 C                                       1.3820314
    18   7 N       26   6 C                                       1.4507376
    15   6 C       27   6 C                                       1.5374265
    26   6 C       27   6 C                                       1.5334083
    13   6 C       28   6 C                                       1.5373426
     1   6 C       29   1 H                                       1.0958979
     1   6 C       30   1 H                                       1.0957360
     1   6 C       31   1 H                                       1.0900388
     4   6 C       32   1 H                                       1.0788727
     7   6 C       33   1 H                                       1.0772570 (min)
    10   6 C       34   1 H                                       1.0945291
    10   6 C       35   1 H                                       1.0950004
    10   6 C       36   1 H                                       1.0895844
    13   6 C       37   1 H                                       1.0948040
    14   6 C       38   1 H                                       1.0932067
    14   6 C       39   1 H                                       1.0932512
    15   6 C       40   1 H                                       1.0938433
    16   6 C       41   1 H                                       1.0869750
    16   6 C       42   1 H                                       1.0915929
    17   6 C       43   1 H                                       1.1089781
    17   6 C       44   1 H                                       1.0989866
    19   6 C       45   1 H                                       1.1072621
    19   6 C       46   1 H                                       1.0971303
    21   6 C       47   1 H                                       1.0806017
    22   6 C       48   1 H                                       1.0804531
    23   6 C       49   1 H                                       1.0787442
    24   6 C       50   1 H                                       1.0799549
    25   6 C       51   1 H                                       1.0789578
    26   6 C       52   1 H                                       1.1042135
    26   6 C       53   1 H                                       1.0923247
    27   6 C       54   1 H                                       1.0905434
    27   6 C       55   1 H                                       1.0918483
    28   6 C       56   1 H                                       1.0915832
    28   6 C       57   1 H                                       1.0924484
    59   5 B       60   5 B                                       1.5284302
    61   5 B       62   5 B                                       1.5218858
    63   5 B       64   5 B                                       1.5106956
    58   5 B       65   5 B                                       1.5738957
    59   5 B       65   5 B                                       1.6103533
    65   5 B       66   5 B                                       1.5559522
    60   5 B       67   5 B                                       1.5417037
    61   5 B       68   5 B                                       1.5485654
    67   5 B       68   5 B                                       1.5766542
    62   5 B       69   5 B                                       1.5455129
    63   5 B       69   5 B                                       1.6375921
    63   5 B       70   5 B                                       1.6527841
    63   5 B       71   5 B                                       1.6913018
    64   5 B       71   5 B                                       1.6878006
    70   5 B       71   5 B                                       1.6408067
    66   5 B       72   5 B                                       1.6411206
    66   5 B       73   5 B                                       1.6670561
    72   5 B       73   5 B                                       1.6282756
    73   5 B       74   5 B                                       1.6515520
    60   5 B       75   5 B                                       1.7479728 (max)
    74   5 B       75   5 B                                       1.7034736
    68   5 B       76   5 B                                       1.6862714
    75   5 B       76   5 B                                       1.7291769
    68   5 B       77   5 B                                       1.6994195
    76   5 B       77   5 B                                       1.5941317
    62   5 B       78   5 B                                       1.6824090
    69   5 B       78   5 B                                       1.6902792
    70   5 B       79   5 B                                       1.6874787
    78   5 B       79   5 B                                       1.6682992
    70   5 B       80   5 B                                       1.6719914
    79   5 B       80   5 B                                       1.6120559
    80   5 B       81   5 B                                       1.6617960
    72   5 B       82   5 B                                       1.6571677
    73   5 B       82   5 B                                       1.6068057
    74   5 B       83   5 B                                       1.6748674
    75   5 B       83   5 B                                       1.6100093
    75   5 B       84   5 B                                       1.6255123
    76   5 B       84   5 B                                       1.6550870
    77   5 B       85   5 B                                       1.6078655
    78   5 B       85   5 B                                       1.7070406
    78   5 B       86   5 B                                       1.6477327
    79   5 B       86   5 B                                       1.5563932
    80   5 B       87   5 B                                       1.6157019
    81   5 B       87   5 B                                       1.6393812
    81   5 B       88   5 B                                       1.6043468
    87   5 B       88   5 B                                       1.5749801
    82   5 B       90   5 B                                       1.5734579
    89   5 B       90   5 B                                       1.5920649
    83   5 B       91   5 B                                       1.5862687
    84   5 B       92   5 B                                       1.5846427
    85   5 B       93   5 B                                       1.6137748
    86   5 B       94   5 B                                       1.5861901
    93   5 B       94   5 B                                       1.6977355
    87   5 B       95   5 B                                       1.6101520
    89   5 B       96   5 B                                       1.7106270
    90   5 B       96   5 B                                       1.5818989
    90   5 B       97   5 B                                       1.6027313
    91   5 B       98   5 B                                       1.6022207
    97   5 B       98   5 B                                       1.5249533
    98   5 B       99   5 B                                       1.5408587
    92   5 B      100   5 B                                       1.5917186
    99   5 B      100   5 B                                       1.5404368
    92   5 B      101   5 B                                       1.7241353
    93   5 B      101   5 B                                       1.6330398
   100   5 B      101   5 B                                       1.5422124
    93   5 B      102   5 B                                       1.6258267
    94   5 B      102   5 B                                       1.6888281
   101   5 B      102   5 B                                       1.6509247
    94   5 B      103   5 B                                       1.6652746
   102   5 B      103   5 B                                       1.5335232
    95   5 B      104   5 B                                       1.6134365
   103   5 B      104   5 B                                       1.5730701
   104   5 B      105   5 B                                       1.5984401
   105   5 B      106   1 H                                       1.1802435
    81   5 B      107   1 H                                       1.1710554
    95   5 B      108   1 H                                       1.1842767
    58   5 B      109   1 H                                       1.1865826
    96   5 B      110   1 H                                       1.1719004
    88   5 B      111   1 H                                       1.1658978
    72   5 B      112   1 H                                       1.1747096
    64   5 B      113   1 H                                       1.1677965
    89   5 B      114   1 H                                       1.1714463
    71   5 B      115   1 H                                       1.1770098
   105   5 B      116   1 H                                       1.1821038
    58   5 B      117   1 H                                       1.1857983

 * 6 distinct bonds (by element types)

   Z      Z             #   av. dist./Å        max./Å        min./Å
   1 H    5 B          12     1.1765684     1.1865826     1.1658978
   5 B    5 B          73     1.6221648     1.7479728     1.5106956
   1 H    6 C          29     1.0911938     1.1089781     1.0772570
   6 C    6 C          19     1.4427220     1.5374265     1.3786427
   6 C    7 N           3     1.4527025     1.4546281     1.4507376
   6 C    8 O           5     1.3524970     1.4080563     1.2219658


optimized geometry written to: xtbopt.xyz


           -------------------------------------------------
          | TOTAL ENERGY             -145.598643349043 Eh   |
          | GRADIENT NORM               0.006576984990 Eh/α |
          | HOMO-LUMO GAP               0.107689363546 eV   |
           -------------------------------------------------

------------------------------------------------------------------------
 * finished run on 2026/09/01 at 16:38:05.769     
------------------------------------------------------------------------
 total:
 * wall-time:     0 d,  0 h,  0 min,  7.923 sec
 *  cpu-time:     0 d,  0 h,  1 min, 11.328 sec
 * ratio c/w:     9.003 speedup
 SCF:
 * wall-time:     0 d,  0 h,  0 min,  1.003 sec
 *  cpu-time:     0 d,  0 h,  0 min,  8.234 sec
 * ratio c/w:     8.210 speedup
 ANC optimizer:
 * wall-time:     0 d,  0 h,  0 min,  6.860 sec
 *  cpu-time:     0 d,  0 h,  1 min,  2.484 sec
 * ratio c/w:     9.109 speedup

