      -----------------------------------------------------------      
     |                   =====================                   |     
     |                           x T B                           |     
     |                   =====================                   |     
     |                         S. Grimme                         |     
     |          Mulliken Center for Theoretical Chemistry        |     
     |                    University of Bonn                     |     
      -----------------------------------------------------------      

   * xtb version 6.7.1pre (5071a88) compiled by 'Marcel@Raven' on 2024-07-23

   xtb is free software: you can redistribute it and/or modify it under
   the terms of the GNU Lesser General Public License as published by
   the Free Software Foundation, either version 3 of the License, or
   (at your option) any later version.
   
   xtb is distributed in the hope that it will be useful,
   but WITHOUT ANY WARRANTY; without even the implied warranty of
   MERCHANTABILITY or FITNESS FOR A PARTICULAR PURPOSE.  See the
   GNU Lesser General Public License for more details.
   
   Cite this work as:
   * C. Bannwarth, E. Caldeweyher, S. Ehlert, A. Hansen, P. Pracht,
     J. Seibert, S. Spicher, S. Grimme, WIREs Comput. Mol. Sci., 2020, 11,
     e01493. DOI: 10.1002/wcms.1493
   
   for GFN2-xTB:
   * C. Bannwarth, S. Ehlert and S. Grimme., J. Chem. Theory Comput., 2019,
     15, 1652-1671. DOI: 10.1021/acs.jctc.8b01176
   for GFN1-xTB:
   * S. Grimme, C. Bannwarth, P. Shushkov, J. Chem. Theory Comput., 2017,
     13, 1989-2009. DOI: 10.1021/acs.jctc.7b00118
   for GFN0-xTB:
   * P. Pracht, E. Caldeweyher, S. Ehlert, S. Grimme, ChemRxiv, 2019, preprint.
     DOI: 10.26434/chemrxiv.8326202.v1
   for GFN-FF:
   * S. Spicher and S. Grimme, Angew. Chem. Int. Ed., 2020, 59, 15665-15673.
     DOI: 10.1002/anie.202004239
   
   for ALPB and GBSA implicit solvation:
   * S. Ehlert, M. Stahn, S. Spicher, S. Grimme, J. Chem. Theory Comput.,
     2021, 17, 4250-4261. DOI: 10.1021/acs.jctc.1c00471
   
   for ddCOSMO and CPCM-X implicit solvation:
   * M. Stahn, S. Ehlert, S. Grimme, J. Phys. Chem. A,
     2023, XX, XXXX-XXXX. DOI: 10.1021/acs.jpca.3c04382
   
   for DFT-D4:
   * E. Caldeweyher, C. Bannwarth and S. Grimme, J. Chem. Phys., 2017,
     147, 034112. DOI: 10.1063/1.4993215
   * E. Caldeweyher, S. Ehlert, A. Hansen, H. Neugebauer, S. Spicher,
     C. Bannwarth and S. Grimme, J. Chem. Phys., 2019, 150, 154122.
     DOI: 10.1063/1.5090222
   * E. Caldeweyher, J.-M. Mewes, S. Ehlert and S. Grimme, Phys. Chem. Chem. Phys.
     2020, 22, 8499-8512. DOI: 10.1039/D0CP00502A
   
   for sTDA-xTB:
   * S. Grimme and C. Bannwarth, J. Chem. Phys., 2016, 145, 054103.
     DOI: 10.1063/1.4959605
   
   in the mass-spec context:
   * V. Asgeirsson, C. Bauer and S. Grimme, Chem. Sci., 2017, 8, 4879.
     DOI: 10.1039/c7sc00601b
   * J. Koopman and S. Grimme, ACS Omega 2019, 4, 12, 15120-15133.
     DOI: 10.1021/acsomega.9b02011
   
   for metadynamics refer to:
   * S. Grimme, J. Chem. Theory Comput., 2019, 155, 2847-2862
     DOI: 10.1021/acs.jctc.9b00143
   
   for SPH calculations refer to:
   * S. Spicher and S. Grimme, J. Chem. Theory Comput., 2021, 17, 1701-1714
     DOI: 10.1021/acs.jctc.0c01306
   
   for ONIOM refer to:
   * C. Plett, A. Katbashev, S. Ehlert, S. Grimme, M. Bursch,
     Phys. Chem. Chem. Phys., 2023, 25, 17860-17868. DOI: 10.1039/D3CP02178E
   
   for DIPRO refer to:
   * J. Kohn, N. Gildemeister, S. Grimme, D. Fazzi, A. Hansen,
     J. Chem. Phys., 2023, just accepted.
   
   for PTB refer to:
   * S. Grimme, M. Mueller, A. Hansen, J. Chem. Phys., 2023, 158, 124111.
     DOI: 10.1063/5.0137838
   
   with help from (in alphabetical order)
   P. Atkinson, C. Bannwarth, F. Bohle, G. Brandenburg, E. Caldeweyher
   M. Checinski, S. Dohm, S. Ehlert, S. Ehrlich, I. Gerasimov, C. Hölzer
   A. Katbashev, J. Kohn, J. Koopman, C. Lavigne, S. Lehtola, F. März, M. Müller,
   F. Musil, H. Neugebauer, J. Pisarek, C. Plett, P. Pracht, F. Pultar,
   J. Seibert, P. Shushkov, S. Spicher, M. Stahn, M. Steiner, T. Strunk,
   J. Stückrath, T. Rose, and J. Unsleber
   
 * started run on 2026/09/01 at 16:38:05.813     
   ID    Z sym.   atoms
    1    6 C      1, 3-8, 10, 11, 13-17, 19-28
    2    8 O      2, 9, 12
    3    7 N      18
    4    1 H      29-57, 106-117
    5    5 B      58-105

           -------------------------------------------------
          |                Calculation Setup                |
           -------------------------------------------------

          program call               : "c:\Users\Andre\Proyectos doctorado\kras-pancreatic-gC3N4-ai\tools\xtb\xtb-6.7.1\bin\xtb.exe" "c:\Users\Andre\Proyectos doctorado\borophene-alzheimer-tau-ai\calculations\tau\Donepezil\Donepezil_opt_90deg.xyz" --opt vloose --gfn 2 --chrg 0 --uhf 0 --etemp 300 --iterations 500 --cycles 15 --norestart
          coordinate file            : c:\Users\Andre\Proyectos doctorado\borophene-alzheimer-tau-ai\calculations\tau\Donepezil\Donepezil_opt_90deg.xyz
          omp threads                :                    16


molecular fragmentation (1/2 indicates fragments):
111111111111111111111111111111111111111111111111111111111222222222222222
222222222222222222222222222222222222222222222
# atoms in fragment 1/2:    57    60
 fragment masses (1/2) :      379.49      531.02
CMA distance (Bohr)    :  13.544
constraining FC (au)   :  0.0500

           -------------------------------------------------
          |                 G F N 2 - x T B                 |
           -------------------------------------------------

        Reference                      10.1021/acs.jctc.8b01176
      * Hamiltonian:
        H0-scaling (s, p, d)           1.850000    2.230000    2.230000
        zeta-weighting                 0.500000
      * Dispersion:
        s8                             2.700000
        a1                             0.520000
        a2                             5.000000
        s9                             5.000000
      * Repulsion:
        kExp                           1.500000    1.000000
        rExp                           1.000000
      * Coulomb:
        alpha                          2.000000
        third order                    shell-resolved
        anisotropic                    true
        a3                             3.000000
        a5                             4.000000
        cn-shift                       1.200000
        cn-exp                         4.000000
        max-rad                        5.000000


          ...................................................
          :                      SETUP                      :
          :.................................................:
          :  # basis functions                 345          :
          :  # atomic orbitals                 345          :
          :  # shells                          193          :
          :  # electrons                       304          :
          :  max. iterations                   500          :
          :  Hamiltonian                  GFN2-xTB          :
          :  restarted?                      false          :
          :  GBSA solvation                  false          :
          :  PC potential                    false          :
          :  electronic temp.          300.0000000     K    :
          :  accuracy                    1.0000000          :
          :  -> integral cutoff          0.2500000E+02      :
          :  -> integral neglect         0.1000000E-07      :
          :  -> SCF convergence          0.1000000E-05 Eh   :
          :  -> wf. convergence          0.1000000E-03 e    :
          :  Broyden damping             0.4000000          :
          :  net charge                          0          :
          :  unpaired electrons                  0          :
          ...................................................

 iter      E             dE          RMSdq      gap      omega  full diag
   1   -146.9985804 -0.146999E+03  0.136E+01    0.30       0.0  T
   2   -143.2949417  0.370364E+01  0.879E+00    0.23       1.0  T
   3    -42.2307982  0.101064E+03  0.164E+01    0.03       1.0  T
   4    -98.0832833 -0.558525E+02  0.102E+01    0.11       1.0  T
   5   -110.4595093 -0.123762E+02  0.841E+00    0.17       1.0  T
   6   -109.2826606  0.117685E+01  0.777E+00    0.20       1.0  T
   7   -132.6047534 -0.233221E+02  0.529E+00    0.17       1.0  T
   8   -143.8404488 -0.112357E+02  0.342E+00    0.10       1.0  T
   9   -147.1307694 -0.329032E+01  0.227E+00    0.29       1.0  T
  10   -147.5025941 -0.371825E+00  0.191E+00    0.34       1.0  T
  11   -147.5830473 -0.804533E-01  0.163E+00    0.49       1.0  T
  12   -147.6285449 -0.454976E-01  0.148E+00    0.49       1.0  T
  13   -147.5619497  0.665952E-01  0.958E-01    0.43       1.0  T
  14   -147.3378387  0.224111E+00  0.118E+00    0.09       1.0  T
  15   -147.6717896 -0.333951E+00  0.593E-01    0.48       1.0  T
  16   -147.5689441  0.102846E+00  0.822E-01    0.01       1.0  T
  17   -147.6788156 -0.109872E+00  0.541E-01    0.05       1.0  T
  18   -147.6601912  0.186244E-01  0.572E-01    0.03       1.0  T
  19   -147.6850261 -0.248349E-01  0.420E-01    0.05       1.0  T
  20   -147.7080809 -0.230548E-01  0.271E-01    0.08       1.0  T
  21   -147.7116480 -0.356707E-02  0.213E-01    0.10       1.0  T
  22   -147.7128865 -0.123854E-02  0.188E-01    0.10       1.0  T
  23   -147.7130399 -0.153384E-03  0.171E-01    0.12       1.0  T
  24   -147.7140253 -0.985374E-03  0.977E-02    0.14       1.0  T
  25   -147.7136790  0.346250E-03  0.977E-02    0.14       1.0  T
  26   -147.7141110 -0.431942E-03  0.911E-02    0.14       1.0  T
  27   -147.7141830 -0.719983E-04  0.878E-02    0.14       1.0  T
  28   -147.7142279 -0.449244E-04  0.833E-02    0.14       1.0  T
  29   -147.7145147 -0.286799E-03  0.692E-02    0.14       1.0  T
  30   -147.7150494 -0.534684E-03  0.433E-02    0.13       1.0  T
  31   -147.7152760 -0.226655E-03  0.315E-02    0.13       1.0  T
  32   -147.7153662 -0.901993E-04  0.253E-02    0.12       1.0  T
  33   -147.7154215 -0.552693E-04  0.203E-02    0.12       1.0  T
  34   -147.7154758 -0.542846E-04  0.123E-02    0.12       1.0  T
  35   -147.7154970 -0.211984E-04  0.724E-03    0.12       1.3  T
  36   -147.7155053 -0.831577E-05  0.425E-03    0.12       2.2  T
  37   -147.7155094 -0.406867E-05  0.157E-03    0.11       5.9  T
  38   -147.7155091  0.249784E-06  0.173E-03    0.11       5.3  T
  39   -147.7155095 -0.435503E-06  0.490E-04    0.11      18.9  T
  40   -147.7155096 -0.266999E-07  0.409E-04    0.11      22.6  T

   *** convergence criteria satisfied after 40 iterations ***

         #    Occupation            Energy/Eh            Energy/eV
      -------------------------------------------------------------
         1        2.0000           -0.7024085             -19.1135
       ...           ...                  ...                  ...
       146        2.0000           -0.2795043              -7.6057
       147        2.0000           -0.2762586              -7.5174
       148        2.0000           -0.2755161              -7.4972
       149        2.0000           -0.2718259              -7.3968
       150        2.0000           -0.2684526              -7.3050
       151        2.0000           -0.2658060              -7.2330
       152        1.8002           -0.2541851              -6.9167 (HOMO)
       153        0.1998           -0.2500083              -6.8031 (LUMO)
       154        0.0000           -0.2413125              -6.5664
       155                         -0.2274974              -6.1905
       156                         -0.2237543              -6.0887
       157                         -0.2210601              -6.0154
       ...                                ...                  ...
       345                          1.2169773              33.1156
      -------------------------------------------------------------
                  HL-Gap            0.0041768 Eh            0.1137 eV
             Fermi-level           -0.2520968 Eh           -6.8599 eV

 SCC (total)                   0 d,  0 h,  0 min,  0.947 sec
 SCC setup                      ...        0 min,  0.001 sec (  0.106%)
 Dispersion                     ...        0 min,  0.003 sec (  0.317%)
 classical contributions        ...        0 min,  0.000 sec (  0.000%)
 integral evaluation            ...        0 min,  0.009 sec (  0.950%)
 iterations                     ...        0 min,  0.903 sec ( 95.354%)
 molecular gradient             ...        0 min,  0.029 sec (  3.062%)
 printout                       ...        0 min,  0.002 sec (  0.211%)

         :::::::::::::::::::::::::::::::::::::::::::::::::::::
         ::                     SUMMARY                     ::
         :::::::::::::::::::::::::::::::::::::::::::::::::::::
         :: total energy            -145.585642760860 Eh    ::
         :: gradient norm              0.057040259453 Eh/a0 ::
         :: HOMO-LUMO gap              0.113657431964 eV    ::
         ::.................................................::
         :: SCC energy              -147.713927063960 Eh    ::
         :: -> isotropic ES            0.348995261110 Eh    ::
         :: -> anisotropic ES          0.014096263740 Eh    ::
         :: -> anisotropic XC         -0.003785884577 Eh    ::
         :: -> dispersion             -0.128544131162 Eh    ::
         :: repulsion energy           2.128284303100 Eh    ::
         :: add. restraining           0.000000000000 Eh    ::
         :: total charge              -0.000000000000 e     ::
         :::::::::::::::::::::::::::::::::::::::::::::::::::::

      ----------------------------------------------------------- 
     |                   =====================                   |
     |                        A N C O P T                        |
     |                   =====================                   |
     |               Approximate Normal Coordinate               |
     |                Rational Function Optimizer                |
      ----------------------------------------------------------- 
      ----------------------------------------------------------- 
     |                   =====================                   |
     |                        A N C O P T                        |
     |                   =====================                   |
     |               Approximate Normal Coordinate               |
     |                Rational Function Optimizer                |
      ----------------------------------------------------------- 

          ...................................................
          :                      SETUP                      :
          :.................................................:
          :   optimization level            normal          :
          :   max. optcycles                    15          :
          :   ANC micro-cycles                  15          :
          :   degrees of freedom               345          :
          :.................................................:
          :   RF solver                   davidson          :
          :   write xtbopt.log                true          :
          :   linear?                        false          :
          :   energy convergence         0.5000000E-05 Eh   :
          :   grad. convergence          0.1000000E-02 Eh/α :
          :   maxmium RF displ.          1.0000000          :
          :   Hlow (freq-cutoff)         0.1000000E-01      :
          :   Hmax (freq-cutoff)         5.0000000          :
          :   S6 in model hess.         20.0000000          :
          ...................................................

generating ANC from exact Hessian ...
Using Lindh-Hessian (1995)
 Shifting diagonal of input Hessian by   1.034115054761279E-002
 Lowest  eigenvalues of input Hessian
    0.010000    0.010060    0.010078    0.010107    0.010171    0.010233
    0.010240    0.010283    0.000000    0.000000    0.000000    0.000000
    0.000000    0.000000    0.010353    0.010358    0.010432    0.010445
 Highest eigenvalues
    1.882109    1.929282    1.943978    2.004376    2.110276    2.216290
 

........................................................................
.............................. CYCLE    1 ..............................
........................................................................

 iter      E             dE          RMSdq      gap      omega  full diag
   1   -147.7155096 -0.147716E+03  0.257E-04    0.11       0.0  T
   2   -147.7155095  0.120278E-06  0.737E-04    0.11      12.5  T
   3   -147.7155096 -0.105555E-06  0.460E-04    0.11      20.1  T
     SCC iter.                  ...        0 min,  0.091 sec
     gradient                   ...        0 min,  0.031 sec
 * total energy  :  -145.5856428 Eh     change       -0.1110465E-08 Eh
   gradient norm :     0.0570424 Eh/α   predicted     0.0000000E+00 (-100.00%)
   displ. norm   :     0.3112017 α      lambda       -0.9921106E-02
   maximum displ.:     0.1030647 α      in ANC's #130, #109, #65, ...

........................................................................
.............................. CYCLE    2 ..............................
........................................................................

 iter      E             dE          RMSdq      gap      omega  full diag
   1   -147.7281266 -0.147728E+03  0.292E-01    0.05       0.0  T
   2   -147.7100472  0.180794E-01  0.412E-01    0.41       1.0  T
   3   -147.7311802 -0.211331E-01  0.289E-01    0.29       1.0  T
   4   -147.7367361 -0.555583E-02  0.221E-01    0.36       1.0  T
   5   -147.7413537 -0.461763E-02  0.178E-01    0.27       1.0  T
   6   -147.7445357 -0.318201E-02  0.128E-01    0.08       1.0  T
   7   -147.7175208  0.270149E-01  0.331E-01    0.03       1.0  T
   8   -147.7457689 -0.282481E-01  0.113E-01    0.18       1.0  T
   9   -147.7460870 -0.318085E-03  0.106E-01    0.17       1.0  T
  10   -147.7475987 -0.151172E-02  0.760E-02    0.15       1.0  T
  11   -147.7492187 -0.162000E-02  0.599E-03    0.11       1.5  T
  12   -147.7491597  0.589499E-04  0.154E-02    0.12       1.0  T
  13   -147.7491833 -0.235605E-04  0.126E-02    0.12       1.0  T
  14   -147.7492287 -0.453750E-04  0.100E-03    0.11       9.2  T
  15   -147.7492223  0.639951E-05  0.478E-03    0.11       1.9  T
  16   -147.7492288 -0.653978E-05  0.512E-04    0.11      18.0  T
  17   -147.7492284  0.402072E-06  0.128E-03    0.11       7.2  T
  18   -147.7492285 -0.105091E-06  0.112E-03    0.11       8.3  T
  19   -147.7492289 -0.352693E-06  0.163E-04    0.11      56.6  T
  20   -147.7492289  0.359350E-08  0.200E-04    0.11      46.1  T
     SCC iter.                  ...        0 min,  0.491 sec
     gradient                   ...        0 min,  0.030 sec
 * total energy  :  -145.5922452 Eh     change       -0.6602442E-02 Eh
   gradient norm :     0.0263530 Eh/α   predicted    -0.5441573E-02 ( -17.58%)
   displ. norm   :     0.2741872 α      lambda       -0.2649065E-02
   maximum displ.:     0.1086439 α      in ANC's #45, #65, #44, ...

........................................................................
.............................. CYCLE    3 ..............................
........................................................................

 iter      E             dE          RMSdq      gap      omega  full diag
   1   -147.7599856 -0.147760E+03  0.161E-01    0.07       0.0  T
   2   -147.7468616  0.131240E-01  0.272E-01    0.37       1.0  T
   3   -147.7570566 -0.101950E-01  0.187E-01    0.26       1.0  T
   4   -147.7600700 -0.301342E-02  0.136E-01    0.19       1.0  T
   5   -147.7545825  0.548755E-02  0.192E-01    0.06       1.0  T
   6   -147.7623712 -0.778872E-02  0.975E-02    0.08       1.0  T
   7   -147.7640967 -0.172552E-02  0.627E-02    0.14       1.0  T
   8   -147.7648031 -0.706429E-03  0.390E-02    0.12       1.0  T
   9   -147.7651209 -0.317775E-03  0.192E-02    0.12       1.0  T
  10   -147.7652152 -0.943380E-04  0.569E-03    0.11       1.6  T
  11   -147.7652217 -0.651173E-05  0.349E-03    0.11       2.7  T
  12   -147.7652241 -0.239364E-05  0.213E-03    0.11       4.3  T
  13   -147.7652243 -0.112123E-06  0.188E-03    0.11       4.9  T
  14   -147.7652252 -0.955552E-06  0.543E-04    0.11      17.0  T
  15   -147.7652250  0.243555E-06  0.105E-03    0.11       8.8  T
  16   -147.7652253 -0.310948E-06  0.159E-04    0.11      58.2  T
     SCC iter.                  ...        0 min,  0.364 sec
     gradient                   ...        0 min,  0.027 sec
 * total energy  :  -145.5938367 Eh     change       -0.1591526E-02 Eh
   gradient norm :     0.0104963 Eh/α   predicted    -0.1425144E-02 ( -10.45%)
   displ. norm   :     0.2489101 α      lambda       -0.8409045E-03
   maximum displ.:     0.0974820 α      in ANC's #45, #19, #24, ...

........................................................................
.............................. CYCLE    4 ..............................
........................................................................

 iter      E             dE          RMSdq      gap      omega  full diag
   1   -147.7673571 -0.147767E+03  0.132E-01    0.09       0.0  T
   2   -147.7575271  0.983000E-02  0.208E-01    0.34       1.0  T
   3   -147.7642410 -0.671391E-02  0.128E-01    0.08       1.0  T
   4   -147.7561358  0.810520E-02  0.188E-01    0.16       1.0  T
   5   -147.7660989 -0.996305E-02  0.873E-02    0.14       1.0  T
   6   -147.7683343 -0.223545E-02  0.169E-02    0.11       1.0  T
   7   -147.7683605 -0.261931E-04  0.124E-02    0.11       1.0  T
   8   -147.7683945 -0.339450E-04  0.587E-03    0.11       1.6  T
   9   -147.7683937  0.734833E-06  0.512E-03    0.11       1.8  T
  10   -147.7683972 -0.349447E-05  0.344E-03    0.11       2.7  T
  11   -147.7683998 -0.256938E-05  0.195E-03    0.11       4.7  T
  12   -147.7684004 -0.571639E-06  0.122E-03    0.11       7.6  T
  13   -147.7684007 -0.381437E-06  0.441E-04    0.11      21.0  T
  14   -147.7684008 -0.359810E-07  0.198E-04    0.11      46.6  T
     SCC iter.                  ...        0 min,  0.313 sec
     gradient                   ...        0 min,  0.027 sec
 * total energy  :  -145.5941560 Eh     change       -0.3192261E-03 Eh
   gradient norm :     0.0079090 Eh/α   predicted    -0.4465196E-03 (  39.88%)
   displ. norm   :     0.2670021 α      lambda       -0.8127178E-03
   maximum displ.:     0.0952484 α      in ANC's #45, #24, #19, ...

........................................................................
.............................. CYCLE    5 ..............................
........................................................................

 iter      E             dE          RMSdq      gap      omega  full diag
   1   -147.7679237 -0.147768E+03  0.121E-01    0.10       0.0  T
   2   -147.7608751  0.704868E-02  0.172E-01    0.23       1.0  T
   3   -147.7060027  0.548724E-01  0.455E-01    0.01       1.0  T
   4   -147.7606336 -0.546309E-01  0.166E-01    0.24       1.0  T
   5   -147.7615313 -0.897697E-03  0.155E-01    0.23       1.0  T
   6   -147.7620144 -0.483104E-03  0.145E-01    0.21       1.0  T
   7   -147.7634687 -0.145429E-02  0.128E-01    0.19       1.0  T
   8   -147.7644357 -0.967002E-03  0.114E-01    0.17       1.0  T
   9   -147.7655446 -0.110898E-02  0.951E-02    0.15       1.0  T
  10   -147.7669828 -0.143814E-02  0.645E-02    0.13       1.0  T
  11   -147.7680544 -0.107165E-02  0.218E-02    0.11       1.0  T
  12   -147.7681860 -0.131592E-03  0.543E-03    0.11       1.7  T
  13   -147.7681752  0.108320E-04  0.805E-03    0.11       1.1  T
  14   -147.7681808 -0.563039E-05  0.669E-03    0.11       1.4  T
  15   -147.7681931 -0.123027E-04  0.144E-03    0.11       6.4  T
  16   -147.7681937 -0.560263E-06  0.262E-04    0.11      35.3  T
  17   -147.7681930  0.672619E-06  0.153E-03    0.11       6.0  T
  18   -147.7681936 -0.641804E-06  0.395E-04    0.11      23.4  T
     SCC iter.                  ...        0 min,  0.376 sec
     gradient                   ...        0 min,  0.025 sec
 * total energy  :  -145.5945577 Eh     change       -0.4017547E-03 Eh
   gradient norm :     0.0079549 Eh/α   predicted    -0.4353281E-03 (   8.36%)
   displ. norm   :     0.1916973 α      lambda       -0.4130402E-03
   maximum displ.:     0.0731749 α      in ANC's #24, #19, #15, ...

........................................................................
.............................. CYCLE    6 ..............................
........................................................................

 iter      E             dE          RMSdq      gap      omega  full diag
   1   -147.7661380 -0.147766E+03  0.916E-02    0.11       0.0  T
   2   -147.7605186  0.561945E-02  0.150E-01    0.07       1.0  T
   3   -147.7609515 -0.432897E-03  0.140E-01    0.19       1.0  T
   4   -147.7626276 -0.167607E-02  0.116E-01    0.14       1.0  T
   5   -147.7639242 -0.129663E-02  0.871E-02    0.15       1.0  T
   6   -147.7648540 -0.929793E-03  0.664E-02    0.14       1.0  T
   7   -147.7656172 -0.763210E-03  0.438E-02    0.12       1.0  T
   8   -147.7659964 -0.379156E-03  0.246E-02    0.12       1.0  T
   9   -147.7661695 -0.173139E-03  0.419E-03    0.11       2.2  T
  10   -147.7661693  0.232424E-06  0.408E-03    0.11       2.3  T
  11   -147.7661735 -0.424437E-05  0.113E-03    0.11       8.1  T
  12   -147.7661735  0.229069E-07  0.114E-03    0.11       8.1  T
  13   -147.7661731  0.414153E-06  0.164E-03    0.11       5.6  T
  14   -147.7661738 -0.690309E-06  0.591E-04    0.11      15.6  T
  15   -147.7661738 -0.745653E-07  0.310E-04    0.11      29.8  T
     SCC iter.                  ...        0 min,  0.317 sec
     gradient                   ...        0 min,  0.025 sec
 * total energy  :  -145.5947332 Eh     change       -0.1755213E-03 Eh
   gradient norm :     0.0069803 Eh/α   predicted    -0.2141121E-03 (  21.99%)
   displ. norm   :     0.2232956 α      lambda       -0.4045880E-03
   maximum displ.:     0.0951894 α      in ANC's #24, #19, #15, ...

........................................................................
.............................. CYCLE    7 ..............................
........................................................................

 iter      E             dE          RMSdq      gap      omega  full diag
   1   -147.7644667 -0.147764E+03  0.817E-02    0.11       0.0  T
   2   -147.7585971  0.586961E-02  0.149E-01    0.07       1.0  T
   3   -147.7603460 -0.174893E-02  0.125E-01    0.17       1.0  T
   4   -147.7621320 -0.178597E-02  0.970E-02    0.13       1.0  T
   5   -147.7628982 -0.766230E-03  0.727E-02    0.14       1.0  T
   6   -147.7636573 -0.759054E-03  0.534E-02    0.13       1.0  T
   7   -147.7641531 -0.495818E-03  0.344E-02    0.12       1.0  T
   8   -147.7644122 -0.259139E-03  0.176E-02    0.11       1.0  T
   9   -147.7645032 -0.909502E-04  0.224E-03    0.11       4.1  T
  10   -147.7645037 -0.506909E-06  0.153E-03    0.11       6.1  T
  11   -147.7645038 -0.133231E-06  0.131E-03    0.11       7.1  T
  12   -147.7645042 -0.416045E-06  0.405E-04    0.11      22.8  T
  13   -147.7645041  0.908903E-07  0.644E-04    0.11      14.4  T
     SCC iter.                  ...        0 min,  0.307 sec
     gradient                   ...        0 min,  0.029 sec
 * total energy  :  -145.5950044 Eh     change       -0.2711359E-03 Eh
   gradient norm :     0.0050314 Eh/α   predicted    -0.2123842E-03 ( -21.67%)
   displ. norm   :     0.3541237 α      lambda       -0.3987252E-03
   maximum displ.:     0.1543494 α      in ANC's #24, #19, #15, ...

........................................................................
.............................. CYCLE    8 ..............................
........................................................................

 iter      E             dE          RMSdq      gap      omega  full diag
   1   -147.7634751 -0.147763E+03  0.113E-01    0.10       0.0  T
   2   -147.7587468  0.472825E-02  0.143E-01    0.18       1.0  T
   3   -147.6534570  0.105290E+00  0.603E-01    0.01       1.0  T
   4   -147.7572760 -0.103819E+00  0.154E-01    0.19       1.0  T
   5   -147.7584677 -0.119169E-02  0.132E-01    0.19       1.0  T
   6   -147.7593824 -0.914754E-03  0.121E-01    0.18       1.0  T
   7   -147.7603608 -0.978339E-03  0.105E-01    0.16       1.0  T
   8   -147.7612728 -0.912019E-03  0.889E-02    0.15       1.0  T
   9   -147.7621305 -0.857698E-03  0.705E-02    0.14       1.0  T
  10   -147.7626604 -0.529888E-03  0.560E-02    0.13       1.0  T
  11   -147.7633295 -0.669097E-03  0.301E-02    0.12       1.0  T
  12   -147.7635899 -0.260397E-03  0.305E-03    0.11       3.0  T
  13   -147.7635812  0.866946E-05  0.641E-03    0.11       1.4  T
  14   -147.7635848 -0.361981E-05  0.515E-03    0.11       1.8  T
  15   -147.7635888 -0.396973E-05  0.361E-03    0.11       2.6  T
  16   -147.7635923 -0.351159E-05  0.911E-04    0.11      10.1  T
  17   -147.7635923 -0.252837E-07  0.846E-04    0.11      10.9  T
  18   -147.7635925 -0.146271E-06  0.481E-04    0.11      19.2  T
     SCC iter.                  ...        0 min,  0.391 sec
     gradient                   ...        0 min,  0.026 sec
 * total energy  :  -145.5952462 Eh     change       -0.2418773E-03 Eh
   gradient norm :     0.0058565 Eh/α   predicted    -0.2243635E-03 (  -7.24%)
   displ. norm   :     0.4261447 α      lambda       -0.4152374E-03
   maximum displ.:     0.1840326 α      in ANC's #24, #19, #15, ...

........................................................................
.............................. CYCLE    9 ..............................
........................................................................

 iter      E             dE          RMSdq      gap      omega  full diag
   1   -147.7631205 -0.147763E+03  0.139E-01    0.09       0.0  T
   2   -147.7537540  0.936656E-02  0.199E-01    0.29       1.0  T
   3   -147.7237733  0.299807E-01  0.363E-01    0.03       1.0  T
   4   -147.7544480 -0.306747E-01  0.189E-01    0.29       1.0  T
   5   -147.7550586 -0.610586E-03  0.174E-01    0.28       1.0  T
   6   -147.7563463 -0.128780E-02  0.161E-01    0.24       1.0  T
   7   -147.7569351 -0.588728E-03  0.153E-01    0.22       1.0  T
   8   -147.7589743 -0.203925E-02  0.128E-01    0.18       1.0  T
   9   -147.7602400 -0.126564E-02  0.109E-01    0.16       1.0  T
  10   -147.7626790 -0.243904E-02  0.596E-02    0.13       1.0  T
  11   -147.7637273 -0.104826E-02  0.107E-02    0.11       1.0  T
  12   -147.7637102  0.170313E-04  0.132E-02    0.11       1.0  T
  13   -147.7637532 -0.429939E-04  0.474E-03    0.11       2.0  T
  14   -147.7636459  0.107338E-03  0.198E-02    0.11       1.0  T
  15   -147.7637574 -0.111559E-03  0.270E-03    0.11       3.4  T
  16   -147.7637593 -0.187642E-05  0.835E-04    0.11      11.1  T
  17   -147.7637590  0.334244E-06  0.134E-03    0.11       6.9  T
  18   -147.7637595 -0.478641E-06  0.451E-04    0.11      20.5  T
  19   -147.7637595 -0.420335E-07  0.244E-04    0.11      37.9  T
     SCC iter.                  ...        0 min,  0.405 sec
     gradient                   ...        0 min,  0.026 sec
 * total energy  :  -145.5955044 Eh     change       -0.2581388E-03 Eh
   gradient norm :     0.0066041 Eh/α   predicted    -0.2453228E-03 (  -4.96%)
   displ. norm   :     0.4130021 α      lambda       -0.3946877E-03
   maximum displ.:     0.1754006 α      in ANC's #24, #19, #15, ...

........................................................................
.............................. CYCLE   10 ..............................
........................................................................

 iter      E             dE          RMSdq      gap      omega  full diag
   1   -147.7655775 -0.147766E+03  0.124E-01    0.10       0.0  T
   2   -147.7577796  0.779794E-02  0.178E-01    0.24       1.0  T
   3   -147.7045765  0.532031E-01  0.448E-01    0.01       1.0  T
   4   -147.7579503 -0.533738E-01  0.178E-01    0.24       1.0  T
   5   -147.7580800 -0.129712E-03  0.162E-01    0.24       1.0  T
   6   -147.7594845 -0.140451E-02  0.150E-01    0.22       1.0  T
   7   -147.7603683 -0.883795E-03  0.138E-01    0.20       1.0  T
   8   -147.7616994 -0.133111E-02  0.120E-01    0.18       1.0  T
   9   -147.7628296 -0.113018E-02  0.102E-01    0.16       1.0  T
  10   -147.7642675 -0.143791E-02  0.738E-02    0.14       1.0  T
  11   -147.7656235 -0.135603E-02  0.299E-02    0.12       1.0  T
  12   -147.7658842 -0.260662E-03  0.402E-03    0.11       2.3  T
  13   -147.7657998  0.843999E-04  0.175E-02    0.11       1.0  T
  14   -147.7658760 -0.762611E-04  0.637E-03    0.11       1.5  T
  15   -147.7658769 -0.851610E-06  0.626E-03    0.11       1.5  T
  16   -147.7658873 -0.103655E-04  0.185E-03    0.11       5.0  T
  17   -147.7658876 -0.348251E-06  0.150E-03    0.11       6.2  T
  18   -147.7658881 -0.544478E-06  0.650E-04    0.11      14.2  T
  19   -147.7658883 -0.123548E-06  0.946E-05    0.11      97.7  T
     SCC iter.                  ...        0 min,  0.426 sec
     gradient                   ...        0 min,  0.027 sec
 * total energy  :  -145.5957410 Eh     change       -0.2365724E-03 Eh
   gradient norm :     0.0060414 Eh/α   predicted    -0.2310103E-03 (  -2.35%)
   displ. norm   :     0.3787127 α      lambda       -0.3404582E-03
   maximum displ.:     0.1535054 α      in ANC's #24, #10, #19, ...

........................................................................
.............................. CYCLE   11 ..............................
........................................................................

 iter      E             dE          RMSdq      gap      omega  full diag
   1   -147.7687468 -0.147769E+03  0.103E-01    0.10       0.0  T
   2   -147.7679430  0.803800E-03  0.797E-02    0.13       1.0  T
   3   -147.4686873  0.299256E+00  0.985E-01    0.08       1.0  T
   4   -147.7651486 -0.296461E+00  0.116E-01    0.12       1.0  T
   5   -147.7678215 -0.267292E-02  0.555E-02    0.13       1.0  T
   6   -147.7682485 -0.426982E-03  0.416E-02    0.12       1.0  T
   7   -147.7684956 -0.247055E-03  0.305E-02    0.12       1.0  T
   8   -147.7686094 -0.113811E-03  0.229E-02    0.11       1.0  T
   9   -147.7686897 -0.803402E-04  0.163E-02    0.11       1.0  T
  10   -147.7687403 -0.505607E-04  0.932E-03    0.11       1.0  T
  11   -147.7687613 -0.210361E-04  0.395E-03    0.11       2.3  T
  12   -147.7687648 -0.347303E-05  0.160E-03    0.11       5.8  T
  13   -147.7687652 -0.413409E-06  0.930E-04    0.11       9.9  T
  14   -147.7687652  0.336590E-08  0.885E-04    0.11      10.4  T
     SCC iter.                  ...        0 min,  0.305 sec
     gradient                   ...        0 min,  0.025 sec
 * total energy  :  -145.5959522 Eh     change       -0.2112867E-03 Eh
   gradient norm :     0.0046902 Eh/α   predicted    -0.1946458E-03 (  -7.88%)
   displ. norm   :     0.3830206 α      lambda       -0.2601694E-03
   maximum displ.:     0.1566048 α      in ANC's #10, #15, #24, ...

........................................................................
.............................. CYCLE   12 ..............................
........................................................................

 iter      E             dE          RMSdq      gap      omega  full diag
   1   -147.7698619 -0.147770E+03  0.895E-02    0.10       0.0  T
   2   -147.7678635  0.199836E-02  0.961E-02    0.14       1.0  T
   3   -147.6442697  0.123594E+00  0.639E-01    0.02       1.0  T
   4   -147.7674243 -0.123155E+00  0.989E-02    0.14       1.0  T
   5   -147.7678093 -0.384992E-03  0.821E-02    0.14       1.0  T
   6   -147.7685592 -0.749931E-03  0.675E-02    0.14       1.0  T
   7   -147.7689444 -0.385199E-03  0.563E-02    0.13       1.0  T
   8   -147.7693623 -0.417943E-03  0.424E-02    0.12       1.0  T
   9   -147.7696350 -0.272630E-03  0.299E-02    0.12       1.0  T
  10   -147.7697799 -0.144970E-03  0.198E-02    0.11       1.0  T
  11   -147.7698737 -0.937872E-04  0.900E-03    0.11       1.0  T
  12   -147.7698950 -0.212977E-04  0.255E-03    0.11       3.6  T
  13   -147.7698968 -0.173199E-05  0.560E-04    0.11      16.5  T
  14   -147.7698967  0.841085E-07  0.754E-04    0.11      12.3  T
  15   -147.7698967 -0.522124E-08  0.712E-04    0.11      13.0  T
     SCC iter.                  ...        0 min,  0.317 sec
     gradient                   ...        0 min,  0.026 sec
 * total energy  :  -145.5961419 Eh     change       -0.1896367E-03 Eh
   gradient norm :     0.0050469 Eh/α   predicted    -0.1491733E-03 ( -21.34%)
   displ. norm   :     0.4715680 α      lambda       -0.3029270E-03
   maximum displ.:     0.2019214 α      in ANC's #10, #15, #24, ...

........................................................................
.............................. CYCLE   13 ..............................
........................................................................

 iter      E             dE          RMSdq      gap      omega  full diag
   1   -147.7695154 -0.147770E+03  0.105E-01    0.10       0.0  T
   2   -147.7621010  0.741436E-02  0.170E-01    0.22       1.0  T
   3   -147.7423599  0.197412E-01  0.300E-01    0.04       1.0  T
   4   -147.7633155 -0.209557E-01  0.156E-01    0.21       1.0  T
   5   -147.7635197 -0.204210E-03  0.143E-01    0.20       1.0  T
   6   -147.7652738 -0.175409E-02  0.124E-01    0.18       1.0  T
   7   -147.7662605 -0.986681E-03  0.109E-01    0.16       1.0  T
   8   -147.7675721 -0.131157E-02  0.857E-02    0.15       1.0  T
   9   -147.7689050 -0.133293E-02  0.542E-02    0.13       1.0  T
  10   -147.7694484 -0.543391E-03  0.327E-02    0.12       1.0  T
  11   -147.7697521 -0.303696E-03  0.871E-03    0.11       1.1  T
  12   -147.7697736 -0.215355E-04  0.885E-04    0.10      10.4  T
  13   -147.7697729  0.746558E-06  0.185E-03    0.11       5.0  T
  14   -147.7697719  0.101632E-05  0.255E-03    0.11       3.6  T
  15   -147.7697737 -0.184196E-05  0.459E-04    0.10      20.1  T
  16   -147.7697737 -0.346084E-07  0.295E-04    0.10      31.3  T
  17   -147.7697737  0.457777E-07  0.484E-04    0.10      19.1  T
     SCC iter.                  ...        0 min,  0.385 sec
     gradient                   ...        0 min,  0.029 sec
 * total energy  :  -145.5963917 Eh     change       -0.2498451E-03 Eh
   gradient norm :     0.0051307 Eh/α   predicted    -0.1851503E-03 ( -25.89%)
   displ. norm   :     0.5546651 α      lambda       -0.3687716E-03
   maximum displ.:     0.2519028 α      in ANC's #10, #15, #24, ...

........................................................................
.............................. CYCLE   14 ..............................
........................................................................

 iter      E             dE          RMSdq      gap      omega  full diag
   1   -147.7688012 -0.147769E+03  0.112E-01    0.09       0.0  T
   2   -147.7586297  0.101714E-01  0.200E-01    0.29       1.0  T
   3   -147.7652691 -0.663934E-02  0.124E-01    0.08       1.0  T
   4   -147.7615376  0.373147E-02  0.153E-01    0.16       1.0  T
   5   -147.7670196 -0.548194E-02  0.898E-02    0.15       1.0  T
   6   -147.7687318 -0.171227E-02  0.483E-02    0.12       1.0  T
   7   -147.7694237 -0.691865E-03  0.102E-02    0.10       1.0  T
   8   -147.7694279 -0.417329E-05  0.105E-02    0.11       1.0  T
   9   -147.7694068  0.210198E-04  0.125E-02    0.11       1.0  T
  10   -147.7694516 -0.447183E-04  0.327E-03    0.10       2.8  T
  11   -147.7694535 -0.190163E-05  0.156E-03    0.10       5.9  T
  12   -147.7694539 -0.483599E-06  0.722E-04    0.10      12.8  T
  13   -147.7694540 -0.103350E-07  0.695E-04    0.10      13.3  T
     SCC iter.                  ...        0 min,  0.364 sec
     gradient                   ...        0 min,  0.027 sec
 * total energy  :  -145.5966767 Eh     change       -0.2849956E-03 Eh
   gradient norm :     0.0052826 Eh/α   predicted    -0.2411144E-03 ( -15.40%)
   displ. norm   :     0.5593896 α      lambda       -0.3152914E-03
   maximum displ.:     0.2632579 α      in ANC's #10, #15, #14, ...

........................................................................
.............................. CYCLE   15 ..............................
........................................................................

 iter      E             dE          RMSdq      gap      omega  full diag
   1   -147.7676660 -0.147768E+03  0.106E-01    0.09       0.0  T
   2   -147.7590318  0.863418E-02  0.183E-01    0.24       1.0  T
   3   -147.7536943  0.533753E-02  0.218E-01    0.05       1.0  T
   4   -147.7607104 -0.701613E-02  0.159E-01    0.21       1.0  T
   5   -147.7620429 -0.133253E-02  0.140E-01    0.19       1.0  T
   6   -147.7640464 -0.200345E-02  0.115E-01    0.17       1.0  T
   7   -147.7650757 -0.102935E-02  0.982E-02    0.15       1.0  T
   8   -147.7668668 -0.179107E-02  0.617E-02    0.13       1.0  T
   9   -147.7677268 -0.860004E-03  0.310E-02    0.12       1.0  T
  10   -147.7679276 -0.200830E-03  0.177E-02    0.11       1.0  T
  11   -147.7680122 -0.845494E-04  0.525E-03    0.11       1.8  T
  12   -147.7680196 -0.745599E-05  0.175E-03    0.10       5.3  T
  13   -147.7680204 -0.759694E-06  0.890E-04    0.10      10.4  T
  14   -147.7680205 -0.113598E-06  0.560E-04    0.10      16.5  T
     SCC iter.                  ...        0 min,  0.307 sec
     gradient                   ...        0 min,  0.025 sec
 * total energy  :  -145.5969285 Eh     change       -0.2517733E-03 Eh
   gradient norm :     0.0055338 Eh/α   predicted    -0.2069778E-03 ( -17.79%)
   displ. norm   :     0.5333413 α      lambda       -0.3116864E-03
   maximum displ.:     0.2637339 α      in ANC's #10, #15, #14, ...

   *** FAILED TO CONVERGE GEOMETRY OPTIMIZATION IN 15 ITERATIONS ***


 ANCopt (total)                0 d,  0 h,  0 min,  5.845 sec
 optimizer setup                ...        0 min,  0.000 sec (  0.000%)
 model hessian                  ...        0 min,  0.047 sec (  0.804%)
 ANC generation                 ...        0 min,  0.019 sec (  0.325%)
 coordinate transformation      ...        0 min,  0.002 sec (  0.034%)
 single point calculation       ...        0 min,  5.745 sec ( 98.289%)
 optimization log               ...        0 min,  0.023 sec (  0.393%)
 hessian update                 ...        0 min,  0.004 sec (  0.068%)
 rational function              ...        0 min,  0.004 sec (  0.068%)

================
 final structure:
================
117
 xtb: 6.7.1pre (5071a88)
C            2.14345053851468        7.00812755019273        8.52277799022204
O            0.91079143480300        7.06408395414935        7.85046241270827
C            0.41041267950075        5.90800806858063        7.32795181229277
C            0.99128393273196        4.65411954023330        7.49359049868415
C            0.40378433411783        3.55259559788058        6.90915251397853
C           -0.75730680713555        3.67991500650656        6.14562724554047
C           -1.35969701121743        4.93357635759220        5.98325265392581
C           -0.78738509687319        6.04042471218815        6.57651701612513
O           -1.28320907142090        7.31102748862036        6.49912239972103
C           -2.51444570597771        7.49762970482429        5.84826428770444
C           -1.15576262444180        2.39712298453273        5.61306736131099
O           -2.09739962367469        2.12624223257614        4.87885866207889
C           -0.15378130349976        1.34533888938427        6.13060501648037
C           -0.91926061033498        0.24666759538586        6.87599721590635
C           -0.20198746556281       -1.10321216145549        6.97114883723389
C            1.09745076228626       -1.04869446153653        7.77021346459340
C            1.82014371779566       -2.39858494169905        7.69877201352730
N            0.88542891368318       -3.49991152643492        7.53528966630424
C            1.51251147101643       -4.77217081123446        7.84588706927202
C            0.60733941231656       -5.92539862078700        7.51101674921664
C            0.36842963950343       -6.93639499758076        8.43088242753341
C           -0.48344518084084       -7.98258942208366        8.12061425544641
C           -1.10882095863700       -8.02284753912488        6.88755378845376
C           -0.87204289816514       -7.01987147886267        5.96124939147020
C           -0.01643287216617       -5.97930086810109        6.26977994682010
C           -0.32823271383418       -3.26350979173132        8.29341307312369
C           -1.12970185330163       -2.13835308220874        7.62912738156640
C            0.85698455774411        2.12729955773714        6.98563948157639
H            2.93578594938998        6.61118475858824        7.87921354065512
H            2.08159962946444        6.40521873424462        9.43521595549352
H            2.38236897164885        8.03710678262578        8.79181384298002
H            1.89218008953729        4.53559942218160        8.07476242816291
H           -2.26162868620545        5.00026197472233        5.39805773392692
H           -2.45047318939981        7.25158579512732        4.78308073441662
H           -3.30813226038482        6.90145385038674        6.31047065932728
H           -2.74835185501578        8.55637160621691        5.95860653377402
H            0.33363773582589        0.89863816338965        5.25838315316920
H           -1.16255884698286        0.60450170727321        7.88040422028202
H           -1.86331557274343        0.08980962243793        6.34663327717873
H            0.04195192562668       -1.44542399942074        5.96102693840337
H            1.76031305954967       -0.27889356508378        7.38218865096954
H            0.86290305397746       -0.80086734346107        8.80775644282972
H            2.43919065266072       -2.52598932225253        8.60960438652580
H            2.49821568895490       -2.41930570819793        6.83462441665071
H            1.81409284836089       -4.83036685823024        8.90966708695058
H            2.42542710521459       -4.84181767240496        7.24073801534571
H            0.84989508178143       -6.90251427968967        9.39820463349499
H           -0.66510233371331       -8.76040004132705        8.84826405468630
H           -1.78259013564354       -8.83213057876842        6.65012844318639
H           -1.35875370739718       -7.04974647061317        4.99760923450719
H            0.16671520510544       -5.18732066921979        5.56044302426148
H           -0.09925568280601       -3.00903516220684        9.34324045447755
H           -0.91948619510699       -4.18193265099676        8.30170588007658
H           -1.79584316485438       -2.55710581923840        6.87414909304486
H           -1.74976816918271       -1.65261377757841        8.38541017925758
H            0.84615256087575        1.79245182020630        8.02445668612710
H            1.87886831125937        2.02638888251101        6.61352520704955
B           -6.87654178802311       -4.63878708517239        0.59237451807927
B           -5.11840744473824       -2.19029664409630        0.50348725022785
B           -3.59643490870678       -2.16319145477578        0.38143760669992
B            0.98975624252610       -2.85474745399227        0.30718057607002
B            2.46279255106471       -3.01163057121687       -0.04918716520204
B            5.25094900789575       -3.79717867094655       -0.66558852801993
B            6.19175936825402       -4.75169631106008       -1.36327778889109
B           -6.42342122664849       -3.13465870761443        0.49293450441454
B           -6.76568448407993       -1.61881054522889        0.40270849796509
B           -2.06614892020787       -2.29875808065177        0.50972563175636
B           -0.49769318625362       -2.44980143772356        0.46493537583036
B            3.99980138026673       -2.88041768415311       -0.14276151759516
B            5.73330753896013       -2.28725901192857       -0.19856341431131
B            6.78096399144141       -3.19798960660431       -1.07046498202779
B           -7.64823747229161       -0.23521232946865        0.39020781077696
B           -6.03121589291464       -0.13694806305487        0.20882559002338
B           -4.42639079271573       -0.52276578500019        0.28571391624620
B           -2.72958583854440       -0.64150674338773        0.36600305535231
B           -1.05172774903937       -0.87533167998392        0.72267425110828
B            0.51209502068703       -1.14487835773237        0.85841306998733
B            3.10370874358763       -1.45920533446647        0.03316878345462
B            4.68413194345704       -1.14685155140817        0.46768147229234
B            6.25230383884269       -0.79525973562485        0.35181416330724
B            7.69186042034457       -0.37058971393602        1.06969680770310
B           -6.88961240660922        1.22387248528908        0.20036100358317
B           -3.40862003619215        0.78791135809165        0.07007351779538
B           -1.65377978566424        0.55744459983370        0.14854086194244
B            1.85016811052728       -0.36886247170241        0.42235072655714
B            3.58088125980648       -0.13906043810283        0.89627924417281
B            6.96859515698666        0.59874723709299       -0.03768122620774
B            8.33514655509721        1.02775164025172        0.62020097936943
B           -7.53931971163899        2.82233000983608        0.43560500777884
B           -6.14983999957786        2.52471567966354       -0.28288957896489
B           -3.57996435662623        2.32421915773269       -0.29078225572997
B           -0.89023041176403        1.84151782071492       -0.38227887002146
B            1.62419349285506        1.05420696082142       -0.30392972316691
B            2.99956097311689        1.31758150843487        0.66119405093043
B            6.34788659192566        1.86965051166752       -0.80843395271383
B           -6.49544792075756        4.05907716040749       -0.12290619464688
B           -4.87503079061708        3.47493968569726       -0.46881966072572
B           -3.41722649538403        3.87612330950125       -0.65737876019195
B           -2.01342259254079        3.24123213967478       -0.67501164833350
B           -0.48102288075363        3.31666148124164       -0.82205901872129
B            0.72691498428066        2.37622375383170       -0.64429255022173
B            2.34166779783102        2.51477753431287       -0.32826706837003
B            3.81955933024280        2.63444876640716        0.06558438217393
B            5.37541506143593        2.86458185174480        0.00895455073551
B            6.07138617160058        4.03514864250395        0.84571006805162
H            6.22729818802899        5.12921925428591        0.42987827443146
H            8.27021189873767       -1.13833602410517        1.73972684432299
H            6.56399013698271        2.01341028773177       -1.96398064629365
H           -6.92453151163502       -5.36190725071998       -0.34729468968201
H           -6.75014041186123        5.19915493923944       -0.21161405385680
H            9.21593490177024        1.78654503305111        0.72081637466949
H           -8.82083675188764       -0.30751678071653        0.37362980515116
H            6.59619071096113       -5.73568862447215       -1.84839136848363
H           -8.58057185340165        3.01741779953347        0.93484454661337
H            7.86660631266001       -2.86832486495013       -1.38354475319685
H            6.46445112496098        3.87163172406653        1.94756503709913
H           -7.25315785282744       -5.15446205738439        1.59095271912110
 
 Bond Distances (Angstroems)
 ---------------------------
C1-O2=1.4052         C1-H29=1.0952        C1-H30=1.0954        C1-H31=1.0901        O2-C1=1.4052         O2-C3=1.3638         
C3-O2=1.3638         C3-C4=1.3918         C3-C8=1.4202         C4-C3=1.3918         C4-C5=1.3784         C4-H32=1.0786        
C5-C4=1.3784         C5-C6=1.3955         C5-C28=1.4976        C6-C5=1.3955         C6-C7=1.4003         C6-C11=1.4450        
C7-C6=1.4003         C7-C8=1.3801         C7-H33=1.0772        C8-C3=1.4202         C8-C7=1.3801         C8-O9=1.3661         
O9-C8=1.3661         O9-C10=1.4051        C10-O9=1.4051        C10-H34=1.0951       C10-H35=1.0950       C10-H36=1.0899       
C11-C6=1.4450        C11-O12=1.2244       C11-C13=1.5421       O12-C11=1.2244       C13-C11=1.5421       C13-C14=1.5325       
C13-C28=1.5376       C13-H37=1.0945       C14-C13=1.5325       C14-C15=1.5316       C14-H38=1.0937       C14-H39=1.0937       
C15-C14=1.5316       C15-C16=1.5264       C15-C27=1.5379       C15-H40=1.0941       C16-C15=1.5264       C16-C17=1.5328       
C16-H41=1.0874       C16-H42=1.0922       C17-C16=1.5328       C17-N18=1.4537       C17-H43=1.1086       C17-H44=1.0986       
N18-C17=1.4537       N18-C19=1.4520       N18-C26=1.4504       C19-N18=1.4520       C19-C20=1.5038       C19-H45=1.1072       
C19-H46=1.0975       C20-C19=1.5038       C20-C21=1.3876       C20-C25=1.3902       C21-C20=1.3876       C21-C22=1.3844       
C21-H47=1.0811       C22-C21=1.3844       C22-C23=1.3832       C22-H48=1.0805       C23-C22=1.3832       C23-C24=1.3857       
C23-H49=1.0795       C24-C23=1.3857       C24-C25=1.3820       C24-H50=1.0800       C25-C20=1.3902       C25-C24=1.3820       
C25-H51=1.0789       C26-N18=1.4504       C26-C27=1.5328       C26-H52=1.1042       C26-H53=1.0923       C27-C15=1.5379       
C27-C26=1.5328       C27-H54=1.0905       C27-H55=1.0920       C28-C5=1.4976        C28-C13=1.5376       C28-H56=1.0915       
C28-H57=1.0922       H29-C1=1.0952        H30-C1=1.0954        H31-C1=1.0901        H32-C4=1.0786        H33-C7=1.0772        
H34-C10=1.0951       H35-C10=1.0950       H36-C10=1.0899       H37-C13=1.0945       H38-C14=1.0937       H39-C14=1.0937       
H40-C15=1.0941       H41-C16=1.0874       H42-C16=1.0922       H43-C17=1.1086       H44-C17=1.0986       H45-C19=1.1072       
H46-C19=1.0975       H47-C21=1.0811       H48-C22=1.0805       H49-C23=1.0795       H50-C24=1.0800       H51-C25=1.0789       
H52-C26=1.1042       H53-C26=1.0923       H54-C27=1.0905       H55-C27=1.0920       H56-C28=1.0915       H57-C28=1.0922       
B58-B65=1.5740       B58-H109=1.1867      B58-H117=1.1853      B59-B60=1.5271       B59-B65=1.6109       B59-B66=1.7465       
B59-B74=1.8185       B60-B59=1.5271       B60-B67=1.5416       B60-B74=1.8409       B60-B75=1.7513       B61-B62=1.5236       
B61-B68=1.5496       B61-B77=1.8589       B62-B61=1.5236       B62-B69=1.5454       B62-B78=1.6815       B63-B64=1.5110       
B63-B69=1.6368       B63-B70=1.6525       B63-B71=1.6923       B64-B63=1.5110       B64-B71=1.6873       B64-H113=1.1692      
B65-B58=1.5740       B65-B59=1.6109       B65-B66=1.5566       B66-B59=1.7465       B66-B65=1.5566       B66-B72=1.6412       
B66-B73=1.6652       B67-B60=1.5416       B67-B68=1.5763       B67-B75=1.7909       B67-B76=1.7608       B68-B61=1.5496       
B68-B67=1.5763       B68-B76=1.6889       B68-B77=1.6963       B69-B62=1.5454       B69-B63=1.6368       B69-B70=1.8330       
B69-B78=1.6893       B69-B79=1.9612       B70-B63=1.6525       B70-B69=1.8330       B70-B71=1.6393       B70-B79=1.6868       
B70-B80=1.6728       B71-B63=1.6923       B71-B64=1.6873       B71-B70=1.6393       B71-H115=1.1770      B72-B66=1.6412       
B72-B73=1.6301       B72-B82=1.6554       B72-H112=1.1749      B73-B66=1.6652       B73-B72=1.6301       B73-B74=1.6523       
B73-B82=1.6090       B74-B59=1.8185       B74-B60=1.8409       B74-B73=1.6523       B74-B75=1.7028       B74-B83=1.6734       
B75-B60=1.7513       B75-B67=1.7909       B75-B74=1.7028       B75-B76=1.7312       B75-B83=1.6099       B75-B84=1.6255       
B76-B67=1.7608       B76-B68=1.6889       B76-B75=1.7312       B76-B77=1.5927       B76-B84=1.6568       B77-B61=1.8589       
B77-B68=1.6963       B77-B76=1.5927       B77-B85=1.6071       B78-B62=1.6815       B78-B69=1.6893       B78-B79=1.6686       
B78-B85=1.7064       B78-B86=1.6479       B79-B69=1.9612       B79-B70=1.6868       B79-B78=1.6686       B79-B80=1.6113       
B79-B86=1.5545       B80-B70=1.6728       B80-B79=1.6113       B80-B81=1.6637       B80-B87=1.6149       B81-B80=1.6637       
B81-B87=1.6398       B81-B88=1.6035       B81-H107=1.1717      B82-B72=1.6554       B82-B73=1.6090       B82-B89=1.7414       
B82-B90=1.5726       B83-B74=1.6734       B83-B75=1.6099       B83-B84=1.7716       B83-B91=1.5874       B84-B75=1.6255       
B84-B76=1.6568       B84-B83=1.7716       B84-B92=1.5854       B85-B77=1.6071       B85-B78=1.7064       B85-B86=1.8091       
B85-B93=1.6136       B85-B94=2.0548       B86-B78=1.6479       B86-B79=1.5545       B86-B85=1.8091       B86-B94=1.5859       
B87-B80=1.6149       B87-B81=1.6398       B87-B88=1.5762       B87-B95=1.6108       B88-B81=1.6035       B88-B87=1.5762       
B88-H111=1.1669      B89-B82=1.7414       B89-B90=1.5923       B89-B96=1.7121       B89-H114=1.1711      B90-B82=1.5726       
B90-B89=1.5923       B90-B96=1.5809       B90-B97=1.6008       B91-B83=1.5874       B91-B97=1.7416       B91-B98=1.6029       
B91-B99=1.8554       B92-B84=1.5854       B92-B99=1.8184       B92-B100=1.5928      B92-B101=1.7233      B93-B85=1.6136       
B93-B94=1.7007       B93-B101=1.6336      B93-B102=1.6275      B94-B85=2.0548       B94-B86=1.5859       B94-B93=1.7007       
B94-B102=1.6868      B94-B103=1.6617      B95-B87=1.6108       B95-B104=1.6136      B95-H108=1.1843      B96-B89=1.7121       
B96-B90=1.5809       B96-B97=1.7569       B96-H110=1.1715      B97-B90=1.6008       B97-B91=1.7416       B97-B96=1.7569       
B97-B98=1.5237       B98-B91=1.6029       B98-B97=1.5237       B98-B99=1.5408       B99-B91=1.8554       B99-B92=1.8184       
B99-B98=1.5408       B99-B100=1.5413      B100-B92=1.5928      B100-B99=1.5413      B100-B101=1.5411     B101-B92=1.7233      
B101-B93=1.6336      B101-B100=1.5411     B101-B102=1.6512     B102-B93=1.6275      B102-B94=1.6868      B102-B101=1.6512     
B102-B103=1.5341     B103-B94=1.6617      B103-B102=1.5341     B103-B104=1.5738     B104-B95=1.6136      B104-B103=1.5738     
B104-B105=1.5984     B105-B104=1.5984     B105-H106=1.1808     B105-H116=1.1812     H106-B105=1.1808     H107-B81=1.1717      
H108-B95=1.1843      H109-B58=1.1867      H110-B96=1.1715      H111-B88=1.1669      H112-B72=1.1749      H113-B64=1.1692      
H114-B89=1.1711      H115-B71=1.1770      H116-B105=1.1812     H117-B58=1.1853      
 B  H  Rav=1.1767 sigma=0.0065  Rmin=1.1669  Rmax=1.1867    12
 B  B  Rav=1.6582 sigma=0.0990  Rmin=1.5110  Rmax=2.0548    89
 C  H  Rav=1.0913 sigma=0.0082  Rmin=1.0772  Rmax=1.1086    29
 C  C  Rav=1.4521 sigma=0.0681  Rmin=1.3784  Rmax=1.5421    23
 N  C  Rav=1.4520 sigma=0.0014  Rmin=1.4504  Rmax=1.4537     3
 O  C  Rav=1.3529 sigma=0.0667  Rmin=1.2244  Rmax=1.4052     5
 
 selected bond angles (degree)
 --------------------
H29-C1-O2=111.59               H30-C1-O2=111.77               H30-C1-H29=109.32              H31-C1-O2=105.83               
H31-C1-H29=109.18              H31-C1-H30=109.05              C3-O2-C1=118.13                C4-C3-O2=124.40                
C8-C3-O2=115.67                C8-C3-C4=119.93                C5-C4-C3=119.45                H32-C4-C3=120.78               
H32-C4-C5=119.78               C6-C5-C4=120.91                C28-C5-C4=127.58               C28-C5-C6=111.50               
C7-C6-C5=120.20                C11-C6-C5=110.49               C11-C6-C7=129.30               C8-C7-C6=119.33                
H33-C7-C6=118.59               H33-C7-C8=122.08               C7-C8-C3=120.16                O9-C8-C3=115.01                
O9-C8-C7=124.83                C10-O9-C8=117.89               H34-C10-O9=111.69              H35-C10-O9=111.55              
H35-C10-H34=109.30             H36-C10-O9=105.67              H36-C10-H34=109.22             H36-C10-H35=109.31             
 
 selected dihedral angles (degree)
 ---------------------------------
C3-O2-C1-H29= 57.52           C3-O2-C1-H30=294.76           C3-O2-C1-H31=176.17           C4-C3-O2-C1=  4.67            
C8-C3-O2-C1=184.42            C5-C4-C3-O2=180.57            C5-C4-C3-C8=  0.83            H32-C4-C3-O2=  0.72           
H32-C4-C3-C8=180.99           C6-C5-C4-C3=  0.55            C6-C5-C4-H32=180.40           C28-C5-C4-C3=181.03           
C28-C5-C4-H32=  0.88          C7-C6-C5-C4=358.76            C7-C6-C5-C28=178.35           C11-C6-C5-C4=178.43           
C11-C6-C5-C28=358.02          C8-C7-C6-C5=  0.52            C8-C7-C6-C11=180.91           H33-C7-C6-C5=180.70           
H33-C7-C6-C11=  1.10          C7-C8-C3-O2=178.69            C7-C8-C3-C4=358.45            O9-C8-C3-O2=359.07            
O9-C8-C3-C4=178.82            C3-C8-C7-C6=  0.86            C3-C8-C7-H33=180.66           O9-C8-C7-C6=180.45            
O9-C8-C7-H33=  0.25           C10-O9-C8-C3=184.28           C10-O9-C8-C7=  4.67           H34-C10-O9-C8=295.06          
H35-C10-O9-C8= 57.72          H36-C10-O9-C8=176.40          
 
 CMA Distance (Angstroems)
 ---------------------------
R(CMA):  6.9630
           -------------------------------------------------
          |                Final Singlepoint                |
           -------------------------------------------------

          ...................................................
          :                      SETUP                      :
          :.................................................:
          :  # basis functions                 345          :
          :  # atomic orbitals                 345          :
          :  # shells                          193          :
          :  # electrons                       304          :
          :  max. iterations                   500          :
          :  Hamiltonian                  GFN2-xTB          :
          :  restarted?                      false          :
          :  GBSA solvation                  false          :
          :  PC potential                    false          :
          :  electronic temp.          300.0000000     K    :
          :  accuracy                    1.0000000          :
          :  -> integral cutoff          0.2500000E+02      :
          :  -> integral neglect         0.1000000E-07      :
          :  -> SCF convergence          0.1000000E-05 Eh   :
          :  -> wf. convergence          0.1000000E-03 e    :
          :  Broyden damping             0.4000000          :
          :  net charge                          0          :
          :  unpaired electrons                  0          :
          ...................................................

 iter      E             dE          RMSdq      gap      omega  full diag
   1   -147.7676292 -0.147768E+03  0.884E-02    0.09       0.0  T
   2   -147.7604548  0.717439E-02  0.164E-01    0.21       1.0  T
   3   -147.7562841  0.417071E-02  0.197E-01    0.06       1.0  T
   4   -147.7613660 -0.508198E-02  0.146E-01    0.18       1.0  T
   5   -147.7636463 -0.228027E-02  0.117E-01    0.16       1.0  T
   6   -147.7653497 -0.170338E-02  0.909E-02    0.15       1.0  T
   7   -147.7661647 -0.815023E-03  0.740E-02    0.14       1.0  T
   8   -147.7673152 -0.115044E-02  0.420E-02    0.12       1.0  T
   9   -147.7676652 -0.350061E-03  0.240E-02    0.11       1.0  T
  10   -147.7677815 -0.116235E-03  0.142E-02    0.11       1.0  T
  11   -147.7678376 -0.561648E-04  0.363E-03    0.10       2.5  T
  12   -147.7678414 -0.379678E-05  0.577E-04    0.10      16.0  T
  13   -147.7678414 -0.202513E-07  0.477E-04    0.10      19.4  T
  14   -147.7678415 -0.174522E-07  0.388E-04    0.10      23.8  T

   *** convergence criteria satisfied after 14 iterations ***

         #    Occupation            Energy/Eh            Energy/eV
      -------------------------------------------------------------
         1        2.0000           -0.7047478             -19.1772
       ...           ...                  ...                  ...
       146        2.0000           -0.2796357              -7.6093
       147        2.0000           -0.2757111              -7.5025
       148        2.0000           -0.2747828              -7.4772
       149        2.0000           -0.2731827              -7.4337
       150        2.0000           -0.2687604              -7.3133
       151        2.0000           -0.2663685              -7.2483
       152        1.7603           -0.2530873              -6.8869 (HOMO)
       153        0.2397           -0.2492987              -6.7838 (LUMO)
       154        0.0000           -0.2404867              -6.5440
       155                         -0.2276405              -6.1944
       156                         -0.2236682              -6.0863
       157                         -0.2203520              -5.9961
       ...                                ...                  ...
       345                          1.2182412              33.1500
      -------------------------------------------------------------
                  HL-Gap            0.0037886 Eh            0.1031 eV
             Fermi-level           -0.2511931 Eh           -6.8353 eV

 SCC (total)                   0 d,  0 h,  0 min,  0.368 sec
 SCC setup                      ...        0 min,  0.002 sec (  0.543%)
 Dispersion                     ...        0 min,  0.001 sec (  0.272%)
 classical contributions        ...        0 min,  0.000 sec (  0.000%)
 integral evaluation            ...        0 min,  0.008 sec (  2.174%)
 iterations                     ...        0 min,  0.329 sec ( 89.402%)
 molecular gradient             ...        0 min,  0.026 sec (  7.065%)
 printout                       ...        0 min,  0.002 sec (  0.543%)

         :::::::::::::::::::::::::::::::::::::::::::::::::::::
         ::                     SUMMARY                     ::
         :::::::::::::::::::::::::::::::::::::::::::::::::::::
         :: total energy            -145.597191203684 Eh    ::
         :: gradient norm              0.005517248412 Eh/a0 ::
         :: HOMO-LUMO gap              0.103092209417 eV    ::
         ::.................................................::
         :: SCC energy              -147.766044824842 Eh    ::
         :: -> isotropic ES            0.346677017405 Eh    ::
         :: -> anisotropic ES          0.012063138159 Eh    ::
         :: -> anisotropic XC         -0.004863604662 Eh    ::
         :: -> dispersion             -0.130152267968 Eh    ::
         :: repulsion energy           2.168853621158 Eh    ::
         :: add. restraining           0.000000000000 Eh    ::
         :: total charge              -0.000000000001 e     ::
         :::::::::::::::::::::::::::::::::::::::::::::::::::::

           -------------------------------------------------
          |                Property Printout                |
           -------------------------------------------------

    * Orbital Energies and Occupations

         #    Occupation            Energy/Eh            Energy/eV
      -------------------------------------------------------------
         1        2.0000           -0.7047478             -19.1772
       ...           ...                  ...                  ...
       140        2.0000           -0.2979806              -8.1085
       141        2.0000           -0.2952926              -8.0353
       142        2.0000           -0.2919772              -7.9451
       143        2.0000           -0.2913792              -7.9288
       144        2.0000           -0.2870632              -7.8114
       145        2.0000           -0.2843561              -7.7377
       146        2.0000           -0.2796357              -7.6093
       147        2.0000           -0.2757111              -7.5025
       148        2.0000           -0.2747828              -7.4772
       149        2.0000           -0.2731827              -7.4337
       150        2.0000           -0.2687604              -7.3133
       151        2.0000           -0.2663685              -7.2483
       152        1.7603           -0.2530873              -6.8869 (HOMO)
       153        0.2397           -0.2492987              -6.7838 (LUMO)
       154        0.0000           -0.2404867              -6.5440
       155                         -0.2276405              -6.1944
       156                         -0.2236682              -6.0863
       157                         -0.2203520              -5.9961
       158                         -0.2173926              -5.9156
       159                         -0.2166248              -5.8947
       160                         -0.2137463              -5.8163
       161                         -0.2026842              -5.5153
       162                         -0.2013000              -5.4777
       163                         -0.1970370              -5.3617
       ...                                ...                  ...
       345                          1.2182412              33.1500
      -------------------------------------------------------------
                  HL-Gap            0.0037886 Eh            0.1031 eV
             Fermi-level           -0.2511931 Eh           -6.8353 eV

     #   Z          covCN         q      C6AA      α(0)
     1   6 C        3.646     0.034    20.330     6.480
     2   8 O        1.705    -0.253    18.188     5.758
     3   6 C        2.867     0.119    25.385     8.259
     4   6 C        2.912    -0.084    30.101     8.997
     5   6 C        3.021    -0.006    28.147     8.703
     6   6 C        3.003    -0.047    29.144     8.856
     7   6 C        2.911    -0.073    29.816     8.954
     8   6 C        2.865     0.118    25.407     8.262
     9   8 O        1.705    -0.260    18.317     5.778
    10   6 C        3.646     0.032    20.370     6.486
    11   6 C        2.859     0.204    23.679     7.976
    12   8 O        0.856    -0.437    22.441     6.351
    13   6 C        3.876    -0.052    21.465     6.587
    14   6 C        3.806    -0.066    21.769     6.642
    15   6 C        3.854    -0.022    20.928     6.506
    16   6 C        3.807    -0.067    21.776     6.643
    17   6 C        3.766     0.011    20.435     6.443
    18   7 N        2.731    -0.179    24.870     7.407
    19   6 C        3.766     0.006    20.518     6.456
    20   6 C        2.971     0.009    27.823     8.652
    21   6 C        2.924    -0.040    28.994     8.830
    22   6 C        2.919    -0.032    28.802     8.801
    23   6 C        2.921    -0.035    28.860     8.810
    24   6 C        2.919    -0.033    28.834     8.806
    25   6 C        2.925    -0.038    28.955     8.824
    26   6 C        3.762     0.013    20.402     6.439
    27   6 C        3.809    -0.069    21.815     6.649
    28   6 C        3.828    -0.073    21.866     6.654
    29   1 H        0.924     0.042     2.423     2.434
    30   1 H        0.924     0.040     2.448     2.447
    31   1 H        0.925     0.063     2.165     2.301
    32   1 H        0.926     0.038     2.482     2.464
    33   1 H        0.926     0.054     2.268     2.355
    34   1 H        0.924     0.042     2.417     2.431
    35   1 H        0.924     0.042     2.422     2.434
    36   1 H        0.925     0.062     2.176     2.307
    37   1 H        0.924     0.049     2.334     2.389
    38   1 H        0.924     0.033     2.546     2.495
    39   1 H        0.924     0.055     2.261     2.351
    40   1 H        0.924     0.044     2.402     2.424
    41   1 H        0.925     0.040     2.451     2.448
    42   1 H        0.924     0.032     2.556     2.500
    43   1 H        0.922     0.003     3.007     2.712
    44   1 H        0.923     0.027     2.626     2.534
    45   1 H        0.922     0.006     2.950     2.686
    46   1 H        0.924     0.039     2.461     2.453
    47   1 H        0.926     0.026     2.637     2.539
    48   1 H        0.926     0.029     2.594     2.519
    49   1 H        0.926     0.031     2.572     2.508
    50   1 H        0.926     0.036     2.499     2.472
    51   1 H        0.926     0.049     2.338     2.391
    52   1 H        0.923     0.005     2.972     2.696
    53   1 H        0.924     0.032     2.553     2.499
    54   1 H        0.924     0.038     2.475     2.460
    55   1 H        0.924     0.034     2.531     2.488
    56   1 H        0.924     0.051     2.303     2.373
    57   1 H        0.924     0.040     2.450     2.448
    58   5 B        2.840     0.115    19.516     7.377
    59   5 B        3.877     0.034    22.110     7.578
    60   5 B        3.724    -0.016    22.931     7.738
    61   5 B        2.787     0.014    21.243     7.705
    62   5 B        2.909    -0.042    22.165     7.857
    63   5 B        3.856     0.016    22.442     7.635
    64   5 B        2.870     0.060    20.397     7.539
    65   5 B        2.920     0.002    21.367     7.713
    66   5 B        3.828     0.054    21.750     7.518
    67   5 B        3.763     0.019    22.333     7.626
    68   5 B        3.851     0.005    22.632     7.667
    69   5 B        4.419     0.050    21.841     7.530
    70   5 B        4.692     0.090    21.139     7.408
    71   5 B        3.804     0.066    21.528     7.481
    72   5 B        3.830     0.062    21.601     7.492
    73   5 B        3.991     0.053    21.785     7.521
    74   5 B        4.586     0.064    21.582     7.485
    75   5 B        5.635     0.112    20.767     7.343
    76   5 B        4.735     0.041    21.998     7.557
    77   5 B        3.719     0.040    21.882     7.562
    78   5 B        4.777     0.082    21.270     7.431
    79   5 B        4.526     0.026    22.258     7.602
    80   5 B        3.855     0.045    21.918     7.545
    81   5 B        3.833     0.041    21.982     7.557
    82   5 B        3.834     0.014    22.471     7.641
    83   5 B        3.809    -0.015    23.011     7.734
    84   5 B        3.812     0.009    22.554     7.656
    85   5 B        4.253    -0.014    23.004     7.728
    86   5 B        3.794     0.017    22.389     7.630
    87   5 B        3.878     0.030    22.181     7.590
    88   5 B        2.888     0.102    19.697     7.407
    89   5 B        3.782     0.080    21.270     7.439
    90   5 B        3.896     0.053    21.771     7.519
    91   5 B        3.707     0.043    21.802     7.553
    92   5 B        3.755     0.035    22.038     7.577
    93   5 B        3.855     0.045    21.907     7.543
    94   5 B        4.320     0.045    21.914     7.543
    95   5 B        2.876     0.086    19.965     7.459
    96   5 B        3.774     0.081    21.241     7.435
    97   5 B        3.797     0.010    22.530     7.654
    98   5 B        2.926     0.013    21.172     7.678
    99   5 B        3.655     0.008    22.221     7.665
   100   5 B        2.926     0.025    20.974     7.642
   101   5 B        3.843    -0.000    22.733     7.685
   102   5 B        3.859     0.016    22.429     7.633
   103   5 B        2.912     0.007    21.289     7.700
   104   5 B        2.916     0.008    21.264     7.695
   105   5 B        2.842     0.138    19.163     7.310
   106   1 H        0.935    -0.138     7.102     4.167
   107   1 H        0.938    -0.106     5.754     3.750
   108   1 H        0.934    -0.134     6.933     4.117
   109   1 H        0.933    -0.151     7.730     4.347
   110   1 H        0.938    -0.131     6.774     4.069
   111   1 H        0.940    -0.144     7.398     4.252
   112   1 H        0.937    -0.115     6.109     3.864
   113   1 H        0.939    -0.152     7.798     4.366
   114   1 H        0.939    -0.129     6.689     4.044
   115   1 H        0.937    -0.141     7.221     4.202
   116   1 H        0.935    -0.140     7.197     4.195
   117   1 H        0.933    -0.151     7.732     4.348

 Mol. C6AA /au·bohr⁶  :     191747.253556
 Mol. C8AA /au·bohr⁸  :    5766386.214962
 Mol. α(0) /au        :        694.866756


Wiberg/Mayer (AO) data.
largest (>0.10) Wiberg bond orders for each atom

 ---------------------------------------------------------------------------
     #   Z sym  total        # sym  WBO       # sym  WBO       # sym  WBO
 ---------------------------------------------------------------------------
     1   6 C    3.947 --     2 O    0.989    31 H    0.979    29 H    0.976
                            30 H    0.975
     2   8 O    2.225 --     3 C    1.064     1 C    0.989
     3   6 C    3.867 --     4 C    1.376     8 C    1.244     2 O    1.064
     4   6 C    3.976 --     5 C    1.425     3 C    1.376    32 H    0.963
     5   6 C    3.947 --     4 C    1.425     6 C    1.321    28 C    1.013
     6   6 C    3.953 --     5 C    1.321     7 C    1.305    11 C    1.108
     7   6 C    3.935 --     8 C    1.445     6 C    1.305    33 H    0.963
     8   6 C    3.935 --     7 C    1.445     3 C    1.244     9 O    1.055
     9   8 O    2.228 --     8 C    1.055    10 C    0.989
    10   6 C    3.947 --     9 O    0.989    36 H    0.979    35 H    0.976
                            34 H    0.976
    11   6 C    3.836 --    12 O    1.695     6 C    1.108    13 C    0.948
    12   8 O    1.920 --    11 C    1.695
    13   6 C    3.992 --    28 C    0.997    14 C    0.986    37 H    0.953
                            11 C    0.948
    14   6 C    3.988 --    15 C    0.995    13 C    0.986    38 H    0.975
                            39 H    0.970
    15   6 C    3.994 --    16 C    0.999    14 C    0.995    27 C    0.992
                            40 H    0.968
    16   6 C    3.996 --    17 C    1.000    15 C    0.999    42 H    0.978
                            41 H    0.973
    17   6 C    3.988 --    18 N    1.003    16 C    1.000    44 H    0.975
                            43 H    0.965
    18   7 N    3.121 --    26 C    1.003    17 C    1.003    19 C    0.999
    19   6 C    3.988 --    20 C    1.004    18 N    0.999    45 H    0.960
                            46 H    0.959
    20   6 C    3.989 --    21 C    1.420    25 C    1.405    19 C    1.004
                            23 C    0.110
    21   6 C    3.992 --    22 C    1.439    20 C    1.420    47 H    0.969
                            24 C    0.110
    22   6 C    3.992 --    23 C    1.444    21 C    1.439    48 H    0.971
                            25 C    0.112
    23   6 C    3.992 --    22 C    1.444    24 C    1.432    49 H    0.972
                            20 C    0.110
    24   6 C    3.992 --    25 C    1.453    23 C    1.432    50 H    0.971
                            21 C    0.110
    25   6 C    3.991 --    24 C    1.453    20 C    1.405    51 H    0.968
                            22 C    0.112
    26   6 C    3.988 --    18 N    1.003    27 C    0.999    53 H    0.971
                            52 H    0.967
    27   6 C    3.996 --    26 C    0.999    15 C    0.992    54 H    0.981
                            55 H    0.977
    28   6 C    3.997 --     5 C    1.013    13 C    0.997    57 H    0.964
                            56 H    0.958
    29   1 H    0.997 --     1 C    0.976
    30   1 H    0.997 --     1 C    0.975
    31   1 H    0.996 --     1 C    0.979
    32   1 H    0.997 --     4 C    0.963
    33   1 H    0.996 --     7 C    0.963
    34   1 H    0.998 --    10 C    0.976
    35   1 H    0.998 --    10 C    0.976
    36   1 H    0.996 --    10 C    0.979
    37   1 H    0.992 --    13 C    0.953
    38   1 H    0.999 --    14 C    0.975
    39   1 H    0.997 --    14 C    0.970
    40   1 H    0.998 --    15 C    0.968
    41   1 H    0.998 --    16 C    0.973
    42   1 H    0.999 --    16 C    0.978
    43   1 H    1.000 --    17 C    0.965
    44   1 H    0.999 --    17 C    0.975
    45   1 H    1.000 --    19 C    0.960
    46   1 H    0.998 --    19 C    0.959
    47   1 H    0.999 --    21 C    0.969
    48   1 H    0.999 --    22 C    0.971
    49   1 H    0.999 --    23 C    0.972
    50   1 H    0.998 --    24 C    0.971
    51   1 H    0.998 --    25 C    0.968
    52   1 H    1.000 --    26 C    0.967
    53   1 H    0.999 --    26 C    0.971
    54   1 H    0.999 --    27 C    0.981
    55   1 H    0.999 --    27 C    0.977
    56   1 H    0.995 --    28 C    0.958
    57   1 H    0.996 --    28 C    0.964
    58   5 B    3.280 --    65 B    1.204   117 H    0.944   109 H    0.942
    59   5 B    3.549 --    60 B    1.167    65 B    0.846    66 B    0.538
                            74 B    0.507    73 B    0.157
    60   5 B    3.571 --    59 B    1.167    67 B    1.150    75 B    0.461
                            74 B    0.456
    61   5 B    3.371 --    62 B    1.368    68 B    1.080    77 B    0.457
    62   5 B    3.531 --    61 B    1.368    69 B    1.130    78 B    0.610
    63   5 B    3.569 --    64 B    1.310    69 B    0.730    71 B    0.695
                            70 B    0.694
    64   5 B    3.395 --    63 B    1.310   113 H    0.967    71 B    0.824
                            70 B    0.125
    65   5 B    3.396 --    58 B    1.204    66 B    1.078    59 B    0.846
    66   5 B    3.513 --    65 B    1.078    72 B    0.831    73 B    0.694
                            59 B    0.538
    67   5 B    3.443 --    60 B    1.150    68 B    0.995    76 B    0.529
                            75 B    0.443
    68   5 B    3.541 --    61 B    1.080    67 B    0.995    77 B    0.647
                            76 B    0.615
    69   5 B    3.534 --    62 B    1.130    63 B    0.730    78 B    0.643
                            70 B    0.461    79 B    0.337
    70   5 B    3.618 --    71 B    0.893    80 B    0.695    63 B    0.694
                            79 B    0.572    69 B    0.461    64 B    0.125
    71   5 B    3.575 --   115 H    0.937    70 B    0.893    64 B    0.824
                            63 B    0.695
    72   5 B    3.563 --   112 H    0.923    66 B    0.831    82 B    0.819
                            73 B    0.796
    73   5 B    3.641 --    82 B    0.856    74 B    0.809    72 B    0.796
                            66 B    0.694    59 B    0.157
    74   5 B    3.559 --    73 B    0.809    83 B    0.779    75 B    0.644
                            59 B    0.507    60 B    0.456
    75   5 B    3.669 --    83 B    0.728    84 B    0.703    74 B    0.644
                            76 B    0.522    60 B    0.461    67 B    0.443
    76   5 B    3.560 --    77 B    0.948    84 B    0.719    68 B    0.615
                            67 B    0.529    75 B    0.522
    77   5 B    3.501 --    85 B    1.022    76 B    0.948    68 B    0.647
                            61 B    0.457
    78   5 B    3.612 --    86 B    0.681    85 B    0.646    79 B    0.643
                            69 B    0.643    62 B    0.610
    79   5 B    3.608 --    86 B    1.026    80 B    0.765    78 B    0.643
                            70 B    0.572    69 B    0.337
    80   5 B    3.671 --    87 B    0.832    81 B    0.809    79 B    0.765
                            70 B    0.695    88 B    0.161
    81   5 B    3.631 --    88 B    1.015   107 H    0.909    80 B    0.809
                            87 B    0.737
    82   5 B    3.595 --    90 B    0.880    73 B    0.856    72 B    0.819
                            89 B    0.720
    83   5 B    3.624 --    91 B    1.107    74 B    0.779    75 B    0.728
                            84 B    0.611
    84   5 B    3.537 --    92 B    1.086    76 B    0.719    75 B    0.703
                            83 B    0.611
    85   5 B    3.595 --    77 B    1.022    93 B    0.913    78 B    0.646
                            86 B    0.454    94 B    0.275
    86   5 B    3.593 --    79 B    1.026    94 B    0.974    78 B    0.681
                            85 B    0.454
    87   5 B    3.605 --    88 B    0.964    95 B    0.899    80 B    0.832
                            81 B    0.737
    88   5 B    3.436 --    81 B    1.015   111 H    0.970    87 B    0.964
                            95 B    0.185    80 B    0.161
    89   5 B    3.546 --   114 H    0.954    96 B    0.864    90 B    0.828
                            82 B    0.720
    90   5 B    3.629 --    82 B    0.880    96 B    0.871    89 B    0.828
                            97 B    0.770
    91   5 B    3.593 --    83 B    1.107    98 B    0.828    97 B    0.687
                            99 B    0.546
    92   5 B    3.597 --    84 B    1.086   100 B    0.853   101 B    0.703
                            99 B    0.577
    93   5 B    3.550 --    85 B    0.913   101 B    0.780   102 B    0.704
                            94 B    0.660
    94   5 B    3.579 --    86 B    0.974   103 B    0.747   102 B    0.681
                            93 B    0.660    85 B    0.275
    95   5 B    3.438 --   104 B    0.990   108 H    0.934    87 B    0.899
                            88 B    0.185   105 B    0.155
    96   5 B    3.542 --   110 H    0.957    90 B    0.871    89 B    0.864
                            97 B    0.656
    97   5 B    3.579 --    98 B    1.256    90 B    0.770    91 B    0.687
                            96 B    0.656
    98   5 B    3.541 --    97 B    1.256    99 B    1.113    91 B    0.828
    99   5 B    3.548 --   100 B    1.124    98 B    1.113    92 B    0.577
                            91 B    0.546
   100   5 B    3.519 --   101 B    1.161    99 B    1.124    92 B    0.853
   101   5 B    3.590 --   100 B    1.161    93 B    0.780   102 B    0.745
                            92 B    0.703
   102   5 B    3.581 --   103 B    1.199   101 B    0.745    93 B    0.704
                            94 B    0.681
   103   5 B    3.518 --   102 B    1.199   104 B    1.058    94 B    0.747
                           105 B    0.121
   104   5 B    3.395 --   105 B    1.069   103 B    1.058    95 B    0.990
   105   5 B    3.283 --   104 B    1.069   106 H    0.953   116 H    0.951
                            95 B    0.155   103 B    0.121
   106   1 H    0.978 --   105 B    0.953
   107   1 H    0.982 --    81 B    0.909
   108   1 H    0.980 --    95 B    0.934
   109   1 H    0.968 --    58 B    0.942
   110   1 H    0.979 --    96 B    0.957
   111   1 H    0.979 --    88 B    0.970
   112   1 H    0.977 --    72 B    0.923
   113   1 H    0.975 --    64 B    0.967
   114   1 H    0.978 --    89 B    0.954
   115   1 H    0.972 --    71 B    0.937
   116   1 H    0.977 --   105 B    0.951
   117   1 H    0.969 --    58 B    0.944
 ---------------------------------------------------------------------------

Topologies differ in total number of bonds
Writing topology from bond orders to xtbtopo.mol

molecular dipole:
                 x           y           z       tot (Debye)
 q only:       -0.800      -0.356      -1.991
   full:       -0.034       0.418      -0.820       2.341
molecular quadrupole (traceless):
                xx          xy          yy          xz          yz          zz
 q only:      -66.519     -24.318       9.060      33.538     -20.446      57.458
  q+dip:      -23.957     -25.284     -25.021      35.226     -24.121      48.978
   full:      -39.178     -27.706     -35.365      35.820     -22.090      74.543

           -------------------------------------------------
          |                Geometry Summary                 |
           -------------------------------------------------

      molecular mass/u    :      910.5174967
   center of mass at/Å    :        0.0034978       0.1489947       2.9726952
  moments of inertia/u·Å² :        0.2355651E+05   0.2540929E+05   0.2655323E+05
rotational constants/cm⁻¹ :        0.7156252E-03   0.6634437E-03   0.6348618E-03

 * 141 selected distances

     #   Z          #   Z                                           value/Å
     1   6 C        2   8 O                                       1.4052004
     2   8 O        3   6 C                                       1.3637844
     3   6 C        4   6 C                                       1.3917918
     4   6 C        5   6 C                                       1.3784335
     5   6 C        6   6 C                                       1.3954620
     6   6 C        7   6 C                                       1.4003238
     3   6 C        8   6 C                                       1.4201790
     7   6 C        8   6 C                                       1.3800787
     8   6 C        9   8 O                                       1.3661124
     9   8 O       10   6 C                                       1.4051266
    11   6 C       12   8 O                                       1.2243853
    13   6 C       14   6 C                                       1.5325297
    14   6 C       15   6 C                                       1.5315712
    15   6 C       16   6 C                                       1.5264392
    16   6 C       17   6 C                                       1.5328385
    17   6 C       18   7 N                                       1.4537327
    18   7 N       19   6 C                                       1.4520149
    20   6 C       21   6 C                                       1.3875679
    21   6 C       22   6 C                                       1.3843700
    22   6 C       23   6 C                                       1.3831681
    23   6 C       24   6 C                                       1.3856641
    20   6 C       25   6 C                                       1.3902038
    24   6 C       25   6 C                                       1.3820446
    18   7 N       26   6 C                                       1.4503833
    15   6 C       27   6 C                                       1.5378904
    26   6 C       27   6 C                                       1.5328426
    13   6 C       28   6 C                                       1.5375937
     1   6 C       29   1 H                                       1.0952326
     1   6 C       30   1 H                                       1.0953848
     1   6 C       31   1 H                                       1.0900738
     4   6 C       32   1 H                                       1.0786204
     7   6 C       33   1 H                                       1.0772098 (min)
    10   6 C       34   1 H                                       1.0951011
    10   6 C       35   1 H                                       1.0949881
    10   6 C       36   1 H                                       1.0898725
    13   6 C       37   1 H                                       1.0944816
    14   6 C       38   1 H                                       1.0936512
    14   6 C       39   1 H                                       1.0936501
    15   6 C       40   1 H                                       1.0940575
    16   6 C       41   1 H                                       1.0874481
    16   6 C       42   1 H                                       1.0922118
    17   6 C       43   1 H                                       1.1086329
    17   6 C       44   1 H                                       1.0986183
    19   6 C       45   1 H                                       1.1072336
    19   6 C       46   1 H                                       1.0974841
    21   6 C       47   1 H                                       1.0810501
    22   6 C       48   1 H                                       1.0804921
    23   6 C       49   1 H                                       1.0794790
    24   6 C       50   1 H                                       1.0799919
    25   6 C       51   1 H                                       1.0788582
    26   6 C       52   1 H                                       1.1042308
    26   6 C       53   1 H                                       1.0923142
    27   6 C       54   1 H                                       1.0904543
    27   6 C       55   1 H                                       1.0919656
    28   6 C       56   1 H                                       1.0915043
    28   6 C       57   1 H                                       1.0921990
    59   5 B       60   5 B                                       1.5270991
    61   5 B       62   5 B                                       1.5236294
    63   5 B       64   5 B                                       1.5109596
    58   5 B       65   5 B                                       1.5740423
    59   5 B       65   5 B                                       1.6108980
    65   5 B       66   5 B                                       1.5566249
    60   5 B       67   5 B                                       1.5416263
    61   5 B       68   5 B                                       1.5496368
    67   5 B       68   5 B                                       1.5763483
    62   5 B       69   5 B                                       1.5454351
    63   5 B       69   5 B                                       1.6368169
    63   5 B       70   5 B                                       1.6524649
    63   5 B       71   5 B                                       1.6923058
    64   5 B       71   5 B                                       1.6872778
    70   5 B       71   5 B                                       1.6392764
    66   5 B       72   5 B                                       1.6411583
    66   5 B       73   5 B                                       1.6652182
    72   5 B       73   5 B                                       1.6301272
    73   5 B       74   5 B                                       1.6523411
    60   5 B       75   5 B                                       1.7513396 (max)
    74   5 B       75   5 B                                       1.7028486
    68   5 B       76   5 B                                       1.6888870
    75   5 B       76   5 B                                       1.7312125
    68   5 B       77   5 B                                       1.6962670
    76   5 B       77   5 B                                       1.5926778
    62   5 B       78   5 B                                       1.6815412
    69   5 B       78   5 B                                       1.6893130
    70   5 B       79   5 B                                       1.6867665
    78   5 B       79   5 B                                       1.6685635
    70   5 B       80   5 B                                       1.6728225
    79   5 B       80   5 B                                       1.6112745
    80   5 B       81   5 B                                       1.6637379
    72   5 B       82   5 B                                       1.6554404
    73   5 B       82   5 B                                       1.6089591
    74   5 B       83   5 B                                       1.6733897
    75   5 B       83   5 B                                       1.6099374
    75   5 B       84   5 B                                       1.6254640
    76   5 B       84   5 B                                       1.6567873
    77   5 B       85   5 B                                       1.6071064
    78   5 B       85   5 B                                       1.7063630
    78   5 B       86   5 B                                       1.6478581
    79   5 B       86   5 B                                       1.5545101
    80   5 B       87   5 B                                       1.6149414
    81   5 B       87   5 B                                       1.6398211
    81   5 B       88   5 B                                       1.6035032
    87   5 B       88   5 B                                       1.5761716
    82   5 B       90   5 B                                       1.5725736
    89   5 B       90   5 B                                       1.5923138
    83   5 B       91   5 B                                       1.5873934
    84   5 B       92   5 B                                       1.5854405
    85   5 B       93   5 B                                       1.6135907
    86   5 B       94   5 B                                       1.5858766
    93   5 B       94   5 B                                       1.7007252
    87   5 B       95   5 B                                       1.6107559
    89   5 B       96   5 B                                       1.7120593
    90   5 B       96   5 B                                       1.5809191
    90   5 B       97   5 B                                       1.6008231
    91   5 B       98   5 B                                       1.6028985
    97   5 B       98   5 B                                       1.5237115
    98   5 B       99   5 B                                       1.5407996
    92   5 B      100   5 B                                       1.5927670
    99   5 B      100   5 B                                       1.5412858
    92   5 B      101   5 B                                       1.7232880
    93   5 B      101   5 B                                       1.6336109
   100   5 B      101   5 B                                       1.5411484
    93   5 B      102   5 B                                       1.6274608
    94   5 B      102   5 B                                       1.6867530
   101   5 B      102   5 B                                       1.6512106
    94   5 B      103   5 B                                       1.6617124
   102   5 B      103   5 B                                       1.5341460
    95   5 B      104   5 B                                       1.6136027
   103   5 B      104   5 B                                       1.5738029
   104   5 B      105   5 B                                       1.5983625
   105   5 B      106   1 H                                       1.1807690
    81   5 B      107   1 H                                       1.1716934
    95   5 B      108   1 H                                       1.1843378
    58   5 B      109   1 H                                       1.1866694
    96   5 B      110   1 H                                       1.1715438
    88   5 B      111   1 H                                       1.1669101
    72   5 B      112   1 H                                       1.1749434
    64   5 B      113   1 H                                       1.1692481
    89   5 B      114   1 H                                       1.1711130
    71   5 B      115   1 H                                       1.1769950
   105   5 B      116   1 H                                       1.1812377
    58   5 B      117   1 H                                       1.1852928

 * 6 distinct bonds (by element types)

   Z      Z             #   av. dist./Å        max./Å        min./Å
   1 H    5 B          12     1.1767295     1.1866694     1.1669101
   5 B    5 B          73     1.6221894     1.7513396     1.5109596
   1 H    6 C          29     1.0912583     1.1086329     1.0772098
   6 C    6 C          19     1.4426838     1.5378904     1.3784335
   6 C    7 N           3     1.4520437     1.4537327     1.4503833
   6 C    8 O           5     1.3529218     1.4052004     1.2243853


optimized geometry written to: xtbopt.xyz


           -------------------------------------------------
          | TOTAL ENERGY             -145.597191203684 Eh   |
          | GRADIENT NORM               0.005517248412 Eh/α |
          | HOMO-LUMO GAP               0.103092209417 eV   |
           -------------------------------------------------

------------------------------------------------------------------------
 * finished run on 2026/09/01 at 16:38:13.052     
------------------------------------------------------------------------
 total:
 * wall-time:     0 d,  0 h,  0 min,  7.238 sec
 *  cpu-time:     0 d,  0 h,  1 min,  8.203 sec
 * ratio c/w:     9.423 speedup
 SCF:
 * wall-time:     0 d,  0 h,  0 min,  0.949 sec
 *  cpu-time:     0 d,  0 h,  0 min,  8.953 sec
 * ratio c/w:     9.434 speedup
 ANC optimizer:
 * wall-time:     0 d,  0 h,  0 min,  6.224 sec
 *  cpu-time:     0 d,  0 h,  0 min, 58.719 sec
 * ratio c/w:     9.434 speedup

