117
Donepezil 270 deg
C     -2.352987     -7.045327      8.995255
O     -1.101219     -7.163907      8.335412
C     -0.509808     -6.013282      7.871286
C     -1.061190     -4.730355      8.021017
C     -0.370785     -3.641690      7.509736
C      0.840360     -3.834709      6.866741
C      1.419998     -5.079197      6.699047
C      0.736758     -6.187143      7.207695
O      1.189729     -7.481279      7.114759
C      2.431725     -7.696999      6.458733
C      1.344783     -2.540770      6.431852
O      2.405894     -2.395947      5.850014
C      0.349857     -1.450333      6.800290
C      1.033333     -0.343492      7.614249
C      0.331688      1.027944      7.543995
C     -1.079226      1.046588      8.135825
C     -1.728046      2.436579      8.020850
N     -0.766589      3.547542      8.000527
C     -1.428795      4.811189      8.360993
C     -0.608020      6.041135      8.032341
C     -0.362118      7.016533      9.009511
C      0.377376      8.159771      8.699439
C      0.874189      8.342619      7.410118
C      0.631670      7.383935      6.428519
C     -0.107890      6.241278      6.736581
C      0.393977      3.257404      8.840792
C      1.200438      2.097668      8.242420
C     -0.766997     -2.200490      7.567376
H     -3.115684     -6.634879      8.325385
H     -2.263142     -6.447110      9.907893
H     -2.673787     -8.049937      9.287316
H     -2.006676     -4.564358      8.524069
H      2.370878     -5.150144      6.185198
H      2.384223     -7.384547      5.410385
H      3.249433     -7.194717      6.985979
H      2.636396     -8.771833      6.475841
H     -0.050353     -1.051132      5.859843
H      1.140228     -0.657990      8.660703
H      2.057517     -0.207166      7.241378
H      0.252055      1.306391      6.483413
H     -1.728821      0.325776      7.630403
H     -1.032686      0.753125      9.192630
H     -2.442618      2.539089      8.848339
H     -2.310934      2.477875      7.092469
H     -1.701726      4.806424      9.424659
H     -2.367855      4.911332      7.799632
H     -0.742849      6.891267     10.020193
H      0.565979      8.908324      9.464384
H      1.450823      9.231791      7.170071
H      1.019236      7.523106      5.422944
H     -0.288534      5.494831      5.965570
H      0.079520      3.010985      9.863738
H      1.067579      4.118413      8.920790
H      1.917055      2.489345      7.508598
H      1.797667      1.649931      9.046667
H     -0.847529     -1.875617      8.609759
H     -1.733503     -2.053840      7.073286
B     -6.351142     -2.854456     -0.339557
B     -3.863246     -3.427578      0.871248
B     -1.055185     -4.165135      1.979350
B      1.685312     -4.231770      1.354949
B      2.970257     -3.692274      0.621871
B      5.907588     -3.848572     -0.380027
B     -4.761208     -2.330720     -0.407809
B     -2.619857     -2.211059      0.844160
B     -1.232659     -2.391074      1.779162
B      0.281426     -3.144602      1.258585
B      3.128005     -2.135340      0.033717
B      5.282428     -2.580677     -1.142740
B     -4.382652     -1.054498     -1.346132
B     -3.192369     -1.268483     -0.239841
B     -0.766749     -0.915069      2.147107
B      0.434070     -1.509850      0.882523
B      4.260331     -1.271884     -0.605716
B      6.845204     -2.475577     -0.806482
B     -5.007204     -0.643659     -2.849649
B     -3.195209      0.154301     -0.925672
B     -0.946947      0.623306      2.210385
B      0.001581     -0.020442      0.908402
B      4.875444      0.224219     -0.547589
B      5.878568     -1.066378     -1.130575
B     -5.767164      0.853536     -2.917565
B     -2.897102      1.628167     -0.708344
B     -1.239865      2.133184      2.088909
B      0.188320      1.549872      1.054031
B      4.258123      1.584106      0.064663
B      6.307532      0.439704     -1.625845
B     -5.734132      1.755409     -1.493813
B     -3.346886      2.973961     -0.174554
B     -1.664632      3.616005      1.797280
B     -0.058970      3.164039      1.323482
B      2.965632      2.258875      0.684366
B      5.791920      1.672515     -0.698507
B     -6.638907      2.799988     -0.842193
B     -4.474576      3.887338      0.587924
B     -1.777076      5.175247      1.215356
B      1.175393      4.406638      1.328978
B      2.593810      3.922874      0.879575
B      5.350926      2.985997     -0.054101
B     -5.318955     -3.634817      0.416463
B     -2.487709     -3.632854      1.605545
B      0.359579     -4.721327      1.906320
B      1.721498     -2.416215      0.734504
B      4.338705     -3.479950     -0.072929
B     -5.095331      2.847233     -0.373491
B     -3.034495      4.318735      0.932612
B     -0.286930      4.895064      1.442591
B      1.461620      2.548192      0.992407
B      4.078380      3.619763      0.510634
B     -4.595730      0.591276     -1.841534
H     -7.368369     -2.502749     -0.810293
H     -4.959065     -1.376034     -3.773890
H     -6.324579      1.260780     -3.871541
H     -7.613398      3.401728     -0.597572
H      6.361232     -4.935383     -0.360239
H      8.016260     -2.468237     -0.906140
H      6.939156      0.614609     -2.612760
