      -----------------------------------------------------------      
     |                   =====================                   |     
     |                           x T B                           |     
     |                   =====================                   |     
     |                         S. Grimme                         |     
     |          Mulliken Center for Theoretical Chemistry        |     
     |                    University of Bonn                     |     
      -----------------------------------------------------------      

   * xtb version 6.7.1pre (5071a88) compiled by 'Marcel@Raven' on 2024-07-23

   xtb is free software: you can redistribute it and/or modify it under
   the terms of the GNU Lesser General Public License as published by
   the Free Software Foundation, either version 3 of the License, or
   (at your option) any later version.
   
   xtb is distributed in the hope that it will be useful,
   but WITHOUT ANY WARRANTY; without even the implied warranty of
   MERCHANTABILITY or FITNESS FOR A PARTICULAR PURPOSE.  See the
   GNU Lesser General Public License for more details.
   
   Cite this work as:
   * C. Bannwarth, E. Caldeweyher, S. Ehlert, A. Hansen, P. Pracht,
     J. Seibert, S. Spicher, S. Grimme, WIREs Comput. Mol. Sci., 2020, 11,
     e01493. DOI: 10.1002/wcms.1493
   
   for GFN2-xTB:
   * C. Bannwarth, S. Ehlert and S. Grimme., J. Chem. Theory Comput., 2019,
     15, 1652-1671. DOI: 10.1021/acs.jctc.8b01176
   for GFN1-xTB:
   * S. Grimme, C. Bannwarth, P. Shushkov, J. Chem. Theory Comput., 2017,
     13, 1989-2009. DOI: 10.1021/acs.jctc.7b00118
   for GFN0-xTB:
   * P. Pracht, E. Caldeweyher, S. Ehlert, S. Grimme, ChemRxiv, 2019, preprint.
     DOI: 10.26434/chemrxiv.8326202.v1
   for GFN-FF:
   * S. Spicher and S. Grimme, Angew. Chem. Int. Ed., 2020, 59, 15665-15673.
     DOI: 10.1002/anie.202004239
   
   for ALPB and GBSA implicit solvation:
   * S. Ehlert, M. Stahn, S. Spicher, S. Grimme, J. Chem. Theory Comput.,
     2021, 17, 4250-4261. DOI: 10.1021/acs.jctc.1c00471
   
   for ddCOSMO and CPCM-X implicit solvation:
   * M. Stahn, S. Ehlert, S. Grimme, J. Phys. Chem. A,
     2023, XX, XXXX-XXXX. DOI: 10.1021/acs.jpca.3c04382
   
   for DFT-D4:
   * E. Caldeweyher, C. Bannwarth and S. Grimme, J. Chem. Phys., 2017,
     147, 034112. DOI: 10.1063/1.4993215
   * E. Caldeweyher, S. Ehlert, A. Hansen, H. Neugebauer, S. Spicher,
     C. Bannwarth and S. Grimme, J. Chem. Phys., 2019, 150, 154122.
     DOI: 10.1063/1.5090222
   * E. Caldeweyher, J.-M. Mewes, S. Ehlert and S. Grimme, Phys. Chem. Chem. Phys.
     2020, 22, 8499-8512. DOI: 10.1039/D0CP00502A
   
   for sTDA-xTB:
   * S. Grimme and C. Bannwarth, J. Chem. Phys., 2016, 145, 054103.
     DOI: 10.1063/1.4959605
   
   in the mass-spec context:
   * V. Asgeirsson, C. Bauer and S. Grimme, Chem. Sci., 2017, 8, 4879.
     DOI: 10.1039/c7sc00601b
   * J. Koopman and S. Grimme, ACS Omega 2019, 4, 12, 15120-15133.
     DOI: 10.1021/acsomega.9b02011
   
   for metadynamics refer to:
   * S. Grimme, J. Chem. Theory Comput., 2019, 155, 2847-2862
     DOI: 10.1021/acs.jctc.9b00143
   
   for SPH calculations refer to:
   * S. Spicher and S. Grimme, J. Chem. Theory Comput., 2021, 17, 1701-1714
     DOI: 10.1021/acs.jctc.0c01306
   
   for ONIOM refer to:
   * C. Plett, A. Katbashev, S. Ehlert, S. Grimme, M. Bursch,
     Phys. Chem. Chem. Phys., 2023, 25, 17860-17868. DOI: 10.1039/D3CP02178E
   
   for DIPRO refer to:
   * J. Kohn, N. Gildemeister, S. Grimme, D. Fazzi, A. Hansen,
     J. Chem. Phys., 2023, just accepted.
   
   for PTB refer to:
   * S. Grimme, M. Mueller, A. Hansen, J. Chem. Phys., 2023, 158, 124111.
     DOI: 10.1063/5.0137838
   
   with help from (in alphabetical order)
   P. Atkinson, C. Bannwarth, F. Bohle, G. Brandenburg, E. Caldeweyher
   M. Checinski, S. Dohm, S. Ehlert, S. Ehrlich, I. Gerasimov, C. Hölzer
   A. Katbashev, J. Kohn, J. Koopman, C. Lavigne, S. Lehtola, F. März, M. Müller,
   F. Musil, H. Neugebauer, J. Pisarek, C. Plett, P. Pracht, F. Pultar,
   J. Seibert, P. Shushkov, S. Spicher, M. Stahn, M. Steiner, T. Strunk,
   J. Stückrath, T. Rose, and J. Unsleber
   
 * started run on 2026/09/02 at 15:23:42.234     
   ID    Z sym.   atoms
    1    6 C      1, 3-8, 10, 11, 13-17, 19-28
    2    8 O      2, 9, 12
    3    7 N      18
    4    1 H      29-57, 98-112
    5    5 B      58-97

           -------------------------------------------------
          |                Calculation Setup                |
           -------------------------------------------------

          program call               : "c:\Users\Andre\Proyectos doctorado\nano-qsar-ai-papers\kras-pancreatic-gC3N4-ai\tools\xtb\xtb-6.7.1\bin\xtb.exe" "c:\Users\Andre\Proyectos doctorado\borophene-alzheimer-tau-ai\calculations\tau\Donepezil\Donepezil_opt_270deg_input.xyz" --opt loose --gfn 2 --chrg 0 --uhf 0 --iterations 500 --cycles 400 --norestart
          coordinate file            : c:\Users\Andre\Proyectos doctorado\borophene-alzheimer-tau-ai\calculations\tau\Donepezil\Donepezil_opt_270deg_input.xyz
          omp threads                :                     4


molecular fragmentation (1/2 indicates fragments):
111111111111111111111111111111111111111111111111111111111222222222222222
2222222222222222222222222222222222222222
# atoms in fragment 1/2:    57    55
 fragment masses (1/2) :      379.49      447.56
CMA distance (Bohr)    :  15.918
constraining FC (au)   :  0.0500

           -------------------------------------------------
          |                 G F N 2 - x T B                 |
           -------------------------------------------------

        Reference                      10.1021/acs.jctc.8b01176
      * Hamiltonian:
        H0-scaling (s, p, d)           1.850000    2.230000    2.230000
        zeta-weighting                 0.500000
      * Dispersion:
        s8                             2.700000
        a1                             0.520000
        a2                             5.000000
        s9                             5.000000
      * Repulsion:
        kExp                           1.500000    1.000000
        rExp                           1.000000
      * Coulomb:
        alpha                          2.000000
        third order                    shell-resolved
        anisotropic                    true
        a3                             3.000000
        a5                             4.000000
        cn-shift                       1.200000
        cn-exp                         4.000000
        max-rad                        5.000000


          ...................................................
          :                      SETUP                      :
          :.................................................:
          :  # basis functions                 316          :
          :  # atomic orbitals                 316          :
          :  # shells                          180          :
          :  # electrons                       283          :
          :  max. iterations                   500          :
          :  Hamiltonian                  GFN2-xTB          :
          :  restarted?                      false          :
          :  GBSA solvation                  false          :
          :  PC potential                    false          :
          :  electronic temp.          300.0000000     K    :
          :  accuracy                    1.0000000          :
          :  -> integral cutoff          0.2500000E+02      :
          :  -> integral neglect         0.1000000E-07      :
          :  -> SCF convergence          0.1000000E-05 Eh   :
          :  -> wf. convergence          0.1000000E-03 e    :
          :  Broyden damping             0.4000000          :
          :  net charge                          0          :
          :  unpaired electrons                  0          :
          ...................................................

 iter      E             dE          RMSdq      gap      omega  full diag
   1   -138.5305054 -0.138531E+03  0.122E+01    0.17       0.0  T
   2   -137.4311588  0.109935E+01  0.809E+00    0.41       1.0  T
   3    -86.9261152  0.505050E+02  0.119E+01    0.03       1.0  T
   4    -79.9255230  0.700059E+01  0.109E+01    0.17       1.0  T
   5   -132.0815195 -0.521560E+02  0.429E+00    0.25       1.0  T
   6   -135.2975841 -0.321606E+01  0.402E+00    0.12       1.0  T
   7   -138.4667321 -0.316915E+01  0.226E+00    0.16       1.0  T
   8   -139.1877325 -0.721000E+00  0.161E+00    0.26       1.0  T
   9   -139.3648899 -0.177157E+00  0.134E+00    0.50       1.0  T
  10   -139.3590892  0.580071E-02  0.116E+00    0.41       1.0  T
  11   -139.3282550  0.308341E-01  0.923E-01    0.37       1.0  T
  12   -139.3658529 -0.375978E-01  0.619E-01    0.07       1.0  T
  13   -139.4093687 -0.435158E-01  0.387E-01    0.30       1.0  T
  14   -139.4125074 -0.313866E-02  0.358E-01    0.12       1.0  T
  15   -139.4141809 -0.167354E-02  0.285E-01    0.09       1.0  T
  16   -139.4148328 -0.651908E-03  0.242E-01    0.13       1.0  T
  17   -139.4101321  0.470071E-02  0.276E-01    0.03       1.0  T
  18   -139.4170713 -0.693919E-02  0.187E-01    0.08       1.0  T
  19   -139.4174937 -0.422459E-03  0.146E-01    0.07       1.0  T
  20   -139.4183257 -0.832006E-03  0.920E-02    0.08       1.0  T
  21   -139.4188588 -0.533036E-03  0.398E-02    0.10       1.0  T
  22   -139.4189503 -0.915593E-04  0.317E-02    0.10       1.0  T
  23   -139.4190541 -0.103779E-03  0.241E-02    0.10       1.0  T
  24   -139.4191018 -0.476961E-04  0.173E-02    0.09       1.0  T
  25   -139.4191051 -0.330129E-05  0.127E-02    0.09       1.0  T
  26   -139.4191172 -0.120475E-04  0.971E-03    0.09       1.0  T
  27   -139.4191243 -0.711561E-05  0.765E-03    0.09       1.2  T
  28   -139.4191316 -0.732590E-05  0.499E-03    0.09       1.9  T
  29   -139.4191360 -0.438020E-05  0.269E-03    0.09       3.5  T
  30   -139.4191376 -0.156965E-05  0.982E-04    0.10       9.6  T
  31   -139.4191377 -0.173707E-06  0.345E-04    0.10      27.4  T
  32   -139.4191377 -0.155479E-07  0.164E-04    0.10      57.7  T

   *** convergence criteria satisfied after 32 iterations ***

         #    Occupation            Energy/Eh            Energy/eV
      -------------------------------------------------------------
         1        2.0000           -0.7062533             -19.2181
       ...           ...                  ...                  ...
       136        2.0000           -0.2911702              -7.9231
       137        2.0000           -0.2854673              -7.7680
       138        2.0000           -0.2825596              -7.6888
       139        2.0000           -0.2794310              -7.6037
       140        2.0000           -0.2742553              -7.4629
       141        1.9993           -0.2710657              -7.3761
       142        0.8653           -0.2572773              -7.0009 (HOMO)
       143        0.1354           -0.2537544              -6.9050 (LUMO)
       144        0.0000           -0.2419277              -6.5832
       145                         -0.2245854              -6.1113
       146                         -0.2176032              -5.9213
       147                         -0.2174715              -5.9177
       ...                                ...                  ...
       316                          1.0712561              29.1504
      -------------------------------------------------------------
                  HL-Gap            0.0035229 Eh            0.0959 eV
             Fermi-level           -0.2598413 Eh           -7.0706 eV

 SCC (total)                   0 d,  0 h,  0 min,  1.000 sec
 SCC setup                      ...        0 min,  0.001 sec (  0.100%)
 Dispersion                     ...        0 min,  0.004 sec (  0.400%)
 classical contributions        ...        0 min,  0.002 sec (  0.200%)
 integral evaluation            ...        0 min,  0.015 sec (  1.500%)
 iterations                     ...        0 min,  0.923 sec ( 92.300%)
 molecular gradient             ...        0 min,  0.049 sec (  4.900%)
 printout                       ...        0 min,  0.006 sec (  0.600%)

         :::::::::::::::::::::::::::::::::::::::::::::::::::::
         ::                     SUMMARY                     ::
         :::::::::::::::::::::::::::::::::::::::::::::::::::::
         :: total energy            -137.505688888103 Eh    ::
         :: gradient norm              0.054577760579 Eh/a0 ::
         :: HOMO-LUMO gap              0.095863500818 eV    ::
         ::.................................................::
         :: SCC energy              -139.417345646721 Eh    ::
         :: -> isotropic ES            0.272761913401 Eh    ::
         :: -> anisotropic ES          0.018460878476 Eh    ::
         :: -> anisotropic XC          0.019305151210 Eh    ::
         :: -> dispersion             -0.130604992620 Eh    ::
         :: repulsion energy           1.911656758618 Eh    ::
         :: add. restraining           0.000000000000 Eh    ::
         :: total charge               0.000000000054 e     ::
         :::::::::::::::::::::::::::::::::::::::::::::::::::::

      ----------------------------------------------------------- 
     |                   =====================                   |
     |                        A N C O P T                        |
     |                   =====================                   |
     |               Approximate Normal Coordinate               |
     |                Rational Function Optimizer                |
      ----------------------------------------------------------- 
      ----------------------------------------------------------- 
     |                   =====================                   |
     |                        A N C O P T                        |
     |                   =====================                   |
     |               Approximate Normal Coordinate               |
     |                Rational Function Optimizer                |
      ----------------------------------------------------------- 

          ...................................................
          :                      SETUP                      :
          :.................................................:
          :   optimization level             loose          :
          :   max. optcycles                   400          :
          :   ANC micro-cycles                  20          :
          :   degrees of freedom               330          :
          :.................................................:
          :   RF solver                   davidson          :
          :   write xtbopt.log                true          :
          :   linear?                        false          :
          :   energy convergence         0.5000000E-04 Eh   :
          :   grad. convergence          0.4000000E-02 Eh/α :
          :   maxmium RF displ.          1.0000000          :
          :   Hlow (freq-cutoff)         0.1000000E-01      :
          :   Hmax (freq-cutoff)         5.0000000          :
          :   S6 in model hess.         20.0000000          :
          ...................................................

generating ANC from exact Hessian ...
Using Lindh-Hessian (1995)
 Shifting diagonal of input Hessian by   1.030259861525931E-002
 Lowest  eigenvalues of input Hessian
    0.010000    0.010100    0.010115    0.010121    0.010269    0.000000
    0.000000    0.000000    0.000000    0.000000    0.000000    0.010312
    0.010315    0.010357    0.010430    0.010464    0.010495    0.010645
 Highest eigenvalues
    1.882070    1.929243    1.943939    2.004337    2.110237    2.216246
 

........................................................................
.............................. CYCLE    1 ..............................
........................................................................

 iter      E             dE          RMSdq      gap      omega  full diag
   1   -139.4191378 -0.139419E+03  0.111E-04    0.10       0.0  T
   2   -139.4191377  0.153371E-07  0.254E-04    0.10      37.2  T
   3   -139.4191377 -0.280536E-08  0.230E-04    0.10      41.1  T
     SCC iter.                  ...        0 min,  0.040 sec
     gradient                   ...        0 min,  0.038 sec
 * total energy  :  -137.5056889 Eh     change        0.9830558E-08 Eh
   gradient norm :     0.0545747 Eh/α   predicted     0.0000000E+00 (-100.00%)
   displ. norm   :     0.3081832 α      lambda       -0.9607593E-02
   maximum displ.:     0.1035442 α      in ANC's #120, #101, #57, ...

........................................................................
.............................. CYCLE    2 ..............................
........................................................................

 iter      E             dE          RMSdq      gap      omega  full diag
   1   -139.4516692 -0.139452E+03  0.143E-01    0.06       0.0  T
   2   -139.4466461  0.502308E-02  0.185E-01    0.41       1.0  T
   3   -139.4522646 -0.561847E-02  0.894E-02    0.12       1.0  T
   4   -139.4504793  0.178525E-02  0.112E-01    0.07       1.0  T
   5   -139.4473898  0.308958E-02  0.150E-01    0.04       1.0  T
   6   -139.4531835 -0.579375E-02  0.361E-02    0.11       1.0  T
   7   -139.4534283 -0.244829E-03  0.168E-02    0.10       1.0  T
   8   -139.4534805 -0.521864E-04  0.658E-03    0.10       1.4  T
   9   -139.4534890 -0.844896E-05  0.271E-03    0.09       3.5  T
  10   -139.4534895 -0.495376E-06  0.197E-03    0.09       4.8  T
  11   -139.4534901 -0.676944E-06  0.132E-03    0.09       7.2  T
  12   -139.4534905 -0.394768E-06  0.513E-04    0.09      18.4  T
  13   -139.4534905  0.175388E-07  0.555E-04    0.09      17.0  T
     SCC iter.                  ...        0 min,  0.174 sec
     gradient                   ...        0 min,  0.056 sec
 * total energy  :  -137.5120705 Eh     change       -0.6381640E-02 Eh
   gradient norm :     0.0247425 Eh/α   predicted    -0.5260073E-02 ( -17.57%)
   displ. norm   :     0.2625526 α      lambda       -0.2432813E-02
   maximum displ.:     0.1055246 α      in ANC's #39, #36, #49, ...

........................................................................
.............................. CYCLE    3 ..............................
........................................................................

 iter      E             dE          RMSdq      gap      omega  full diag
   1   -139.4689914 -0.139469E+03  0.829E-02    0.07       0.0  T
   2   -139.4650632  0.392818E-02  0.138E-01    0.25       1.0  T
   3   -139.4685890 -0.352575E-02  0.659E-02    0.07       1.0  T
   4   -139.4672959  0.129304E-02  0.811E-02    0.12       1.0  T
   5   -139.4693559 -0.205997E-02  0.243E-02    0.09       1.0  T
   6   -139.4694659 -0.110045E-03  0.864E-03    0.09       1.1  T
   7   -139.4694806 -0.147001E-04  0.402E-03    0.09       2.3  T
   8   -139.4694827 -0.207742E-05  0.258E-03    0.09       3.7  T
   9   -139.4694838 -0.111658E-05  0.154E-03    0.09       6.1  T
  10   -139.4694843 -0.509665E-06  0.694E-04    0.09      13.6  T
  11   -139.4694844 -0.497221E-07  0.468E-04    0.09      20.2  T
     SCC iter.                  ...        0 min,  0.317 sec
     gradient                   ...        0 min,  0.061 sec
 * total energy  :  -137.5135630 Eh     change       -0.1492445E-02 Eh
   gradient norm :     0.0093904 Eh/α   predicted    -0.1300978E-02 ( -12.83%)
   displ. norm   :     0.2008479 α      lambda       -0.5511501E-03
   maximum displ.:     0.0862235 α      in ANC's #39, #36, #15, ...

........................................................................
.............................. CYCLE    4 ..............................
........................................................................

 iter      E             dE          RMSdq      gap      omega  full diag
   1   -139.4719238 -0.139472E+03  0.477E-02    0.08       0.0  T
   2   -139.4695781  0.234569E-02  0.990E-02    0.17       1.0  T
   3   -139.4710954 -0.151724E-02  0.631E-02    0.07       1.0  T
   4   -139.4711297 -0.343020E-04  0.539E-02    0.11       1.0  T
   5   -139.4719134 -0.783696E-03  0.234E-02    0.10       1.0  T
   6   -139.4720232 -0.109867E-03  0.924E-03    0.09       1.0  T
   7   -139.4720414 -0.181994E-04  0.343E-03    0.09       2.8  T
   8   -139.4720444 -0.292908E-05  0.977E-04    0.09       9.7  T
   9   -139.4720444 -0.623126E-08  0.893E-04    0.09      10.6  T
  10   -139.4720444 -0.789016E-07  0.649E-04    0.09      14.5  T
     SCC iter.                  ...        0 min,  0.227 sec
     gradient                   ...        0 min,  0.052 sec
 * total energy  :  -137.5139674 Eh     change       -0.4044845E-03 Eh
   gradient norm :     0.0047209 Eh/α   predicted    -0.2866943E-03 ( -29.12%)
   displ. norm   :     0.2780400 α      lambda       -0.4562956E-03
   maximum displ.:     0.1010909 α      in ANC's #15, #18, #39, ...

........................................................................
.............................. CYCLE    5 ..............................
........................................................................

 iter      E             dE          RMSdq      gap      omega  full diag
   1   -139.4719152 -0.139472E+03  0.640E-02    0.08       0.0  T
   2   -139.4692848  0.263038E-02  0.107E-01    0.18       1.0  T
   3   -139.4682446  0.104026E-02  0.123E-01    0.04       1.0  T
   4   -139.4698330 -0.158841E-02  0.877E-02    0.13       1.0  T
   5   -139.4712709 -0.143794E-02  0.555E-02    0.12       1.0  T
   6   -139.4716830 -0.412086E-03  0.378E-02    0.11       1.0  T
   7   -139.4719679 -0.284947E-03  0.189E-02    0.10       1.0  T
   8   -139.4720557 -0.877104E-04  0.483E-03    0.09       2.0  T
   9   -139.4720572 -0.153725E-05  0.404E-03    0.09       2.3  T
  10   -139.4720608 -0.355719E-05  0.130E-03    0.09       7.2  T
  11   -139.4720611 -0.358474E-06  0.683E-04    0.09      13.8  T
  12   -139.4720611 -0.573414E-08  0.654E-04    0.09      14.4  T
     SCC iter.                  ...        0 min,  0.245 sec
     gradient                   ...        0 min,  0.041 sec
 * total energy  :  -137.5142504 Eh     change       -0.2829762E-03 Eh
   gradient norm :     0.0051852 Eh/α   predicted    -0.2457882E-03 ( -13.14%)
   displ. norm   :     0.3115076 α      lambda       -0.3703712E-03
   maximum displ.:     0.1199928 α      in ANC's #18, #15, #5, ...

........................................................................
.............................. CYCLE    6 ..............................
........................................................................

 iter      E             dE          RMSdq      gap      omega  full diag
   1   -139.4704247 -0.139470E+03  0.112E-01    0.08       0.0  T
   2   -139.4682713  0.215338E-02  0.112E-01    0.16       1.0  T
   3   -139.4215194  0.467519E-01  0.428E-01    0.04       1.0  T
   4   -139.4680280 -0.465086E-01  0.994E-02    0.17       1.0  T
   5   -139.4685221 -0.494059E-03  0.875E-02    0.15       1.0  T
   6   -139.4691695 -0.647444E-03  0.728E-02    0.14       1.0  T
   7   -139.4695837 -0.414203E-03  0.598E-02    0.13       1.0  T
   8   -139.4700614 -0.477708E-03  0.423E-02    0.11       1.0  T
   9   -139.4703488 -0.287371E-03  0.254E-02    0.10       1.0  T
  10   -139.4704990 -0.150231E-03  0.829E-03    0.09       1.1  T
  11   -139.4705142 -0.151685E-04  0.288E-03    0.09       3.3  T
  12   -139.4705160 -0.178915E-05  0.115E-03    0.09       8.2  T
  13   -139.4705162 -0.253253E-06  0.539E-04    0.09      17.5  T
  14   -139.4705162 -0.914895E-10  0.533E-04    0.09      17.7  T
     SCC iter.                  ...        0 min,  0.288 sec
     gradient                   ...        0 min,  0.054 sec
 * total energy  :  -137.5143340 Eh     change       -0.8359810E-04 Eh
   gradient norm :     0.0079997 Eh/α   predicted    -0.2032204E-03 ( 143.09%)
   displ. norm   :     0.1368884 α      lambda       -0.3085018E-03
   maximum displ.:     0.0558101 α      in ANC's #18, #15, #11, ...

........................................................................
.............................. CYCLE    7 ..............................
........................................................................

 iter      E             dE          RMSdq      gap      omega  full diag
   1   -139.4707297 -0.139471E+03  0.596E-02    0.09       0.0  T
   2   -139.4703370  0.392693E-03  0.528E-02    0.11       1.0  T
   3   -139.4539542  0.163828E-01  0.253E-01    0.01       1.0  T
   4   -139.4692695 -0.153152E-01  0.731E-02    0.12       1.0  T
   5   -139.4704747 -0.120529E-02  0.327E-02    0.11       1.0  T
   6   -139.4705643 -0.895285E-04  0.261E-02    0.10       1.0  T
   7   -139.4706798 -0.115491E-03  0.160E-02    0.10       1.0  T
   8   -139.4707289 -0.491226E-04  0.798E-03    0.09       1.2  T
   9   -139.4707430 -0.141331E-04  0.291E-03    0.09       3.2  T
  10   -139.4707449 -0.186502E-05  0.883E-04    0.09      10.7  T
  11   -139.4707450 -0.151155E-06  0.441E-04    0.09      21.4  T
  12   -139.4707450  0.398023E-08  0.481E-04    0.09      19.7  T
     SCC iter.                  ...        0 min,  0.245 sec
     gradient                   ...        0 min,  0.056 sec
 * total energy  :  -137.5145491 Eh     change       -0.2150696E-03 Eh
   gradient norm :     0.0054902 Eh/α   predicted    -0.1571415E-03 ( -26.93%)
   displ. norm   :     0.2441485 α      lambda       -0.2787972E-03
   maximum displ.:     0.1055204 α      in ANC's #18, #15, #11, ...

........................................................................
.............................. CYCLE    8 ..............................
........................................................................

 iter      E             dE          RMSdq      gap      omega  full diag
   1   -139.4709943 -0.139471E+03  0.639E-02    0.08       0.0  T
   2   -139.4698643  0.113006E-02  0.748E-02    0.13       1.0  T
   3   -139.4589292  0.109350E-01  0.214E-01    0.02       1.0  T
   4   -139.4695412 -0.106120E-01  0.736E-02    0.13       1.0  T
   5   -139.4704157 -0.874427E-03  0.491E-02    0.12       1.0  T
   6   -139.4706317 -0.216016E-03  0.388E-02    0.11       1.0  T
   7   -139.4708764 -0.244737E-03  0.246E-02    0.10       1.0  T
   8   -139.4709912 -0.114772E-03  0.126E-02    0.09       1.0  T
   9   -139.4710251 -0.339189E-04  0.544E-03    0.09       1.7  T
  10   -139.4710313 -0.622339E-05  0.201E-03    0.09       4.7  T
  11   -139.4710323 -0.972821E-06  0.521E-04    0.09      18.1  T
  12   -139.4710322  0.641424E-07  0.753E-04    0.09      12.5  T
     SCC iter.                  ...        0 min,  0.339 sec
     gradient                   ...        0 min,  0.056 sec
 * total energy  :  -137.5147460 Eh     change       -0.1969183E-03 Eh
   gradient norm :     0.0033471 Eh/α   predicted    -0.1477102E-03 ( -24.99%)
   displ. norm   :     0.3855620 α      lambda       -0.2814566E-03
   maximum displ.:     0.1674668 α      in ANC's #18, #15, #11, ...

........................................................................
.............................. CYCLE    9 ..............................
........................................................................

 iter      E             dE          RMSdq      gap      omega  full diag
   1   -139.4704434 -0.139470E+03  0.923E-02    0.08       0.0  T
   2   -139.4675310  0.291240E-02  0.118E-01    0.18       1.0  T
   3   -139.4532631  0.142678E-01  0.256E-01    0.01       1.0  T
   4   -139.4671415 -0.138783E-01  0.112E-01    0.18       1.0  T
   5   -139.4684078 -0.126631E-02  0.928E-02    0.16       1.0  T
   6   -139.4689812 -0.573399E-03  0.784E-02    0.14       1.0  T
   7   -139.4696044 -0.623251E-03  0.617E-02    0.13       1.0  T
   8   -139.4701078 -0.503369E-03  0.431E-02    0.11       1.0  T
   9   -139.4704646 -0.356826E-03  0.226E-02    0.10       1.0  T
  10   -139.4705923 -0.127630E-03  0.450E-03    0.09       2.1  T
  11   -139.4705972 -0.488932E-05  0.139E-03    0.09       6.8  T
  12   -139.4705961  0.109511E-05  0.252E-03    0.09       3.8  T
  13   -139.4705976 -0.152556E-05  0.688E-04    0.09      13.7  T
  14   -139.4705977 -0.608184E-07  0.468E-04    0.09      20.2  T
  15   -139.4705977 -0.490171E-07  0.169E-04    0.09      55.9  T
     SCC iter.                  ...        0 min,  0.325 sec
     gradient                   ...        0 min,  0.059 sec
 * total energy  :  -137.5149467 Eh     change       -0.2007043E-03 Eh
   gradient norm :     0.0046006 Eh/α   predicted    -0.1616491E-03 ( -19.46%)
   displ. norm   :     0.3978671 α      lambda       -0.2308203E-03
   maximum displ.:     0.1719907 α      in ANC's #18, #15, #11, ...

........................................................................
.............................. CYCLE   10 ..............................
........................................................................

 iter      E             dE          RMSdq      gap      omega  full diag
   1   -139.4704938 -0.139470E+03  0.938E-02    0.08       0.0  T
   2   -139.4676918  0.280200E-02  0.116E-01    0.17       1.0  T
   3   -139.4501513  0.175405E-01  0.277E-01    0.00       1.0  T
   4   -139.4675588 -0.174075E-01  0.107E-01    0.17       1.0  T
   5   -139.4685047 -0.945981E-03  0.904E-02    0.15       1.0  T
   6   -139.4691354 -0.630625E-03  0.755E-02    0.14       1.0  T
   7   -139.4696686 -0.533252E-03  0.601E-02    0.12       1.0  T
   8   -139.4702212 -0.552630E-03  0.395E-02    0.11       1.0  T
   9   -139.4705056 -0.284374E-03  0.215E-02    0.10       1.0  T
  10   -139.4706165 -0.110882E-03  0.668E-03    0.09       1.4  T
  11   -139.4706240 -0.752040E-05  0.389E-03    0.08       2.4  T
  12   -139.4706278 -0.373271E-05  0.105E-03    0.09       9.0  T
  13   -139.4706279 -0.194440E-06  0.687E-04    0.09      13.8  T
  14   -139.4706280 -0.479523E-07  0.528E-04    0.09      17.9  T
     SCC iter.                  ...        0 min,  0.327 sec
     gradient                   ...        0 min,  0.058 sec
 * total energy  :  -137.5151244 Eh     change       -0.1776395E-03 Eh
   gradient norm :     0.0049168 Eh/α   predicted    -0.1336798E-03 ( -24.75%)
   displ. norm   :     0.4090837 α      lambda       -0.2087766E-03
   maximum displ.:     0.1719677 α      in ANC's #18, #11, #15, ...

........................................................................
.............................. CYCLE   11 ..............................
........................................................................

 iter      E             dE          RMSdq      gap      omega  full diag
   1   -139.4717153 -0.139472E+03  0.945E-02    0.08       0.0  T
   2   -139.4693830  0.233233E-02  0.108E-01    0.16       1.0  T
   3   -139.4433662  0.260168E-01  0.325E-01    0.02       1.0  T
   4   -139.4690530 -0.256868E-01  0.102E-01    0.16       1.0  T
   5   -139.4698699 -0.816915E-03  0.851E-02    0.15       1.0  T
   6   -139.4705676 -0.697677E-03  0.693E-02    0.13       1.0  T
   7   -139.4709325 -0.364882E-03  0.575E-02    0.12       1.0  T
   8   -139.4714106 -0.478107E-03  0.394E-02    0.11       1.0  T
   9   -139.4716768 -0.266229E-03  0.227E-02    0.10       1.0  T
  10   -139.4717912 -0.114414E-03  0.866E-03    0.09       1.1  T
  11   -139.4718097 -0.184813E-04  0.208E-03    0.08       4.5  T
  12   -139.4718100 -0.341124E-06  0.175E-03    0.09       5.4  T
  13   -139.4718108 -0.735681E-06  0.482E-04    0.09      19.6  T
  14   -139.4718108 -0.196693E-07  0.380E-04    0.09      24.9  T
     SCC iter.                  ...        0 min,  0.314 sec
     gradient                   ...        0 min,  0.051 sec
 * total energy  :  -137.5152848 Eh     change       -0.1604328E-03 Eh
   gradient norm :     0.0035490 Eh/α   predicted    -0.1218593E-03 ( -24.04%)
   displ. norm   :     0.4208619 α      lambda       -0.1849301E-03
   maximum displ.:     0.1849206 α      in ANC's #11, #18, #15, ...

........................................................................
.............................. CYCLE   12 ..............................
........................................................................

 iter      E             dE          RMSdq      gap      omega  full diag
   1   -139.4728084 -0.139473E+03  0.931E-02    0.07       0.0  T
   2   -139.4698562  0.295224E-02  0.118E-01    0.17       1.0  T
   3   -139.4545385  0.153177E-01  0.262E-01    0.00       1.0  T
   4   -139.4696106 -0.150721E-01  0.113E-01    0.16       1.0  T
   5   -139.4707074 -0.109688E-02  0.912E-02    0.15       1.0  T
   6   -139.4715323 -0.824836E-03  0.737E-02    0.13       1.0  T
   7   -139.4719250 -0.392756E-03  0.619E-02    0.12       1.0  T
   8   -139.4725100 -0.584924E-03  0.413E-02    0.11       1.0  T
   9   -139.4728249 -0.314924E-03  0.219E-02    0.10       1.0  T
  10   -139.4729383 -0.113407E-03  0.653E-03    0.09       1.4  T
  11   -139.4729484 -0.101518E-04  0.211E-03    0.08       4.5  T
  12   -139.4729487 -0.270300E-06  0.185E-03    0.08       5.1  T
  13   -139.4729495 -0.787194E-06  0.699E-04    0.08      13.5  T
  14   -139.4729496 -0.701826E-07  0.451E-04    0.09      20.9  T
     SCC iter.                  ...        0 min,  0.294 sec
     gradient                   ...        0 min,  0.051 sec
 * total energy  :  -137.5154297 Eh     change       -0.1449397E-03 Eh
   gradient norm :     0.0031043 Eh/α   predicted    -0.1088444E-03 ( -24.90%)
   displ. norm   :     0.4529430 α      lambda       -0.1991547E-03
   maximum displ.:     0.2077594 α      in ANC's #11, #18, #10, ...

........................................................................
.............................. CYCLE   13 ..............................
........................................................................

 iter      E             dE          RMSdq      gap      omega  full diag
   1   -139.4738092 -0.139474E+03  0.936E-02    0.07       0.0  T
   2   -139.4704761  0.333306E-02  0.125E-01    0.18       1.0  T
   3   -139.4596874  0.107887E-01  0.231E-01    0.01       1.0  T
   4   -139.4702879 -0.106005E-01  0.121E-01    0.16       1.0  T
   5   -139.4715496 -0.126164E-02  0.943E-02    0.15       1.0  T
   6   -139.4725472 -0.997637E-03  0.740E-02    0.13       1.0  T
   7   -139.4729064 -0.359185E-03  0.635E-02    0.12       1.0  T
   8   -139.4735382 -0.631831E-03  0.413E-02    0.11       1.0  T
   9   -139.4738809 -0.342718E-03  0.198E-02    0.09       1.0  T
  10   -139.4739731 -0.921320E-04  0.619E-03    0.09       1.5  T
  11   -139.4739810 -0.795572E-05  0.281E-03    0.08       3.4  T
  12   -139.4739819 -0.879017E-06  0.209E-03    0.08       4.5  T
  13   -139.4739829 -0.102894E-05  0.843E-04    0.08      11.2  T
  14   -139.4739830 -0.115305E-06  0.500E-04    0.08      18.9  T
  15   -139.4739831 -0.592246E-07  0.136E-04    0.08      69.5  T
     SCC iter.                  ...        0 min,  0.457 sec
     gradient                   ...        0 min,  0.067 sec
 * total energy  :  -137.5155838 Eh     change       -0.1540591E-03 Eh
   gradient norm :     0.0037832 Eh/α   predicted    -0.1200077E-03 ( -22.10%)
   displ. norm   :     0.4616418 α      lambda       -0.2003304E-03
   maximum displ.:     0.2184781 α      in ANC's #11, #10, #18, ...

........................................................................
.............................. CYCLE   14 ..............................
........................................................................

 iter      E             dE          RMSdq      gap      omega  full diag
   1   -139.4740843 -0.139474E+03  0.907E-02    0.07       0.0  T
   2   -139.4705586  0.352575E-02  0.127E-01    0.18       1.0  T
   3   -139.4637221  0.683648E-02  0.198E-01    0.02       1.0  T
   4   -139.4705548 -0.683274E-02  0.122E-01    0.15       1.0  T
   5   -139.4720196 -0.146480E-02  0.903E-02    0.15       1.0  T
   6   -139.4730414 -0.102180E-02  0.681E-02    0.12       1.0  T
   7   -139.4734255 -0.384051E-03  0.559E-02    0.12       1.0  T
   8   -139.4739898 -0.564298E-03  0.327E-02    0.10       1.0  T
   9   -139.4742139 -0.224141E-03  0.145E-02    0.09       1.0  T
  10   -139.4742644 -0.504844E-04  0.394E-03    0.08       2.4  T
  11   -139.4742677 -0.331728E-05  0.177E-03    0.08       5.3  T
  12   -139.4742679 -0.165067E-06  0.155E-03    0.08       6.1  T
  13   -139.4742684 -0.516639E-06  0.756E-04    0.08      12.5  T
  14   -139.4742685 -0.121655E-06  0.315E-04    0.08      30.0  T
     SCC iter.                  ...        0 min,  0.319 sec
     gradient                   ...        0 min,  0.050 sec
 * total energy  :  -137.5157380 Eh     change       -0.1542108E-03 Eh
   gradient norm :     0.0041808 Eh/α   predicted    -0.1215119E-03 ( -21.20%)
   displ. norm   :     0.4217539 α      lambda       -0.1718324E-03
   maximum displ.:     0.2047959 α      in ANC's #11, #10, #6, ...

........................................................................
.............................. CYCLE   15 ..............................
........................................................................

 iter      E             dE          RMSdq      gap      omega  full diag
   1   -139.4737212 -0.139474E+03  0.749E-02    0.07       0.0  T
   2   -139.4709560  0.276517E-02  0.111E-01    0.16       1.0  T
   3   -139.4669999  0.395609E-02  0.160E-01    0.03       1.0  T
   4   -139.4713767 -0.437676E-02  0.101E-01    0.13       1.0  T
   5   -139.4725237 -0.114706E-02  0.683E-02    0.12       1.0  T
   6   -139.4732735 -0.749817E-03  0.461E-02    0.11       1.0  T
   7   -139.4735571 -0.283538E-03  0.320E-02    0.10       1.0  T
   8   -139.4737831 -0.226049E-03  0.140E-02    0.09       1.0  T
   9   -139.4738213 -0.381869E-04  0.696E-03    0.09       1.4  T
  10   -139.4738312 -0.983654E-05  0.312E-03    0.08       3.0  T
  11   -139.4738335 -0.238724E-05  0.817E-04    0.08      11.6  T
  12   -139.4738335  0.262667E-07  0.836E-04    0.08      11.3  T
  13   -139.4738336 -0.131164E-06  0.502E-04    0.08      18.8  T
     SCC iter.                  ...        0 min,  0.350 sec
     gradient                   ...        0 min,  0.053 sec
 * total energy  :  -137.5158756 Eh     change       -0.1375862E-03 Eh
   gradient norm :     0.0039076 Eh/α   predicted    -0.1012032E-03 ( -26.44%)
   displ. norm   :     0.3985988 α      lambda       -0.1744136E-03
   maximum displ.:     0.1954672 α      in ANC's #11, #10, #6, ...

........................................................................
.............................. CYCLE   16 ..............................
........................................................................

 iter      E             dE          RMSdq      gap      omega  full diag
   1   -139.4740123 -0.139474E+03  0.650E-02    0.08       0.0  T
   2   -139.4720892  0.192316E-02  0.931E-02    0.14       1.0  T
   3   -139.4679741  0.411507E-02  0.150E-01    0.03       1.0  T
   4   -139.4725327 -0.455863E-02  0.832E-02    0.11       1.0  T
   5   -139.4733415 -0.808801E-03  0.511E-02    0.11       1.0  T
   6   -139.4737622 -0.420684E-03  0.343E-02    0.10       1.0  T
   7   -139.4739540 -0.191797E-03  0.210E-02    0.09       1.0  T
   8   -139.4740593 -0.105302E-03  0.772E-03    0.09       1.2  T
   9   -139.4740719 -0.125465E-04  0.321E-03    0.08       2.9  T
  10   -139.4740738 -0.194329E-05  0.165E-03    0.08       5.7  T
  11   -139.4740745 -0.664679E-06  0.415E-04    0.08      22.7  T
  12   -139.4740744  0.301926E-07  0.518E-04    0.08      18.2  T
     SCC iter.                  ...        0 min,  0.320 sec
     gradient                   ...        0 min,  0.056 sec
 * total energy  :  -137.5160170 Eh     change       -0.1414062E-03 Eh
   gradient norm :     0.0036579 Eh/α   predicted    -0.1010678E-03 ( -28.53%)
   displ. norm   :     0.4339268 α      lambda       -0.1839657E-03
   maximum displ.:     0.2127686 α      in ANC's #11, #10, #6, ...

........................................................................
.............................. CYCLE   17 ..............................
........................................................................

 iter      E             dE          RMSdq      gap      omega  full diag
   1   -139.4732731 -0.139473E+03  0.686E-02    0.07       0.0  T
   2   -139.4707811  0.249194E-02  0.105E-01    0.15       1.0  T
   3   -139.4682896  0.249156E-02  0.138E-01    0.03       1.0  T
   4   -139.4717600 -0.347046E-02  0.826E-02    0.12       1.0  T
   5   -139.4724846 -0.724558E-03  0.561E-02    0.11       1.0  T
   6   -139.4729897 -0.505126E-03  0.371E-02    0.10       1.0  T
   7   -139.4732333 -0.243612E-03  0.213E-02    0.09       1.0  T
   8   -139.4733391 -0.105755E-03  0.886E-03    0.09       1.1  T
   9   -139.4733543 -0.152307E-04  0.424E-03    0.08       2.2  T
  10   -139.4733584 -0.404476E-05  0.163E-03    0.08       5.8  T
  11   -139.4733589 -0.562872E-06  0.718E-04    0.08      13.2  T
  12   -139.4733589  0.593073E-07  0.844E-04    0.08      11.2  T
     SCC iter.                  ...        0 min,  0.353 sec
     gradient                   ...        0 min,  0.059 sec
 * total energy  :  -137.5161654 Eh     change       -0.1483841E-03 Eh
   gradient norm :     0.0039043 Eh/α   predicted    -0.1093038E-03 ( -26.34%)
   displ. norm   :     0.4614572 α      lambda       -0.1774749E-03
   maximum displ.:     0.2222474 α      in ANC's #11, #10, #6, ...

........................................................................
.............................. CYCLE   18 ..............................
........................................................................

 iter      E             dE          RMSdq      gap      omega  full diag
   1   -139.4734518 -0.139473E+03  0.745E-02    0.07       0.0  T
   2   -139.4708402  0.261161E-02  0.108E-01    0.15       1.0  T
   3   -139.4663292  0.451099E-02  0.164E-01    0.03       1.0  T
   4   -139.4719738 -0.564464E-02  0.825E-02    0.12       1.0  T
   5   -139.4724671 -0.493264E-03  0.625E-02    0.12       1.0  T
   6   -139.4729994 -0.532259E-03  0.448E-02    0.11       1.0  T
   7   -139.4733321 -0.332710E-03  0.276E-02    0.10       1.0  T
   8   -139.4734936 -0.161520E-03  0.135E-02    0.09       1.0  T
   9   -139.4735306 -0.370005E-04  0.605E-03    0.08       1.6  T
  10   -139.4735393 -0.868880E-05  0.222E-03    0.08       4.3  T
  11   -139.4735402 -0.891246E-06  0.118E-03    0.08       8.0  T
  12   -139.4735402  0.197481E-07  0.118E-03    0.08       8.0  T
  13   -139.4735405 -0.343608E-06  0.371E-04    0.08      25.5  T
  14   -139.4735405 -0.342441E-07  0.767E-05    0.08     123.3  T
     SCC iter.                  ...        0 min,  0.451 sec
     gradient                   ...        0 min,  0.053 sec
 * total energy  :  -137.5163107 Eh     change       -0.1452914E-03 Eh
   gradient norm :     0.0041187 Eh/α   predicted    -0.1076342E-03 ( -25.92%)
   displ. norm   :     0.4961719 α      lambda       -0.1779162E-03
   maximum displ.:     0.2390496 α      in ANC's #11, #10, #6, ...

........................................................................
.............................. CYCLE   19 ..............................
........................................................................

 iter      E             dE          RMSdq      gap      omega  full diag
   1   -139.4727751 -0.139473E+03  0.805E-02    0.07       0.0  T
   2   -139.4689019  0.387322E-02  0.130E-01    0.18       1.0  T
   3   -139.4685771  0.324800E-03  0.130E-01    0.04       1.0  T
   4   -139.4706141 -0.203693E-02  0.930E-02    0.14       1.0  T
   5   -139.4716666 -0.105253E-02  0.689E-02    0.12       1.0  T
   6   -139.4722965 -0.629926E-03  0.488E-02    0.11       1.0  T
   7   -139.4728403 -0.543782E-03  0.211E-02    0.09       1.0  T
   8   -139.4729267 -0.864081E-04  0.106E-02    0.09       1.0  T
   9   -139.4729486 -0.219323E-04  0.571E-03    0.08       1.7  T
  10   -139.4729565 -0.784849E-05  0.172E-03    0.08       5.5  T
  11   -139.4729566 -0.155893E-06  0.151E-03    0.08       6.3  T
  12   -139.4729571 -0.423839E-06  0.844E-04    0.08      11.2  T
  13   -139.4729572 -0.189515E-06  0.235E-04    0.08      40.2  T
     SCC iter.                  ...        0 min,  0.320 sec
     gradient                   ...        0 min,  0.049 sec
 * total energy  :  -137.5164607 Eh     change       -0.1500752E-03 Eh
   gradient norm :     0.0040742 Eh/α   predicted    -0.1108605E-03 ( -26.13%)
   displ. norm   :     0.5519938 α      lambda       -0.2041923E-03
   maximum displ.:     0.2666588 α      in ANC's #10, #11, #6, ...

........................................................................
.............................. CYCLE   20 ..............................
........................................................................

 iter      E             dE          RMSdq      gap      omega  full diag
   1   -139.4735763 -0.139474E+03  0.917E-02    0.07       0.0  T
   2   -139.4691657  0.441064E-02  0.140E-01    0.20       1.0  T
   3   -139.4676859  0.147979E-02  0.153E-01    0.03       1.0  T
   4   -139.4708224 -0.313652E-02  0.106E-01    0.15       1.0  T
   5   -139.4719025 -0.108007E-02  0.841E-02    0.13       1.0  T
   6   -139.4726507 -0.748201E-03  0.647E-02    0.12       1.0  T
   7   -139.4735192 -0.868461E-03  0.334E-02    0.10       1.0  T
   8   -139.4737372 -0.218068E-03  0.166E-02    0.09       1.0  T
   9   -139.4737948 -0.576178E-04  0.793E-03    0.08       1.2  T
  10   -139.4738091 -0.142901E-04  0.307E-03    0.08       3.1  T
  11   -139.4738095 -0.393368E-06  0.280E-03    0.08       3.4  T
  12   -139.4738114 -0.186695E-05  0.872E-04    0.08      10.8  T
  13   -139.4738115 -0.971981E-07  0.708E-04    0.08      13.3  T
  14   -139.4738116 -0.962217E-07  0.342E-04    0.08      27.6  T
     SCC iter.                  ...        0 min,  0.369 sec
     gradient                   ...        0 min,  0.052 sec
 * total energy  :  -137.5166384 Eh     change       -0.1777016E-03 Eh
   gradient norm :     0.0041040 Eh/α   predicted    -0.1332073E-03 ( -25.04%)
   displ. norm   :     0.6223464 α      lambda       -0.2511367E-03
   maximum displ.:     0.3039381 α      in ANC's #10, #11, #6, ...
 * RMSD in coord.:     0.5912383 α      energy gain  -0.1094955E-01 Eh

generating ANC from exact Hessian ...
Using Lindh-Hessian (1995)
 Shifting diagonal of input Hessian by   1.030407513197085E-002
 Lowest  eigenvalues of input Hessian
    0.010000    0.010099    0.010114    0.010120    0.010295    0.000000
    0.000000    0.000000    0.000000    0.000000    0.000000    0.010316
    0.010320    0.010356    0.010437    0.010464    0.010498    0.010633
 Highest eigenvalues
    1.935035    2.003573    2.020914    2.028616    2.150510    2.225761
 

........................................................................
.............................. CYCLE   21 ..............................
........................................................................

 iter      E             dE          RMSdq      gap      omega  full diag
   1   -139.4739535 -0.139474E+03  0.102E-01    0.06       0.0  T
   2   -139.4683327  0.562079E-02  0.160E-01    0.24       1.0  T
   3   -139.4712855 -0.295285E-02  0.113E-01    0.04       1.0  T
   4   -139.4702568  0.102877E-02  0.116E-01    0.15       1.0  T
   5   -139.4729117 -0.265494E-02  0.743E-02    0.12       1.0  T
   6   -139.4739469 -0.103514E-02  0.400E-02    0.10       1.0  T
   7   -139.4743939 -0.447052E-03  0.685E-03    0.08       1.4  T
   8   -139.4743485  0.453915E-04  0.145E-02    0.09       1.0  T
   9   -139.4743926 -0.440508E-04  0.636E-03    0.08       1.5  T
  10   -139.4744014 -0.880866E-05  0.296E-03    0.08       3.2  T
  11   -139.4744035 -0.207793E-05  0.105E-03    0.08       9.0  T
  12   -139.4744035 -0.720054E-07  0.888E-04    0.08      10.6  T
  13   -139.4744037 -0.203932E-06  0.190E-04    0.08      49.8  T
     SCC iter.                  ...        0 min,  0.327 sec
     gradient                   ...        0 min,  0.055 sec
 * total energy  :  -137.5168633 Eh     change       -0.2248239E-03 Eh
   gradient norm :     0.0051276 Eh/α   predicted     0.0000000E+00 (-100.00%)
   displ. norm   :     0.0759298 α      lambda       -0.1177231E-03
   maximum displ.:     0.0213851 α      in ANC's #10, #37, #7, ...

........................................................................
.............................. CYCLE   22 ..............................
........................................................................

 iter      E             dE          RMSdq      gap      omega  full diag
   1   -139.4749966 -0.139475E+03  0.440E-02    0.08       0.0  T
   2   -139.4736393  0.135730E-02  0.753E-02    0.05       1.0  T
   3   -139.4739601 -0.320831E-03  0.657E-02    0.11       1.0  T
   4   -139.4748602 -0.900086E-03  0.248E-02    0.09       1.0  T
   5   -139.4749054 -0.452177E-04  0.192E-02    0.09       1.0  T
   6   -139.4749808 -0.753646E-04  0.108E-02    0.08       1.0  T
   7   -139.4750045 -0.237009E-04  0.512E-03    0.08       1.8  T
   8   -139.4750111 -0.664138E-05  0.814E-04    0.08      11.6  T
   9   -139.4750111  0.936691E-08  0.687E-04    0.08      13.7  T
  10   -139.4750112 -0.271306E-07  0.590E-04    0.08      16.0  T
     SCC iter.                  ...        0 min,  0.238 sec
     gradient                   ...        0 min,  0.049 sec
 * total energy  :  -137.5169250 Eh     change       -0.6171139E-04 Eh
   gradient norm :     0.0028847 Eh/α   predicted    -0.5972197E-04 (  -3.22%)
   displ. norm   :     0.1735776 α      lambda       -0.2161063E-03
   maximum displ.:     0.0596942 α      in ANC's #10, #7, #35, ...

........................................................................
.............................. CYCLE   23 ..............................
........................................................................

 iter      E             dE          RMSdq      gap      omega  full diag
   1   -139.4761422 -0.139476E+03  0.436E-02    0.08       0.0  T
   2   -139.4727795  0.336266E-02  0.115E-01    0.04       1.0  T
   3   -139.4755168 -0.273726E-02  0.535E-02    0.10       1.0  T
   4   -139.4755447 -0.279118E-04  0.491E-02    0.08       1.0  T
   5   -139.4760864 -0.541779E-03  0.180E-02    0.09       1.0  T
   6   -139.4761502 -0.637911E-04  0.103E-02    0.08       1.0  T
   7   -139.4761716 -0.213176E-04  0.519E-03    0.08       1.8  T
   8   -139.4761780 -0.646187E-05  0.167E-03    0.08       5.6  T
   9   -139.4761786 -0.587981E-06  0.499E-04    0.08      19.0  T
  10   -139.4761786  0.956325E-08  0.452E-04    0.08      20.9  T
     SCC iter.                  ...        0 min,  0.253 sec
     gradient                   ...        0 min,  0.052 sec
 * total energy  :  -137.5170419 Eh     change       -0.1169092E-03 Eh
   gradient norm :     0.0051276 Eh/α   predicted    -0.1113110E-03 (  -4.79%)
   displ. norm   :     0.1269427 α      lambda       -0.9505240E-04
   maximum displ.:     0.0505515 α      in ANC's #10, #7, #5, ...

........................................................................
.............................. CYCLE   24 ..............................
........................................................................

 iter      E             dE          RMSdq      gap      omega  full diag
   1   -139.4757811 -0.139476E+03  0.248E-02    0.07       0.0  T
   2   -139.4737221  0.205899E-02  0.882E-02    0.13       1.0  T
   3   -139.4758229 -0.210074E-02  0.134E-02    0.08       1.0  T
   4   -139.4757417  0.812021E-04  0.181E-02    0.08       1.0  T
   5   -139.4758310 -0.893291E-04  0.402E-03    0.08       2.4  T
   6   -139.4758344 -0.339298E-05  0.157E-03    0.08       6.0  T
   7   -139.4758348 -0.417653E-06  0.865E-04    0.08      10.9  T
   8   -139.4758349 -0.549937E-07  0.622E-04    0.08      15.2  T
     SCC iter.                  ...        0 min,  0.189 sec
     gradient                   ...        0 min,  0.056 sec
 * total energy  :  -137.5171214 Eh     change       -0.7952061E-04 Eh
   gradient norm :     0.0044534 Eh/α   predicted    -0.4829366E-04 ( -39.27%)
   displ. norm   :     0.3153193 α      lambda       -0.1992055E-03
   maximum displ.:     0.1315172 α      in ANC's #10, #7, #5, ...

........................................................................
.............................. CYCLE   25 ..............................
........................................................................

 iter      E             dE          RMSdq      gap      omega  full diag
   1   -139.4746084 -0.139475E+03  0.591E-02    0.06       0.0  T
   2   -139.4691437  0.546473E-02  0.149E-01    0.22       1.0  T
   3   -139.4749090 -0.576529E-02  0.310E-02    0.08       1.0  T
   4   -139.4742402  0.668785E-03  0.503E-02    0.07       1.0  T
   5   -139.4746173 -0.377079E-03  0.355E-02    0.06       1.0  T
   6   -139.4749621 -0.344784E-03  0.691E-03    0.08       1.4  T
   7   -139.4749695 -0.745507E-05  0.438E-03    0.08       2.2  T
   8   -139.4749730 -0.349563E-05  0.207E-03    0.08       4.6  T
   9   -139.4749739 -0.870080E-06  0.929E-04    0.08      10.2  T
  10   -139.4749740 -0.111463E-06  0.662E-04    0.08      14.3  T
     SCC iter.                  ...        0 min,  0.262 sec
     gradient                   ...        0 min,  0.059 sec
 * total energy  :  -137.5172572 Eh     change       -0.1357804E-03 Eh
   gradient norm :     0.0031061 Eh/α   predicted    -0.1095107E-03 ( -19.35%)
   displ. norm   :     0.2619988 α      lambda       -0.1035109E-03
   maximum displ.:     0.1158258 α      in ANC's #10, #7, #5, ...

........................................................................
.............................. CYCLE   26 ..............................
........................................................................

 iter      E             dE          RMSdq      gap      omega  full diag
   1   -139.4748940 -0.139475E+03  0.408E-02    0.07       0.0  T
   2   -139.4721191  0.277495E-02  0.103E-01    0.15       1.0  T
   3   -139.4746278 -0.250873E-02  0.402E-02    0.06       1.0  T
   4   -139.4746951 -0.672442E-04  0.302E-02    0.09       1.0  T
   5   -139.4749284 -0.233292E-03  0.132E-02    0.08       1.0  T
   6   -139.4749672 -0.388761E-04  0.545E-03    0.08       1.7  T
   7   -139.4749750 -0.773863E-05  0.155E-03    0.08       6.1  T
   8   -139.4749753 -0.332480E-06  0.102E-03    0.08       9.3  T
   9   -139.4749754 -0.147998E-06  0.653E-04    0.08      14.5  T
  10   -139.4749754  0.311077E-07  0.643E-04    0.08      14.7  T
     SCC iter.                  ...        0 min,  0.267 sec
     gradient                   ...        0 min,  0.049 sec
 * total energy  :  -137.5173372 Eh     change       -0.7996620E-04 Eh
   gradient norm :     0.0032966 Eh/α   predicted    -0.5530855E-04 ( -30.84%)
   displ. norm   :     0.2988794 α      lambda       -0.1168206E-03
   maximum displ.:     0.1365977 α      in ANC's #7, #10, #5, ...

........................................................................
.............................. CYCLE   27 ..............................
........................................................................

 iter      E             dE          RMSdq      gap      omega  full diag
   1   -139.4754411 -0.139475E+03  0.427E-02    0.07       0.0  T
   2   -139.4744127  0.102840E-02  0.654E-02    0.11       1.0  T
   3   -139.4725545  0.185825E-02  0.104E-01    0.04       1.0  T
   4   -139.4751796 -0.262517E-02  0.334E-02    0.09       1.0  T
   5   -139.4753211 -0.141488E-03  0.226E-02    0.09       1.0  T
   6   -139.4754015 -0.803713E-04  0.148E-02    0.08       1.0  T
   7   -139.4754558 -0.542695E-04  0.500E-03    0.08       1.9  T
   8   -139.4754621 -0.635257E-05  0.770E-04    0.08      12.3  T
   9   -139.4754622 -0.676380E-07  0.516E-04    0.08      18.3  T
  10   -139.4754622 -0.320703E-07  0.272E-04    0.08      34.8  T
     SCC iter.                  ...        0 min,  0.214 sec
     gradient                   ...        0 min,  0.064 sec
 * total energy  :  -137.5174362 Eh     change       -0.9903809E-04 Eh
   gradient norm :     0.0029383 Eh/α   predicted    -0.6362830E-04 ( -35.75%)
   displ. norm   :     0.4004324 α      lambda       -0.1656093E-03
   maximum displ.:     0.1892841 α      in ANC's #7, #10, #5, ...

........................................................................
.............................. CYCLE   28 ..............................
........................................................................

 iter      E             dE          RMSdq      gap      omega  full diag
   1   -139.4760886 -0.139476E+03  0.542E-02    0.07       0.0  T
   2   -139.4749460  0.114251E-02  0.713E-02    0.11       1.0  T
   3   -139.4683166  0.662941E-02  0.169E-01    0.02       1.0  T
   4   -139.4753987 -0.708205E-02  0.536E-02    0.10       1.0  T
   5   -139.4758390 -0.440296E-03  0.323E-02    0.09       1.0  T
   6   -139.4759564 -0.117386E-03  0.238E-02    0.09       1.0  T
   7   -139.4760804 -0.123996E-03  0.114E-02    0.08       1.0  T
   8   -139.4761115 -0.311610E-04  0.352E-03    0.08       2.7  T
   9   -139.4761145 -0.295610E-05  0.130E-03    0.08       7.3  T
  10   -139.4761148 -0.301241E-06  0.553E-04    0.08      17.1  T
  11   -139.4761148 -0.198585E-07  0.440E-04    0.08      21.5  T
     SCC iter.                  ...        0 min,  0.229 sec
     gradient                   ...        0 min,  0.057 sec
 * total energy  :  -137.5175742 Eh     change       -0.1380566E-03 Eh
   gradient norm :     0.0033195 Eh/α   predicted    -0.9609522E-04 ( -30.39%)
   displ. norm   :     0.4743562 α      lambda       -0.1802797E-03
   maximum displ.:     0.2297323 α      in ANC's #7, #10, #5, ...

........................................................................
.............................. CYCLE   29 ..............................
........................................................................

 iter      E             dE          RMSdq      gap      omega  full diag
   1   -139.4760534 -0.139476E+03  0.671E-02    0.07       0.0  T
   2   -139.4733294  0.272400E-02  0.107E-01    0.14       1.0  T
   3   -139.4700033  0.332604E-02  0.152E-01    0.03       1.0  T
   4   -139.4745064 -0.450302E-02  0.796E-02    0.11       1.0  T
   5   -139.4753736 -0.867208E-03  0.537E-02    0.11       1.0  T
   6   -139.4756892 -0.315667E-03  0.399E-02    0.10       1.0  T
   7   -139.4760254 -0.336149E-03  0.203E-02    0.09       1.0  T
   8   -139.4761240 -0.986441E-04  0.653E-03    0.08       1.4  T
   9   -139.4761298 -0.573144E-05  0.471E-03    0.08       2.0  T
  10   -139.4761345 -0.474323E-05  0.183E-03    0.08       5.2  T
  11   -139.4761354 -0.884413E-06  0.471E-04    0.08      20.1  T
  12   -139.4761351  0.240668E-06  0.106E-03    0.08       8.9  T
  13   -139.4761354 -0.229374E-06  0.517E-04    0.08      18.3  T
     SCC iter.                  ...        0 min,  0.342 sec
     gradient                   ...        0 min,  0.052 sec
 * total energy  :  -137.5177254 Eh     change       -0.1511865E-03 Eh
   gradient norm :     0.0039220 Eh/α   predicted    -0.1104229E-03 ( -26.96%)
   displ. norm   :     0.5007655 α      lambda       -0.1872244E-03
   maximum displ.:     0.2492071 α      in ANC's #7, #10, #11, ...

........................................................................
.............................. CYCLE   30 ..............................
........................................................................

 iter      E             dE          RMSdq      gap      omega  full diag
   1   -139.4758680 -0.139476E+03  0.665E-02    0.07       0.0  T
   2   -139.4721769  0.369109E-02  0.123E-01    0.16       1.0  T
   3   -139.4730582 -0.881313E-03  0.107E-01    0.04       1.0  T
   4   -139.4741447 -0.108651E-02  0.821E-02    0.12       1.0  T
   5   -139.4753042 -0.115949E-02  0.513E-02    0.10       1.0  T
   6   -139.4756588 -0.354573E-03  0.350E-02    0.09       1.0  T
   7   -139.4759614 -0.302668E-03  0.127E-02    0.08       1.0  T
   8   -139.4760026 -0.411617E-04  0.254E-03    0.08       3.7  T
   9   -139.4760007  0.190282E-05  0.359E-03    0.08       2.6  T
  10   -139.4760036 -0.286153E-05  0.143E-03    0.08       6.6  T
  11   -139.4760039 -0.297332E-06  0.956E-04    0.08       9.9  T
  12   -139.4760040 -0.120239E-06  0.714E-04    0.08      13.2  T
     SCC iter.                  ...        0 min,  0.201 sec
     gradient                   ...        0 min,  0.051 sec
 * total energy  :  -137.5178868 Eh     change       -0.1613670E-03 Eh
   gradient norm :     0.0040081 Eh/α   predicted    -0.1170901E-03 ( -27.44%)
   displ. norm   :     0.5401014 α      lambda       -0.2208260E-03
   maximum displ.:     0.2762149 α      in ANC's #7, #10, #11, ...

........................................................................
.............................. CYCLE   31 ..............................
........................................................................

 iter      E             dE          RMSdq      gap      omega  full diag
   1   -139.4756088 -0.139476E+03  0.745E-02    0.06       0.0  T
   2   -139.4706880  0.492082E-02  0.144E-01    0.19       1.0  T
   3   -139.4740792 -0.339124E-02  0.858E-02    0.05       1.0  T
   4   -139.4733900  0.689268E-03  0.898E-02    0.12       1.0  T
   5   -139.4752153 -0.182535E-02  0.488E-02    0.10       1.0  T
   6   -139.4756679 -0.452633E-03  0.257E-02    0.09       1.0  T
   7   -139.4758531 -0.185116E-03  0.349E-03    0.08       2.7  T
   8   -139.4758531 -0.352019E-07  0.374E-03    0.08       2.5  T
   9   -139.4758541 -0.997037E-06  0.296E-03    0.08       3.2  T
  10   -139.4758553 -0.116909E-05  0.208E-03    0.08       4.5  T
  11   -139.4758563 -0.101661E-05  0.767E-04    0.08      12.3  T
  12   -139.4758563 -0.638860E-07  0.558E-04    0.08      16.9  T
  13   -139.4758564 -0.771032E-07  0.219E-04    0.08      43.1  T
     SCC iter.                  ...        0 min,  0.299 sec
     gradient                   ...        0 min,  0.052 sec
 * total energy  :  -137.5180809 Eh     change       -0.1940519E-03 Eh
   gradient norm :     0.0035896 Eh/α   predicted    -0.1426236E-03 ( -26.50%)
   displ. norm   :     0.5951332 α      lambda       -0.2715156E-03
   maximum displ.:     0.3128188 α      in ANC's #7, #10, #11, ...

........................................................................
.............................. CYCLE   32 ..............................
........................................................................

 iter      E             dE          RMSdq      gap      omega  full diag
   1   -139.4753151 -0.139475E+03  0.754E-02    0.06       0.0  T
   2   -139.4695841  0.573093E-02  0.156E-01    0.22       1.0  T
   3   -139.4751517 -0.556754E-02  0.538E-02    0.06       1.0  T
   4   -139.4738128  0.133891E-02  0.735E-02    0.09       1.0  T
   5   -139.4756278 -0.181503E-02  0.148E-02    0.08       1.0  T
   6   -139.4756684 -0.405708E-04  0.599E-03    0.08       1.6  T
   7   -139.4756748 -0.643301E-05  0.269E-03    0.08       3.5  T
   8   -139.4756761 -0.129670E-05  0.149E-03    0.08       6.3  T
   9   -139.4756762 -0.127914E-06  0.123E-03    0.08       7.7  T
  10   -139.4756764 -0.226700E-06  0.627E-04    0.08      15.1  T
  11   -139.4756765 -0.617904E-07  0.392E-04    0.08      24.1  T
     SCC iter.                  ...        0 min,  0.354 sec
     gradient                   ...        0 min,  0.056 sec
 * total energy  :  -137.5183210 Eh     change       -0.2401112E-03 Eh
   gradient norm :     0.0037486 Eh/α   predicted    -0.1838415E-03 ( -23.43%)
   displ. norm   :     0.6449242 α      lambda       -0.3095597E-03
   maximum displ.:     0.3475832 α      in ANC's #7, #10, #11, ...

........................................................................
.............................. CYCLE   33 ..............................
........................................................................

 iter      E             dE          RMSdq      gap      omega  full diag
   1   -139.4747321 -0.139475E+03  0.810E-02    0.06       0.0  T
   2   -139.4683013  0.643076E-02  0.167E-01    0.24       1.0  T
   3   -139.4750045 -0.670321E-02  0.449E-02    0.07       1.0  T
   4   -139.4735416  0.146286E-02  0.719E-02    0.07       1.0  T
   5   -139.4749987 -0.145705E-02  0.297E-02    0.06       1.0  T
   6   -139.4752267 -0.228048E-03  0.734E-03    0.08       1.3  T
   7   -139.4752311 -0.436791E-05  0.535E-03    0.08       1.8  T
   8   -139.4752373 -0.615069E-05  0.174E-03    0.07       5.4  T
   9   -139.4752369  0.392376E-06  0.193E-03    0.07       4.9  T
  10   -139.4752379 -0.101946E-05  0.585E-04    0.07      16.1  T
  11   -139.4752379 -0.251189E-07  0.463E-04    0.07      20.4  T
  12   -139.4752379 -0.310394E-07  0.313E-04    0.07      30.2  T
     SCC iter.                  ...        0 min,  0.276 sec
     gradient                   ...        0 min,  0.056 sec
 * total energy  :  -137.5185954 Eh     change       -0.2744553E-03 Eh
   gradient norm :     0.0047261 Eh/α   predicted    -0.2191579E-03 ( -20.15%)
   displ. norm   :     0.6660847 α      lambda       -0.3238833E-03
   maximum displ.:     0.3678999 α      in ANC's #7, #10, #11, ...

........................................................................
.............................. CYCLE   34 ..............................
........................................................................

 iter      E             dE          RMSdq      gap      omega  full diag
   1   -139.4742769 -0.139474E+03  0.789E-02    0.06       0.0  T
   2   -139.4677523  0.652453E-02  0.167E-01    0.24       1.0  T
   3   -139.4745663 -0.681393E-02  0.432E-02    0.07       1.0  T
   4   -139.4731938  0.137246E-02  0.694E-02    0.07       1.0  T
   5   -139.4745184 -0.132461E-02  0.296E-02    0.06       1.0  T
   6   -139.4747484 -0.229981E-03  0.669E-03    0.07       1.4  T
   7   -139.4747501 -0.175519E-05  0.558E-03    0.08       1.7  T
   8   -139.4747573 -0.714376E-05  0.164E-03    0.07       5.8  T
   9   -139.4747571  0.138548E-06  0.158E-03    0.07       6.0  T
  10   -139.4747578 -0.639623E-06  0.630E-04    0.07      15.0  T
  11   -139.4747578 -0.321069E-07  0.472E-04    0.07      20.0  T
     SCC iter.                  ...        0 min,  0.272 sec
     gradient                   ...        0 min,  0.056 sec
 * total energy  :  -137.5188828 Eh     change       -0.2874259E-03 Eh
   gradient norm :     0.0053774 Eh/α   predicted    -0.2337955E-03 ( -18.66%)
   displ. norm   :     0.6640527 α      lambda       -0.3280883E-03
   maximum displ.:     0.3762360 α      in ANC's #7, #10, #11, ...

........................................................................
.............................. CYCLE   35 ..............................
........................................................................

 iter      E             dE          RMSdq      gap      omega  full diag
   1   -139.4741969 -0.139474E+03  0.767E-02    0.06       0.0  T
   2   -139.4678417  0.635521E-02  0.164E-01    0.22       1.0  T
   3   -139.4742835 -0.644184E-02  0.474E-02    0.06       1.0  T
   4   -139.4729543  0.132923E-02  0.711E-02    0.08       1.0  T
   5   -139.4745549 -0.160062E-02  0.145E-02    0.07       1.0  T
   6   -139.4745960 -0.411022E-04  0.555E-03    0.07       1.7  T
   7   -139.4746004 -0.441602E-05  0.351E-03    0.07       2.7  T
   8   -139.4746031 -0.268936E-05  0.132E-03    0.07       7.1  T
   9   -139.4746031  0.376923E-07  0.116E-03    0.07       8.1  T
  10   -139.4746034 -0.320837E-06  0.517E-04    0.07      18.3  T
  11   -139.4746034 -0.329687E-07  0.376E-04    0.07      25.1  T
     SCC iter.                  ...        0 min,  0.252 sec
     gradient                   ...        0 min,  0.066 sec
 * total energy  :  -137.5191754 Eh     change       -0.2925229E-03 Eh
   gradient norm :     0.0049808 Eh/α   predicted    -0.2363861E-03 ( -19.19%)
   displ. norm   :     0.6660335 α      lambda       -0.3364174E-03
   maximum displ.:     0.3872092 α      in ANC's #7, #10, #11, ...

........................................................................
.............................. CYCLE   36 ..............................
........................................................................

 iter      E             dE          RMSdq      gap      omega  full diag
   1   -139.4746493 -0.139475E+03  0.756E-02    0.06       0.0  T
   2   -139.4685117  0.613754E-02  0.160E-01    0.21       1.0  T
   3   -139.4743726 -0.586090E-02  0.573E-02    0.06       1.0  T
   4   -139.4729788  0.139387E-02  0.826E-02    0.09       1.0  T
   5   -139.4748688 -0.189008E-02  0.202E-02    0.08       1.0  T
   6   -139.4749808 -0.111918E-03  0.549E-03    0.07       1.7  T
   7   -139.4749856 -0.479324E-05  0.318E-03    0.07       3.0  T
   8   -139.4749876 -0.199797E-05  0.141E-03    0.07       6.7  T
   9   -139.4749874  0.142515E-06  0.143E-03    0.07       6.6  T
  10   -139.4749878 -0.420423E-06  0.534E-04    0.07      17.7  T
  11   -139.4749879 -0.424325E-07  0.319E-04    0.07      29.6  T
     SCC iter.                  ...        0 min,  0.239 sec
     gradient                   ...        0 min,  0.057 sec
 * total energy  :  -137.5194767 Eh     change       -0.3012904E-03 Eh
   gradient norm :     0.0038313 Eh/α   predicted    -0.2428277E-03 ( -19.40%)
   displ. norm   :     0.6799135 α      lambda       -0.3473986E-03
   maximum displ.:     0.4043355 α      in ANC's #7, #10, #11, ...

........................................................................
.............................. CYCLE   37 ..............................
........................................................................

 iter      E             dE          RMSdq      gap      omega  full diag
   1   -139.4753811 -0.139475E+03  0.781E-02    0.06       0.0  T
   2   -139.4691981  0.618297E-02  0.161E-01    0.20       1.0  T
   3   -139.4747218 -0.552367E-02  0.682E-02    0.05       1.0  T
   4   -139.4732865  0.143527E-02  0.937E-02    0.10       1.0  T
   5   -139.4753428 -0.205629E-02  0.348E-02    0.08       1.0  T
   6   -139.4756984 -0.355560E-03  0.799E-03    0.07       1.2  T
   7   -139.4757066 -0.821517E-05  0.478E-03    0.07       2.0  T
   8   -139.4757118 -0.520515E-05  0.150E-03    0.07       6.3  T
   9   -139.4757108  0.956601E-06  0.232E-03    0.07       4.1  T
  10   -139.4757121 -0.122235E-05  0.845E-04    0.07      11.2  T
  11   -139.4757122 -0.918681E-07  0.578E-04    0.07      16.3  T
  12   -139.4757122 -0.804931E-07  0.203E-04    0.07      46.6  T
     SCC iter.                  ...        0 min,  0.243 sec
     gradient                   ...        0 min,  0.060 sec
 * total energy  :  -137.5197892 Eh     change       -0.3125899E-03 Eh
   gradient norm :     0.0036480 Eh/α   predicted    -0.2539994E-03 ( -18.74%)
   displ. norm   :     0.6931960 α      lambda       -0.3663865E-03
   maximum displ.:     0.4190512 α      in ANC's #7, #10, #11, ...

........................................................................
.............................. CYCLE   38 ..............................
........................................................................

 iter      E             dE          RMSdq      gap      omega  full diag
   1   -139.4761607 -0.139476E+03  0.789E-02    0.06       0.0  T
   2   -139.4698945  0.626620E-02  0.162E-01    0.20       1.0  T
   3   -139.4753311 -0.543655E-02  0.729E-02    0.05       1.0  T
   4   -139.4738336  0.149742E-02  0.981E-02    0.10       1.0  T
   5   -139.4759956 -0.216197E-02  0.403E-02    0.09       1.0  T
   6   -139.4764613 -0.465739E-03  0.104E-02    0.07       1.0  T
   7   -139.4764781 -0.167372E-04  0.570E-03    0.07       1.7  T
   8   -139.4764856 -0.750808E-05  0.161E-03    0.07       5.9  T
   9   -139.4764837  0.185912E-05  0.303E-03    0.07       3.1  T
  10   -139.4764859 -0.222637E-05  0.822E-04    0.07      11.5  T
  11   -139.4764860 -0.771911E-07  0.615E-04    0.07      15.4  T
  12   -139.4764861 -0.926274E-07  0.227E-04    0.07      41.6  T
     SCC iter.                  ...        0 min,  0.375 sec
     gradient                   ...        0 min,  0.056 sec
 * total energy  :  -137.5201276 Eh     change       -0.3383743E-03 Eh
   gradient norm :     0.0047047 Eh/α   predicted    -0.2712278E-03 ( -19.84%)
   displ. norm   :     0.7190936 α      lambda       -0.4023437E-03
   maximum displ.:     0.4410630 α      in ANC's #7, #10, #11, ...

........................................................................
.............................. CYCLE   39 ..............................
........................................................................

 iter      E             dE          RMSdq      gap      omega  full diag
   1   -139.4766583 -0.139477E+03  0.832E-02    0.05       0.0  T
   2   -139.4694370  0.722128E-02  0.175E-01    0.23       1.0  T
   3   -139.4766602 -0.722318E-02  0.541E-02    0.06       1.0  T
   4   -139.4750759  0.158432E-02  0.806E-02    0.09       1.0  T
   5   -139.4770903 -0.201440E-02  0.139E-02    0.07       1.0  T
   6   -139.4771226 -0.322513E-04  0.642E-03    0.07       1.5  T
   7   -139.4771309 -0.838046E-05  0.334E-03    0.07       2.8  T
   8   -139.4771328 -0.187809E-05  0.194E-03    0.07       4.9  T
   9   -139.4771331 -0.295368E-06  0.134E-03    0.07       7.1  T
  10   -139.4771335 -0.351917E-06  0.475E-04    0.07      19.9  T
  11   -139.4771335 -0.285546E-07  0.279E-04    0.07      33.9  T
     SCC iter.                  ...        0 min,  0.296 sec
     gradient                   ...        0 min,  0.055 sec
 * total energy  :  -137.5205121 Eh     change       -0.3845063E-03 Eh
   gradient norm :     0.0056291 Eh/α   predicted    -0.3052014E-03 ( -20.63%)
   displ. norm   :     0.7433479 α      lambda       -0.4579440E-03
   maximum displ.:     0.4648244 α      in ANC's #7, #10, #11, ...

........................................................................
.............................. CYCLE   40 ..............................
........................................................................

 iter      E             dE          RMSdq      gap      omega  full diag
   1   -139.4776920 -0.139478E+03  0.864E-02    0.05       0.0  T
   2   -139.4702046  0.748738E-02  0.179E-01    0.23       1.0  T
   3   -139.4776490 -0.744433E-02  0.573E-02    0.06       1.0  T
   4   -139.4759531  0.169589E-02  0.834E-02    0.08       1.0  T
   5   -139.4781570 -0.220389E-02  0.136E-02    0.07       1.0  T
   6   -139.4781893 -0.323292E-04  0.618E-03    0.07       1.5  T
   7   -139.4781962 -0.692792E-05  0.338E-03    0.07       2.8  T
   8   -139.4781983 -0.203338E-05  0.188E-03    0.07       5.0  T
   9   -139.4781984 -0.121037E-06  0.150E-03    0.07       6.3  T
  10   -139.4781988 -0.447662E-06  0.451E-04    0.07      20.9  T
  11   -139.4781989 -0.174617E-07  0.311E-04    0.07      30.4  T
     SCC iter.                  ...        0 min,  0.286 sec
     gradient                   ...        0 min,  0.055 sec
 * total energy  :  -137.5209476 Eh     change       -0.4354360E-03 Eh
   gradient norm :     0.0052924 Eh/α   predicted    -0.3554997E-03 ( -18.36%)
   displ. norm   :     0.7793895 α      lambda       -0.4885695E-03
   maximum displ.:     0.4936711 α      in ANC's #7, #10, #11, ...

........................................................................
.............................. CYCLE   41 ..............................
........................................................................

 iter      E             dE          RMSdq      gap      omega  full diag
   1   -139.4761330 -0.139476E+03  0.113E-01    0.04       0.0  T
   2   -139.4660464  0.100866E-01  0.223E-01    0.38       1.0  T
   3   -139.4758052 -0.975887E-02  0.104E-01    0.11       1.0  T
   4   -139.4771167 -0.131146E-02  0.646E-02    0.06       1.0  T
   5   -139.4619789  0.151378E-01  0.243E-01    0.01       1.0  T
   6   -139.4776578 -0.156789E-01  0.317E-02    0.08       1.0  T
   7   -139.4777759 -0.118126E-03  0.226E-02    0.08       1.0  T
   8   -139.4778754 -0.994588E-04  0.114E-02    0.07       1.0  T
   9   -139.4779072 -0.318349E-04  0.162E-03    0.07       5.8  T
  10   -139.4779068  0.420576E-06  0.186E-03    0.07       5.1  T
  11   -139.4779074 -0.577214E-06  0.933E-04    0.07      10.1  T
  12   -139.4779075 -0.104583E-06  0.599E-04    0.07      15.8  T
     SCC iter.                  ...        0 min,  0.519 sec
     gradient                   ...        0 min,  0.058 sec
 * total energy  :  -137.5214064 Eh     change       -0.4588355E-03 Eh
   gradient norm :     0.0048422 Eh/α   predicted    -0.3926814E-03 ( -14.42%)
   displ. norm   :     0.7697596 α      lambda       -0.4930955E-03
   maximum displ.:     0.5062467 α      in ANC's #7, #10, #11, ...

........................................................................
.............................. CYCLE   42 ..............................
........................................................................

 iter      E             dE          RMSdq      gap      omega  full diag
   1   -139.4808016 -0.139481E+03  0.786E-02    0.06       0.0  T
   2   -139.4798509  0.950719E-03  0.743E-02    0.09       1.0  T
   3   -139.4466378  0.332131E-01  0.358E-01    0.04       1.0  T
   4   -139.4785012 -0.318635E-01  0.921E-02    0.08       1.0  T
   5   -139.4806481 -0.214691E-02  0.274E-02    0.08       1.0  T
   6   -139.4807695 -0.121301E-03  0.176E-02    0.07       1.0  T
   7   -139.4808035 -0.340221E-04  0.123E-02    0.07       1.0  T
   8   -139.4808346 -0.310801E-04  0.619E-03    0.07       1.5  T
   9   -139.4808434 -0.879860E-05  0.150E-03    0.07       6.3  T
  10   -139.4808434 -0.168702E-07  0.141E-03    0.07       6.7  T
  11   -139.4808436 -0.278181E-06  0.101E-03    0.07       9.4  T
  12   -139.4808439 -0.224083E-06  0.408E-04    0.07      23.2  T
  13   -139.4808439 -0.390990E-07  0.148E-04    0.07      63.8  T
     SCC iter.                  ...        0 min,  0.354 sec
     gradient                   ...        0 min,  0.060 sec
 * total energy  :  -137.5218411 Eh     change       -0.4346948E-03 Eh
   gradient norm :     0.0058699 Eh/α   predicted    -0.3926378E-03 (  -9.68%)
   displ. norm   :     0.7590677 α      lambda       -0.4730151E-03
   maximum displ.:     0.4908334 α      in ANC's #7, #10, #11, ...
 * RMSD in coord.:     1.0167243 α      energy gain  -0.5202654E-02 Eh

generating ANC from exact Hessian ...
Using Lindh-Hessian (1995)
 Shifting diagonal of input Hessian by   1.030233487198883E-002
 Lowest  eigenvalues of input Hessian
    0.010000    0.010049    0.010109    0.010125    0.010284    0.000000
    0.000000    0.000000    0.000000    0.000000    0.000000    0.010320
    0.010345    0.010377    0.010436    0.010457    0.010491    0.010616
 Highest eigenvalues
    1.932438    2.006872    2.019006    2.030012    2.141700    2.217584
 

........................................................................
.............................. CYCLE   43 ..............................
........................................................................

 iter      E             dE          RMSdq      gap      omega  full diag
   1   -139.4723207 -0.139472E+03  0.164E-01    0.02       0.0  T
   2   -139.4588514  0.134693E-01  0.291E-01    0.40       1.0  T
   3   -139.4704874 -0.116360E-01  0.192E-01    0.24       1.0  T
   4   -139.4723970 -0.190966E-02  0.151E-01    0.15       1.0  T
   5   -139.4757236 -0.332655E-02  0.979E-02    0.03       1.0  T
   6   -139.4742960  0.142758E-02  0.119E-01    0.03       1.0  T
   7   -139.4778064 -0.351038E-02  0.326E-02    0.08       1.0  T
   8   -139.4780144 -0.208065E-03  0.156E-02    0.07       1.0  T
   9   -139.4780612 -0.467881E-04  0.820E-03    0.07       1.2  T
  10   -139.4780769 -0.156813E-04  0.206E-03    0.06       4.6  T
  11   -139.4780777 -0.840069E-06  0.694E-04    0.06      13.6  T
  12   -139.4780773  0.422477E-06  0.138E-03    0.07       6.8  T
  13   -139.4780778 -0.467814E-06  0.368E-04    0.06      25.7  T
     SCC iter.                  ...        0 min,  0.309 sec
     gradient                   ...        0 min,  0.055 sec
 * total energy  :  -137.5222659 Eh     change       -0.4247592E-03 Eh
   gradient norm :     0.0045271 Eh/α   predicted     0.0000000E+00 (-100.00%)
   displ. norm   :     0.0776052 α      lambda       -0.1026632E-03
   maximum displ.:     0.0565001 α      in ANC's #7, #10, #35, ...

........................................................................
.............................. CYCLE   44 ..............................
........................................................................

 iter      E             dE          RMSdq      gap      omega  full diag
   1   -139.4797497 -0.139480E+03  0.166E-02    0.07       0.0  T
   2   -139.4738600  0.588976E-02  0.150E-01    0.02       1.0  T
   3   -139.4797903 -0.593038E-02  0.727E-03    0.06       1.3  T
   4   -139.4797142  0.761255E-04  0.160E-02    0.06       1.0  T
   5   -139.4797838 -0.695951E-04  0.608E-03    0.06       1.6  T
   6   -139.4797890 -0.520955E-05  0.342E-03    0.06       2.8  T
   7   -139.4797916 -0.255644E-05  0.128E-03    0.06       7.4  T
   8   -139.4797920 -0.386972E-06  0.375E-04    0.06      25.2  T
   9   -139.4797920 -0.250079E-07  0.153E-04    0.06      61.7  T
     SCC iter.                  ...        0 min,  0.226 sec
     gradient                   ...        0 min,  0.056 sec
 * total energy  :  -137.5223562 Eh     change       -0.9039022E-04 Eh
   gradient norm :     0.0021562 Eh/α   predicted    -0.5170120E-04 ( -42.80%)
   displ. norm   :     0.2358115 α      lambda       -0.2314768E-03
   maximum displ.:     0.1598746 α      in ANC's #7, #10, #35, ...

........................................................................
.............................. CYCLE   45 ..............................
........................................................................

 iter      E             dE          RMSdq      gap      omega  full diag
   1   -139.4820927 -0.139482E+03  0.358E-02    0.07       0.0  T
   2   -139.4769259  0.516677E-02  0.143E-01    0.02       1.0  T
   3   -139.4819480 -0.502210E-02  0.320E-02    0.08       1.0  T
   4   -139.4817774  0.170590E-03  0.362E-02    0.06       1.0  T
   5   -139.4821188 -0.341443E-03  0.788E-03    0.07       1.2  T
   6   -139.4821318 -0.129299E-04  0.299E-03    0.07       3.2  T
   7   -139.4821328 -0.102047E-05  0.194E-03    0.07       4.9  T
   8   -139.4821335 -0.696754E-06  0.106E-03    0.07       8.9  T
   9   -139.4821336 -0.159708E-06  0.623E-04    0.07      15.2  T
  10   -139.4821337 -0.841817E-07  0.220E-04    0.06      42.9  T
     SCC iter.                  ...        0 min,  0.316 sec
     gradient                   ...        0 min,  0.067 sec
 * total energy  :  -137.5225361 Eh     change       -0.1798567E-03 Eh
   gradient norm :     0.0035485 Eh/α   predicted    -0.1221800E-03 ( -32.07%)
   displ. norm   :     0.2766835 α      lambda       -0.1859607E-03
   maximum displ.:     0.1899714 α      in ANC's #7, #10, #8, ...

........................................................................
.............................. CYCLE   46 ..............................
........................................................................

 iter      E             dE          RMSdq      gap      omega  full diag
   1   -139.4826512 -0.139483E+03  0.410E-02    0.06       0.0  T
   2   -139.4813620  0.128922E-02  0.740E-02    0.10       1.0  T
   3   -139.4808781  0.483931E-03  0.848E-02    0.04       1.0  T
   4   -139.4822034 -0.132536E-02  0.446E-02    0.07       1.0  T
   5   -139.4825869 -0.383457E-03  0.181E-02    0.07       1.0  T
   6   -139.4826509 -0.639968E-04  0.995E-03    0.07       1.0  T
   7   -139.4826675 -0.166473E-04  0.534E-03    0.07       1.8  T
   8   -139.4826752 -0.768524E-05  0.661E-04    0.06      14.3  T
   9   -139.4826751  0.177319E-06  0.100E-03    0.06       9.4  T
  10   -139.4826753 -0.220245E-06  0.323E-04    0.06      29.2  T
  11   -139.4826753 -0.240047E-07  0.131E-04    0.06      72.1  T
     SCC iter.                  ...        0 min,  0.301 sec
     gradient                   ...        0 min,  0.054 sec
 * total energy  :  -137.5226876 Eh     change       -0.1514548E-03 Eh
   gradient norm :     0.0054000 Eh/α   predicted    -0.1001228E-03 ( -33.89%)
   displ. norm   :     0.2860047 α      lambda       -0.1806271E-03
   maximum displ.:     0.1958463 α      in ANC's #7, #10, #8, ...

........................................................................
.............................. CYCLE   47 ..............................
........................................................................

 iter      E             dE          RMSdq      gap      omega  full diag
   1   -139.4820194 -0.139482E+03  0.519E-02    0.06       0.0  T
   2   -139.4771210  0.489834E-02  0.141E-01    0.15       1.0  T
   3   -139.4818425 -0.472144E-02  0.423E-02    0.05       1.0  T
   4   -139.4814540  0.388497E-03  0.533E-02    0.07       1.0  T
   5   -139.4820866 -0.632665E-03  0.157E-02    0.07       1.0  T
   6   -139.4821529 -0.663195E-04  0.411E-03    0.07       2.3  T
   7   -139.4821558 -0.283876E-05  0.207E-03    0.06       4.6  T
   8   -139.4821566 -0.799662E-06  0.113E-03    0.06       8.4  T
   9   -139.4821568 -0.218638E-06  0.636E-04    0.06      14.9  T
  10   -139.4821568  0.349587E-08  0.584E-04    0.06      16.2  T
     SCC iter.                  ...        0 min,  0.236 sec
     gradient                   ...        0 min,  0.060 sec
 * total energy  :  -137.5228369 Eh     change       -0.1493821E-03 Eh
   gradient norm :     0.0052186 Eh/α   predicted    -0.9770162E-04 ( -34.60%)
   displ. norm   :     0.3343017 α      lambda       -0.2392604E-03
   maximum displ.:     0.2282069 α      in ANC's #7, #10, #8, ...

........................................................................
.............................. CYCLE   48 ..............................
........................................................................

 iter      E             dE          RMSdq      gap      omega  full diag
   1   -139.4805144 -0.139481E+03  0.700E-02    0.05       0.0  T
   2   -139.4729584  0.755608E-02  0.180E-01    0.20       1.0  T
   3   -139.4807359 -0.777754E-02  0.387E-02    0.06       1.0  T
   4   -139.4796651  0.107078E-02  0.621E-02    0.07       1.0  T
   5   -139.4807882 -0.112302E-02  0.193E-02    0.06       1.0  T
   6   -139.4808718 -0.836523E-04  0.547E-03    0.06       1.7  T
   7   -139.4808770 -0.520520E-05  0.324E-03    0.06       2.9  T
   8   -139.4808787 -0.168160E-05  0.170E-03    0.06       5.6  T
   9   -139.4808792 -0.492777E-06  0.970E-04    0.06       9.7  T
  10   -139.4808794 -0.160335E-06  0.612E-04    0.06      15.4  T
     SCC iter.                  ...        0 min,  0.243 sec
     gradient                   ...        0 min,  0.056 sec
 * total energy  :  -137.5230316 Eh     change       -0.1946119E-03 Eh
   gradient norm :     0.0036617 Eh/α   predicted    -0.1330013E-03 ( -31.66%)
   displ. norm   :     0.3844901 α      lambda       -0.2901049E-03
   maximum displ.:     0.2615300 α      in ANC's #7, #10, #8, ...

........................................................................
.............................. CYCLE   49 ..............................
........................................................................

 iter      E             dE          RMSdq      gap      omega  full diag
   1   -139.4791169 -0.139479E+03  0.766E-02    0.05       0.0  T
   2   -139.4703425  0.877441E-02  0.195E-01    0.24       1.0  T
   3   -139.4795556 -0.921314E-02  0.408E-02    0.07       1.0  T
   4   -139.4783841  0.117150E-02  0.676E-02    0.05       1.0  T
   5   -139.4785661 -0.182031E-03  0.647E-02    0.04       1.0  T
   6   -139.4796533 -0.108716E-02  0.843E-03    0.06       1.1  T
   7   -139.4796646 -0.113334E-04  0.559E-03    0.07       1.7  T
   8   -139.4796722 -0.755383E-05  0.166E-03    0.06       5.7  T
   9   -139.4796726 -0.391677E-06  0.930E-04    0.06      10.2  T
  10   -139.4796724  0.111419E-06  0.112E-03    0.06       8.4  T
  11   -139.4796727 -0.281874E-06  0.372E-04    0.06      25.4  T
     SCC iter.                  ...        0 min,  0.362 sec
     gradient                   ...        0 min,  0.055 sec
 * total energy  :  -137.5232795 Eh     change       -0.2479490E-03 Eh
   gradient norm :     0.0038325 Eh/α   predicted    -0.1664964E-03 ( -32.85%)
   displ. norm   :     0.4803328 α      lambda       -0.3550739E-03
   maximum displ.:     0.3261356 α      in ANC's #7, #10, #8, ...

........................................................................
.............................. CYCLE   50 ..............................
........................................................................

 iter      E             dE          RMSdq      gap      omega  full diag
   1   -139.4787942 -0.139479E+03  0.842E-02    0.05       0.0  T
   2   -139.4701050  0.868920E-02  0.195E-01    0.23       1.0  T
   3   -139.4790531 -0.894806E-02  0.475E-02    0.06       1.0  T
   4   -139.4775436  0.150952E-02  0.762E-02    0.07       1.0  T
   5   -139.4791547 -0.161112E-02  0.244E-02    0.05       1.0  T
   6   -139.4792798 -0.125070E-03  0.689E-03    0.06       1.4  T
   7   -139.4792892 -0.940486E-05  0.418E-03    0.06       2.3  T
   8   -139.4792927 -0.348316E-05  0.224E-03    0.06       4.2  T
   9   -139.4792933 -0.642931E-06  0.137E-03    0.06       6.9  T
  10   -139.4792936 -0.301673E-06  0.756E-04    0.06      12.5  T
  11   -139.4792937 -0.103847E-06  0.356E-04    0.06      26.5  T
     SCC iter.                  ...        0 min,  0.231 sec
     gradient                   ...        0 min,  0.063 sec
 * total energy  :  -137.5236046 Eh     change       -0.3251322E-03 Eh
   gradient norm :     0.0058391 Eh/α   predicted    -0.2185011E-03 ( -32.80%)
   displ. norm   :     0.5653667 α      lambda       -0.4226751E-03
   maximum displ.:     0.3826396 α      in ANC's #7, #10, #8, ...

........................................................................
.............................. CYCLE   51 ..............................
........................................................................

 iter      E             dE          RMSdq      gap      omega  full diag
   1   -139.4794243 -0.139479E+03  0.928E-02    0.05       0.0  T
   2   -139.4715854  0.783890E-02  0.185E-01    0.19       1.0  T
   3   -139.4771980 -0.561253E-02  0.107E-01    0.03       1.0  T
   4   -139.4759893  0.120866E-02  0.126E-01    0.10       1.0  T
   5   -139.4784443 -0.245497E-02  0.692E-02    0.09       1.0  T
   6   -139.4795207 -0.107642E-02  0.314E-02    0.07       1.0  T
   7   -139.4797632 -0.242487E-03  0.514E-03    0.06       1.8  T
   8   -139.4797689 -0.570742E-05  0.219E-03    0.06       4.3  T
   9   -139.4797640  0.488466E-05  0.476E-03    0.06       2.0  T
  10   -139.4797695 -0.546051E-05  0.128E-03    0.06       7.4  T
  11   -139.4797698 -0.359953E-06  0.420E-04    0.06      22.5  T
  12   -139.4797698  0.107979E-07  0.447E-04    0.06      21.1  T
     SCC iter.                  ...        0 min,  0.233 sec
     gradient                   ...        0 min,  0.057 sec
 * total energy  :  -137.5240000 Eh     change       -0.3953918E-03 Eh
   gradient norm :     0.0067347 Eh/α   predicted    -0.2788916E-03 ( -29.46%)
   displ. norm   :     0.6305012 α      lambda       -0.4823094E-03
   maximum displ.:     0.4285302 α      in ANC's #7, #10, #8, ...

........................................................................
.............................. CYCLE   52 ..............................
........................................................................

 iter      E             dE          RMSdq      gap      omega  full diag
   1   -139.4805425 -0.139481E+03  0.971E-02    0.05       0.0  T
   2   -139.4730139  0.752863E-02  0.182E-01    0.18       1.0  T
   3   -139.4759140 -0.290011E-02  0.144E-01    0.02       1.0  T
   4   -139.4763561 -0.442116E-03  0.140E-01    0.11       1.0  T
   5   -139.4787819 -0.242574E-02  0.878E-02    0.10       1.0  T
   6   -139.4801716 -0.138971E-02  0.519E-02    0.08       1.0  T
   7   -139.4807516 -0.580011E-03  0.195E-02    0.07       1.0  T
   8   -139.4808479 -0.963030E-04  0.431E-03    0.06       2.2  T
   9   -139.4808414  0.645595E-05  0.643E-03    0.06       1.5  T
  10   -139.4808502 -0.874883E-05  0.253E-03    0.06       3.7  T
  11   -139.4808517 -0.153188E-05  0.517E-04    0.06      18.3  T
  12   -139.4808515  0.197494E-06  0.101E-03    0.06       9.4  T
  13   -139.4808518 -0.220144E-06  0.386E-04    0.06      24.5  T
  14   -139.4808518 -0.355677E-07  0.116E-04    0.06      81.4  T
     SCC iter.                  ...        0 min,  0.335 sec
     gradient                   ...        0 min,  0.063 sec
 * total energy  :  -137.5244533 Eh     change       -0.4533047E-03 Eh
   gradient norm :     0.0061410 Eh/α   predicted    -0.3370245E-03 ( -25.65%)
   displ. norm   :     0.6660151 α      lambda       -0.5148513E-03
   maximum displ.:     0.4564155 α      in ANC's #7, #10, #8, ...

........................................................................
.............................. CYCLE   53 ..............................
........................................................................

 iter      E             dE          RMSdq      gap      omega  full diag
   1   -139.4819594 -0.139482E+03  0.103E-01    0.05       0.0  T
   2   -139.4747073  0.725208E-02  0.180E-01    0.17       1.0  T
   3   -139.4736565  0.105079E-02  0.188E-01    0.01       1.0  T
   4   -139.4770245 -0.336802E-02  0.153E-01    0.11       1.0  T
   5   -139.4796177 -0.259323E-02  0.100E-01    0.11       1.0  T
   6   -139.4811241 -0.150632E-02  0.670E-02    0.09       1.0  T
   7   -139.4818692 -0.745134E-03  0.383E-02    0.08       1.0  T
   8   -139.4822131 -0.343905E-03  0.112E-02    0.06       1.0  T
   9   -139.4822239 -0.108104E-04  0.862E-03    0.06       1.1  T
  10   -139.4822388 -0.149055E-04  0.377E-03    0.06       2.5  T
  11   -139.4822421 -0.333910E-05  0.689E-04    0.06      13.7  T
  12   -139.4822418  0.308402E-06  0.129E-03    0.06       7.3  T
  13   -139.4822422 -0.341930E-06  0.554E-04    0.06      17.1  T
  14   -139.4822423 -0.745806E-07  0.147E-04    0.06      64.4  T
     SCC iter.                  ...        0 min,  0.394 sec
     gradient                   ...        0 min,  0.071 sec
 * total energy  :  -137.5249419 Eh     change       -0.4886191E-03 Eh
   gradient norm :     0.0046155 Eh/α   predicted    -0.3716203E-03 ( -23.94%)
   displ. norm   :     0.6806704 α      lambda       -0.5344629E-03
   maximum displ.:     0.4706999 α      in ANC's #7, #10, #8, ...

........................................................................
.............................. CYCLE   54 ..............................
........................................................................

 iter      E             dE          RMSdq      gap      omega  full diag
   1   -139.4832364 -0.139483E+03  0.101E-01    0.05       0.0  T
   2   -139.4753302  0.790619E-02  0.187E-01    0.19       1.0  T
   3   -139.4781391 -0.280894E-02  0.152E-01    0.02       1.0  T
   4   -139.4784648 -0.325735E-03  0.150E-01    0.11       1.0  T
   5   -139.4812813 -0.281649E-02  0.928E-02    0.10       1.0  T
   6   -139.4828518 -0.157045E-02  0.544E-02    0.08       1.0  T
   7   -139.4834732 -0.621435E-03  0.205E-02    0.07       1.0  T
   8   -139.4835798 -0.106610E-03  0.322E-03    0.06       2.9  T
   9   -139.4835686  0.112350E-04  0.735E-03    0.06       1.3  T
  10   -139.4835798 -0.111767E-04  0.284E-03    0.06       3.3  T
  11   -139.4835817 -0.194385E-05  0.509E-04    0.06      18.6  T
  12   -139.4835815  0.217158E-06  0.105E-03    0.06       9.0  T
  13   -139.4835817 -0.228230E-06  0.452E-04    0.06      20.9  T
  14   -139.4835818 -0.508459E-07  0.771E-05    0.06     122.6  T
     SCC iter.                  ...        0 min,  0.332 sec
     gradient                   ...        0 min,  0.055 sec
 * total energy  :  -137.5254565 Eh     change       -0.5145815E-03 Eh
   gradient norm :     0.0034986 Eh/α   predicted    -0.3910442E-03 ( -24.01%)
   displ. norm   :     0.6929270 α      lambda       -0.5591181E-03
   maximum displ.:     0.4822351 α      in ANC's #7, #10, #8, ...

........................................................................
.............................. CYCLE   55 ..............................
........................................................................

 iter      E             dE          RMSdq      gap      omega  full diag
   1   -139.4842162 -0.139484E+03  0.103E-01    0.05       0.0  T
   2   -139.4752483  0.896792E-02  0.200E-01    0.21       1.0  T
   3   -139.4816444 -0.639615E-02  0.117E-01    0.03       1.0  T
   4   -139.4794224  0.222198E-02  0.148E-01    0.11       1.0  T
   5   -139.4829413 -0.351884E-02  0.794E-02    0.09       1.0  T
   6   -139.4844179 -0.147666E-02  0.335E-02    0.07       1.0  T
   7   -139.4846804 -0.262455E-03  0.596E-03    0.06       1.6  T
   8   -139.4846879 -0.747381E-05  0.248E-03    0.06       3.8  T
   9   -139.4846802  0.767718E-05  0.606E-03    0.06       1.6  T
  10   -139.4846888 -0.858360E-05  0.140E-03    0.06       6.7  T
  11   -139.4846892 -0.419202E-06  0.504E-04    0.06      18.8  T
  12   -139.4846892  0.859933E-08  0.530E-04    0.06      17.8  T
     SCC iter.                  ...        0 min,  0.276 sec
     gradient                   ...        0 min,  0.055 sec
 * total energy  :  -137.5260001 Eh     change       -0.5435434E-03 Eh
   gradient norm :     0.0038090 Eh/α   predicted    -0.4137948E-03 ( -23.87%)
   displ. norm   :     0.7076539 α      lambda       -0.5871734E-03
   maximum displ.:     0.4952835 α      in ANC's #7, #10, #8, ...

........................................................................
.............................. CYCLE   56 ..............................
........................................................................

 iter      E             dE          RMSdq      gap      omega  full diag
   1   -139.4848613 -0.139485E+03  0.105E-01    0.04       0.0  T
   2   -139.4748265  0.100349E-01  0.214E-01    0.24       1.0  T
   3   -139.4843480 -0.952150E-02  0.802E-02    0.04       1.0  T
   4   -139.4811151  0.323285E-02  0.127E-01    0.10       1.0  T
   5   -139.4852045 -0.408934E-02  0.322E-02    0.07       1.0  T
   6   -139.4855043 -0.299848E-03  0.994E-03    0.06       1.0  T
   7   -139.4855235 -0.191758E-04  0.506E-03    0.06       1.9  T
   8   -139.4855285 -0.496572E-05  0.200E-03    0.06       4.7  T
   9   -139.4855287 -0.211853E-06  0.147E-03    0.06       6.4  T
  10   -139.4855291 -0.394532E-06  0.585E-04    0.06      16.1  T
  11   -139.4855291 -0.303071E-07  0.401E-04    0.06      23.6  T
     SCC iter.                  ...        0 min,  0.296 sec
     gradient                   ...        0 min,  0.058 sec
 * total energy  :  -137.5265718 Eh     change       -0.5717321E-03 Eh
   gradient norm :     0.0044596 Eh/α   predicted    -0.4406132E-03 ( -22.93%)
   displ. norm   :     0.7145484 α      lambda       -0.6003578E-03
   maximum displ.:     0.5035205 α      in ANC's #7, #10, #4, ...

........................................................................
.............................. CYCLE   57 ..............................
........................................................................

 iter      E             dE          RMSdq      gap      omega  full diag
   1   -139.4855437 -0.139486E+03  0.101E-01    0.04       0.0  T
   2   -139.4753035  0.102403E-01  0.216E-01    0.24       1.0  T
   3   -139.4855773 -0.102738E-01  0.652E-02    0.05       1.0  T
   4   -139.4828072  0.277011E-02  0.109E-01    0.08       1.0  T
   5   -139.4860530 -0.324582E-02  0.287E-02    0.05       1.0  T
   6   -139.4861928 -0.139800E-03  0.120E-02    0.06       1.0  T
   7   -139.4862324 -0.395467E-04  0.481E-03    0.06       2.0  T
   8   -139.4862350 -0.260165E-05  0.327E-03    0.06       2.9  T
   9   -139.4862368 -0.184093E-05  0.150E-03    0.06       6.3  T
  10   -139.4862371 -0.304259E-06  0.937E-04    0.06      10.1  T
  11   -139.4862372 -0.982643E-07  0.649E-04    0.06      14.6  T
     SCC iter.                  ...        0 min,  0.287 sec
     gradient                   ...        0 min,  0.063 sec
 * total energy  :  -137.5271534 Eh     change       -0.5816165E-03 Eh
   gradient norm :     0.0045872 Eh/α   predicted    -0.4534492E-03 ( -22.04%)
   displ. norm   :     0.7027594 α      lambda       -0.5883489E-03
   maximum displ.:     0.4986536 α      in ANC's #7, #10, #4, ...

........................................................................
.............................. CYCLE   58 ..............................
........................................................................

 iter      E             dE          RMSdq      gap      omega  full diag
   1   -139.4860778 -0.139486E+03  0.102E-01    0.04       0.0  T
   2   -139.4756349  0.104430E-01  0.219E-01    0.25       1.0  T
   3   -139.4861405 -0.105057E-01  0.654E-02    0.05       1.0  T
   4   -139.4832470  0.289346E-02  0.109E-01    0.08       1.0  T
   5   -139.4865989 -0.335189E-02  0.306E-02    0.05       1.0  T
   6   -139.4867551 -0.156183E-03  0.123E-02    0.06       1.0  T
   7   -139.4867962 -0.410664E-04  0.503E-03    0.06       1.9  T
   8   -139.4867990 -0.280152E-05  0.349E-03    0.06       2.7  T
   9   -139.4868012 -0.217880E-05  0.146E-03    0.06       6.5  T
  10   -139.4868014 -0.248203E-06  0.981E-04    0.06       9.6  T
  11   -139.4868015 -0.109119E-06  0.676E-04    0.06      14.0  T
     SCC iter.                  ...        0 min,  0.293 sec
     gradient                   ...        0 min,  0.052 sec
 * total energy  :  -137.5277177 Eh     change       -0.5642424E-03 Eh
   gradient norm :     0.0040992 Eh/α   predicted    -0.4394601E-03 ( -22.12%)
   displ. norm   :     0.6740664 α      lambda       -0.5557135E-03
   maximum displ.:     0.4821152 α      in ANC's #7, #10, #4, ...

........................................................................
.............................. CYCLE   59 ..............................
........................................................................

 iter      E             dE          RMSdq      gap      omega  full diag
   1   -139.4867751 -0.139487E+03  0.899E-02    0.04       0.0  T
   2   -139.4761698  0.106053E-01  0.220E-01    0.25       1.0  T
   3   -139.4873240 -0.111543E-01  0.453E-02    0.06       1.0  T
   4   -139.4857907  0.153329E-02  0.746E-02    0.06       1.0  T
   5   -139.4863590 -0.568260E-03  0.698E-02    0.04       1.0  T
   6   -139.4874548 -0.109584E-02  0.139E-02    0.06       1.0  T
   7   -139.4875118 -0.570039E-04  0.435E-03    0.06       2.2  T
   8   -139.4875103  0.157207E-05  0.507E-03    0.06       1.9  T
   9   -139.4875159 -0.560911E-05  0.106E-03    0.06       8.9  T
  10   -139.4875158  0.111513E-06  0.117E-03    0.06       8.0  T
  11   -139.4875160 -0.270166E-06  0.400E-04    0.06      23.6  T
  12   -139.4875160 -0.144900E-07  0.313E-04    0.06      30.2  T
     SCC iter.                  ...        0 min,  0.314 sec
     gradient                   ...        0 min,  0.055 sec
 * total energy  :  -137.5282490 Eh     change       -0.5313619E-03 Eh
   gradient norm :     0.0033227 Eh/α   predicted    -0.4041092E-03 ( -23.95%)
   displ. norm   :     0.6363686 α      lambda       -0.5121500E-03
   maximum displ.:     0.4577911 α      in ANC's #7, #10, #4, ...

........................................................................
.............................. CYCLE   60 ..............................
........................................................................

 iter      E             dE          RMSdq      gap      omega  full diag
   1   -139.4874562 -0.139487E+03  0.875E-02    0.04       0.0  T
   2   -139.4769943  0.104620E-01  0.218E-01    0.24       1.0  T
   3   -139.4879101 -0.109158E-01  0.456E-02    0.05       1.0  T
   4   -139.4862948  0.161529E-02  0.767E-02    0.07       1.0  T
   5   -139.4874150 -0.112023E-02  0.559E-02    0.04       1.0  T
   6   -139.4880813 -0.666250E-03  0.128E-02    0.05       1.0  T
   7   -139.4881296 -0.483304E-04  0.425E-03    0.06       2.2  T
   8   -139.4881295  0.968373E-07  0.439E-03    0.06       2.2  T
   9   -139.4881336 -0.411546E-05  0.950E-04    0.06       9.9  T
  10   -139.4881335  0.128726E-06  0.112E-03    0.06       8.5  T
  11   -139.4881338 -0.253502E-06  0.361E-04    0.06      26.2  T
  12   -139.4881338 -0.102760E-07  0.302E-04    0.06      31.3  T
     SCC iter.                  ...        0 min,  0.397 sec
     gradient                   ...        0 min,  0.059 sec
 * total energy  :  -137.5287420 Eh     change       -0.4929942E-03 Eh
   gradient norm :     0.0027927 Eh/α   predicted    -0.3597779E-03 ( -27.02%)
   displ. norm   :     0.6039655 α      lambda       -0.4827455E-03
   maximum displ.:     0.4370943 α      in ANC's #7, #10, #4, ...

........................................................................
.............................. CYCLE   61 ..............................
........................................................................

 iter      E             dE          RMSdq      gap      omega  full diag
   1   -139.4884999 -0.139488E+03  0.771E-02    0.04       0.0  T
   2   -139.4784593  0.100406E-01  0.213E-01    0.22       1.0  T
   3   -139.4888917 -0.104324E-01  0.395E-02    0.05       1.0  T
   4   -139.4876767  0.121501E-02  0.672E-02    0.06       1.0  T
   5   -139.4885670 -0.890320E-03  0.470E-02    0.04       1.0  T
   6   -139.4890169 -0.449926E-03  0.129E-02    0.05       1.0  T
   7   -139.4890655 -0.485504E-04  0.335E-03    0.06       2.8  T
   8   -139.4890648  0.635268E-06  0.383E-03    0.06       2.5  T
   9   -139.4890679 -0.311653E-05  0.926E-04    0.06      10.2  T
  10   -139.4890679  0.505279E-07  0.963E-04    0.06       9.8  T
  11   -139.4890681 -0.197718E-06  0.241E-04    0.06      39.2  T
     SCC iter.                  ...        0 min,  0.268 sec
     gradient                   ...        0 min,  0.059 sec
 * total energy  :  -137.5292068 Eh     change       -0.4647980E-03 Eh
   gradient norm :     0.0027617 Eh/α   predicted    -0.3294230E-03 ( -29.13%)
   displ. norm   :     0.5911609 α      lambda       -0.4714986E-03
   maximum displ.:     0.4292893 α      in ANC's #7, #10, #4, ...

........................................................................
.............................. CYCLE   62 ..............................
........................................................................

 iter      E             dE          RMSdq      gap      omega  full diag
   1   -139.4894109 -0.139489E+03  0.745E-02    0.04       0.0  T
   2   -139.4794949  0.991594E-02  0.211E-01    0.22       1.0  T
   3   -139.4897577 -0.102628E-01  0.390E-02    0.05       1.0  T
   4   -139.4886035  0.115426E-02  0.655E-02    0.06       1.0  T
   5   -139.4895822 -0.978666E-03  0.399E-02    0.04       1.0  T
   6   -139.4898999 -0.317739E-03  0.116E-02    0.05       1.0  T
   7   -139.4899381 -0.381701E-04  0.320E-03    0.06       3.0  T
   8   -139.4899378  0.247609E-06  0.347E-03    0.06       2.7  T
   9   -139.4899405 -0.263449E-05  0.840E-04    0.06      11.3  T
  10   -139.4899404  0.797348E-07  0.960E-04    0.06       9.8  T
  11   -139.4899406 -0.199879E-06  0.209E-04    0.06      45.3  T
     SCC iter.                  ...        0 min,  0.229 sec
     gradient                   ...        0 min,  0.053 sec
 * total energy  :  -137.5296579 Eh     change       -0.4510967E-03 Eh
   gradient norm :     0.0028363 Eh/α   predicted    -0.3181403E-03 ( -29.47%)
   displ. norm   :     0.5938946 α      lambda       -0.4668674E-03
   maximum displ.:     0.4329265 α      in ANC's #7, #10, #4, ...

........................................................................
.............................. CYCLE   63 ..............................
........................................................................

 iter      E             dE          RMSdq      gap      omega  full diag
   1   -139.4905787 -0.139491E+03  0.704E-02    0.04       0.0  T
   2   -139.4810406  0.953810E-02  0.207E-01    0.20       1.0  T
   3   -139.4908121 -0.977150E-02  0.400E-02    0.05       1.0  T
   4   -139.4896942  0.111789E-02  0.661E-02    0.07       1.0  T
   5   -139.4908732 -0.117899E-02  0.278E-02    0.05       1.0  T
   6   -139.4910095 -0.136300E-03  0.104E-02    0.05       1.0  T
   7   -139.4910392 -0.296314E-04  0.298E-03    0.06       3.2  T
   8   -139.4910390  0.124116E-06  0.314E-03    0.06       3.0  T
   9   -139.4910413 -0.222063E-05  0.771E-04    0.06      12.3  T
  10   -139.4910412  0.730002E-07  0.893E-04    0.06      10.6  T
  11   -139.4910414 -0.170121E-06  0.206E-04    0.06      45.9  T
     SCC iter.                  ...        0 min,  0.273 sec
     gradient                   ...        0 min,  0.055 sec
 * total energy  :  -137.5300993 Eh     change       -0.4413464E-03 Eh
   gradient norm :     0.0028062 Eh/α   predicted    -0.3157717E-03 ( -28.45%)
   displ. norm   :     0.6029284 α      lambda       -0.4547031E-03
   maximum displ.:     0.4398535 α      in ANC's #7, #10, #4, ...

........................................................................
.............................. CYCLE   64 ..............................
........................................................................

 iter      E             dE          RMSdq      gap      omega  full diag
   1   -139.4914326 -0.139491E+03  0.715E-02    0.04       0.0  T
   2   -139.4818880  0.954457E-02  0.207E-01    0.20       1.0  T
   3   -139.4916078 -0.971974E-02  0.432E-02    0.05       1.0  T
   4   -139.4903831  0.122464E-02  0.692E-02    0.07       1.0  T
   5   -139.4917679 -0.138480E-02  0.233E-02    0.05       1.0  T
   6   -139.4918641 -0.961630E-04  0.900E-03    0.05       1.0  T
   7   -139.4918860 -0.219418E-04  0.297E-03    0.06       3.2  T
   8   -139.4918863 -0.258034E-06  0.284E-03    0.06       3.3  T
   9   -139.4918881 -0.181575E-05  0.732E-04    0.06      12.9  T
  10   -139.4918880  0.699487E-07  0.853E-04    0.06      11.1  T
  11   -139.4918882 -0.154932E-06  0.243E-04    0.06      38.9  T
     SCC iter.                  ...        0 min,  0.269 sec
     gradient                   ...        0 min,  0.062 sec
 * total energy  :  -137.5305235 Eh     change       -0.4242129E-03 Eh
   gradient norm :     0.0024776 Eh/α   predicted    -0.3100001E-03 ( -26.92%)
   displ. norm   :     0.6113887 α      lambda       -0.4309406E-03
   maximum displ.:     0.4455152 α      in ANC's #7, #10, #4, ...

........................................................................
.............................. CYCLE   65 ..............................
........................................................................

 iter      E             dE          RMSdq      gap      omega  full diag
   1   -139.4924399 -0.139492E+03  0.723E-02    0.04       0.0  T
   2   -139.4830443  0.939556E-02  0.206E-01    0.20       1.0  T
   3   -139.4924758 -0.943148E-02  0.489E-02    0.05       1.0  T
   4   -139.4910526  0.142319E-02  0.762E-02    0.07       1.0  T
   5   -139.4927945 -0.174189E-02  0.179E-02    0.05       1.0  T
   6   -139.4928562 -0.616770E-04  0.705E-03    0.05       1.3  T
   7   -139.4928690 -0.128101E-04  0.297E-03    0.06       3.2  T
   8   -139.4928699 -0.884616E-06  0.233E-03    0.06       4.1  T
   9   -139.4928710 -0.111698E-05  0.761E-04    0.06      12.4  T
  10   -139.4928710 -0.212698E-07  0.637E-04    0.06      14.8  T
  11   -139.4928711 -0.740021E-07  0.303E-04    0.06      31.1  T
     SCC iter.                  ...        0 min,  0.314 sec
     gradient                   ...        0 min,  0.056 sec
 * total energy  :  -137.5309223 Eh     change       -0.3988200E-03 Eh
   gradient norm :     0.0021321 Eh/α   predicted    -0.2960134E-03 ( -25.78%)
   displ. norm   :     0.6218020 α      lambda       -0.4039276E-03
   maximum displ.:     0.4500932 α      in ANC's #7, #10, #4, ...

........................................................................
.............................. CYCLE   66 ..............................
........................................................................

 iter      E             dE          RMSdq      gap      omega  full diag
   1   -139.4931927 -0.139493E+03  0.752E-02    0.04       0.0  T
   2   -139.4838097  0.938301E-02  0.206E-01    0.20       1.0  T
   3   -139.4930427 -0.923297E-02  0.571E-02    0.04       1.0  T
   4   -139.4913279  0.171475E-02  0.854E-02    0.07       1.0  T
   5   -139.4935192 -0.219133E-02  0.189E-02    0.06       1.0  T
   6   -139.4936057 -0.864327E-04  0.624E-03    0.06       1.5  T
   7   -139.4936141 -0.842317E-05  0.304E-03    0.06       3.1  T
   8   -139.4936158 -0.168115E-05  0.155E-03    0.06       6.1  T
   9   -139.4936161 -0.347533E-06  0.819E-04    0.06      11.5  T
  10   -139.4936162 -0.101182E-06  0.411E-04    0.06      23.0  T
     SCC iter.                  ...        0 min,  0.234 sec
     gradient                   ...        0 min,  0.056 sec
 * total energy  :  -137.5312956 Eh     change       -0.3733222E-03 Eh
   gradient norm :     0.0019330 Eh/α   predicted    -0.2800523E-03 ( -24.98%)
   displ. norm   :     0.9636059 α      lambda       -0.3889596E-03
   maximum displ.:     0.6889052 α      in ANC's #7, #10, #4, ...
 * RMSD in coord.:     1.2061685 α      energy gain  -0.9454520E-02 Eh

generating ANC from exact Hessian ...
Using Lindh-Hessian (1995)
 Shifting diagonal of input Hessian by   1.026345025683170E-002
 Lowest  eigenvalues of input Hessian
    0.010000    0.010035    0.010066    0.010111    0.000000    0.000000
    0.000000    0.000000    0.000000    0.000000    0.010281    0.010300
    0.010366    0.010407    0.010431    0.010497    0.010565    0.010642
 Highest eigenvalues
    1.935544    2.006297    2.021695    2.029267    2.144696    2.220628
 

........................................................................
.............................. CYCLE   67 ..............................
........................................................................

 iter      E             dE          RMSdq      gap      omega  full diag
   1   -139.4932923 -0.139493E+03  0.127E-01    0.03       0.0  T
   2   -139.4809209  0.123714E-01  0.248E-01    0.28       1.0  T
   3   -139.4932437 -0.123228E-01  0.855E-02    0.04       1.0  T
   4   -139.4885780  0.466567E-02  0.133E-01    0.09       1.0  T
   5   -139.4939596 -0.538159E-02  0.425E-02    0.05       1.0  T
   6   -139.4943394 -0.379806E-03  0.160E-02    0.06       1.0  T
   7   -139.4944011 -0.616567E-04  0.644E-03    0.06       1.5  T
   8   -139.4944071 -0.601681E-05  0.395E-03    0.06       2.4  T
   9   -139.4944094 -0.231573E-05  0.199E-03    0.05       4.7  T
  10   -139.4944097 -0.350805E-06  0.130E-03    0.05       7.3  T
  11   -139.4944100 -0.302735E-06  0.799E-04    0.05      11.8  T
  12   -139.4944102 -0.111945E-06  0.454E-04    0.05      20.8  T
     SCC iter.                  ...        0 min,  0.759 sec
     gradient                   ...        0 min,  0.082 sec
 * total energy  :  -137.5318129 Eh     change       -0.5172968E-03 Eh
   gradient norm :     0.0023551 Eh/α   predicted     0.0000000E+00 (-100.00%)
   displ. norm   :     0.0697567 α      lambda       -0.6757493E-04
   maximum displ.:     0.0385552 α      in ANC's #7, #10, #6, ...

........................................................................
.............................. CYCLE   68 ..............................
........................................................................

 iter      E             dE          RMSdq      gap      omega  full diag
   1   -139.4936664 -0.139494E+03  0.169E-02    0.05       0.0  T
   2   -139.4926873  0.979055E-03  0.658E-02    0.08       1.0  T
   3   -139.4936360 -0.948690E-03  0.157E-02    0.05       1.0  T
   4   -139.4935328  0.103212E-03  0.207E-02    0.06       1.0  T
   5   -139.4936763 -0.143522E-03  0.384E-03    0.06       2.5  T
   6   -139.4936793 -0.302109E-05  0.138E-03    0.05       6.9  T
   7   -139.4936797 -0.334729E-06  0.597E-04    0.05      15.8  T
   8   -139.4936797 -0.553402E-07  0.238E-04    0.05      39.8  T
     SCC iter.                  ...        0 min,  0.298 sec
     gradient                   ...        0 min,  0.056 sec
 * total energy  :  -137.5318760 Eh     change       -0.6308838E-04 Eh
   gradient norm :     0.0014659 Eh/α   predicted    -0.3398248E-04 ( -46.14%)
   displ. norm   :     0.5555046 α      lambda       -0.3094175E-03
   maximum displ.:     0.2813467 α      in ANC's #7, #10, #6, ...

........................................................................
.............................. CYCLE   69 ..............................
........................................................................

 iter      E             dE          RMSdq      gap      omega  full diag
   1   -139.4892356 -0.139489E+03  0.131E-01    0.04       0.0  T
   2   -139.4781464  0.110892E-01  0.237E-01    0.22       1.0  T
   3   -139.4834225 -0.527604E-02  0.174E-01    0.01       1.0  T
   4   -139.4785274  0.489501E-02  0.198E-01    0.14       1.0  T
   5   -139.4858684 -0.734098E-02  0.131E-01    0.11       1.0  T
   6   -139.4882241 -0.235565E-02  0.828E-02    0.09       1.0  T
   7   -139.4897053 -0.148122E-02  0.259E-02    0.06       1.0  T
   8   -139.4898217 -0.116442E-03  0.139E-02    0.06       1.0  T
   9   -139.4898385 -0.167940E-04  0.104E-02    0.06       1.0  T
  10   -139.4898565 -0.179201E-04  0.543E-03    0.06       1.7  T
  11   -139.4898634 -0.699287E-05  0.112E-03    0.05       8.5  T
  12   -139.4898636 -0.125951E-06  0.736E-04    0.05      12.8  T
  13   -139.4898636 -0.749255E-07  0.447E-04    0.05      21.2  T
     SCC iter.                  ...        0 min,  0.327 sec
     gradient                   ...        0 min,  0.058 sec
 * total energy  :  -137.5321863 Eh     change       -0.3102945E-03 Eh
   gradient norm :     0.0053659 Eh/α   predicted    -0.1759544E-03 ( -43.29%)
   displ. norm   :     0.3479799 α      lambda       -0.2237662E-03
   maximum displ.:     0.1826216 α      in ANC's #7, #10, #6, ...

........................................................................
.............................. CYCLE   70 ..............................
........................................................................

 iter      E             dE          RMSdq      gap      omega  full diag
   1   -139.4897448 -0.139490E+03  0.884E-02    0.05       0.0  T
   2   -139.4860284  0.371644E-02  0.136E-01    0.11       1.0  T
   3   -139.4753298  0.106986E-01  0.253E-01    0.02       1.0  T
   4   -139.4852137 -0.988386E-02  0.125E-01    0.09       1.0  T
   5   -139.4890677 -0.385405E-02  0.586E-02    0.07       1.0  T
   6   -139.4893914 -0.323648E-03  0.436E-02    0.07       1.0  T
   7   -139.4896935 -0.302095E-03  0.249E-02    0.06       1.0  T
   8   -139.4898188 -0.125294E-03  0.813E-03    0.06       1.2  T
   9   -139.4898325 -0.137396E-04  0.280E-03    0.05       3.4  T
  10   -139.4898328 -0.306902E-06  0.235E-03    0.05       4.0  T
  11   -139.4898339 -0.106401E-05  0.914E-04    0.05      10.3  T
  12   -139.4898341 -0.166947E-06  0.292E-04    0.05      32.4  T
  13   -139.4898340  0.522394E-08  0.336E-04    0.05      28.2  T
     SCC iter.                  ...        0 min,  0.338 sec
     gradient                   ...        0 min,  0.056 sec
 * total energy  :  -137.5323164 Eh     change       -0.1300857E-03 Eh
   gradient norm :     0.0060142 Eh/α   predicted    -0.1254312E-03 (  -3.58%)
   displ. norm   :     0.4025385 α      lambda       -0.2932610E-03
   maximum displ.:     0.2058591 α      in ANC's #7, #10, #6, ...

........................................................................
.............................. CYCLE   71 ..............................
........................................................................

 iter      E             dE          RMSdq      gap      omega  full diag
   1   -139.4912932 -0.139491E+03  0.946E-02    0.05       0.0  T
   2   -139.4883856  0.290763E-02  0.125E-01    0.10       1.0  T
   3   -139.4710889  0.172967E-01  0.297E-01    0.03       1.0  T
   4   -139.4870454 -0.159565E-01  0.120E-01    0.08       1.0  T
   5   -139.4908451 -0.379972E-02  0.486E-02    0.07       1.0  T
   6   -139.4910197 -0.174645E-03  0.382E-02    0.07       1.0  T
   7   -139.4912448 -0.225065E-03  0.227E-02    0.06       1.0  T
   8   -139.4913478 -0.103044E-03  0.783E-03    0.06       1.2  T
   9   -139.4913609 -0.130337E-04  0.243E-03    0.05       3.9  T
  10   -139.4913615 -0.581083E-06  0.157E-03    0.05       6.0  T
  11   -139.4913619 -0.489907E-06  0.668E-04    0.05      14.1  T
  12   -139.4913620 -0.792290E-07  0.258E-04    0.05      36.7  T
     SCC iter.                  ...        0 min,  0.285 sec
     gradient                   ...        0 min,  0.057 sec
 * total energy  :  -137.5325414 Eh     change       -0.2250081E-03 Eh
   gradient norm :     0.0047554 Eh/α   predicted    -0.1703935E-03 ( -24.27%)
   displ. norm   :     0.5418573 α      lambda       -0.3848283E-03
   maximum displ.:     0.2882966 α      in ANC's #7, #10, #6, ...

........................................................................
.............................. CYCLE   72 ..............................
........................................................................

 iter      E             dE          RMSdq      gap      omega  full diag
   1   -139.4933947 -0.139493E+03  0.118E-01    0.05       0.0  T
   2   -139.4872824  0.611223E-02  0.176E-01    0.13       1.0  T
   3   -139.4706451  0.166374E-01  0.317E-01    0.04       1.0  T
   4   -139.4858759 -0.152308E-01  0.166E-01    0.10       1.0  T
   5   -139.4918502 -0.597434E-02  0.884E-02    0.09       1.0  T
   6   -139.4924371 -0.586917E-03  0.695E-02    0.08       1.0  T
   7   -139.4931452 -0.708044E-03  0.433E-02    0.07       1.0  T
   8   -139.4934908 -0.345686E-03  0.186E-02    0.06       1.0  T
   9   -139.4935564 -0.655744E-04  0.830E-03    0.06       1.1  T
  10   -139.4935641 -0.763779E-05  0.549E-03    0.05       1.7  T
  11   -139.4935703 -0.621905E-05  0.193E-03    0.05       4.9  T
  12   -139.4935710 -0.740154E-06  0.541E-04    0.05      17.5  T
  13   -139.4935709  0.106457E-06  0.855E-04    0.05      11.1  T
     SCC iter.                  ...        0 min,  0.206 sec
     gradient                   ...        0 min,  0.048 sec
 * total energy  :  -137.5328333 Eh     change       -0.2918883E-03 Eh
   gradient norm :     0.0035810 Eh/α   predicted    -0.2489085E-03 ( -14.72%)
   displ. norm   :     0.5890278 α      lambda       -0.3657826E-03
   maximum displ.:     0.3130494 α      in ANC's #7, #10, #6, ...

........................................................................
.............................. CYCLE   73 ..............................
........................................................................

 iter      E             dE          RMSdq      gap      omega  full diag
   1   -139.4945274 -0.139495E+03  0.122E-01    0.04       0.0  T
   2   -139.4856512  0.887621E-02  0.209E-01    0.16       1.0  T
   3   -139.4798230  0.582821E-02  0.259E-01    0.02       1.0  T
   4   -139.4851882 -0.536516E-02  0.187E-01    0.12       1.0  T
   5   -139.4919255 -0.673733E-02  0.115E-01    0.10       1.0  T
   6   -139.4930221 -0.109658E-02  0.881E-02    0.09       1.0  T
   7   -139.4942467 -0.122467E-02  0.514E-02    0.07       1.0  T
   8   -139.4947605 -0.513796E-03  0.194E-02    0.06       1.0  T
   9   -139.4948045 -0.440000E-04  0.141E-02    0.06       1.0  T
  10   -139.4948257 -0.211468E-04  0.989E-03    0.06       1.0  T
  11   -139.4948469 -0.212408E-04  0.253E-03    0.05       3.7  T
  12   -139.4948483 -0.132137E-05  0.696E-04    0.05      13.6  T
  13   -139.4948481  0.112517E-06  0.985E-04    0.05       9.6  T
  14   -139.4948484 -0.219924E-06  0.142E-04    0.05      66.4  T
     SCC iter.                  ...        0 min,  0.448 sec
     gradient                   ...        0 min,  0.056 sec
 * total energy  :  -137.5331581 Eh     change       -0.3248045E-03 Eh
   gradient norm :     0.0038342 Eh/α   predicted    -0.2463496E-03 ( -24.15%)
   displ. norm   :     0.6700395 α      lambda       -0.4517330E-03
   maximum displ.:     0.3527426 α      in ANC's #7, #10, #6, ...

........................................................................
.............................. CYCLE   74 ..............................
........................................................................

 iter      E             dE          RMSdq      gap      omega  full diag
   1   -139.4953896 -0.139495E+03  0.125E-01    0.04       0.0  T
   2   -139.4861647  0.922486E-02  0.213E-01    0.16       1.0  T
   3   -139.4790507  0.711400E-02  0.272E-01    0.03       1.0  T
   4   -139.4851629 -0.611223E-02  0.197E-01    0.12       1.0  T
   5   -139.4927087 -0.754575E-02  0.117E-01    0.10       1.0  T
   6   -139.4938650 -0.115634E-02  0.893E-02    0.09       1.0  T
   7   -139.4951746 -0.130957E-02  0.503E-02    0.07       1.0  T
   8   -139.4956731 -0.498502E-03  0.181E-02    0.06       1.0  T
   9   -139.4957108 -0.376428E-04  0.134E-02    0.06       1.0  T
  10   -139.4957282 -0.174891E-04  0.974E-03    0.05       1.0  T
  11   -139.4957489 -0.206982E-04  0.224E-03    0.05       4.2  T
  12   -139.4957499 -0.922358E-06  0.979E-04    0.05       9.7  T
  13   -139.4957498  0.199136E-07  0.102E-03    0.05       9.2  T
  14   -139.4957501 -0.237187E-06  0.162E-04    0.05      58.3  T
     SCC iter.                  ...        0 min,  0.231 sec
     gradient                   ...        0 min,  0.040 sec
 * total energy  :  -137.5335530 Eh     change       -0.3949290E-03 Eh
   gradient norm :     0.0043997 Eh/α   predicted    -0.3272699E-03 ( -17.13%)
   displ. norm   :     0.7417724 α      lambda       -0.4422158E-03
   maximum displ.:     0.3867446 α      in ANC's #7, #10, #6, ...

........................................................................
.............................. CYCLE   75 ..............................
........................................................................

 iter      E             dE          RMSdq      gap      omega  full diag
   1   -139.4943376 -0.139494E+03  0.133E-01    0.04       0.0  T
   2   -139.4847023  0.963525E-02  0.220E-01    0.17       1.0  T
   3   -139.4764057  0.829664E-02  0.285E-01    0.03       1.0  T
   4   -139.4824550 -0.604933E-02  0.211E-01    0.13       1.0  T
   5   -139.4911633 -0.870832E-02  0.126E-01    0.11       1.0  T
   6   -139.4924935 -0.133012E-02  0.973E-02    0.09       1.0  T
   7   -139.4940267 -0.153321E-02  0.557E-02    0.07       1.0  T
   8   -139.4946111 -0.584380E-03  0.228E-02    0.06       1.0  T
   9   -139.4946708 -0.597168E-04  0.169E-02    0.06       1.0  T
  10   -139.4946991 -0.283215E-04  0.124E-02    0.06       1.0  T
  11   -139.4947336 -0.344793E-04  0.180E-03    0.05       5.3  T
  12   -139.4947342 -0.596870E-06  0.825E-04    0.05      11.5  T
  13   -139.4947341  0.793558E-07  0.103E-03    0.05       9.2  T
  14   -139.4947343 -0.233441E-06  0.191E-04    0.05      49.4  T
     SCC iter.                  ...        0 min,  0.244 sec
     gradient                   ...        0 min,  0.058 sec
 * total energy  :  -137.5339413 Eh     change       -0.3883036E-03 Eh
   gradient norm :     0.0042164 Eh/α   predicted    -0.3427670E-03 ( -11.73%)
   displ. norm   :     0.7644117 α      lambda       -0.4142168E-03
   maximum displ.:     0.3973460 α      in ANC's #7, #10, #6, ...

........................................................................
.............................. CYCLE   76 ..............................
........................................................................

 iter      E             dE          RMSdq      gap      omega  full diag
   1   -139.4932163 -0.139493E+03  0.125E-01    0.04       0.0  T
   2   -139.4841055  0.911087E-02  0.213E-01    0.16       1.0  T
   3   -139.4786358  0.546966E-02  0.257E-01    0.02       1.0  T
   4   -139.4822730 -0.363721E-02  0.200E-01    0.12       1.0  T
   5   -139.4905770 -0.830399E-02  0.115E-01    0.10       1.0  T
   6   -139.4918328 -0.125579E-02  0.853E-02    0.08       1.0  T
   7   -139.4930759 -0.124310E-02  0.463E-02    0.07       1.0  T
   8   -139.4934966 -0.420751E-03  0.171E-02    0.06       1.0  T
   9   -139.4935305 -0.338818E-04  0.126E-02    0.05       1.0  T
  10   -139.4935435 -0.130060E-04  0.990E-03    0.05       1.0  T
  11   -139.4935651 -0.215396E-04  0.214E-03    0.05       4.4  T
  12   -139.4935660 -0.939324E-06  0.705E-04    0.05      13.4  T
  13   -139.4935660  0.200731E-08  0.719E-04    0.05      13.1  T
     SCC iter.                  ...        0 min,  0.220 sec
     gradient                   ...        0 min,  0.049 sec
 * total energy  :  -137.5343179 Eh     change       -0.3765819E-03 Eh
   gradient norm :     0.0037156 Eh/α   predicted    -0.3281295E-03 ( -12.87%)
   displ. norm   :     0.7711124 α      lambda       -0.4304168E-03
   maximum displ.:     0.3963340 α      in ANC's #7, #10, #6, ...

........................................................................
.............................. CYCLE   77 ..............................
........................................................................

 iter      E             dE          RMSdq      gap      omega  full diag
   1   -139.4936377 -0.139494E+03  0.110E-01    0.04       0.0  T
   2   -139.4872708  0.636689E-02  0.179E-01    0.13       1.0  T
   3   -139.4786560  0.861475E-02  0.258E-01    0.02       1.0  T
   4   -139.4854103 -0.675424E-02  0.170E-01    0.10       1.0  T
   5   -139.4923880 -0.697776E-02  0.806E-02    0.08       1.0  T
   6   -139.4929884 -0.600369E-03  0.594E-02    0.07       1.0  T
   7   -139.4935972 -0.608763E-03  0.323E-02    0.06       1.0  T
   8   -139.4937996 -0.202416E-03  0.122E-02    0.05       1.0  T
   9   -139.4938282 -0.286115E-04  0.536E-03    0.05       1.8  T
  10   -139.4938295 -0.130819E-05  0.470E-03    0.05       2.0  T
  11   -139.4938337 -0.415355E-05  0.194E-03    0.05       4.9  T
  12   -139.4938345 -0.835653E-06  0.343E-04    0.05      27.6  T
  13   -139.4938345  0.127559E-07  0.408E-04    0.05      23.2  T
     SCC iter.                  ...        0 min,  0.196 sec
     gradient                   ...        0 min,  0.047 sec
 * total energy  :  -137.5347213 Eh     change       -0.4033774E-03 Eh
   gradient norm :     0.0035424 Eh/α   predicted    -0.3431769E-03 ( -14.92%)
   displ. norm   :     0.7819960 α      lambda       -0.4872932E-03
   maximum displ.:     0.3903648 α      in ANC's #7, #10, #6, ...

........................................................................
.............................. CYCLE   78 ..............................
........................................................................

 iter      E             dE          RMSdq      gap      omega  full diag
   1   -139.4954180 -0.139495E+03  0.100E-01    0.05       0.0  T
   2   -139.4930795  0.233844E-02  0.118E-01    0.09       1.0  T
   3   -139.4709612  0.221183E-01  0.325E-01    0.04       1.0  T
   4   -139.4888902 -0.179290E-01  0.145E-01    0.09       1.0  T
   5   -139.4951637 -0.627347E-02  0.395E-02    0.06       1.0  T
   6   -139.4952591 -0.954463E-04  0.310E-02    0.06       1.0  T
   7   -139.4954303 -0.171188E-03  0.167E-02    0.06       1.0  T
   8   -139.4954844 -0.540431E-04  0.646E-03    0.05       1.5  T
   9   -139.4954932 -0.879720E-05  0.202E-03    0.05       4.7  T
  10   -139.4954939 -0.779712E-06  0.745E-04    0.05      12.7  T
  11   -139.4954940 -0.389101E-07  0.508E-04    0.05      18.6  T
     SCC iter.                  ...        0 min,  0.162 sec
     gradient                   ...        0 min,  0.043 sec
 * total energy  :  -137.5351773 Eh     change       -0.4560614E-03 Eh
   gradient norm :     0.0043214 Eh/α   predicted    -0.3926406E-03 ( -13.91%)
   displ. norm   :     0.8038040 α      lambda       -0.5361526E-03
   maximum displ.:     0.3842278 α      in ANC's #7, #10, #6, ...

........................................................................
.............................. CYCLE   79 ..............................
........................................................................

 iter      E             dE          RMSdq      gap      omega  full diag
   1   -139.4975826 -0.139498E+03  0.906E-02    0.05       0.0  T
   2   -139.4960558  0.152680E-02  0.982E-02    0.08       1.0  T
   3   -139.4739741  0.220818E-01  0.318E-01    0.04       1.0  T
   4   -139.4928730 -0.188990E-01  0.119E-01    0.08       1.0  T
   5   -139.4974652 -0.459218E-02  0.286E-02    0.06       1.0  T
   6   -139.4975096 -0.444464E-04  0.227E-02    0.06       1.0  T
   7   -139.4975998 -0.901845E-04  0.126E-02    0.05       1.0  T
   8   -139.4976324 -0.325348E-04  0.389E-03    0.05       2.4  T
   9   -139.4976353 -0.296283E-05  0.147E-03    0.05       6.4  T
  10   -139.4976355 -0.138094E-06  0.128E-03    0.05       7.4  T
  11   -139.4976357 -0.201199E-06  0.786E-04    0.05      12.0  T
  12   -139.4976358 -0.146463E-06  0.290E-04    0.05      32.6  T
     SCC iter.                  ...        0 min,  0.171 sec
     gradient                   ...        0 min,  0.042 sec
 * total energy  :  -137.5356676 Eh     change       -0.4902458E-03 Eh
   gradient norm :     0.0052970 Eh/α   predicted    -0.4412809E-03 (  -9.99%)
   displ. norm   :     0.8203881 α      lambda       -0.5502553E-03
   maximum displ.:     0.3831276 α      in ANC's #10, #7, #6, ...

........................................................................
.............................. CYCLE   80 ..............................
........................................................................

 iter      E             dE          RMSdq      gap      omega  full diag
   1   -139.4979970 -0.139498E+03  0.102E-01    0.05       0.0  T
   2   -139.4958575  0.213949E-02  0.114E-01    0.09       1.0  T
   3   -139.4699233  0.259342E-01  0.346E-01    0.05       1.0  T
   4   -139.4937055 -0.237822E-01  0.114E-01    0.08       1.0  T
   5   -139.4977761 -0.407066E-02  0.358E-02    0.06       1.0  T
   6   -139.4978685 -0.924071E-04  0.278E-02    0.06       1.0  T
   7   -139.4980007 -0.132123E-03  0.153E-02    0.06       1.0  T
   8   -139.4980493 -0.486706E-04  0.476E-03    0.05       2.0  T
   9   -139.4980542 -0.483399E-05  0.128E-03    0.05       7.4  T
  10   -139.4980544 -0.207946E-06  0.794E-04    0.05      11.9  T
  11   -139.4980544 -0.563357E-07  0.562E-04    0.05      16.8  T
     SCC iter.                  ...        0 min,  0.173 sec
     gradient                   ...        0 min,  0.053 sec
 * total energy  :  -137.5361567 Eh     change       -0.4891651E-03 Eh
   gradient norm :     0.0055392 Eh/α   predicted    -0.4603005E-03 (  -5.90%)
   displ. norm   :     0.8072355 α      lambda       -0.5375731E-03
   maximum displ.:     0.3700724 α      in ANC's #10, #6, #7, ...

........................................................................
.............................. CYCLE   81 ..............................
........................................................................

 iter      E             dE          RMSdq      gap      omega  full diag
   1   -139.4987657 -0.139499E+03  0.902E-02    0.05       0.0  T
   2   -139.4974731  0.129256E-02  0.928E-02    0.08       1.0  T
   3   -139.4724907  0.249824E-01  0.334E-01    0.05       1.0  T
   4   -139.4952162 -0.227255E-01  0.103E-01    0.07       1.0  T
   5   -139.4986682 -0.345196E-02  0.255E-02    0.06       1.0  T
   6   -139.4987195 -0.513041E-04  0.194E-02    0.06       1.0  T
   7   -139.4987843 -0.647907E-04  0.106E-02    0.05       1.0  T
   8   -139.4988075 -0.232855E-04  0.312E-03    0.05       3.0  T
   9   -139.4988094 -0.181600E-05  0.131E-03    0.05       7.2  T
  10   -139.4988094 -0.850091E-07  0.113E-03    0.05       8.3  T
  11   -139.4988096 -0.138370E-06  0.766E-04    0.05      12.3  T
  12   -139.4988097 -0.144469E-06  0.251E-04    0.05      37.7  T
     SCC iter.                  ...        0 min,  0.193 sec
     gradient                   ...        0 min,  0.053 sec
 * total energy  :  -137.5366508 Eh     change       -0.4940358E-03 Eh
   gradient norm :     0.0045597 Eh/α   predicted    -0.4439411E-03 ( -10.14%)
   displ. norm   :     0.8168807 α      lambda       -0.5480929E-03
   maximum displ.:     0.3814378 α      in ANC's #6, #10, #7, ...

........................................................................
.............................. CYCLE   82 ..............................
........................................................................

 iter      E             dE          RMSdq      gap      omega  full diag
   1   -139.4987966 -0.139499E+03  0.916E-02    0.05       0.0  T
   2   -139.4971559  0.164068E-02  0.101E-01    0.08       1.0  T
   3   -139.4755193  0.216366E-01  0.316E-01    0.04       1.0  T
   4   -139.4949290 -0.194097E-01  0.108E-01    0.08       1.0  T
   5   -139.4986642 -0.373519E-02  0.296E-02    0.06       1.0  T
   6   -139.4987177 -0.535612E-04  0.231E-02    0.06       1.0  T
   7   -139.4988123 -0.945918E-04  0.123E-02    0.06       1.0  T
   8   -139.4988435 -0.311466E-04  0.371E-03    0.05       2.5  T
   9   -139.4988463 -0.281498E-05  0.126E-03    0.05       7.5  T
  10   -139.4988465 -0.164215E-06  0.980E-04    0.05       9.6  T
  11   -139.4988466 -0.953077E-07  0.685E-04    0.05      13.8  T
     SCC iter.                  ...        0 min,  0.168 sec
     gradient                   ...        0 min,  0.046 sec
 * total energy  :  -137.5371689 Eh     change       -0.5181226E-03 Eh
   gradient norm :     0.0038059 Eh/α   predicted    -0.4569194E-03 ( -11.81%)
   displ. norm   :     0.8212240 α      lambda       -0.5849530E-03
   maximum displ.:     0.3934737 α      in ANC's #6, #10, #7, ...

........................................................................
.............................. CYCLE   83 ..............................
........................................................................

 iter      E             dE          RMSdq      gap      omega  full diag
   1   -139.4989307 -0.139499E+03  0.971E-02    0.05       0.0  T
   2   -139.4984144  0.516276E-03  0.765E-02    0.07       1.0  T
   3   -139.4630354  0.353790E-01  0.392E-01    0.07       1.0  T
   4   -139.4935372 -0.305018E-01  0.130E-01    0.09       1.0  T
   5   -139.4988798 -0.534264E-02  0.208E-02    0.05       1.0  T
   6   -139.4989222 -0.423684E-04  0.137E-02    0.06       1.0  T
   7   -139.4989603 -0.381843E-04  0.630E-03    0.05       1.5  T
   8   -139.4989685 -0.817103E-05  0.158E-03    0.05       6.0  T
   9   -139.4989682  0.302844E-06  0.174E-03    0.05       5.4  T
  10   -139.4989686 -0.347586E-06  0.136E-03    0.05       6.9  T
  11   -139.4989688 -0.281526E-06  0.752E-04    0.05      12.6  T
  12   -139.4989690 -0.121783E-06  0.243E-04    0.05      38.9  T
     SCC iter.                  ...        0 min,  0.207 sec
     gradient                   ...        0 min,  0.048 sec
 * total energy  :  -137.5377136 Eh     change       -0.5447371E-03 Eh
   gradient norm :     0.0040689 Eh/α   predicted    -0.4897298E-03 ( -10.10%)
   displ. norm   :     0.8343011 α      lambda       -0.5792914E-03
   maximum displ.:     0.4077888 α      in ANC's #6, #5, #10, ...

........................................................................
.............................. CYCLE   84 ..............................
........................................................................

 iter      E             dE          RMSdq      gap      omega  full diag
   1   -139.4985334 -0.139499E+03  0.979E-02    0.05       0.0  T
   2   -139.4982114  0.321982E-03  0.700E-02    0.05       1.0  T
   3   -139.4885598  0.965158E-02  0.184E-01    0.13       1.0  T
   4   -139.4858687  0.269115E-02  0.232E-01    0.02       1.0  T
   5   -139.4983662 -0.124975E-01  0.323E-02    0.06       1.0  T
   6   -139.4984730 -0.106805E-03  0.207E-02    0.06       1.0  T
   7   -139.4985545 -0.815059E-04  0.105E-02    0.06       1.0  T
   8   -139.4985771 -0.226519E-04  0.304E-03    0.05       3.1  T
   9   -139.4985786 -0.151753E-05  0.152E-03    0.05       6.2  T
  10   -139.4985789 -0.277441E-06  0.111E-03    0.05       8.5  T
  11   -139.4985791 -0.148906E-06  0.732E-04    0.05      12.9  T
  12   -139.4985792 -0.946703E-07  0.356E-04    0.05      26.5  T
     SCC iter.                  ...        0 min,  0.157 sec
     gradient                   ...        0 min,  0.043 sec
 * total energy  :  -137.5382482 Eh     change       -0.5345475E-03 Eh
   gradient norm :     0.0048389 Eh/α   predicted    -0.4912611E-03 (  -8.10%)
   displ. norm   :     0.8202462 α      lambda       -0.5442704E-03
   maximum displ.:     0.4081017 α      in ANC's #6, #5, #10, ...

........................................................................
.............................. CYCLE   85 ..............................
........................................................................

 iter      E             dE          RMSdq      gap      omega  full diag
   1   -139.4977241 -0.139498E+03  0.102E-01    0.05       0.0  T
   2   -139.4958697  0.185437E-02  0.106E-01    0.03       1.0  T
   3   -139.4888813  0.698845E-02  0.193E-01    0.16       1.0  T
   4   -139.4949375 -0.605625E-02  0.982E-02    0.06       1.0  T
   5   -139.4969511 -0.201355E-02  0.611E-02    0.07       1.0  T
   6   -139.4974656 -0.514496E-03  0.358E-02    0.07       1.0  T
   7   -139.4977461 -0.280552E-03  0.134E-02    0.06       1.0  T
   8   -139.4977864 -0.402441E-04  0.209E-03    0.05       4.5  T
   9   -139.4977867 -0.313716E-06  0.175E-03    0.05       5.4  T
  10   -139.4977869 -0.243603E-06  0.107E-03    0.05       8.9  T
  11   -139.4977872 -0.240818E-06  0.603E-04    0.05      15.7  T
  12   -139.4977872 -0.582986E-07  0.254E-04    0.05      37.2  T
     SCC iter.                  ...        0 min,  0.157 sec
     gradient                   ...        0 min,  0.041 sec
 * total energy  :  -137.5387533 Eh     change       -0.5051101E-03 Eh
   gradient norm :     0.0047963 Eh/α   predicted    -0.4552302E-03 (  -9.88%)
   displ. norm   :     0.7975226 α      lambda       -0.5260757E-03
   maximum displ.:     0.4076031 α      in ANC's #6, #5, #10, ...

........................................................................
.............................. CYCLE   86 ..............................
........................................................................

 iter      E             dE          RMSdq      gap      omega  full diag
   1   -139.4984521 -0.139498E+03  0.103E-01    0.06       0.0  T
   2   -139.4847259  0.137262E-01  0.245E-01    0.02       1.0  T
   3   -139.4959129 -0.111869E-01  0.122E-01    0.10       1.0  T
   4   -139.4941140  0.179886E-02  0.124E-01    0.07       1.0  T
   5   -139.4982892 -0.417519E-02  0.386E-02    0.07       1.0  T
   6   -139.4984372 -0.148056E-03  0.268E-02    0.06       1.0  T
   7   -139.4985583 -0.121118E-03  0.148E-02    0.06       1.0  T
   8   -139.4986013 -0.429083E-04  0.565E-03    0.06       1.7  T
   9   -139.4986081 -0.682184E-05  0.157E-03    0.05       6.0  T
  10   -139.4986084 -0.338764E-06  0.679E-04    0.05      13.9  T
  11   -139.4986085 -0.459033E-07  0.493E-04    0.05      19.2  T
     SCC iter.                  ...        0 min,  0.149 sec
     gradient                   ...        0 min,  0.049 sec
 * total energy  :  -137.5392392 Eh     change       -0.4859433E-03 Eh
   gradient norm :     0.0041320 Eh/α   predicted    -0.4303422E-03 ( -11.44%)
   displ. norm   :     0.7715369 α      lambda       -0.5022896E-03
   maximum displ.:     0.4011174 α      in ANC's #6, #5, #7, ...

........................................................................
.............................. CYCLE   87 ..............................
........................................................................

 iter      E             dE          RMSdq      gap      omega  full diag
   1   -139.4985961 -0.139499E+03  0.106E-01    0.06       0.0  T
   2   -139.4888092  0.978689E-02  0.209E-01    0.01       1.0  T
   3   -139.4948094 -0.600017E-02  0.142E-01    0.11       1.0  T
   4   -139.4940984  0.711012E-03  0.129E-01    0.07       1.0  T
   5   -139.4981728 -0.407441E-02  0.502E-02    0.07       1.0  T
   6   -139.4984546 -0.281763E-03  0.341E-02    0.07       1.0  T
   7   -139.4986513 -0.196778E-03  0.185E-02    0.06       1.0  T
   8   -139.4987205 -0.691634E-04  0.658E-03    0.06       1.4  T
   9   -139.4987295 -0.901554E-05  0.210E-03    0.05       4.5  T
  10   -139.4987299 -0.393248E-06  0.129E-03    0.05       7.3  T
  11   -139.4987303 -0.331782E-06  0.629E-04    0.05      15.0  T
  12   -139.4987303 -0.620435E-07  0.254E-04    0.05      37.2  T
     SCC iter.                  ...        0 min,  0.163 sec
     gradient                   ...        0 min,  0.045 sec
 * total energy  :  -137.5396976 Eh     change       -0.4583595E-03 Eh
   gradient norm :     0.0037660 Eh/α   predicted    -0.4006456E-03 ( -12.59%)
   displ. norm   :     0.7516616 α      lambda       -0.4736624E-03
   maximum displ.:     0.4037927 α      in ANC's #6, #5, #1, ...

........................................................................
.............................. CYCLE   88 ..............................
........................................................................

 iter      E             dE          RMSdq      gap      omega  full diag
   1   -139.5008857 -0.139501E+03  0.116E-01    0.07       0.0  T
   2   -139.4607761  0.401097E-01  0.413E-01    0.07       1.0  T
   3   -139.5000603 -0.392842E-01  0.977E-02    0.08       1.0  T
   4   -139.4966530  0.340728E-02  0.131E-01    0.07       1.0  T
   5   -139.5011588 -0.450582E-02  0.233E-02    0.06       1.0  T
   6   -139.5012390 -0.801572E-04  0.130E-02    0.06       1.0  T
   7   -139.5012693 -0.303300E-04  0.710E-03    0.06       1.3  T
   8   -139.5012784 -0.907845E-05  0.308E-03    0.06       3.1  T
   9   -139.5012801 -0.175679E-05  0.133E-03    0.06       7.1  T
  10   -139.5012804 -0.245148E-06  0.630E-04    0.05      15.0  T
  11   -139.5012804 -0.853814E-08  0.538E-04    0.05      17.6  T
     SCC iter.                  ...        0 min,  0.152 sec
     gradient                   ...        0 min,  0.043 sec
 * total energy  :  -137.5401151 Eh     change       -0.4174830E-03 Eh
   gradient norm :     0.0041938 Eh/α   predicted    -0.3706398E-03 ( -11.22%)
   displ. norm   :     0.7271194 α      lambda       -0.4080759E-03
   maximum displ.:     0.3908357 α      in ANC's #6, #5, #1, ...

........................................................................
.............................. CYCLE   89 ..............................
........................................................................

 iter      E             dE          RMSdq      gap      omega  full diag
   1   -139.5000689 -0.139500E+03  0.111E-01    0.06       0.0  T
   2   -139.4992556  0.813338E-03  0.885E-02    0.04       1.0  T
   3   -139.4882680  0.109875E-01  0.208E-01    0.17       1.0  T
   4   -139.4915818 -0.331381E-02  0.197E-01    0.01       1.0  T
   5   -139.4991879 -0.760609E-02  0.661E-02    0.08       1.0  T
   6   -139.4996505 -0.462581E-03  0.451E-02    0.07       1.0  T
   7   -139.5000047 -0.354207E-03  0.242E-02    0.06       1.0  T
   8   -139.5001299 -0.125166E-03  0.682E-03    0.06       1.4  T
   9   -139.5001396 -0.970947E-05  0.143E-03    0.06       6.6  T
  10   -139.5001396 -0.417161E-07  0.123E-03    0.06       7.7  T
  11   -139.5001399 -0.241139E-06  0.534E-04    0.06      17.7  T
  12   -139.5001399 -0.342254E-07  0.336E-04    0.06      28.1  T
     SCC iter.                  ...        0 min,  0.161 sec
     gradient                   ...        0 min,  0.045 sec
 * total energy  :  -137.5404599 Eh     change       -0.3448293E-03 Eh
   gradient norm :     0.0042103 Eh/α   predicted    -0.3119151E-03 (  -9.55%)
   displ. norm   :     0.6610785 α      lambda       -0.3358633E-03
   maximum displ.:     0.3686641 α      in ANC's #6, #5, #1, ...

........................................................................
.............................. CYCLE   90 ..............................
........................................................................

 iter      E             dE          RMSdq      gap      omega  full diag
   1   -139.5031519 -0.139503E+03  0.120E-01    0.08       0.0  T
   2   -139.4457193  0.574326E-01  0.495E-01    0.11       1.0  T
   3   -139.5029966 -0.572773E-01  0.866E-02    0.08       1.0  T
   4   -139.5007401  0.225649E-02  0.110E-01    0.06       1.0  T
   5   -139.5036857 -0.294562E-02  0.202E-02    0.05       1.0  T
   6   -139.5037805 -0.947885E-04  0.739E-03    0.06       1.3  T
   7   -139.5037914 -0.108560E-04  0.405E-03    0.06       2.3  T
   8   -139.5037944 -0.303245E-05  0.148E-03    0.06       6.4  T
   9   -139.5037946 -0.169887E-06  0.107E-03    0.06       8.9  T
  10   -139.5037947 -0.143660E-06  0.599E-04    0.06      15.8  T
  11   -139.5037948 -0.582280E-07  0.317E-04    0.06      29.8  T
     SCC iter.                  ...        0 min,  0.151 sec
     gradient                   ...        0 min,  0.047 sec
 * total energy  :  -137.5407253 Eh     change       -0.2654194E-03 Eh
   gradient norm :     0.0047868 Eh/α   predicted    -0.2413256E-03 (  -9.08%)
   displ. norm   :     0.5786309 α      lambda       -0.2404838E-03
   maximum displ.:     0.3195165 α      in ANC's #6, #5, #1, ...

........................................................................
.............................. CYCLE   91 ..............................
........................................................................

 iter      E             dE          RMSdq      gap      omega  full diag
   1   -139.5024947 -0.139502E+03  0.998E-02    0.05       0.0  T
   2   -139.5010192  0.147557E-02  0.103E-01    0.09       1.0  T
   3   -139.4764239  0.245953E-01  0.336E-01    0.04       1.0  T
   4   -139.4960591 -0.196352E-01  0.151E-01    0.10       1.0  T
   5   -139.5021167 -0.605755E-02  0.446E-02    0.07       1.0  T
   6   -139.5022901 -0.173478E-03  0.333E-02    0.07       1.0  T
   7   -139.5024720 -0.181875E-03  0.189E-02    0.06       1.0  T
   8   -139.5025458 -0.737892E-04  0.616E-03    0.06       1.5  T
   9   -139.5025538 -0.796138E-05  0.168E-03    0.06       5.6  T
  10   -139.5025541 -0.368188E-06  0.806E-04    0.06      11.7  T
  11   -139.5025542 -0.977000E-07  0.441E-04    0.06      21.4  T
     SCC iter.                  ...        0 min,  0.152 sec
     gradient                   ...        0 min,  0.045 sec
 * total energy  :  -137.5409095 Eh     change       -0.1842128E-03 Eh
   gradient norm :     0.0032539 Eh/α   predicted    -0.1605059E-03 ( -12.87%)
   displ. norm   :     0.4497063 α      lambda       -0.1706585E-03
   maximum displ.:     0.2554485 α      in ANC's #5, #6, #1, ...

........................................................................
.............................. CYCLE   92 ..............................
........................................................................

 iter      E             dE          RMSdq      gap      omega  full diag
   1   -139.5041840 -0.139504E+03  0.890E-02    0.07       0.0  T
   2   -139.4853493  0.188347E-01  0.285E-01    0.03       1.0  T
   3   -139.5030865 -0.177372E-01  0.879E-02    0.09       1.0  T
   4   -139.5026038  0.482791E-03  0.789E-02    0.07       1.0  T
   5   -139.5041899 -0.158617E-02  0.255E-02    0.06       1.0  T
   6   -139.5042771 -0.872177E-04  0.170E-02    0.06       1.0  T
   7   -139.5043231 -0.459453E-04  0.961E-03    0.06       1.0  T
   8   -139.5043419 -0.187658E-04  0.355E-03    0.06       2.7  T
   9   -139.5043444 -0.258735E-05  0.103E-03    0.06       9.2  T
  10   -139.5043446 -0.119970E-06  0.559E-04    0.06      16.9  T
  11   -139.5043446 -0.626835E-08  0.512E-04    0.06      18.4  T
     SCC iter.                  ...        0 min,  0.157 sec
     gradient                   ...        0 min,  0.045 sec
 * total energy  :  -137.5410401 Eh     change       -0.1306032E-03 Eh
   gradient norm :     0.0032681 Eh/α   predicted    -0.1025872E-03 ( -21.45%)
   displ. norm   :     0.3823495 α      lambda       -0.1442849E-03
   maximum displ.:     0.2207279 α      in ANC's #5, #6, #1, ...
 * RMSD in coord.:     1.4359925 α      energy gain  -0.9744534E-02 Eh

generating ANC from exact Hessian ...
Using Lindh-Hessian (1995)
 Shifting diagonal of input Hessian by   1.022886323724122E-002
 Lowest  eigenvalues of input Hessian
    0.010000    0.010019    0.010073    0.010102    0.000000    0.000000
    0.000000    0.000000    0.000000    0.000000    0.010274    0.010347
    0.010388    0.010435    0.010504    0.010599    0.010671    0.010744
 Highest eigenvalues
    1.932676    2.006217    2.020937    2.030096    2.142244    2.218180
 

........................................................................
.............................. CYCLE   93 ..............................
........................................................................

 iter      E             dE          RMSdq      gap      omega  full diag
   1   -139.5046859 -0.139505E+03  0.877E-02    0.05       0.0  T
   2   -139.5040889  0.596908E-03  0.743E-02    0.08       1.0  T
   3   -139.4712149  0.328740E-01  0.377E-01    0.06       1.0  T
   4   -139.5021619 -0.309470E-01  0.930E-02    0.08       1.0  T
   5   -139.5045822 -0.242035E-02  0.232E-02    0.06       1.0  T
   6   -139.5046476 -0.653230E-04  0.160E-02    0.06       1.0  T
   7   -139.5046900 -0.424223E-04  0.854E-03    0.06       1.1  T
   8   -139.5047064 -0.164378E-04  0.208E-03    0.06       4.5  T
   9   -139.5047072 -0.813126E-06  0.705E-04    0.06      13.4  T
  10   -139.5047073 -0.338508E-07  0.450E-04    0.06      21.0  T
     SCC iter.                  ...        0 min,  0.119 sec
     gradient                   ...        0 min,  0.037 sec
 * total energy  :  -137.5411463 Eh     change       -0.1061804E-03 Eh
   gradient norm :     0.0033622 Eh/α   predicted     0.0000000E+00 (-100.00%)
   displ. norm   :     0.0597903 α      lambda       -0.6333540E-04
   maximum displ.:     0.0356615 α      in ANC's #5, #17, #20, ...

........................................................................
.............................. CYCLE   94 ..............................
........................................................................

 iter      E             dE          RMSdq      gap      omega  full diag
   1   -139.5040384 -0.139504E+03  0.240E-02    0.06       0.0  T
   2   -139.5040289  0.945865E-05  0.162E-02    0.05       1.0  T
   3   -139.5031844  0.844530E-03  0.616E-02    0.08       1.0  T
   4   -139.5036706 -0.486183E-03  0.368E-02    0.05       1.0  T
   5   -139.5040313 -0.360667E-03  0.559E-03    0.06       1.7  T
   6   -139.5040393 -0.804507E-05  0.148E-03    0.06       6.4  T
   7   -139.5040396 -0.281574E-06  0.870E-04    0.06      10.9  T
   8   -139.5040398 -0.169212E-06  0.309E-04    0.06      30.6  T
     SCC iter.                  ...        0 min,  0.110 sec
     gradient                   ...        0 min,  0.041 sec
 * total energy  :  -137.5412001 Eh     change       -0.5378306E-04 Eh
   gradient norm :     0.0018976 Eh/α   predicted    -0.3184608E-04 ( -40.79%)
   displ. norm   :     0.3243892 α      lambda       -0.1711101E-03
   maximum displ.:     0.1820839 α      in ANC's #5, #17, #20, ...

........................................................................
.............................. CYCLE   95 ..............................
........................................................................

 iter      E             dE          RMSdq      gap      omega  full diag
   1   -139.5012597 -0.139501E+03  0.113E-01    0.06       0.0  T
   2   -139.5008934  0.366326E-03  0.825E-02    0.05       1.0  T
   3   -139.4908633  0.100301E-01  0.214E-01    0.19       1.0  T
   4   -139.4984061 -0.754281E-02  0.102E-01    0.03       1.0  T
   5   -139.5002684 -0.186229E-02  0.647E-02    0.08       1.0  T
   6   -139.5009992 -0.730786E-03  0.345E-02    0.07       1.0  T
   7   -139.5012756 -0.276438E-03  0.994E-03    0.06       1.0  T
   8   -139.5012944 -0.188212E-04  0.411E-03    0.06       2.3  T
   9   -139.5012977 -0.327605E-05  0.165E-03    0.06       5.7  T
  10   -139.5012981 -0.407294E-06  0.107E-03    0.06       8.9  T
  11   -139.5012984 -0.248092E-06  0.444E-04    0.06      21.3  T
  12   -139.5012984 -0.227173E-07  0.316E-04    0.06      29.9  T
     SCC iter.                  ...        0 min,  0.147 sec
     gradient                   ...        0 min,  0.045 sec
 * total energy  :  -137.5412821 Eh     change       -0.8193995E-04 Eh
   gradient norm :     0.0061208 Eh/α   predicted    -0.8956355E-04 (   9.30%)
   displ. norm   :     0.1635226 α      lambda       -0.1710447E-03
   maximum displ.:     0.0923572 α      in ANC's #5, #17, #13, ...

........................................................................
.............................. CYCLE   96 ..............................
........................................................................

 iter      E             dE          RMSdq      gap      omega  full diag
   1   -139.5011762 -0.139501E+03  0.782E-02    0.06       0.0  T
   2   -139.5008300  0.346241E-03  0.615E-02    0.07       1.0  T
   3   -139.4658811  0.349489E-01  0.380E-01    0.06       1.0  T
   4   -139.5004071 -0.345260E-01  0.559E-02    0.06       1.0  T
   5   -139.5010905 -0.683453E-03  0.190E-02    0.06       1.0  T
   6   -139.5011747 -0.841576E-04  0.804E-03    0.06       1.2  T
   7   -139.5011828 -0.810329E-05  0.494E-03    0.06       1.9  T
   8   -139.5011888 -0.595420E-05  0.114E-03    0.06       8.3  T
   9   -139.5011888 -0.607666E-07  0.805E-04    0.06      11.7  T
  10   -139.5011889 -0.100664E-06  0.491E-04    0.06      19.3  T
     SCC iter.                  ...        0 min,  0.126 sec
     gradient                   ...        0 min,  0.040 sec
 * total energy  :  -137.5413437 Eh     change       -0.6166913E-04 Eh
   gradient norm :     0.0062440 Eh/α   predicted    -0.8780995E-04 (  42.39%)
   displ. norm   :     0.0548973 α      lambda       -0.1123911E-03
   maximum displ.:     0.0263109 α      in ANC's #5, #7, #13, ...

........................................................................
.............................. CYCLE   97 ..............................
........................................................................

 iter      E             dE          RMSdq      gap      omega  full diag
   1   -139.5028001 -0.139503E+03  0.313E-02    0.06       0.0  T
   2   -139.5027981  0.197072E-05  0.193E-02    0.06       1.0  T
   3   -139.5025424  0.255736E-03  0.327E-02    0.05       1.0  T
   4   -139.5025231  0.192830E-04  0.336E-02    0.07       1.0  T
   5   -139.5027942 -0.271078E-03  0.492E-03    0.06       1.9  T
   6   -139.5028009 -0.672655E-05  0.114E-03    0.06       8.3  T
   7   -139.5028010 -0.114664E-06  0.833E-04    0.06      11.3  T
   8   -139.5028011 -0.975286E-07  0.370E-04    0.06      25.5  T
     SCC iter.                  ...        0 min,  0.105 sec
     gradient                   ...        0 min,  0.046 sec
 * total energy  :  -137.5414210 Eh     change       -0.7728681E-04 Eh
   gradient norm :     0.0033704 Eh/α   predicted    -0.5636515E-04 ( -27.07%)
   displ. norm   :     0.1411117 α      lambda       -0.1230960E-03
   maximum displ.:     0.0837982 α      in ANC's #5, #7, #13, ...

........................................................................
.............................. CYCLE   98 ..............................
........................................................................

 iter      E             dE          RMSdq      gap      omega  full diag
   1   -139.5045911 -0.139505E+03  0.402E-02    0.06       0.0  T
   2   -139.5044027  0.188420E-03  0.379E-02    0.05       1.0  T
   3   -139.5016496  0.275309E-02  0.111E-01    0.11       1.0  T
   4   -139.5044839 -0.283435E-02  0.198E-02    0.06       1.0  T
   5   -139.5045502 -0.663033E-04  0.127E-02    0.06       1.0  T
   6   -139.5045874 -0.372010E-04  0.603E-03    0.06       1.6  T
   7   -139.5045951 -0.763652E-05  0.195E-03    0.06       4.8  T
   8   -139.5045954 -0.304094E-06  0.149E-03    0.06       6.3  T
   9   -139.5045957 -0.345178E-06  0.884E-04    0.06      10.7  T
  10   -139.5045959 -0.174444E-06  0.235E-04    0.06      40.2  T
     SCC iter.                  ...        0 min,  0.145 sec
     gradient                   ...        0 min,  0.048 sec
 * total energy  :  -137.5415007 Eh     change       -0.7967615E-04 Eh
   gradient norm :     0.0019983 Eh/α   predicted    -0.6277424E-04 ( -21.21%)
   displ. norm   :     0.2111614 α      lambda        0.1802883E-04
   maximum displ.:     0.1253810 α      in ANC's #5, #7, #13, ...

........................................................................
.............................. CYCLE   99 ..............................
........................................................................

 iter      E             dE          RMSdq      gap      omega  full diag
   1   -139.5069061 -0.139507E+03  0.602E-02    0.06       0.0  T
   2   -139.5063974  0.508649E-03  0.599E-02    0.04       1.0  T
   3   -139.5021232  0.427419E-02  0.143E-01    0.13       1.0  T
   4   -139.5066313 -0.450808E-02  0.329E-02    0.06       1.0  T
   5   -139.5067363 -0.105025E-03  0.258E-02    0.07       1.0  T
   6   -139.5068789 -0.142592E-03  0.128E-02    0.06       1.0  T
   7   -139.5069147 -0.357450E-04  0.367E-03    0.06       2.6  T
   8   -139.5069158 -0.114011E-05  0.278E-03    0.06       3.4  T
   9   -139.5069173 -0.145422E-05  0.135E-03    0.06       7.0  T
  10   -139.5069177 -0.391814E-06  0.438E-04    0.06      21.6  T
  11   -139.5069177 -0.296056E-07  0.258E-04    0.06      36.7  T
     SCC iter.                  ...        0 min,  0.149 sec
     gradient                   ...        0 min,  0.040 sec
 * total energy  :  -137.5414566 Eh     change        0.4405744E-04 Eh
   gradient norm :     0.0082337 Eh/α   predicted     0.9192910E-05 ( -79.13%)
   displ. norm   :     0.1006212 α      lambda       -0.1452768E-03
   maximum displ.:     0.0554065 α      in ANC's #5, #17, #7, ...

........................................................................
.............................. CYCLE  100 ..............................
........................................................................

 iter      E             dE          RMSdq      gap      omega  full diag
   1   -139.5051742 -0.139505E+03  0.441E-02    0.06       0.0  T
   2   -139.5050407  0.133569E-03  0.361E-02    0.05       1.0  T
   3   -139.5011776  0.386302E-02  0.131E-01    0.12       1.0  T
   4   -139.5050393 -0.386163E-02  0.213E-02    0.06       1.0  T
   5   -139.5051172 -0.779522E-04  0.152E-02    0.06       1.0  T
   6   -139.5051667 -0.494309E-04  0.672E-03    0.06       1.4  T
   7   -139.5051773 -0.105893E-04  0.119E-03    0.06       7.9  T
   8   -139.5051768  0.411908E-06  0.169E-03    0.06       5.6  T
   9   -139.5051774 -0.600774E-06  0.482E-04    0.06      19.6  T
  10   -139.5051775 -0.280880E-07  0.326E-04    0.06      29.0  T
     SCC iter.                  ...        0 min,  0.143 sec
     gradient                   ...        0 min,  0.045 sec
 * total energy  :  -137.5415679 Eh     change       -0.1113061E-03 Eh
   gradient norm :     0.0050670 Eh/α   predicted    -0.7337468E-04 ( -34.08%)
   displ. norm   :     0.2013986 α      lambda       -0.1409626E-03
   maximum displ.:     0.1185339 α      in ANC's #5, #7, #13, ...

........................................................................
.............................. CYCLE  101 ..............................
........................................................................

 iter      E             dE          RMSdq      gap      omega  full diag
   1   -139.5029310 -0.139503E+03  0.617E-02    0.06       0.0  T
   2   -139.5021513  0.779663E-03  0.690E-02    0.04       1.0  T
   3   -139.4986784  0.347292E-02  0.136E-01    0.12       1.0  T
   4   -139.5025981 -0.391972E-02  0.360E-02    0.06       1.0  T
   5   -139.5027071 -0.109023E-03  0.301E-02    0.07       1.0  T
   6   -139.5028881 -0.180970E-03  0.153E-02    0.06       1.0  T
   7   -139.5029361 -0.480109E-04  0.550E-03    0.06       1.7  T
   8   -139.5029424 -0.624404E-05  0.177E-03    0.06       5.3  T
   9   -139.5029430 -0.642863E-06  0.633E-04    0.06      14.9  T
  10   -139.5029431 -0.543299E-07  0.383E-04    0.06      24.7  T
     SCC iter.                  ...        0 min,  0.142 sec
     gradient                   ...        0 min,  0.044 sec
 * total energy  :  -137.5416593 Eh     change       -0.9140412E-04 Eh
   gradient norm :     0.0014024 Eh/α   predicted    -0.7334161E-04 ( -19.76%)
   displ. norm   :     0.3180169 α      lambda       -0.6587079E-04
   maximum displ.:     0.1907891 α      in ANC's #5, #7, #13, ...

........................................................................
.............................. CYCLE  102 ..............................
........................................................................

 iter      E             dE          RMSdq      gap      omega  full diag
   1   -139.5018511 -0.139502E+03  0.789E-02    0.06       0.0  T
   2   -139.4999278  0.192331E-02  0.102E-01    0.03       1.0  T
   3   -139.4970966  0.283117E-02  0.146E-01    0.13       1.0  T
   4   -139.5012354 -0.413882E-02  0.527E-02    0.07       1.0  T
   5   -139.5014283 -0.192940E-03  0.422E-02    0.07       1.0  T
   6   -139.5017494 -0.321014E-03  0.232E-02    0.06       1.0  T
   7   -139.5018412 -0.917951E-04  0.119E-02    0.06       1.0  T
   8   -139.5018745 -0.333252E-04  0.138E-03    0.06       6.9  T
   9   -139.5018747 -0.198602E-06  0.795E-04    0.06      11.9  T
  10   -139.5018747 -0.306567E-07  0.597E-04    0.06      15.8  T
     SCC iter.                  ...        0 min,  0.113 sec
     gradient                   ...        0 min,  0.041 sec
 * total energy  :  -137.5417360 Eh     change       -0.7667434E-04 Eh
   gradient norm :     0.0026229 Eh/α   predicted    -0.3442063E-04 ( -55.11%)
   displ. norm   :     0.3015693 α      lambda       -0.9799270E-04
   maximum displ.:     0.1769913 α      in ANC's #5, #7, #13, ...

........................................................................
.............................. CYCLE  103 ..............................
........................................................................

 iter      E             dE          RMSdq      gap      omega  full diag
   1   -139.5019934 -0.139502E+03  0.665E-02    0.06       0.0  T
   2   -139.5014160  0.577461E-03  0.642E-02    0.04       1.0  T
   3   -139.4963394  0.507661E-02  0.155E-01    0.14       1.0  T
   4   -139.5016133 -0.527390E-02  0.419E-02    0.06       1.0  T
   5   -139.5017983 -0.185077E-03  0.294E-02    0.07       1.0  T
   6   -139.5019422 -0.143883E-03  0.158E-02    0.06       1.0  T
   7   -139.5020000 -0.578022E-04  0.492E-03    0.06       1.9  T
   8   -139.5020036 -0.360449E-05  0.268E-03    0.06       3.5  T
   9   -139.5020050 -0.137630E-05  0.104E-03    0.06       9.1  T
  10   -139.5020052 -0.210589E-06  0.554E-04    0.06      17.0  T
  11   -139.5020053 -0.575911E-07  0.215E-04    0.06      43.9  T
     SCC iter.                  ...        0 min,  0.149 sec
     gradient                   ...        0 min,  0.041 sec
 * total energy  :  -137.5418213 Eh     change       -0.8531572E-04 Eh
   gradient norm :     0.0025896 Eh/α   predicted    -0.5345255E-04 ( -37.35%)
   displ. norm   :     0.4999316 α      lambda       -0.1535434E-03
   maximum displ.:     0.2908670 α      in ANC's #5, #7, #15, ...

........................................................................
.............................. CYCLE  104 ..............................
........................................................................

 iter      E             dE          RMSdq      gap      omega  full diag
   1   -139.5026725 -0.139503E+03  0.109E-01    0.06       0.0  T
   2   -139.5011745  0.149795E-02  0.104E-01    0.03       1.0  T
   3   -139.4932759  0.789866E-02  0.201E-01    0.19       1.0  T
   4   -139.5011435 -0.786766E-02  0.860E-02    0.08       1.0  T
   5   -139.5015096 -0.366022E-03  0.687E-02    0.08       1.0  T
   6   -139.5024609 -0.951395E-03  0.310E-02    0.07       1.0  T
   7   -139.5026916 -0.230687E-03  0.755E-03    0.06       1.3  T
   8   -139.5027030 -0.113410E-04  0.212E-03    0.06       4.5  T
   9   -139.5027026  0.341116E-06  0.257E-03    0.06       3.7  T
  10   -139.5027031 -0.430645E-06  0.199E-03    0.06       4.7  T
  11   -139.5027039 -0.841552E-06  0.375E-04    0.06      25.2  T
  12   -139.5027039  0.974714E-08  0.431E-04    0.06      21.9  T
     SCC iter.                  ...        0 min,  0.158 sec
     gradient                   ...        0 min,  0.044 sec
 * total energy  :  -137.5419376 Eh     change       -0.1162296E-03 Eh
   gradient norm :     0.0020046 Eh/α   predicted    -0.9596243E-04 ( -17.44%)
   displ. norm   :     0.4624581 α      lambda       -0.1026092E-03
   maximum displ.:     0.2707549 α      in ANC's #5, #7, #9, ...

........................................................................
.............................. CYCLE  105 ..............................
........................................................................

 iter      E             dE          RMSdq      gap      omega  full diag
   1   -139.5026925 -0.139503E+03  0.967E-02    0.06       0.0  T
   2   -139.5024305  0.262091E-03  0.685E-02    0.05       1.0  T
   3   -139.4927347  0.969574E-02  0.201E-01    0.19       1.0  T
   4   -139.5021463 -0.941153E-02  0.484E-02    0.05       1.0  T
   5   -139.5023153 -0.169040E-03  0.409E-02    0.07       1.0  T
   6   -139.5025601 -0.244796E-03  0.236E-02    0.06       1.0  T
   7   -139.5027001 -0.139989E-03  0.656E-03    0.06       1.4  T
   8   -139.5027070 -0.690071E-05  0.294E-03    0.06       3.2  T
   9   -139.5027086 -0.166437E-05  0.135E-03    0.06       7.0  T
  10   -139.5027089 -0.244340E-06  0.843E-04    0.06      11.2  T
  11   -139.5027090 -0.138471E-06  0.313E-04    0.06      30.2  T
     SCC iter.                  ...        0 min,  0.145 sec
     gradient                   ...        0 min,  0.041 sec
 * total energy  :  -137.5420119 Eh     change       -0.7430533E-04 Eh
   gradient norm :     0.0020413 Eh/α   predicted    -0.6227943E-04 ( -16.18%)
   displ. norm   :     0.3367216 α      lambda       -0.6709126E-04
   maximum displ.:     0.1982478 α      in ANC's #5, #7, #9, ...

........................................................................
.............................. CYCLE  106 ..............................
........................................................................

 iter      E             dE          RMSdq      gap      omega  full diag
   1   -139.5034029 -0.139503E+03  0.651E-02    0.06       0.0  T
   2   -139.5033747  0.281555E-04  0.417E-02    0.05       1.0  T
   3   -139.5000600  0.331476E-02  0.116E-01    0.10       1.0  T
   4   -139.5014430 -0.138306E-02  0.913E-02    0.03       1.0  T
   5   -139.5033800 -0.193699E-02  0.118E-02    0.06       1.0  T
   6   -139.5033981 -0.180687E-04  0.653E-03    0.06       1.4  T
   7   -139.5034079 -0.981891E-05  0.257E-03    0.06       3.7  T
   8   -139.5034091 -0.119856E-05  0.859E-04    0.06      11.0  T
   9   -139.5034089  0.171167E-06  0.112E-03    0.06       8.4  T
  10   -139.5034092 -0.220819E-06  0.598E-04    0.06      15.8  T
  11   -139.5034092 -0.732849E-07  0.243E-04    0.06      38.8  T
     SCC iter.                  ...        0 min,  0.151 sec
     gradient                   ...        0 min,  0.037 sec
 * total energy  :  -137.5420648 Eh     change       -0.5289753E-04 Eh
   gradient norm :     0.0018813 Eh/α   predicted    -0.3734985E-04 ( -29.39%)
   displ. norm   :     0.4570463 α      lambda       -0.6896045E-04
   maximum displ.:     0.2666974 α      in ANC's #5, #7, #9, ...

........................................................................
.............................. CYCLE  107 ..............................
........................................................................

 iter      E             dE          RMSdq      gap      omega  full diag
   1   -139.5052820 -0.139505E+03  0.825E-02    0.06       0.0  T
   2   -139.5051416  0.140392E-03  0.563E-02    0.06       1.0  T
   3   -139.4718591  0.332825E-01  0.376E-01    0.06       1.0  T
   4   -139.5043342 -0.324751E-01  0.640E-02    0.07       1.0  T
   5   -139.5052604 -0.926220E-03  0.119E-02    0.06       1.0  T
   6   -139.5052797 -0.192775E-04  0.675E-03    0.06       1.4  T
   7   -139.5052899 -0.101485E-04  0.279E-03    0.06       3.4  T
   8   -139.5052911 -0.125759E-05  0.126E-03    0.06       7.5  T
   9   -139.5052911 -0.829914E-10  0.125E-03    0.06       7.6  T
  10   -139.5052914 -0.296771E-06  0.752E-04    0.06      12.6  T
  11   -139.5052915 -0.699920E-07  0.461E-04    0.06      20.5  T
     SCC iter.                  ...        0 min,  0.151 sec
     gradient                   ...        0 min,  0.042 sec
 * total energy  :  -137.5421350 Eh     change       -0.7028474E-04 Eh
   gradient norm :     0.0018157 Eh/α   predicted    -0.3768248E-04 ( -46.39%)
   displ. norm   :     0.3222828 α      lambda       -0.4462947E-04
   maximum displ.:     0.1878718 α      in ANC's #5, #7, #9, ...

........................................................................
.............................. CYCLE  108 ..............................
........................................................................

 iter      E             dE          RMSdq      gap      omega  full diag
   1   -139.5041866 -0.139504E+03  0.574E-02    0.06       0.0  T
   2   -139.5040635  0.123139E-03  0.417E-02    0.06       1.0  T
   3   -139.4826284  0.214351E-01  0.298E-01    0.03       1.0  T
   4   -139.5039113 -0.212829E-01  0.343E-02    0.06       1.0  T
   5   -139.5041585 -0.247210E-03  0.108E-02    0.06       1.0  T
   6   -139.5041868 -0.282680E-04  0.477E-03    0.06       2.0  T
   7   -139.5041901 -0.333300E-05  0.263E-03    0.06       3.6  T
   8   -139.5041916 -0.145222E-05  0.820E-04    0.06      11.5  T
   9   -139.5041916 -0.158525E-07  0.677E-04    0.06      14.0  T
  10   -139.5041916 -0.208006E-07  0.515E-04    0.06      18.3  T
     SCC iter.                  ...        0 min,  0.156 sec
     gradient                   ...        0 min,  0.040 sec
 * total energy  :  -137.5421728 Eh     change       -0.3774555E-04 Eh
   gradient norm :     0.0019620 Eh/α   predicted    -0.2334573E-04 ( -38.15%)
   displ. norm   :     0.1708186 α      lambda       -0.3299775E-04
   maximum displ.:     0.0910421 α      in ANC's #5, #7, #9, ...

   *** GEOMETRY OPTIMIZATION CONVERGED AFTER 108 ITERATIONS ***

------------------------------------------------------------------------
 total energy gain   :        -0.0364839 Eh      -22.8940 kcal/mol
 total RMSD          :         3.3620760 a0        1.7791 Å
 total power (kW/mol):        -0.8869303 (step)   -2.6425 (real)
------------------------------------------------------------------------

 ANCopt (total)                0 d,  0 h,  0 min, 36.249 sec
 optimizer setup                ...        0 min,  0.000 sec (  0.000%)
 model hessian                  ...        0 min,  0.326 sec (  0.899%)
 ANC generation                 ...        0 min,  0.095 sec (  0.262%)
 coordinate transformation      ...        0 min,  0.017 sec (  0.047%)
 single point calculation       ...        0 min, 35.567 sec ( 98.119%)
 optimization log               ...        0 min,  0.168 sec (  0.463%)
 hessian update                 ...        0 min,  0.041 sec (  0.113%)
 rational function              ...        0 min,  0.020 sec (  0.055%)

================
 final structure:
================
112
 xtb: 6.7.1pre (5071a88)
C           -1.40046836804695       -6.76210416490647        9.22253066031597
O           -0.53662756538478       -6.80989087358570        8.11696871519797
C           -0.28852185723238       -5.65505072730242        7.43673091828486
C           -0.83143763262135       -4.41428792059293        7.75456042281942
C           -0.50046155724109       -3.31720561501152        6.98644657844471
C            0.36498160086756       -3.44618424691388        5.89949347946224
C            0.91881505117712       -4.68959084735070        5.56492535356841
C            0.59725180786913       -5.78769924933016        6.33373101657945
O            1.07033677219451       -7.05100488515556        6.13326627633963
C            1.93332251320697       -7.26314452323025        5.04336627409670
C            0.57825555894637       -2.16933970064510        5.27014189693768
O            1.29305258464810       -1.90732669497444        4.30672582267298
C           -0.25280765003960       -1.12192639504180        6.02482112968891
C            0.66162800372544        0.02472553690148        6.47502797392515
C           -0.03052227125234        1.36954838255994        6.71735958217683
C           -1.04618074951193        1.33525463499258        7.85691220774933
C           -1.77415855507623        2.68054682335531        7.95455791349564
N           -0.93177537200701        3.77458665654482        7.50827051295683
C           -1.46404830150536        5.06015273439734        7.90782409192376
C           -0.72596734877433        6.19303992061261        7.24953005002597
C           -0.41288629754657        7.35009631819016        7.94890375586487
C            0.25911535007963        8.38743388402553        7.32423669682446
C            0.63308373023406        8.27195709319331        5.99671298417362
C            0.32764030279007        7.11668302577128        5.29508381922660
C           -0.35262146706745        6.08552156291158        5.91513435288030
C            0.44733440695978        3.56313431066468        7.89429029114007
C            1.03148152960431        2.43796624493270        7.03304468763996
C           -0.94473294312462       -1.89594649938472        7.16055688873659
H           -2.40514554030904       -6.43222869894185        8.93698990502185
H           -1.01439850455676       -6.10532462158128       10.00968670424993
H           -1.45145462659742       -7.78210473156062        9.59972864104525
H           -1.50052987136985       -4.30219568713510        8.59303450881615
H            1.58606466747340       -4.74597103009132        4.72073016999065
H            1.43500593994652       -7.04423858492334        4.09389204855770
H            2.84185406471010       -6.65781125284048        5.12224005357198
H            2.19689767815684       -8.31903069816535        5.07956976352157
H           -0.98739603264646       -0.71346916521880        5.32318038075553
H            1.19616379507648       -0.28321193619057        7.37710345748417
H            1.40340161476681        0.17444762557523        5.68666107892598
H           -0.56122219669298        1.66829114025873        5.81051022144693
H           -1.78495887813494        0.55306960982463        7.69404981232360
H           -0.52872745137960        1.11798041651464        8.79402099057727
H           -2.11543483973517        2.83188264894701        8.99676868766933
H           -2.66157417759351        2.67449200746348        7.31367644849035
H           -1.45174113693080        5.19249853515442        9.00760994310351
H           -2.51193896954342        5.08961498447070        7.58571953393725
H           -0.69594533535515        7.44280986726290        8.98868126336445
H            0.49533457485465        9.28483811989038        7.87817667446290
H            1.16241074029209        9.07938949197133        5.51228688977054
H            0.61967086060566        7.01858637569853        4.26049346031539
H           -0.59218873634033        5.18203910828614        5.37667318580969
H            0.53213877628596        3.31673654815863        8.96864719013503
H            1.00492166696624        4.48608508854481        7.72649611056775
H            1.40461520015793        2.85455884495882        6.09831381717954
H            1.87095208337809        1.98672054275139        7.56543760472620
H           -0.63928998807247       -1.52554533450179        8.14057443130518
H           -2.03294108294897       -1.82298113300662        7.10511889709543
B           -4.86841408020293       -2.41002717671978        0.60448632972591
B           -4.39853708135871       -0.98259617433899        0.08743018137480
B           -4.03755068680349        0.40025726125317       -0.76815661478116
B           -3.35298980803806       -2.40968278684388        0.05441097964821
B           -2.66786464277445        0.51459534837338       -0.02960944135666
B           -4.16176841873182        0.50505505230030        1.01606995637964
B           -4.85830547788462        1.32068180577913        2.20138011225243
B           -4.39067641028408        2.76976697883407        2.82409210727186
B           -2.64548979398865        0.41321502401428        1.62697461268038
B           -3.07454040190041        2.69985376591057        3.78286526765195
B           -2.20056652933980       -3.59851876512949       -0.08044579009519
B           -1.76656251388121       -2.06725385812273       -0.03543142794574
B           -1.48080251854471       -0.52387303593622        0.47146627162958
B           -0.56974161706854       -3.15203686415108        0.02933212628422
B           -0.05318249983874       -0.33071297134860        1.23912677369619
B           -1.35035046082863       -0.32087448098991        2.28208229297372
B           -1.61995799672768        1.30252062405527        2.56123304381841
B           -1.66538996292098        2.81729681586364        3.03196629277415
B           -0.14511073033254        0.50539610775660        2.84510472953589
B           -0.43027888821329        3.87356010208071        3.01860719799814
B            0.73143879657973       -4.19777265357213        0.12928411305602
B            0.98184352397710       -2.63976474104413        0.41987222353902
B            1.34837554109845       -1.17301704289431        0.93566777761645
B            2.07288756009762       -3.75554132250168        0.98472504887968
B            2.74107716784026       -0.63868539952698        1.56203608038320
B            1.35795979567948        0.10348984584867        2.02246040145638
B            1.24847575506714        1.34280596952457        3.18259742766831
B            0.79133597329093        2.87289115568673        3.02897875345853
B            2.66076592063072        1.09461969298481        2.31880470737730
B            1.58590526135368        2.69507572232326        1.56386259393073
B            2.93790889942282       -4.63217951111690        2.12025435414942
B            3.49244209147259       -3.20239686170089        1.56856606370429
B            4.05033336548888       -1.68871741016839        1.61026387635343
B            4.15456504466809       -3.86153013044737        2.83781006394248
B            5.50056538502587       -0.88504353155053        1.50118828050265
B            4.21830120301548       -0.11759788089913        2.14001739141251
B            4.25558617282383        1.64778175069207        2.46037335122327
B            3.19407255417502        2.66161674602983        1.65668173902130
B            5.60838337640042        0.71245129505240        2.26542814737987
B            4.69515388625925        3.01311218065681        1.75646206952724
H           -5.47236571233515       -3.11942295088679        1.31595219299670
H           -5.61551690628678       -1.59401715759859       -0.05664732854625
H           -4.69840698209050        0.84048583700160       -1.64029032589338
H           -5.71723813646545        0.78643192370665        2.82671257293967
H           -5.05487330257057        3.73338986528266        2.67133480929490
H           -3.23068867434508        2.40302840569402        4.91662133608900
H           -2.47875796339399       -4.72098873030831       -0.26783964019278
H           -0.47809589830523        5.04005351609607        2.86505918513935
H            0.65970244268428       -5.25874527392991       -0.36306076598505
H            1.00331940030703        2.61793118667816        0.53459609478526
H            2.60962953732743       -5.71726197521927        2.41616554403091
H            4.94565406894856       -3.87269889273273        3.69276425658730
H            6.53961853526484       -1.31656476884494        1.17662933795457
H            6.68395792532122        0.96889615187792        2.65419960038357
H            5.61448234104702        3.70584434939403        1.56064043952068
 
 Bond Distances (Angstroems)
 ---------------------------
C1-O2=1.4038         C1-H29=1.0953        C1-H30=1.0955        C1-H31=1.0887        O2-C1=1.4038         O2-C3=1.3631         
C3-O2=1.3631         C3-C4=1.3911         C3-C8=1.4208         C4-C3=1.3911         C4-C5=1.3795         C4-H32=1.0786        
C5-C4=1.3795         C5-C6=1.3954         C5-C28=1.4992        C6-C5=1.3954         C6-C7=1.4017         C6-C11=1.4394        
C7-C6=1.4017         C7-C8=1.3785         C7-H33=1.0775        C8-C3=1.4208         C8-C7=1.3785         C8-O9=1.3638         
O9-C8=1.3638         O9-C10=1.4063        C10-O9=1.4063        C10-H34=1.0944       C10-H35=1.0946       C10-H36=1.0889       
C11-C6=1.4394        C11-O12=1.2279       C11-C13=1.5353       O12-C11=1.2279       C13-C11=1.5353       C13-C14=1.5342       
C13-C28=1.5388       C13-H37=1.0949       C14-C13=1.5342       C14-C15=1.5318       C14-H38=1.0928       C14-H39=1.0928       
C15-C14=1.5318       C15-C16=1.5269       C15-C27=1.5392       C15-H40=1.0924       C16-C15=1.5269       C16-C17=1.5327       
C16-H41=1.0882       C16-H42=1.0923       C17-C16=1.5327       C17-N18=1.4511       C17-H43=1.1071       C17-H44=1.0947       
N18-C17=1.4511       N18-C19=1.4476       N18-C26=1.4476       C19-N18=1.4476       C19-C20=1.5038       C19-H45=1.1078       
C19-H46=1.0967       C20-C19=1.5038       C20-C21=1.3878       C20-C25=1.3898       C21-C20=1.3878       C21-C22=1.3849       
C21-H47=1.0816       C22-C21=1.3849       C22-C23=1.3840       C22-H48=1.0807       C23-C22=1.3840       C23-C24=1.3857       
C23-H49=1.0802       C24-C23=1.3857       C24-C25=1.3822       C24-H50=1.0795       C25-C20=1.3898       C25-C24=1.3822       
C25-H51=1.0787       C26-N18=1.4476       C26-C27=1.5326       C26-H52=1.1055       C26-H53=1.0913       C27-C15=1.5392       
C27-C26=1.5326       C27-H54=1.0893       C27-H55=1.0917       C28-C5=1.4992        C28-C13=1.5388       C28-H56=1.0913       
C28-H57=1.0921       H29-C1=1.0953        H30-C1=1.0955        H31-C1=1.0887        H32-C4=1.0786        H33-C7=1.0775        
H34-C10=1.0944       H35-C10=1.0946       H36-C10=1.0889       H37-C13=1.0949       H38-C14=1.0928       H39-C14=1.0928       
H40-C15=1.0924       H41-C16=1.0882       H42-C16=1.0923       H43-C17=1.1071       H44-C17=1.0947       H45-C19=1.1078       
H46-C19=1.0967       H47-C21=1.0816       H48-C22=1.0807       H49-C23=1.0802       H50-C24=1.0795       H51-C25=1.0787       
H52-C26=1.1055       H53-C26=1.0913       H54-C27=1.0893       H55-C27=1.0917       H56-C28=1.0913       H57-C28=1.0921       
B58-B59=1.5892       B58-B61=1.6122       B58-H98=1.1723       B58-H99=1.2888       B59-B58=1.5892       B59-B60=1.6657       
B59-B61=1.7694       B59-B63=1.7696       B59-H99=1.3695       B60-B59=1.6657       B60-B62=1.5603       B60-B63=1.7916       
B60-H100=1.1795      B61-B58=1.6122       B61-B59=1.7694       B61-B68=1.6612       B61-B69=1.6254       B62-B60=1.5603       
B62-B63=1.8235       B62-B66=1.6598       B62-B70=1.6549       B63-B59=1.7696       B63-B60=1.7916       B63-B62=1.8235       
B63-B64=1.5986       B63-B66=1.6373       B64-B63=1.5986       B64-B65=1.6451       B64-H101=1.1892      B65-B64=1.6451       
B65-B67=1.6298       B65-H102=1.1803      B66-B62=1.6598       B66-B63=1.6373       B66-B70=1.8894       B66-B73=1.6265       
B66-B74=1.6479       B67-B65=1.6298       B67-B75=1.6010       B67-H103=1.1823      B68-B61=1.6612       B68-B69=1.5922       
B68-B71=1.6944       B68-H104=1.1715      B69-B61=1.6254       B69-B68=1.5922       B69-B70=1.6494       B69-B71=1.6166       
B70-B62=1.6549       B70-B66=1.8894       B70-B69=1.6494       B70-B72=1.6324       B70-B73=1.8266       B71-B68=1.6944       
B71-B69=1.6166       B71-B78=1.6723       B71-B79=1.6800       B72-B70=1.6324       B72-B73=1.6645       B72-B76=1.8129       
B72-B80=1.6631       B72-B83=1.6714       B73-B66=1.6265       B73-B70=1.8266       B73-B72=1.6645       B73-B74=1.6691       
B73-B76=1.5660       B74-B66=1.6479       B74-B73=1.6691       B74-B75=1.5869       B74-B76=1.7003       B75-B67=1.6010       
B75-B74=1.5869       B75-B77=1.6252       B76-B72=1.8129       B76-B73=1.5660       B76-B74=1.7003       B76-B83=1.7600       
B76-B84=1.6605       B77-B75=1.6252       B77-B85=1.5792       B77-H105=1.1775      B78-B71=1.6723       B78-B79=1.6045       
B78-B81=1.6513       B78-H106=1.1718      B79-B71=1.6800       B79-B78=1.6045       B79-B80=1.5974       B79-B81=1.6596       
B80-B72=1.6631       B80-B79=1.5974       B80-B82=1.6179       B80-B83=1.6765       B81-B78=1.6513       B81-B79=1.6596       
B81-B88=1.6752       B81-B89=1.6316       B82-B80=1.6179       B82-B83=1.6358       B82-B86=1.8930       B82-B90=1.6790       
B82-B93=1.6697       B83-B72=1.6714       B83-B76=1.7600       B83-B80=1.6765       B83-B82=1.6358       B83-B84=1.7011       
B83-B86=1.6636       B84-B76=1.6605       B84-B83=1.7011       B84-B85=1.6043       B84-B86=1.6740       B84-B87=2.1361       
B85-B77=1.5792       B85-B84=1.6043       B85-B87=1.6762       B86-B82=1.8930       B86-B83=1.6636       B86-B84=1.6740       
B86-B87=2.0704       B86-B93=1.9818       B86-B94=1.6940       B86-B95=1.7828       B87-B84=2.1361       B87-B85=1.6762       
B87-B86=2.0704       B87-B95=1.6112       B87-H107=1.1852      B88-B81=1.6752       B88-B89=1.6298       B88-B91=1.6090       
B88-H108=1.1716      B89-B81=1.6316       B89-B88=1.6298       B89-B90=1.6138       B89-B91=1.5760       B90-B82=1.6790       
B90-B89=1.6138       B90-B92=1.6616       B90-B93=1.6665       B91-B88=1.6090       B91-B89=1.5760       B91-H109=1.1649      
B92-B90=1.6616       B92-B93=1.6252       B92-B96=1.7742       B92-H110=1.1710      B93-B82=1.6697       B93-B86=1.9818       
B93-B90=1.6665       B93-B92=1.6252       B93-B94=1.7946       B93-B96=1.6239       B94-B86=1.6940       B94-B93=1.7946       
B94-B95=1.6735       B94-B96=1.6562       B94-B97=1.5978       B95-B86=1.7828       B95-B87=1.6112       B95-B94=1.6735       
B95-B97=1.5449       B96-B92=1.7742       B96-B93=1.6239       B96-B94=1.6562       B96-H111=1.1721      B97-B94=1.5978       
B97-B95=1.5449       B97-H112=1.1676      H98-B58=1.1723       H99-B58=1.2888       H99-B59=1.3695       H100-B60=1.1795      
H101-B64=1.1892      H102-B65=1.1803      H103-B67=1.1823      H104-B68=1.1715      H105-B77=1.1775      H106-B78=1.1718      
H107-B87=1.1852      H108-B88=1.1716      H109-B91=1.1649      H110-B92=1.1710      H111-B96=1.1721      H112-B97=1.1676      
 B  H  Rav=1.1947 sigma=0.0532  Rmin=1.1649  Rmax=1.3695    16
 B  B  Rav=1.6807 sigma=0.1058  Rmin=1.5449  Rmax=2.1361    77
 C  H  Rav=1.0909 sigma=0.0080  Rmin=1.0775  Rmax=1.1078    29
 C  C  Rav=1.4520 sigma=0.0680  Rmin=1.3785  Rmax=1.5392    23
 N  C  Rav=1.4488 sigma=0.0016  Rmin=1.4476  Rmax=1.4511     3
 O  C  Rav=1.3530 sigma=0.0653  Rmin=1.2279  Rmax=1.4063     5
 
 selected bond angles (degree)
 --------------------
H29-C1-O2=111.68               H30-C1-O2=111.68               H30-C1-H29=109.27              H31-C1-O2=105.65               
H31-C1-H29=109.24              H31-C1-H30=109.22              C3-O2-C1=118.44                C4-C3-O2=124.79                
C8-C3-O2=114.95                C8-C3-C4=120.26                C5-C4-C3=119.24                H32-C4-C3=120.82               
H32-C4-C5=119.94               C6-C5-C4=120.60                C28-C5-C4=128.18               C28-C5-C6=111.22               
C7-C6-C5=120.86                C11-C6-C5=110.52               C11-C6-C7=128.61               C8-C7-C6=118.77                
H33-C7-C6=118.56               H33-C7-C8=122.66               C7-C8-C3=120.26                O9-C8-C3=114.64                
O9-C8-C7=125.10                C10-O9-C8=117.81               H34-C10-O9=111.27              H35-C10-O9=111.72              
H35-C10-H34=109.26             H36-C10-O9=105.61              H36-C10-H34=109.45             H36-C10-H35=109.45             
 
 selected dihedral angles (degree)
 ---------------------------------
C3-O2-C1-H29= 61.16           C3-O2-C1-H30=298.46           C3-O2-C1-H31=179.82           C4-C3-O2-C1=359.96            
C8-C3-O2-C1=179.88            C5-C4-C3-O2=179.96            C5-C4-C3-C8=  0.05            H32-C4-C3-O2=  0.24           
H32-C4-C3-C8=180.33           C6-C5-C4-C3=  0.21            C6-C5-C4-H32=179.93           C28-C5-C4-C3=181.16           
C28-C5-C4-H32=  0.88          C7-C6-C5-C4=359.88            C7-C6-C5-C28=179.08           C11-C6-C5-C4=181.04           
C11-C6-C5-C28=  0.24          C8-C7-C6-C5=359.76            C8-C7-C6-C11=178.37           H33-C7-C6-C5=180.26           
H33-C7-C6-C11=358.88          C7-C8-C3-O2=179.67            C7-C8-C3-C4=359.59            O9-C8-C3-O2=359.52            
O9-C8-C3-C4=179.44            C3-C8-C7-C6=  0.50            C3-C8-C7-H33=179.97           O9-C8-C7-C6=180.67            
O9-C8-C7-H33=  0.14           C10-O9-C8-C3=178.83           C10-O9-C8-C7=358.67           H34-C10-O9-C8=297.84          
H35-C10-O9-C8= 60.26          H36-C10-O9-C8=179.17          
 
 CMA Distance (Angstroems)
 ---------------------------
R(CMA):  5.2444
           -------------------------------------------------
          |                Final Singlepoint                |
           -------------------------------------------------

          ...................................................
          :                      SETUP                      :
          :.................................................:
          :  # basis functions                 316          :
          :  # atomic orbitals                 316          :
          :  # shells                          180          :
          :  # electrons                       283          :
          :  max. iterations                   500          :
          :  Hamiltonian                  GFN2-xTB          :
          :  restarted?                      false          :
          :  GBSA solvation                  false          :
          :  PC potential                    false          :
          :  electronic temp.          300.0000000     K    :
          :  accuracy                    1.0000000          :
          :  -> integral cutoff          0.2500000E+02      :
          :  -> integral neglect         0.1000000E-07      :
          :  -> SCF convergence          0.1000000E-05 Eh   :
          :  -> wf. convergence          0.1000000E-03 e    :
          :  Broyden damping             0.4000000          :
          :  net charge                          0          :
          :  unpaired electrons                  0          :
          ...................................................

 iter      E             dE          RMSdq      gap      omega  full diag
   1   -139.5041916 -0.139504E+03  0.258E-04    0.06       0.0  T
   2   -139.5041911  0.587041E-06  0.163E-03    0.06       5.8  T
   3   -139.5041916 -0.533824E-06  0.488E-04    0.06      19.4  T
   4   -139.5041917 -0.676849E-07  0.523E-05    0.06     180.8  T

   *** convergence criteria satisfied after 4 iterations ***

         #    Occupation            Energy/Eh            Energy/eV
      -------------------------------------------------------------
         1        2.0000           -0.7055750             -19.1997
       ...           ...                  ...                  ...
       136        2.0000           -0.2892762              -7.8716
       137        2.0000           -0.2835699              -7.7163
       138        2.0000           -0.2804270              -7.6308
       139        2.0000           -0.2777064              -7.5568
       140        2.0000           -0.2729417              -7.4271
       141        1.9997           -0.2692756              -7.3274
       142        0.7512           -0.2534674              -6.8972 (HOMO)
       143        0.2491           -0.2513705              -6.8401 (LUMO)
       144        0.0000           -0.2399567              -6.5296
       145                         -0.2225031              -6.0546
       146                         -0.2144790              -5.8363
       147                         -0.2092240              -5.6933
       ...                                ...                  ...
       316                          1.0720384              29.1716
      -------------------------------------------------------------
                  HL-Gap            0.0020969 Eh            0.0571 eV
             Fermi-level           -0.2569150 Eh           -6.9910 eV

 SCC (total)                   0 d,  0 h,  0 min,  0.106 sec
 SCC setup                      ...        0 min,  0.001 sec (  0.944%)
 Dispersion                     ...        0 min,  0.001 sec (  0.943%)
 classical contributions        ...        0 min,  0.000 sec (  0.000%)
 integral evaluation            ...        0 min,  0.010 sec (  9.434%)
 iterations                     ...        0 min,  0.050 sec ( 47.170%)
 molecular gradient             ...        0 min,  0.039 sec ( 36.792%)
 printout                       ...        0 min,  0.005 sec (  4.717%)

         :::::::::::::::::::::::::::::::::::::::::::::::::::::
         ::                     SUMMARY                     ::
         :::::::::::::::::::::::::::::::::::::::::::::::::::::
         :: total energy            -137.542172855374 Eh    ::
         :: gradient norm              0.001975035746 Eh/a0 ::
         :: HOMO-LUMO gap              0.057058950394 eV    ::
         ::.................................................::
         :: SCC energy              -139.499114384335 Eh    ::
         :: -> isotropic ES            0.268189433632 Eh    ::
         :: -> anisotropic ES          0.010936583658 Eh    ::
         :: -> anisotropic XC          0.017213693128 Eh    ::
         :: -> dispersion             -0.148819057697 Eh    ::
         :: repulsion energy           1.956941528961 Eh    ::
         :: add. restraining           0.000000000000 Eh    ::
         :: total charge              -0.000000000000 e     ::
         :::::::::::::::::::::::::::::::::::::::::::::::::::::

           -------------------------------------------------
          |                Property Printout                |
           -------------------------------------------------

    * Orbital Energies and Occupations

         #    Occupation            Energy/Eh            Energy/eV
      -------------------------------------------------------------
         1        2.0000           -0.7055750             -19.1997
       ...           ...                  ...                  ...
       130        2.0000           -0.3064525              -8.3390
       131        2.0000           -0.3031132              -8.2481
       132        2.0000           -0.3016947              -8.2095
       133        2.0000           -0.3007750              -8.1845
       134        2.0000           -0.2955214              -8.0415
       135        2.0000           -0.2931578              -7.9772
       136        2.0000           -0.2892762              -7.8716
       137        2.0000           -0.2835699              -7.7163
       138        2.0000           -0.2804270              -7.6308
       139        2.0000           -0.2777064              -7.5568
       140        2.0000           -0.2729417              -7.4271
       141        1.9997           -0.2692756              -7.3274
       142        0.7512           -0.2534674              -6.8972 (HOMO)
       143        0.2491           -0.2513705              -6.8401 (LUMO)
       144        0.0000           -0.2399567              -6.5296
       145                         -0.2225031              -6.0546
       146                         -0.2144790              -5.8363
       147                         -0.2092240              -5.6933
       148                         -0.2051824              -5.5833
       149                         -0.2045205              -5.5653
       150                         -0.2026922              -5.5155
       151                         -0.1990557              -5.4166
       152                         -0.1926001              -5.2409
       153                         -0.1882502              -5.1225
       ...                                ...                  ...
       316                          1.0720384              29.1716
      -------------------------------------------------------------
                  HL-Gap            0.0020969 Eh            0.0571 eV
             Fermi-level           -0.2569150 Eh           -6.9910 eV

     #   Z          covCN         q      C6AA      α(0)
     1   6 C        3.645     0.035    20.325     6.479
     2   8 O        1.705    -0.253    18.189     5.758
     3   6 C        2.867     0.118    25.408     8.263
     4   6 C        2.912    -0.085    30.129     9.001
     5   6 C        3.021    -0.008    28.205     8.712
     6   6 C        3.007    -0.052    29.264     8.874
     7   6 C        2.910    -0.082    30.063     8.991
     8   6 C        2.867     0.118    25.397     8.261
     9   8 O        1.705    -0.262    18.341     5.782
    10   6 C        3.647     0.026    20.464     6.500
    11   6 C        2.863     0.192    23.911     8.015
    12   8 O        0.856    -0.456    22.826     6.405
    13   6 C        3.877    -0.059    21.594     6.607
    14   6 C        3.807    -0.077    21.964     6.672
    15   6 C        3.854    -0.036    21.182     6.546
    16   6 C        3.806    -0.067    21.787     6.645
    17   6 C        3.766     0.007    20.490     6.451
    18   7 N        2.732    -0.174    24.758     7.390
    19   6 C        3.765     0.003    20.562     6.463
    20   6 C        2.971     0.007    27.869     8.659
    21   6 C        2.923    -0.042    29.055     8.840
    22   6 C        2.919    -0.035    28.859     8.809
    23   6 C        2.920    -0.037    28.925     8.820
    24   6 C        2.920    -0.035    28.880     8.813
    25   6 C        2.925    -0.045    29.128     8.851
    26   6 C        3.761     0.009    20.478     6.451
    27   6 C        3.810    -0.082    22.060     6.686
    28   6 C        3.829    -0.074    21.892     6.657
    29   1 H        0.924     0.040     2.445     2.445
    30   1 H        0.924     0.040     2.447     2.446
    31   1 H        0.925     0.063     2.167     2.302
    32   1 H        0.926     0.036     2.502     2.474
    33   1 H        0.926     0.065     2.144     2.290
    34   1 H        0.924     0.048     2.349     2.397
    35   1 H        0.924     0.048     2.339     2.392
    36   1 H        0.925     0.061     2.182     2.310
    37   1 H        0.924     0.059     2.214     2.327
    38   1 H        0.924     0.032     2.555     2.499
    39   1 H        0.924     0.062     2.173     2.305
    40   1 H        0.924     0.067     2.121     2.277
    41   1 H        0.925     0.037     2.484     2.465
    42   1 H        0.924     0.029     2.596     2.520
    43   1 H        0.922     0.000     3.058     2.735
    44   1 H        0.924     0.035     2.520     2.483
    45   1 H        0.922     0.004     2.983     2.701
    46   1 H        0.924     0.043     2.414     2.430
    47   1 H        0.925     0.022     2.700     2.570
    48   1 H        0.926     0.025     2.664     2.552
    49   1 H        0.926     0.027     2.633     2.537
    50   1 H        0.926     0.042     2.417     2.431
    51   1 H        0.926     0.071     2.072     2.251
    52   1 H        0.922     0.004     2.990     2.704
    53   1 H        0.924     0.034     2.535     2.490
    54   1 H        0.925     0.052     2.291     2.367
    55   1 H        0.924     0.033     2.551     2.498
    56   1 H        0.924     0.052     2.293     2.368
    57   1 H        0.924     0.040     2.446     2.446
    58   5 B        3.728     0.066    21.442     7.482
    59   5 B        4.559     0.066    21.550     7.480
    60   5 B        3.764     0.029    22.148     7.594
    61   5 B        3.809     0.038    22.025     7.566
    62   5 B        3.870     0.058    21.685     7.505
    63   5 B        4.608     0.026    22.267     7.603
    64   5 B        2.885     0.050    20.550     7.566
    65   5 B        2.866     0.086    19.967     7.460
    66   5 B        4.660     0.032    22.161     7.585
    67   5 B        2.929     0.071    20.187     7.497
    68   5 B        3.820     0.055    21.723     7.513
    69   5 B        3.872     0.021    22.352     7.619
    70   5 B        4.540    -0.003    22.794     7.693
    71   5 B        3.830     0.053    21.767     7.520
    72   5 B        4.720     0.063    21.610     7.490
    73   5 B        4.722     0.056    21.727     7.510
    74   5 B        3.900     0.046    21.909     7.543
    75   5 B        2.930     0.024    20.978     7.642
    76   5 B        4.681     0.038    22.056     7.567
    77   5 B        2.878     0.057    20.441     7.547
    78   5 B        3.828     0.063    21.597     7.491
    79   5 B        3.858     0.027    22.238     7.600
    80   5 B        3.856     0.005    22.636     7.668
    81   5 B        3.846     0.058    21.684     7.505
    82   5 B        4.629     0.037    22.065     7.569
    83   5 B        5.703     0.125    20.558     7.305
    84   5 B        4.163     0.027    22.245     7.599
    85   5 B        2.924     0.030    20.877     7.624
    86   5 B        5.636     0.064    21.582     7.485
    87   5 B        3.644     0.064    21.176     7.493
    88   5 B        3.831     0.054    21.746     7.517
    89   5 B        3.878     0.034    22.106     7.577
    90   5 B        3.853     0.027    22.229     7.599
    91   5 B        2.896     0.103    19.681     7.404
    92   5 B        3.774     0.070    21.437     7.469
    93   5 B        5.375     0.107    20.848     7.357
    94   5 B        4.731     0.045    21.918     7.543
    95   5 B        3.804     0.011    22.509     7.649
    96   5 B        3.782     0.077    21.320     7.447
    97   5 B        2.895     0.049    20.564     7.568
    98   1 H        0.938    -0.122     6.409     3.958
    99   1 H        1.546     0.032     2.538     2.487
   100   1 H        0.936    -0.148     7.593     4.308
   101   1 H        0.932    -0.140     7.194     4.194
   102   1 H        0.935    -0.126     6.556     4.003
   103   1 H        0.935    -0.125     6.518     3.992
   104   1 H        0.938    -0.109     5.870     3.788
   105   1 H        0.936    -0.137     7.058     4.154
   106   1 H        0.938    -0.096     5.435     3.645
   107   1 H        0.933    -0.154     7.872     4.387
   108   1 H        0.938    -0.105     5.739     3.745
   109   1 H        0.941    -0.134     6.914     4.111
   110   1 H        0.939    -0.114     6.062     3.849
   111   1 H        0.938    -0.114     6.077     3.854
   112   1 H        0.940    -0.143     7.346     4.237

 Mol. C6AA /au·bohr⁶  :     164639.253504
 Mol. C8AA /au·bohr⁸  :    4764944.294715
 Mol. α(0) /au        :        641.577780


Wiberg/Mayer (AO) data.
largest (>0.10) Wiberg bond orders for each atom

 ---------------------------------------------------------------------------
     #   Z sym  total        # sym  WBO       # sym  WBO       # sym  WBO
 ---------------------------------------------------------------------------
     1   6 C    3.948 --     2 O    0.990    31 H    0.979    30 H    0.976
                            29 H    0.975
     2   8 O    2.226 --     3 C    1.064     1 C    0.990
     3   6 C    3.871 --     4 C    1.379     8 C    1.239     2 O    1.064
     4   6 C    3.977 --     5 C    1.423     3 C    1.379    32 H    0.964
     5   6 C    3.947 --     4 C    1.423     6 C    1.320    28 C    1.014
     6   6 C    3.958 --     5 C    1.320     7 C    1.299    11 C    1.120
     7   6 C    3.938 --     8 C    1.449     6 C    1.299    33 H    0.958
     8   6 C    3.936 --     7 C    1.449     3 C    1.239     9 O    1.060
     9   8 O    2.230 --     8 C    1.060    10 C    0.985
    10   6 C    3.943 --     9 O    0.985    36 H    0.980    35 H    0.975
                            34 H    0.974
    11   6 C    3.843 --    12 O    1.667     6 C    1.120    13 C    0.957
    12   8 O    1.904 --    11 C    1.667
    13   6 C    3.991 --    28 C    0.996    14 C    0.984    11 C    0.957
                            37 H    0.943
    14   6 C    3.986 --    15 C    0.996    13 C    0.984    38 H    0.974
                            39 H    0.964
    15   6 C    3.991 --    16 C    1.000    14 C    0.996    27 C    0.991
                            40 H    0.962
    16   6 C    3.997 --    17 C    1.000    15 C    1.000    42 H    0.978
                            41 H    0.974
    17   6 C    3.988 --    18 N    1.003    16 C    1.000    44 H    0.972
                            43 H    0.965
    18   7 N    3.127 --    26 C    1.005    17 C    1.003    19 C    1.003
    19   6 C    3.989 --    20 C    1.004    18 N    1.003    45 H    0.959
                            46 H    0.956
    20   6 C    3.988 --    21 C    1.419    25 C    1.405    19 C    1.004
                            23 C    0.110
    21   6 C    3.991 --    22 C    1.439    20 C    1.419    47 H    0.969
                            24 C    0.110
    22   6 C    3.992 --    23 C    1.443    21 C    1.439    48 H    0.972
                            25 C    0.113
    23   6 C    3.992 --    22 C    1.443    24 C    1.433    49 H    0.972
                            20 C    0.110
    24   6 C    3.992 --    25 C    1.452    23 C    1.433    50 H    0.969
                            21 C    0.110
    25   6 C    3.987 --    24 C    1.452    20 C    1.405    51 H    0.959
                            22 C    0.113
    26   6 C    3.988 --    18 N    1.005    27 C    1.000    53 H    0.972
                            52 H    0.966
    27   6 C    3.995 --    26 C    1.000    15 C    0.991    55 H    0.977
                            54 H    0.977
    28   6 C    3.996 --     5 C    1.014    13 C    0.996    57 H    0.963
                            56 H    0.958
    29   1 H    0.997 --     1 C    0.975
    30   1 H    0.997 --     1 C    0.976
    31   1 H    0.996 --     1 C    0.979
    32   1 H    0.998 --     4 C    0.964
    33   1 H    0.995 --     7 C    0.958
    34   1 H    0.998 --    10 C    0.974
    35   1 H    0.998 --    10 C    0.975
    36   1 H    0.996 --    10 C    0.980
    37   1 H    0.991 --    13 C    0.943
    38   1 H    0.999 --    14 C    0.974
    39   1 H    0.996 --    14 C    0.964
    40   1 H    0.996 --    15 C    0.962
    41   1 H    0.998 --    16 C    0.974
    42   1 H    0.999 --    16 C    0.978
    43   1 H    1.000 --    17 C    0.965
    44   1 H    0.999 --    17 C    0.972
    45   1 H    1.000 --    19 C    0.959
    46   1 H    0.998 --    19 C    0.956
    47   1 H    0.999 --    21 C    0.969
    48   1 H    0.999 --    22 C    0.972
    49   1 H    0.999 --    23 C    0.972
    50   1 H    0.998 --    24 C    0.969
    51   1 H    0.995 --    25 C    0.959
    52   1 H    1.000 --    26 C    0.966
    53   1 H    0.998 --    26 C    0.972
    54   1 H    0.997 --    27 C    0.977
    55   1 H    0.999 --    27 C    0.977
    56   1 H    0.995 --    28 C    0.958
    57   1 H    0.996 --    28 C    0.963
    58   5 B    3.563 --    98 H    0.951    61 B    0.915    59 B    0.884
                            99 H    0.533
    59   5 B    3.542 --    58 B    0.884    60 B    0.751    61 B    0.596
                            63 B    0.543    99 H    0.431    62 B    0.137
    60   5 B    3.571 --    62 B    1.126   100 H    0.949    59 B    0.751
                            63 B    0.452
    61   5 B    3.566 --    58 B    0.915    68 B    0.854    69 B    0.831
                            59 B    0.596    71 B    0.112
    62   5 B    3.392 --    60 B    1.126    70 B    0.809    66 B    0.622
                            63 B    0.430    59 B    0.137
    63   5 B    3.595 --    64 B    1.083    66 B    0.768    59 B    0.543
                            60 B    0.452    62 B    0.430
    64   5 B    3.436 --    63 B    1.083    65 B    0.997   101 H    0.912
                            66 B    0.162
    65   5 B    3.249 --    67 B    1.014    64 B    0.997   102 H    0.939
                            75 B    0.108
    66   5 B    3.676 --    74 B    0.771    63 B    0.768    73 B    0.706
                            62 B    0.622    70 B    0.377    64 B    0.162
    67   5 B    3.414 --    65 B    1.014    75 B    0.995   103 H    0.920
                            74 B    0.196
    68   5 B    3.632 --   104 H    0.928    61 B    0.854    69 B    0.843
                            71 B    0.784
    69   5 B    3.615 --    71 B    0.860    68 B    0.843    61 B    0.831
                            70 B    0.801
    70   5 B    3.637 --    72 B    0.833    62 B    0.809    69 B    0.801
                            73 B    0.437    66 B    0.377
    71   5 B    3.572 --    69 B    0.860    68 B    0.784    78 B    0.775
                            79 B    0.711    61 B    0.112
    72   5 B    3.572 --    70 B    0.833    80 B    0.683    73 B    0.628
                            83 B    0.570    76 B    0.461
    73   5 B    3.598 --    76 B    0.931    66 B    0.706    72 B    0.628
                            74 B    0.603    70 B    0.437
    74   5 B    3.548 --    75 B    0.957    66 B    0.771    76 B    0.679
                            73 B    0.603    67 B    0.196
    75   5 B    3.448 --    67 B    0.995    77 B    0.966    74 B    0.957
                            85 B    0.179    65 B    0.108
    76   5 B    3.635 --    73 B    0.931    84 B    0.746    74 B    0.679
                            72 B    0.461    83 B    0.460
    77   5 B    3.421 --    85 B    1.138    75 B    0.966   105 H    0.948
                            87 B    0.113
    78   5 B    3.578 --   106 H    0.923    81 B    0.834    79 B    0.816
                            71 B    0.775
    79   5 B    3.597 --    80 B    0.996    78 B    0.816    81 B    0.717
                            71 B    0.711
    80   5 B    3.611 --    79 B    0.996    82 B    0.897    72 B    0.683
                            83 B    0.590
    81   5 B    3.585 --    78 B    0.834    89 B    0.816    88 B    0.779
                            79 B    0.717    91 B    0.150
    82   5 B    3.659 --    80 B    0.897    90 B    0.700    83 B    0.664
                            93 B    0.612    86 B    0.402
    83   5 B    3.658 --    82 B    0.664    80 B    0.590    86 B    0.574
                            72 B    0.570    84 B    0.530    76 B    0.460
    84   5 B    3.515 --    85 B    0.980    86 B    0.768    76 B    0.746
                            83 B    0.530    87 B    0.199
    85   5 B    3.405 --    77 B    1.138    84 B    0.980    87 B    0.774
                            75 B    0.179
    86   5 B    3.631 --    84 B    0.768    94 B    0.618    83 B    0.574
                            95 B    0.483    82 B    0.402    93 B    0.304
                            87 B    0.262
    87   5 B    3.487 --    95 B    0.974   107 H    0.939    85 B    0.774
                            86 B    0.262    84 B    0.199    77 B    0.113
    88   5 B    3.603 --    91 B    0.996   108 H    0.913    81 B    0.779
                            89 B    0.759
    89   5 B    3.603 --    91 B    0.950    90 B    0.888    81 B    0.816
                            88 B    0.759
    90   5 B    3.598 --    89 B    0.888    92 B    0.871    82 B    0.700
                            93 B    0.637    91 B    0.207
    91   5 B    3.446 --    88 B    0.996   109 H    0.973    89 B    0.950
                            90 B    0.207    81 B    0.150
    92   5 B    3.510 --   110 H    0.953    90 B    0.871    93 B    0.769
                            96 B    0.688
    93   5 B    3.653 --    92 B    0.769    96 B    0.759    90 B    0.637
                            82 B    0.612    94 B    0.434    86 B    0.304
    94   5 B    3.633 --    97 B    0.953    96 B    0.765    95 B    0.708
                            86 B    0.618    93 B    0.434
    95   5 B    3.573 --    97 B    1.171    87 B    0.974    94 B    0.708
                            86 B    0.483
    96   5 B    3.552 --   111 H    0.954    94 B    0.765    93 B    0.759
                            92 B    0.688    97 B    0.182
    97   5 B    3.515 --    95 B    1.171   112 H    0.968    94 B    0.953
                            96 B    0.182
    98   1 H    0.979 --    58 B    0.951
    99   1 H    0.995 --    58 B    0.533    59 B    0.431
   100   1 H    0.976 --    60 B    0.949
   101   1 H    0.977 --    64 B    0.912
   102   1 H    0.982 --    65 B    0.939
   103   1 H    0.981 --    67 B    0.920
   104   1 H    0.977 --    68 B    0.928
   105   1 H    0.978 --    77 B    0.948
   106   1 H    0.978 --    78 B    0.923
   107   1 H    0.975 --    87 B    0.939
   108   1 H    0.979 --    88 B    0.913
   109   1 H    0.982 --    91 B    0.973
   110   1 H    0.984 --    92 B    0.953
   111   1 H    0.983 --    96 B    0.954
   112   1 H    0.978 --    97 B    0.968
 ---------------------------------------------------------------------------

Topologies differ in total number of bonds
Writing topology from bond orders to xtbtopo.mol

molecular dipole:
                 x           y           z       tot (Debye)
 q only:        0.587      -0.497      -1.702
   full:       -0.212      -1.387      -0.162       3.591
molecular quadrupole (traceless):
                xx          xy          yy          xz          yz          zz
 q only:       -5.912       6.901     -11.534      -7.681       1.679      17.445
  q+dip:        2.430      12.894     -32.102      -7.895      -0.104      29.672
   full:       -4.171       9.411     -35.751     -11.110      -1.755      39.923

           -------------------------------------------------
          |                Geometry Summary                 |
           -------------------------------------------------

      molecular mass/u    :      827.0530946
   center of mass at/Å    :        0.0776573      -0.1584165       3.9752812
  moments of inertia/u·Å² :        0.1136633E+05   0.1736867E+05   0.1918390E+05
rotational constants/cm⁻¹ :        0.1483120E-02   0.9705769E-03   0.8787385E-03

 * 137 selected distances

     #   Z          #   Z                                           value/Å
     1   6 C        2   8 O                                       1.4038419
     2   8 O        3   6 C                                       1.3630613
     3   6 C        4   6 C                                       1.3911383
     4   6 C        5   6 C                                       1.3795412
     5   6 C        6   6 C                                       1.3953834
     6   6 C        7   6 C                                       1.4016874
     3   6 C        8   6 C                                       1.4208447
     7   6 C        8   6 C                                       1.3785164
     8   6 C        9   8 O                                       1.3637951
     9   8 O       10   6 C                                       1.4062823
    11   6 C       12   8 O                                       1.2279073
    13   6 C       14   6 C                                       1.5341740
    14   6 C       15   6 C                                       1.5317786
    15   6 C       16   6 C                                       1.5268657
    16   6 C       17   6 C                                       1.5327419
    17   6 C       18   7 N                                       1.4511049
    18   7 N       19   6 C                                       1.4476319
    20   6 C       21   6 C                                       1.3877763
    21   6 C       22   6 C                                       1.3848699
    22   6 C       23   6 C                                       1.3840184
    23   6 C       24   6 C                                       1.3857264
    20   6 C       25   6 C                                       1.3898056
    24   6 C       25   6 C                                       1.3822131
    18   7 N       26   6 C                                       1.4476421
    15   6 C       27   6 C                                       1.5391642
    26   6 C       27   6 C                                       1.5326368
    13   6 C       28   6 C                                       1.5387540
     1   6 C       29   1 H                                       1.0953209
     1   6 C       30   1 H                                       1.0954561
     1   6 C       31   1 H                                       1.0887053
     4   6 C       32   1 H                                       1.0785583
     7   6 C       33   1 H                                       1.0775280 (min)
    10   6 C       34   1 H                                       1.0944134
    10   6 C       35   1 H                                       1.0945681
    10   6 C       36   1 H                                       1.0888886
    13   6 C       37   1 H                                       1.0948778
    14   6 C       38   1 H                                       1.0928378
    14   6 C       39   1 H                                       1.0927797
    15   6 C       40   1 H                                       1.0923670
    16   6 C       41   1 H                                       1.0881778
    16   6 C       42   1 H                                       1.0923091
    17   6 C       43   1 H                                       1.1070572
    17   6 C       44   1 H                                       1.0946563
    19   6 C       45   1 H                                       1.1077888
    19   6 C       46   1 H                                       1.0966743
    21   6 C       47   1 H                                       1.0815987
    22   6 C       48   1 H                                       1.0807329
    23   6 C       49   1 H                                       1.0801866
    24   6 C       50   1 H                                       1.0794824
    25   6 C       51   1 H                                       1.0787093
    26   6 C       52   1 H                                       1.1055074
    26   6 C       53   1 H                                       1.0912822
    27   6 C       54   1 H                                       1.0892659
    27   6 C       55   1 H                                       1.0916849
    28   6 C       56   1 H                                       1.0912960
    28   6 C       57   1 H                                       1.0920597
    58   5 B       59   5 B                                       1.5892423
    59   5 B       60   5 B                                       1.6657203
    58   5 B       61   5 B                                       1.6121707
    60   5 B       62   5 B                                       1.5603094
    59   5 B       63   5 B                                       1.7696152
    63   5 B       64   5 B                                       1.5985529
    64   5 B       65   5 B                                       1.6450822
    62   5 B       66   5 B                                       1.6598343
    63   5 B       66   5 B                                       1.6372967
    65   5 B       67   5 B                                       1.6298308
    61   5 B       68   5 B                                       1.6612036
    61   5 B       69   5 B                                       1.6254480
    68   5 B       69   5 B                                       1.5922181
    62   5 B       70   5 B                                       1.6548748
    69   5 B       70   5 B                                       1.6494329
    68   5 B       71   5 B                                       1.6943989
    69   5 B       71   5 B                                       1.6165795
    70   5 B       72   5 B                                       1.6323948
    66   5 B       73   5 B                                       1.6264808
    72   5 B       73   5 B                                       1.6644814
    66   5 B       74   5 B                                       1.6478529
    73   5 B       74   5 B                                       1.6691392
    67   5 B       75   5 B                                       1.6010458
    74   5 B       75   5 B                                       1.5868841
    73   5 B       76   5 B                                       1.5659887
    74   5 B       76   5 B                                       1.7003428
    75   5 B       77   5 B                                       1.6252294
    71   5 B       78   5 B                                       1.6723112
    71   5 B       79   5 B                                       1.6799885
    78   5 B       79   5 B                                       1.6045352
    72   5 B       80   5 B                                       1.6631082
    79   5 B       80   5 B                                       1.5974167
    78   5 B       81   5 B                                       1.6513125
    79   5 B       81   5 B                                       1.6596366
    80   5 B       82   5 B                                       1.6178584
    72   5 B       83   5 B                                       1.6713667
    76   5 B       83   5 B                                       1.7599699
    80   5 B       83   5 B                                       1.6765084
    82   5 B       83   5 B                                       1.6357961
    76   5 B       84   5 B                                       1.6604940
    83   5 B       84   5 B                                       1.7011201
    77   5 B       85   5 B                                       1.5791736
    84   5 B       85   5 B                                       1.6042870
    83   5 B       86   5 B                                       1.6635692
    84   5 B       86   5 B                                       1.6740067
    85   5 B       87   5 B                                       1.6761636
    81   5 B       88   5 B                                       1.6751668
    81   5 B       89   5 B                                       1.6315559
    88   5 B       89   5 B                                       1.6297687
    82   5 B       90   5 B                                       1.6790013
    89   5 B       90   5 B                                       1.6137557
    88   5 B       91   5 B                                       1.6090492
    89   5 B       91   5 B                                       1.5760217
    90   5 B       92   5 B                                       1.6616145
    82   5 B       93   5 B                                       1.6696664
    90   5 B       93   5 B                                       1.6665140
    92   5 B       93   5 B                                       1.6252007
    86   5 B       94   5 B                                       1.6939546
    93   5 B       94   5 B                                       1.7945985 (max)
    86   5 B       95   5 B                                       1.7827796
    87   5 B       95   5 B                                       1.6111913
    94   5 B       95   5 B                                       1.6734973
    93   5 B       96   5 B                                       1.6238961
    94   5 B       96   5 B                                       1.6561725
    94   5 B       97   5 B                                       1.5977605
    95   5 B       97   5 B                                       1.5449112
    58   5 B       98   1 H                                       1.1722559
    58   5 B       99   1 H                                       1.2888495
    60   5 B      100   1 H                                       1.1794701
    64   5 B      101   1 H                                       1.1892137
    65   5 B      102   1 H                                       1.1802803
    67   5 B      103   1 H                                       1.1823243
    68   5 B      104   1 H                                       1.1715144
    77   5 B      105   1 H                                       1.1775273
    78   5 B      106   1 H                                       1.1718416
    87   5 B      107   1 H                                       1.1852204
    88   5 B      108   1 H                                       1.1716377
    91   5 B      109   1 H                                       1.1648577
    92   5 B      110   1 H                                       1.1709743
    96   5 B      111   1 H                                       1.1720785
    97   5 B      112   1 H                                       1.1676425

 * 6 distinct bonds (by element types)

   Z      Z             #   av. dist./Å        max./Å        min./Å
   1 H    5 B          15     1.1830459     1.2888495     1.1648577
   5 B    5 B          66     1.6461568     1.7945985     1.5449112
   1 H    6 C          29     1.0908541     1.1077888     1.0775280
   6 C    6 C          19     1.4430335     1.5391642     1.3785164
   6 C    7 N           3     1.4487929     1.4511049     1.4476319
   6 C    8 O           5     1.3529776     1.4062823     1.2279073


optimized geometry written to: xtbopt.xyz


           -------------------------------------------------
          | TOTAL ENERGY             -137.542172855374 Eh   |
          | GRADIENT NORM               0.001975035746 Eh/α |
          | HOMO-LUMO GAP               0.057058950394 eV   |
           -------------------------------------------------

------------------------------------------------------------------------
 * finished run on 2026/09/02 at 15:24:19.696     
------------------------------------------------------------------------
 total:
 * wall-time:     0 d,  0 h,  0 min, 37.460 sec
 *  cpu-time:     0 d,  0 h,  2 min,  2.422 sec
 * ratio c/w:     3.268 speedup
 SCF:
 * wall-time:     0 d,  0 h,  0 min,  1.001 sec
 *  cpu-time:     0 d,  0 h,  0 min,  3.016 sec
 * ratio c/w:     3.013 speedup
 ANC optimizer:
 * wall-time:     0 d,  0 h,  0 min, 36.366 sec
 *  cpu-time:     0 d,  0 h,  1 min, 59.188 sec
 * ratio c/w:     3.277 speedup

