      -----------------------------------------------------------      
     |                   =====================                   |     
     |                           x T B                           |     
     |                   =====================                   |     
     |                         S. Grimme                         |     
     |          Mulliken Center for Theoretical Chemistry        |     
     |                    University of Bonn                     |     
      -----------------------------------------------------------      

   * xtb version 6.7.1pre (5071a88) compiled by 'Marcel@Raven' on 2024-07-23

   xtb is free software: you can redistribute it and/or modify it under
   the terms of the GNU Lesser General Public License as published by
   the Free Software Foundation, either version 3 of the License, or
   (at your option) any later version.
   
   xtb is distributed in the hope that it will be useful,
   but WITHOUT ANY WARRANTY; without even the implied warranty of
   MERCHANTABILITY or FITNESS FOR A PARTICULAR PURPOSE.  See the
   GNU Lesser General Public License for more details.
   
   Cite this work as:
   * C. Bannwarth, E. Caldeweyher, S. Ehlert, A. Hansen, P. Pracht,
     J. Seibert, S. Spicher, S. Grimme, WIREs Comput. Mol. Sci., 2020, 11,
     e01493. DOI: 10.1002/wcms.1493
   
   for GFN2-xTB:
   * C. Bannwarth, S. Ehlert and S. Grimme., J. Chem. Theory Comput., 2019,
     15, 1652-1671. DOI: 10.1021/acs.jctc.8b01176
   for GFN1-xTB:
   * S. Grimme, C. Bannwarth, P. Shushkov, J. Chem. Theory Comput., 2017,
     13, 1989-2009. DOI: 10.1021/acs.jctc.7b00118
   for GFN0-xTB:
   * P. Pracht, E. Caldeweyher, S. Ehlert, S. Grimme, ChemRxiv, 2019, preprint.
     DOI: 10.26434/chemrxiv.8326202.v1
   for GFN-FF:
   * S. Spicher and S. Grimme, Angew. Chem. Int. Ed., 2020, 59, 15665-15673.
     DOI: 10.1002/anie.202004239
   
   for ALPB and GBSA implicit solvation:
   * S. Ehlert, M. Stahn, S. Spicher, S. Grimme, J. Chem. Theory Comput.,
     2021, 17, 4250-4261. DOI: 10.1021/acs.jctc.1c00471
   
   for ddCOSMO and CPCM-X implicit solvation:
   * M. Stahn, S. Ehlert, S. Grimme, J. Phys. Chem. A,
     2023, XX, XXXX-XXXX. DOI: 10.1021/acs.jpca.3c04382
   
   for DFT-D4:
   * E. Caldeweyher, C. Bannwarth and S. Grimme, J. Chem. Phys., 2017,
     147, 034112. DOI: 10.1063/1.4993215
   * E. Caldeweyher, S. Ehlert, A. Hansen, H. Neugebauer, S. Spicher,
     C. Bannwarth and S. Grimme, J. Chem. Phys., 2019, 150, 154122.
     DOI: 10.1063/1.5090222
   * E. Caldeweyher, J.-M. Mewes, S. Ehlert and S. Grimme, Phys. Chem. Chem. Phys.
     2020, 22, 8499-8512. DOI: 10.1039/D0CP00502A
   
   for sTDA-xTB:
   * S. Grimme and C. Bannwarth, J. Chem. Phys., 2016, 145, 054103.
     DOI: 10.1063/1.4959605
   
   in the mass-spec context:
   * V. Asgeirsson, C. Bauer and S. Grimme, Chem. Sci., 2017, 8, 4879.
     DOI: 10.1039/c7sc00601b
   * J. Koopman and S. Grimme, ACS Omega 2019, 4, 12, 15120-15133.
     DOI: 10.1021/acsomega.9b02011
   
   for metadynamics refer to:
   * S. Grimme, J. Chem. Theory Comput., 2019, 155, 2847-2862
     DOI: 10.1021/acs.jctc.9b00143
   
   for SPH calculations refer to:
   * S. Spicher and S. Grimme, J. Chem. Theory Comput., 2021, 17, 1701-1714
     DOI: 10.1021/acs.jctc.0c01306
   
   for ONIOM refer to:
   * C. Plett, A. Katbashev, S. Ehlert, S. Grimme, M. Bursch,
     Phys. Chem. Chem. Phys., 2023, 25, 17860-17868. DOI: 10.1039/D3CP02178E
   
   for DIPRO refer to:
   * J. Kohn, N. Gildemeister, S. Grimme, D. Fazzi, A. Hansen,
     J. Chem. Phys., 2023, just accepted.
   
   for PTB refer to:
   * S. Grimme, M. Mueller, A. Hansen, J. Chem. Phys., 2023, 158, 124111.
     DOI: 10.1063/5.0137838
   
   with help from (in alphabetical order)
   P. Atkinson, C. Bannwarth, F. Bohle, G. Brandenburg, E. Caldeweyher
   M. Checinski, S. Dohm, S. Ehlert, S. Ehrlich, I. Gerasimov, C. Hölzer
   A. Katbashev, J. Kohn, J. Koopman, C. Lavigne, S. Lehtola, F. März, M. Müller,
   F. Musil, H. Neugebauer, J. Pisarek, C. Plett, P. Pracht, F. Pultar,
   J. Seibert, P. Shushkov, S. Spicher, M. Stahn, M. Steiner, T. Strunk,
   J. Stückrath, T. Rose, and J. Unsleber
   
 * started run on 2026/08/31 at 21:15:51.170     
   ID    Z sym.   atoms
    1    6 C      1, 3-8, 10, 11, 13-17, 19-28
    2    8 O      2, 9, 12
    3    7 N      18
    4    1 H      29-57, 111-117
    5    5 B      58-110

           -------------------------------------------------
          |                Calculation Setup                |
           -------------------------------------------------

          program call               : "c:\Users\Andre\Proyectos doctorado\kras-pancreatic-gC3N4-ai\tools\xtb\xtb-6.7.1\bin\xtb.exe" "c:\Users\Andre\Proyectos doctorado\borophene-alzheimer-tau-ai\calculations\tau\Donepezil\Donepezil_B48H12_phys_complex.xyz" --gfn 2 --sp --chrg 0 --uhf 0 --etemp 300 --iterations 500 --norestart
          coordinate file            : c:\Users\Andre\Proyectos doctorado\borophene-alzheimer-tau-ai\calculations\tau\Donepezil\Donepezil_B48H12_phys_complex.xyz
          omp threads                :                    16


molecular fragmentation (1/2 indicates fragments):
111111111111111111111111111111111111111111111111111111111222222222222222
222222222222222222222222222222222222222222222
# atoms in fragment 1/2:    57    60
 fragment masses (1/2) :      379.49      580.04
CMA distance (Bohr)    :   9.840
constraining FC (au)   :  0.0500

           -------------------------------------------------
          |                 G F N 2 - x T B                 |
           -------------------------------------------------

        Reference                      10.1021/acs.jctc.8b01176
      * Hamiltonian:
        H0-scaling (s, p, d)           1.850000    2.230000    2.230000
        zeta-weighting                 0.500000
      * Dispersion:
        s8                             2.700000
        a1                             0.520000
        a2                             5.000000
        s9                             5.000000
      * Repulsion:
        kExp                           1.500000    1.000000
        rExp                           1.000000
      * Coulomb:
        alpha                          2.000000
        third order                    shell-resolved
        anisotropic                    true
        a3                             3.000000
        a5                             4.000000
        cn-shift                       1.200000
        cn-exp                         4.000000
        max-rad                        5.000000


          ...................................................
          :                      SETUP                      :
          :.................................................:
          :  # basis functions                 360          :
          :  # atomic orbitals                 360          :
          :  # shells                          198          :
          :  # electrons                       314          :
          :  max. iterations                   500          :
          :  Hamiltonian                  GFN2-xTB          :
          :  restarted?                      false          :
          :  GBSA solvation                  false          :
          :  PC potential                    false          :
          :  electronic temp.          300.0000000     K    :
          :  accuracy                    1.0000000          :
          :  -> integral cutoff          0.2500000E+02      :
          :  -> integral neglect         0.1000000E-07      :
          :  -> SCF convergence          0.1000000E-05 Eh   :
          :  -> wf. convergence          0.1000000E-03 e    :
          :  Broyden damping             0.4000000          :
          :  net charge                          0          :
          :  unpaired electrons                  0          :
          ...................................................

 iter      E             dE          RMSdq      gap      omega  full diag
   1   -150.2635639 -0.150264E+03  0.139E+01    0.21       0.0  T
   2   -139.2448039  0.110188E+02  0.963E+00    0.12       1.0  T
   3     90.8451025  0.230090E+03  0.189E+01    0.11       1.0  T
   4    -23.7697981 -0.114615E+03  0.140E+01    0.10       1.0  T
   5    -99.3005640 -0.755308E+02  0.942E+00    0.03       1.0  T
   6    -58.2633025  0.410373E+02  0.109E+01    0.06       1.0  T
   7   -124.7576661 -0.664944E+02  0.694E+00    0.10       1.0  T
   8   -138.1821495 -0.134245E+02  0.475E+00    0.08       1.0  T
   9   -146.1261108 -0.794396E+01  0.413E+00    0.11       1.0  T
  10   -150.4408219 -0.431471E+01  0.278E+00    0.16       1.0  T
  11   -150.8248063 -0.383984E+00  0.255E+00    0.36       1.0  T
  12   -151.0357776 -0.210971E+00  0.231E+00    0.41       1.0  T
  13   -151.0063740  0.294036E-01  0.216E+00    0.38       1.0  T
  14   -151.0190495 -0.126755E-01  0.179E+00    0.42       1.0  T
  15   -150.9898749  0.291747E-01  0.114E+00    0.24       1.0  T
  16   -150.5556881  0.434187E+00  0.141E+00    0.12       1.0  T
  17   -151.0349918 -0.479304E+00  0.912E-01    0.14       1.0  T
  18   -150.3658893  0.669102E+00  0.151E+00    0.19       1.0  T
  19   -150.9163316 -0.550442E+00  0.988E-01    0.08       1.0  T
  20   -151.1569230 -0.240591E+00  0.632E-01    0.20       1.0  T
  21   -151.1802919 -0.233688E-01  0.569E-01    0.21       1.0  T
  22   -151.1871846 -0.689273E-02  0.528E-01    0.20       1.0  T
  23   -151.1912109 -0.402624E-02  0.452E-01    0.18       1.0  T
  24   -151.2042381 -0.130272E-01  0.244E-01    0.13       1.0  T
  25   -151.2008502  0.338789E-02  0.167E-01    0.19       1.0  T
  26   -151.1989401  0.191008E-02  0.157E-01    0.17       1.0  T
  27   -151.1992547 -0.314588E-03  0.153E-01    0.18       1.0  T
  28   -151.2034131 -0.415844E-02  0.118E-01    0.13       1.0  T
  29   -151.2041340 -0.720909E-03  0.125E-01    0.12       1.0  T
  30   -151.2044378 -0.303758E-03  0.117E-01    0.12       1.0  T
  31   -151.2060766 -0.163879E-02  0.795E-02    0.12       1.0  T
  32   -151.2070503 -0.973712E-03  0.376E-02    0.13       1.0  T
  33   -151.2070934 -0.430712E-04  0.367E-02    0.13       1.0  T
  34   -151.2072289 -0.135551E-03  0.268E-02    0.13       1.0  T
  35   -151.2072121  0.168135E-04  0.270E-02    0.13       1.0  T
  36   -151.2072372 -0.250957E-04  0.246E-02    0.13       1.0  T
  37   -151.2073288 -0.915659E-04  0.149E-02    0.13       1.0  T
  38   -151.2073639 -0.351215E-04  0.682E-03    0.13       1.4  T
  39   -151.2073685 -0.459103E-05  0.371E-03    0.13       2.5  T
  40   -151.2073690 -0.530778E-06  0.333E-03    0.13       2.8  T
  41   -151.2073690  0.671609E-07  0.307E-03    0.13       3.0  T
  42   -151.2073691 -0.140852E-06  0.265E-03    0.13       3.5  T
  43   -151.2073687  0.426037E-06  0.267E-03    0.13       3.5  T
  44   -151.2073688 -0.124911E-06  0.248E-03    0.13       3.7  T
  45   -151.2073690 -0.224617E-06  0.226E-03    0.13       4.1  T
  46   -151.2073692 -0.193826E-06  0.204E-03    0.13       4.5  T
  47   -151.2073696 -0.379160E-06  0.161E-03    0.13       5.7  T
  48   -151.2073697 -0.615468E-07  0.153E-03    0.13       6.0  T
  49   -151.2073698 -0.134859E-06  0.136E-03    0.13       6.8  T
  50   -151.2073700 -0.187470E-06  0.107E-03    0.13       8.6  T
  51   -151.2073702 -0.174551E-06  0.689E-04    0.13      13.4  T
  52   -151.2073702 -0.484975E-07  0.529E-04    0.13      17.5  T

   *** convergence criteria satisfied after 52 iterations ***

         #    Occupation            Energy/Eh            Energy/eV
      -------------------------------------------------------------
         1        2.0000           -0.6931747             -18.8622
       ...           ...                  ...                  ...
       151        2.0000           -0.2636978              -7.1756
       152        2.0000           -0.2586125              -7.0372
       153        2.0000           -0.2577795              -7.0145
       154        2.0000           -0.2536288              -6.9016
       155        2.0000           -0.2494913              -6.7890
       156        1.9999           -0.2479256              -6.7464
       157        1.8575           -0.2407030              -6.5499 (HOMO)
       158        0.1425           -0.2358243              -6.4171 (LUMO)
       159        0.0000           -0.2239057              -6.0928
       160                         -0.2208336              -6.0092
       161                         -0.2166431              -5.8952
       162                         -0.2135400              -5.8107
       ...                                ...                  ...
       360                          1.1991009              32.6292
      -------------------------------------------------------------
                  HL-Gap            0.0048787 Eh            0.1328 eV
             Fermi-level           -0.2382633 Eh           -6.4835 eV

 SCC (total)                   0 d,  0 h,  0 min,  1.175 sec
 SCC setup                      ...        0 min,  0.001 sec (  0.085%)
 Dispersion                     ...        0 min,  0.003 sec (  0.255%)
 classical contributions        ...        0 min,  0.000 sec (  0.000%)
 integral evaluation            ...        0 min,  0.009 sec (  0.766%)
 iterations                     ...        0 min,  1.132 sec ( 96.340%)
 molecular gradient             ...        0 min,  0.028 sec (  2.383%)
 printout                       ...        0 min,  0.002 sec (  0.170%)

         :::::::::::::::::::::::::::::::::::::::::::::::::::::
         ::                     SUMMARY                     ::
         :::::::::::::::::::::::::::::::::::::::::::::::::::::
         :: total energy            -148.996068323784 Eh    ::
         :: gradient norm              0.063501455994 Eh/a0 ::
         :: HOMO-LUMO gap              0.132756986942 eV    ::
         ::.................................................::
         :: SCC energy              -151.200826096387 Eh    ::
         :: -> isotropic ES            0.305682884003 Eh    ::
         :: -> anisotropic ES          0.007599536452 Eh    ::
         :: -> anisotropic XC         -0.018653961688 Eh    ::
         :: -> dispersion             -0.153232519362 Eh    ::
         :: repulsion energy           2.204757772603 Eh    ::
         :: add. restraining           0.000000000000 Eh    ::
         :: total charge               0.000000000004 e     ::
         :::::::::::::::::::::::::::::::::::::::::::::::::::::

           -------------------------------------------------
          |                Property Printout                |
           -------------------------------------------------

    * Orbital Energies and Occupations

         #    Occupation            Energy/Eh            Energy/eV
      -------------------------------------------------------------
         1        2.0000           -0.6931747             -18.8622
       ...           ...                  ...                  ...
       145        2.0000           -0.2793432              -7.6013
       146        2.0000           -0.2773555              -7.5472
       147        2.0000           -0.2729097              -7.4263
       148        2.0000           -0.2701929              -7.3523
       149        2.0000           -0.2686780              -7.3111
       150        2.0000           -0.2653401              -7.2203
       151        2.0000           -0.2636978              -7.1756
       152        2.0000           -0.2586125              -7.0372
       153        2.0000           -0.2577795              -7.0145
       154        2.0000           -0.2536288              -6.9016
       155        2.0000           -0.2494913              -6.7890
       156        1.9999           -0.2479256              -6.7464
       157        1.8575           -0.2407030              -6.5499 (HOMO)
       158        0.1425           -0.2358243              -6.4171 (LUMO)
       159        0.0000           -0.2239057              -6.0928
       160                         -0.2208336              -6.0092
       161                         -0.2166431              -5.8952
       162                         -0.2135400              -5.8107
       163                         -0.2130216              -5.7966
       164                         -0.2074905              -5.6461
       165                         -0.2062164              -5.6114
       166                         -0.2032504              -5.5307
       167                         -0.1983023              -5.3961
       168                         -0.1956591              -5.3242
       ...                                ...                  ...
       360                          1.1991009              32.6292
      -------------------------------------------------------------
                  HL-Gap            0.0048787 Eh            0.1328 eV
             Fermi-level           -0.2382633 Eh           -6.4835 eV

     #   Z          covCN         q      C6AA      α(0)
     1   6 C        3.639     0.031    20.406     6.497
     2   8 O        1.703    -0.265    18.398     5.791
     3   6 C        2.857     0.111    25.556     8.286
     4   6 C        2.912    -0.090    30.256     9.020
     5   6 C        3.029    -0.015    28.359     8.735
     6   6 C        3.007    -0.052    29.276     8.876
     7   6 C        2.907    -0.082    30.043     8.988
     8   6 C        2.862     0.112    25.520     8.280
     9   8 O        1.703    -0.269    18.463     5.801
    10   6 C        3.640     0.026    20.503     6.512
    11   6 C        2.878     0.183    24.091     8.046
    12   8 O        0.857    -0.444    22.581     6.371
    13   6 C        3.871    -0.071    21.817     6.642
    14   6 C        3.802    -0.073    21.891     6.661
    15   6 C        3.848    -0.060    21.614     6.613
    16   6 C        3.801    -0.073    21.890     6.661
    17   6 C        3.755    -0.007    20.762     6.497
    18   7 N        2.724    -0.176    24.807     7.397
    19   6 C        3.756    -0.005    20.713     6.489
    20   6 C        2.959     0.008    27.839     8.654
    21   6 C        2.914    -0.042    29.037     8.836
    22   6 C        2.910    -0.034    28.855     8.808
    23   6 C        2.912    -0.036    28.897     8.815
    24   6 C        2.910    -0.038    28.936     8.821
    25   6 C        2.914    -0.044    29.100     8.846
    26   6 C        3.752     0.008    20.501     6.457
    27   6 C        3.803    -0.078    21.985     6.675
    28   6 C        3.829    -0.080    22.011     6.675
    29   1 H        0.924     0.043     2.412     2.429
    30   1 H        0.924     0.042     2.429     2.437
    31   1 H        0.924     0.058     2.220     2.330
    32   1 H        0.925     0.034     2.531     2.488
    33   1 H        0.925     0.057     2.230     2.335
    34   1 H        0.924     0.048     2.346     2.395
    35   1 H        0.924     0.045     2.378     2.412
    36   1 H        0.924     0.058     2.217     2.329
    37   1 H        0.924     0.077     2.015     2.220
    38   1 H        0.924     0.028     2.621     2.532
    39   1 H        0.923     0.052     2.299     2.371
    40   1 H        0.923     0.089     1.887     2.148
    41   1 H        0.924     0.041     2.429     2.437
    42   1 H        0.924     0.026     2.642     2.542
    43   1 H        0.923     0.007     2.938     2.681
    44   1 H        0.924     0.045     2.387     2.416
    45   1 H        0.923     0.012     2.864     2.646
    46   1 H        0.923     0.045     2.385     2.415
    47   1 H        0.925     0.026     2.640     2.541
    48   1 H        0.925     0.028     2.618     2.530
    49   1 H        0.925     0.030     2.585     2.514
    50   1 H        0.925     0.040     2.448     2.447
    51   1 H        0.925     0.055     2.264     2.353
    52   1 H        0.923     0.006     2.958     2.690
    53   1 H        0.924     0.029     2.594     2.519
    54   1 H        0.923     0.042     2.427     2.436
    55   1 H        0.924     0.029     2.604     2.524
    56   1 H        0.924     0.050     2.320     2.382
    57   1 H        0.924     0.040     2.444     2.445
    58   5 B        2.872     0.039    20.741     7.602
    59   5 B        3.645     0.023    21.905     7.620
    60   5 B        3.704     0.004    22.504     7.676
    61   5 B        3.599    -0.001    22.046     7.702
    62   5 B        3.804     0.009    22.556     7.658
    63   5 B        3.812     0.036    22.057     7.572
    64   5 B        4.425     0.058    21.690     7.504
    65   5 B        3.843     0.024    22.287     7.609
    66   5 B        5.059     0.046    21.901     7.540
    67   5 B        5.523     0.101    20.953     7.375
    68   5 B        3.792     0.002    22.681     7.680
    69   5 B        4.799     0.084    21.247     7.427
    70   5 B        4.746     0.060    21.657     7.498
    71   5 B        3.691     0.010    22.351     7.657
    72   5 B        3.741     0.011    22.454     7.652
    73   5 B        4.170    -0.019    23.095     7.743
    74   5 B        3.938     0.010    22.563     7.654
    75   5 B        3.779     0.074    21.367     7.456
    76   5 B        3.808     0.063    21.576     7.489
    77   5 B        3.812    -0.012    22.941     7.722
    78   5 B        3.702    -0.001    22.579     7.690
    79   5 B        3.825     0.014    22.468     7.641
    80   5 B        4.691     0.054    21.764     7.517
    81   5 B        4.735     0.044    21.948     7.548
    82   5 B        3.813     0.072    21.419     7.461
    83   5 B        2.071    -0.002    43.102    13.732
    84   5 B        3.706     0.008    22.438     7.663
    85   5 B        4.547     0.025    22.285     7.606
    86   5 B        4.200     0.035    22.094     7.574
    87   5 B        3.748     0.071    21.386     7.466
    88   5 B        3.840    -0.007    22.866     7.707
    89   5 B        3.769     0.016    22.403     7.636
    90   5 B        4.530     0.065    21.569     7.483
    91   5 B        5.624     0.104    20.906     7.367
    92   5 B        3.805     0.040    21.983     7.559
    93   5 B        3.825     0.012    22.511     7.648
    94   5 B        2.886     0.067    20.272     7.515
    95   5 B        2.918     0.038    20.743     7.600
    96   5 B        2.913     0.014    21.163     7.677
    97   5 B        3.630     0.025    21.769     7.615
    98   5 B        3.792     0.017    22.390     7.631
    99   5 B        2.860    -0.006    21.532     7.747
   100   5 B        2.920    -0.040    22.120     7.848
   101   5 B        3.825     0.010    22.533     7.652
   102   5 B        2.901    -0.038    22.099     7.845
   103   5 B        4.532     0.039    22.023     7.561
   104   5 B        3.896     0.033    22.137     7.582
   105   5 B        3.818     0.013    22.474     7.642
   106   5 B        3.778    -0.039    23.439     7.809
   107   5 B        3.628    -0.018    22.548     7.751
   108   5 B        4.556     0.047    21.884     7.537
   109   5 B        3.280     0.024    20.969     7.637
   110   5 B        4.869     0.086    21.206     7.420
   111   1 H        0.937    -0.181     9.499     4.819
   112   1 H        0.935    -0.149     7.638     4.321
   113   1 H        0.936    -0.145     7.414     4.257
   114   1 H        0.939    -0.159     8.173     4.470
   115   1 H        0.936    -0.145     7.424     4.260
   116   1 H        0.937    -0.147     7.532     4.291
   117   1 H        0.934    -0.145     7.449     4.267

 Mol. C6AA /au·bohr⁶  :     204698.858060
 Mol. C8AA /au·bohr⁸  :    6392383.880945
 Mol. α(0) /au        :        721.584767


Wiberg/Mayer (AO) data.
largest (>0.10) Wiberg bond orders for each atom

 ---------------------------------------------------------------------------
     #   Z sym  total        # sym  WBO       # sym  WBO       # sym  WBO
 ---------------------------------------------------------------------------
     1   6 C    3.949 --     2 O    0.988    31 H    0.980    30 H    0.977
                            29 H    0.977
     2   8 O    2.204 --     3 C    1.050     1 C    0.988
     3   6 C    3.852 --     4 C    1.365     8 C    1.264     2 O    1.050
     4   6 C    3.970 --     5 C    1.427     3 C    1.365    32 H    0.965
     5   6 C    3.946 --     4 C    1.427     6 C    1.322    28 C    1.014
     6   6 C    3.952 --     7 C    1.324     5 C    1.322    11 C    1.092
     7   6 C    3.927 --     8 C    1.421     6 C    1.324    33 H    0.962
     8   6 C    3.930 --     7 C    1.421     3 C    1.264     9 O    1.050
     9   8 O    2.216 --     8 C    1.050    10 C    0.986
    10   6 C    3.946 --     9 O    0.986    36 H    0.980    35 H    0.977
                            34 H    0.977
    11   6 C    3.836 --    12 O    1.663     6 C    1.092    13 C    0.965
    12   8 O    1.922 --    11 C    1.663
    13   6 C    3.987 --    28 C    0.992    14 C    0.987    11 C    0.965
                            37 H    0.923
    14   6 C    3.987 --    15 C    0.994    13 C    0.987    38 H    0.974
                            39 H    0.970
    15   6 C    3.972 --    16 C    1.001    14 C    0.994    27 C    0.991
                            40 H    0.912
    16   6 C    3.995 --    15 C    1.001    17 C    1.000    42 H    0.978
                            41 H    0.973
    17   6 C    3.985 --    16 C    1.000    18 N    0.998    44 H    0.973
                            43 H    0.969
    18   7 N    3.107 --    26 C    1.003    17 C    0.998    19 C    0.995
    19   6 C    3.988 --    20 C    1.004    18 N    0.995    45 H    0.964
                            46 H    0.959
    20   6 C    3.987 --    21 C    1.417    25 C    1.409    19 C    1.004
                            23 C    0.110
    21   6 C    3.991 --    22 C    1.440    20 C    1.417    47 H    0.970
                            24 C    0.110
    22   6 C    3.992 --    23 C    1.441    21 C    1.440    48 H    0.972
                            25 C    0.113
    23   6 C    3.991 --    22 C    1.441    24 C    1.436    49 H    0.971
                            20 C    0.110
    24   6 C    3.991 --    25 C    1.449    23 C    1.436    50 H    0.971
                            21 C    0.110
    25   6 C    3.989 --    24 C    1.449    20 C    1.409    51 H    0.968
                            22 C    0.113
    26   6 C    3.988 --    18 N    1.003    27 C    1.001    53 H    0.974
                            52 H    0.968
    27   6 C    3.994 --    26 C    1.001    15 C    0.991    54 H    0.980
                            55 H    0.976
    28   6 C    3.996 --     5 C    1.014    13 C    0.992    57 H    0.965
                            56 H    0.960
    29   1 H    0.997 --     1 C    0.977
    30   1 H    0.997 --     1 C    0.977
    31   1 H    0.996 --     1 C    0.980
    32   1 H    0.998 --     4 C    0.965
    33   1 H    0.996 --     7 C    0.962
    34   1 H    0.998 --    10 C    0.977
    35   1 H    0.998 --    10 C    0.977
    36   1 H    0.996 --    10 C    0.980
    37   1 H    0.988 --    13 C    0.923
    38   1 H    0.998 --    14 C    0.974
    39   1 H    0.997 --    14 C    0.970
    40   1 H    0.992 --    15 C    0.912
    41   1 H    0.998 --    16 C    0.973
    42   1 H    0.998 --    16 C    0.978
    43   1 H    1.000 --    17 C    0.969
    44   1 H    0.998 --    17 C    0.973
    45   1 H    1.000 --    19 C    0.964
    46   1 H    0.998 --    19 C    0.959
    47   1 H    0.999 --    21 C    0.970
    48   1 H    0.999 --    22 C    0.972
    49   1 H    0.999 --    23 C    0.971
    50   1 H    0.998 --    24 C    0.971
    51   1 H    0.997 --    25 C    0.968
    52   1 H    1.000 --    26 C    0.968
    53   1 H    0.999 --    26 C    0.974
    54   1 H    0.998 --    27 C    0.980
    55   1 H    0.998 --    27 C    0.976
    56   1 H    0.995 --    28 C    0.960
    57   1 H    0.996 --    28 C    0.965
    58   5 B    3.492 --   100 B    1.435   111 H    0.956    64 B    0.840
    59   5 B    3.505 --   100 B    1.123   101 B    0.991    65 B    0.559
                            64 B    0.507
    60   5 B    3.510 --   102 B    1.279   101 B    1.016    67 B    0.485
                            66 B    0.448
    61   5 B    3.475 --   102 B    1.292    62 B    1.017    67 B    0.562
                           103 B    0.358
    62   5 B    3.534 --   104 B    1.096    61 B    1.017    68 B    0.684
                           103 B    0.483
    63   5 B    3.596 --   115 H    0.940   104 B    0.857    75 B    0.809
                            69 B    0.801
    64   5 B    3.619 --    58 B    0.840    70 B    0.835   100 B    0.791
                            59 B    0.507    71 B    0.389
    65   5 B    3.574 --    71 B    1.109   101 B    0.773    66 B    0.688
                            59 B    0.559
    66   5 B    3.592 --    72 B    0.973    65 B    0.688    67 B    0.520
                           101 B    0.503    60 B    0.448    73 B    0.233
    67   5 B    3.599 --    73 B    0.627   103 B    0.617   102 B    0.593
                            61 B    0.562    66 B    0.520    60 B    0.485
    68   5 B    3.594 --    74 B    1.102   103 B    0.921    62 B    0.684
                           104 B    0.506
    69   5 B    3.596 --    75 B    0.844    63 B    0.801    81 B    0.686
                           104 B    0.591    74 B    0.518
    70   5 B    3.620 --    64 B    0.835    76 B    0.753    71 B    0.692
                            77 B    0.559   110 B    0.494
    71   5 B    3.551 --    65 B    1.109    77 B    0.931    70 B    0.692
                            64 B    0.389
    72   5 B    3.459 --    78 B    1.078    66 B    0.973    79 B    0.590
                            73 B    0.417
    73   5 B    3.609 --    79 B    1.114   103 B    0.912    67 B    0.627
                            72 B    0.417    66 B    0.233
    74   5 B    3.545 --    68 B    1.102    80 B    0.831    81 B    0.608
                            69 B    0.518   104 B    0.179
    75   5 B    3.510 --   116 H    0.952    69 B    0.844    63 B    0.809
                            81 B    0.679
    76   5 B    3.529 --   112 H    0.939    82 B    0.834    70 B    0.753
                           110 B    0.731
    77   5 B    3.626 --    83 B    1.268    71 B    0.931    70 B    0.559
                           110 B    0.544
    78   5 B    3.489 --    84 B    1.146    72 B    1.078    79 B    0.554
                            85 B    0.392
    79   5 B    3.567 --    73 B    1.114    85 B    0.966    72 B    0.590
                            78 B    0.554
    80   5 B    3.582 --    86 B    0.864    74 B    0.831    93 B    0.559
                            81 B    0.541    87 B    0.501
    81   5 B    3.606 --    87 B    0.868    69 B    0.686    75 B    0.679
                            74 B    0.608    80 B    0.541
    82   5 B    3.573 --   113 H    0.941    76 B    0.834   110 B    0.774
                            88 B    0.724
    83   5 B    3.414 --    89 B    1.331    77 B    1.268   110 B    0.205
                           105 B    0.157
    84   5 B    3.426 --    78 B    1.146    90 B    1.016    91 B    0.510
                            85 B    0.457
    85   5 B    3.577 --    79 B    0.966   108 B    0.773    91 B    0.659
                            84 B    0.457    78 B    0.392
    86   5 B    3.562 --    92 B    1.004    80 B    0.864    93 B    0.635
                            99 B    0.541   109 B    0.320
    87   5 B    3.416 --   117 H    0.925    93 B    0.892    81 B    0.868
                            80 B    0.501
    88   5 B    3.609 --    94 B    1.234    82 B    0.724   105 B    0.714
                           110 B    0.690
    89   5 B    3.572 --    83 B    1.331    95 B    0.686   105 B    0.605
                           106 B    0.576
    90   5 B    3.510 --    84 B    1.016    96 B    0.646   106 B    0.576
                            91 B    0.539   107 B    0.450
    91   5 B    3.608 --    85 B    0.659   108 B    0.628    90 B    0.539
                            97 B    0.521    84 B    0.510   107 B    0.504
    92   5 B    3.533 --   108 B    1.007    86 B    1.004    98 B    0.622
                           109 B    0.520
    93   5 B    3.503 --    99 B    1.229    87 B    0.892    86 B    0.635
                            80 B    0.559
    94   5 B    3.467 --    88 B    1.234   114 H    0.956   105 B    0.854
                            95 B    0.144
    95   5 B    3.404 --   106 B    1.165   105 B    1.107    89 B    0.686
                            94 B    0.144
    96   5 B    3.351 --   107 B    1.214   106 B    1.133    90 B    0.646
    97   5 B    3.374 --   107 B    1.121    98 B    1.077    91 B    0.521
                           108 B    0.391
    98   5 B    3.474 --    97 B    1.077   109 B    1.059    92 B    0.622
                           108 B    0.486
    99   5 B    3.344 --   109 B    1.269    93 B    1.229    86 B    0.541
   100   5 B    3.532 --    58 B    1.435    59 B    1.123    64 B    0.791
   101   5 B    3.532 --    60 B    1.016    59 B    0.991    65 B    0.773
                            66 B    0.503
   102   5 B    3.451 --    61 B    1.292    60 B    1.279    67 B    0.593
   103   5 B    3.562 --    68 B    0.921    73 B    0.912    67 B    0.617
                            62 B    0.483    61 B    0.358
   104   5 B    3.481 --    62 B    1.096    63 B    0.857    69 B    0.591
                            68 B    0.506    74 B    0.179
   105   5 B    3.634 --    95 B    1.107    94 B    0.854    88 B    0.714
                            89 B    0.605    83 B    0.157
   106   5 B    3.621 --    95 B    1.165    96 B    1.133    89 B    0.576
                            90 B    0.576
   107   5 B    3.495 --    96 B    1.214    97 B    1.121    91 B    0.504
                            90 B    0.450
   108   5 B    3.585 --    92 B    1.007    85 B    0.773    91 B    0.628
                            98 B    0.486    97 B    0.391
   109   5 B    3.389 --    99 B    1.269    98 B    1.059    92 B    0.520
                            86 B    0.320
   110   5 B    3.628 --    82 B    0.774    76 B    0.731    88 B    0.690
                            77 B    0.544    70 B    0.494    83 B    0.205
   111   1 H    0.965 --    58 B    0.956
   112   1 H    0.971 --    76 B    0.939
   113   1 H    0.974 --    82 B    0.941
   114   1 H    0.971 --    94 B    0.956
   115   1 H    0.968 --    63 B    0.940
   116   1 H    0.975 --    75 B    0.952
   117   1 H    0.972 --    87 B    0.925
 ---------------------------------------------------------------------------

Topologies differ in total number of bonds
Writing topology from bond orders to xtbtopo.mol

molecular dipole:
                 x           y           z       tot (Debye)
 q only:        0.726       0.268      -0.365
   full:        1.013      -0.210      -0.707       3.184
molecular quadrupole (traceless):
                xx          xy          yy          xz          yz          zz
 q only:      -81.799      12.797      68.058     -35.447     -17.701      13.741
  q+dip:      -56.448     -11.027      26.362     -32.617     -10.804      30.085
   full:      -69.202      -4.641      18.678     -28.759      -8.482      50.524


           -------------------------------------------------
          | TOTAL ENERGY             -148.996068323784 Eh   |
          | GRADIENT NORM               0.063501455994 Eh/α |
          | HOMO-LUMO GAP               0.132756986942 eV   |
           -------------------------------------------------

------------------------------------------------------------------------
 * finished run on 2026/08/31 at 21:15:52.397     
------------------------------------------------------------------------
 total:
 * wall-time:     0 d,  0 h,  0 min,  1.226 sec
 *  cpu-time:     0 d,  0 h,  0 min, 12.797 sec
 * ratio c/w:    10.438 speedup
 SCF:
 * wall-time:     0 d,  0 h,  0 min,  1.176 sec
 *  cpu-time:     0 d,  0 h,  0 min, 12.328 sec
 * ratio c/w:    10.483 speedup

normal termination of xtb
