117
Drug@B48H12 complex
C      7.045327     -2.352987      4.743505
O      7.163907     -1.101219      4.083662
C      6.013282     -0.509808      3.619536
C      4.730355     -1.061190      3.769267
C      3.641690     -0.370785      3.257986
C      3.834709      0.840360      2.614991
C      5.079197      1.419998      2.447297
C      6.187143      0.736758      2.955945
O      7.481279      1.189729      2.863009
C      7.696999      2.431725      2.206983
C      2.540770      1.344783      2.180102
O      2.395947      2.405894      1.598264
C      1.450333      0.349857      2.548540
C      0.343492      1.033333      3.362499
C     -1.027944      0.331688      3.292245
C     -1.046588     -1.079226      3.884075
C     -2.436579     -1.728046      3.769100
N     -3.547542     -0.766589      3.748777
C     -4.811189     -1.428795      4.109243
C     -6.041135     -0.608020      3.780591
C     -7.016533     -0.362118      4.757761
C     -8.159771      0.377376      4.447689
C     -8.342619      0.874189      3.158368
C     -7.383935      0.631670      2.176769
C     -6.241278     -0.107890      2.484831
C     -3.257404      0.393977      4.589042
C     -2.097668      1.200438      3.990670
C      2.200490     -0.766997      3.315626
H      6.634879     -3.115684      4.073635
H      6.447110     -2.263142      5.656143
H      8.049937     -2.673787      5.035566
H      4.564358     -2.006676      4.272319
H      5.150144      2.370878      1.933448
H      7.384547      2.384223      1.158635
H      7.194717      3.249433      2.734229
H      8.771833      2.636396      2.224091
H      1.051132     -0.050353      1.608093
H      0.657990      1.140228      4.408953
H      0.207166      2.057517      2.989628
H     -1.306391      0.252055      2.231663
H     -0.325776     -1.728821      3.378653
H     -0.753125     -1.032686      4.940880
H     -2.539089     -2.442618      4.596589
H     -2.477875     -2.310934      2.840719
H     -4.806424     -1.701726      5.172909
H     -4.911332     -2.367855      3.547882
H     -6.891267     -0.742849      5.768443
H     -8.908324      0.565979      5.212634
H     -9.231791      1.450823      2.918321
H     -7.523106      1.019236      1.171194
H     -5.494831     -0.288534      1.713820
H     -3.010985      0.079520      5.611988
H     -4.118413      1.067579      4.669040
H     -2.489345      1.917055      3.256848
H     -1.649931      1.797667      4.794917
H      1.875617     -0.847529      4.358009
H      2.053840     -1.733503      2.821536
B     -7.500000     -4.500000      0.000000
B     -4.500000     -4.500000      0.000000
B     -1.500000     -4.500000      0.000000
B      1.500000     -4.500000      0.000000
B      4.500000     -4.500000      0.000000
B      7.500000     -4.500000      0.000000
B     -7.500000     -3.000000      0.000000
B     -4.500000     -3.000000      0.000000
B     -1.500000     -3.000000      0.000000
B      1.500000     -3.000000      0.000000
B      4.500000     -3.000000      0.000000
B      7.500000     -3.000000      0.000000
B     -7.500000     -1.500000      0.000000
B     -4.500000     -1.500000      0.000000
B     -1.500000     -1.500000      0.000000
B      1.500000     -1.500000      0.000000
B      4.500000     -1.500000      0.000000
B      7.500000     -1.500000      0.000000
B     -7.500000      0.000000      0.000000
B     -4.500000      0.000000      0.000000
B     -1.500000      0.000000      0.000000
B      1.500000      0.000000      0.000000
B      4.500000      0.000000      0.000000
B      7.500000      0.000000      0.000000
B     -7.500000      1.500000      0.000000
B     -4.500000      1.500000      0.000000
B     -1.500000      1.500000      0.000000
B      1.500000      1.500000      0.000000
B      4.500000      1.500000      0.000000
B      7.500000      1.500000      0.000000
B     -7.500000      3.000000      0.000000
B     -4.500000      3.000000      0.000000
B     -1.500000      3.000000      0.000000
B      1.500000      3.000000      0.000000
B      4.500000      3.000000      0.000000
B      7.500000      3.000000      0.000000
B     -7.500000      4.500000      0.000000
B     -4.500000      4.500000      0.000000
B     -1.500000      4.500000      0.000000
B      1.500000      4.500000      0.000000
B      4.500000      4.500000      0.000000
B      7.500000      4.500000      0.000000
B     -6.000000     -3.750000      0.000000
B     -3.000000     -3.750000      0.000000
B      0.000000     -3.750000      0.000000
B      3.000000     -3.750000      0.000000
B      6.000000     -3.750000      0.000000
B     -6.000000      3.750000      0.000000
B     -3.000000      3.750000      0.000000
B      0.000000      3.750000      0.000000
B      3.000000      3.750000      0.000000
B      6.000000      3.750000      0.000000
B     -6.000000      0.000000      0.000000
H     -8.600000     -4.500000      0.000000
H     -8.600000     -1.500000      0.000000
H     -8.600000      1.500000      0.000000
H     -8.600000      4.500000      0.000000
H      8.600000     -4.500000      0.000000
H      8.600000     -1.500000      0.000000
H      8.600000      1.500000      0.000000
