117
Drug@B48H12 non-overlapping complex
C      7.045327     -2.352987      6.784870
O      7.163907     -1.101219      6.125027
C      6.013282     -0.509808      5.660901
C      4.730355     -1.061190      5.810632
C      3.641690     -0.370785      5.299351
C      3.834709      0.840360      4.656356
C      5.079197      1.419998      4.488662
C      6.187143      0.736758      4.997310
O      7.481279      1.189729      4.904374
C      7.696999      2.431725      4.248348
C      2.540770      1.344783      4.221467
O      2.395947      2.405894      3.639629
C      1.450333      0.349857      4.589905
C      0.343492      1.033333      5.403864
C     -1.027944      0.331688      5.333610
C     -1.046588     -1.079226      5.925440
C     -2.436579     -1.728046      5.810465
N     -3.547542     -0.766589      5.790142
C     -4.811189     -1.428795      6.150608
C     -6.041135     -0.608020      5.821956
C     -7.016533     -0.362118      6.799126
C     -8.159771      0.377376      6.489054
C     -8.342619      0.874189      5.199733
C     -7.383935      0.631670      4.218134
C     -6.241278     -0.107890      4.526196
C     -3.257404      0.393977      6.630407
C     -2.097668      1.200438      6.032035
C      2.200490     -0.766997      5.356991
H      6.634879     -3.115684      6.115000
H      6.447110     -2.263142      7.697508
H      8.049937     -2.673787      7.076931
H      4.564358     -2.006676      6.313684
H      5.150144      2.370878      3.974813
H      7.384547      2.384223      3.200000
H      7.194717      3.249433      4.775594
H      8.771833      2.636396      4.265456
H      1.051132     -0.050353      3.649458
H      0.657990      1.140228      6.450318
H      0.207166      2.057517      5.030993
H     -1.306391      0.252055      4.273028
H     -0.325776     -1.728821      5.420018
H     -0.753125     -1.032686      6.982245
H     -2.539089     -2.442618      6.637954
H     -2.477875     -2.310934      4.882084
H     -4.806424     -1.701726      7.214274
H     -4.911332     -2.367855      5.589247
H     -6.891267     -0.742849      7.809808
H     -8.908324      0.565979      7.253999
H     -9.231791      1.450823      4.959686
H     -7.523106      1.019236      3.212559
H     -5.494831     -0.288534      3.755185
H     -3.010985      0.079520      7.653353
H     -4.118413      1.067579      6.710405
H     -2.489345      1.917055      5.298213
H     -1.649931      1.797667      6.836282
H      1.875617     -0.847529      6.399374
H      2.053840     -1.733503      4.862901
B     -6.351142     -2.854456     -0.339557
B     -3.863246     -3.427578      0.871248
B     -1.055185     -4.165135      1.979350
B      1.685312     -4.231770      1.354949
B      2.970257     -3.692274      0.621871
B      5.907588     -3.848572     -0.380027
B     -4.761208     -2.330720     -0.407809
B     -2.619857     -2.211059      0.844160
B     -1.232659     -2.391074      1.779162
B      0.281426     -3.144602      1.258585
B      3.128005     -2.135340      0.033717
B      5.282428     -2.580677     -1.142740
B     -4.382652     -1.054498     -1.346132
B     -3.192369     -1.268483     -0.239841
B     -0.766749     -0.915069      2.147107
B      0.434070     -1.509850      0.882523
B      4.260331     -1.271884     -0.605716
B      6.845204     -2.475577     -0.806482
B     -5.007204     -0.643659     -2.849649
B     -3.195209      0.154301     -0.925672
B     -0.946947      0.623306      2.210385
B      0.001581     -0.020442      0.908402
B      4.875444      0.224219     -0.547589
B      5.878568     -1.066378     -1.130575
B     -5.767164      0.853536     -2.917565
B     -2.897102      1.628167     -0.708344
B     -1.239865      2.133184      2.088909
B      0.188320      1.549872      1.054031
B      4.258123      1.584106      0.064663
B      6.307532      0.439704     -1.625845
B     -5.734132      1.755409     -1.493813
B     -3.346886      2.973961     -0.174554
B     -1.664632      3.616005      1.797280
B     -0.058970      3.164039      1.323482
B      2.965632      2.258875      0.684366
B      5.791920      1.672515     -0.698507
B     -6.638907      2.799988     -0.842193
B     -4.474576      3.887338      0.587924
B     -1.777076      5.175247      1.215356
B      1.175393      4.406638      1.328978
B      2.593810      3.922874      0.879575
B      5.350926      2.985997     -0.054101
B     -5.318955     -3.634817      0.416463
B     -2.487709     -3.632854      1.605545
B      0.359579     -4.721327      1.906320
B      1.721498     -2.416215      0.734504
B      4.338705     -3.479950     -0.072929
B     -5.095331      2.847233     -0.373491
B     -3.034495      4.318735      0.932612
B     -0.286930      4.895064      1.442591
B      1.461620      2.548192      0.992407
B      4.078380      3.619763      0.510634
B     -4.595730      0.591276     -1.841534
H     -7.368369     -2.502749     -0.810293
H     -4.959065     -1.376034     -3.773890
H     -6.324579      1.260780     -3.871541
H     -7.613398      3.401728     -0.597572
H      6.361232     -4.935383     -0.360239
H      8.016260     -2.468237     -0.906140
H      6.939156      0.614609     -2.612760
