112
 energy: -137.542417800940 gnorm: 0.001092793459 xtb: 6.7.1pre (5071a88)
C           -1.53581539277814       -6.81213755593490        9.12320609395707
O           -0.66554637258655       -6.86111486207697        8.02279476947310
C           -0.36582981624316       -5.69731445144031        7.37953752686248
C           -0.86812933495175       -4.44694852551349        7.72537373160497
C           -0.48566996642107       -3.34135288776579        6.99426520037737
C            0.39302986241593       -3.47091126713024        5.91775430338210
C            0.90687593561118       -4.72379850613173        5.55585275556160
C            0.53059150180785       -5.83131764541203        6.28533441374706
O            0.95486126161414       -7.10596295437736        6.05067829365927
C            1.82558782799826       -7.31846646673514        4.96693578073500
C            0.65722016020017       -2.18586346399113        5.32526200618706
O            1.40567466760930       -1.91859691861171        4.38908839378786
C           -0.17819065206906       -1.13739643042370        6.07292254778868
C            0.72133078500121        0.02183223893064        6.51896070419425
C            0.01203580438810        1.36409696189176        6.72111643650488
C           -0.98946674860376        1.35100547175261        7.87305095898976
C           -1.74494708649606        2.68306821789736        7.92621569294574
N           -0.92993940013348        3.77977283636276        7.43451415602570
C           -1.48353152733790        5.06324476469735        7.81320544696230
C           -0.78749348609137        6.20372118987360        7.12306194776108
C           -0.54656985848015        7.39782934028507        7.78851695362486
C            0.08498297258516        8.44723343777616        7.14286245385141
C            0.49113435864361        8.30779649390422        5.82715350483988
C            0.25549064774687        7.11725910598393        5.15878559190718
C           -0.38554517406780        6.07310047479917        5.79952610993525
C            0.45784264710634        3.60776876155417        7.81163474607898
C            1.05587293502858        2.46331471093280        6.98618735406372
C           -0.88115326046530       -1.90996372125454        7.20238159103221
H           -2.52842045725243       -6.44628946989349        8.83822220734715
H           -1.13637530045946       -6.18477198880939        9.92754481499647
H           -1.61995217993987       -7.83843879118231        9.47734921860472
H           -1.54667957284879       -4.33440759432100        8.55617693313592
H            1.58565941752567       -4.78046373665526        4.72090063385422
H            1.35342806834668       -7.04437714053370        4.01838228461518
H            2.75853193511491       -6.75770114238733        5.08166562685905
H            2.04147865631543       -8.38574346933791        4.96957928495647
H           -0.91030637351052       -0.74052753089479        5.36131552193479
H            1.24169170387780       -0.26303126346471        7.43681508006471
H            1.47660501488999        0.15987621955445        5.74128572115546
H           -0.53460768256157        1.62187361983124        5.81103971097214
H           -1.71186671721060        0.54642006945963        7.75002214149382
H           -0.45681759390329        1.18113181188292        8.81152048714240
H           -2.08245728536075        2.86541413093231        8.96415973708788
H           -2.63588240133546        2.63382045887486        7.29245863591503
H           -1.45418328675257        5.21850080973927        8.90962160694314
H           -2.53751224182088        5.06227264661494        7.51139818075869
H           -0.85538424910785        7.50936613023669        8.81904725627614
H            0.26469675312588        9.37265342028769        7.67112992616486
H            0.99087692536311        9.12434777789279        5.32658430017541
H            0.57125903363762        7.00137423818420        4.13315432553737
H           -0.57327899868899        5.14446886383975        5.28388560578267
H            0.55792951176618        3.40310971855556        8.89322765735300
H            0.99516616072908        4.53452262552187        7.60409810708224
H            1.41007691802130        2.85240063726815        6.03230062676547
H            1.90977121997966        2.04855943588268        7.52520572471416
H           -0.54758996137779       -1.56885107824677        8.18446087197830
H           -1.96694453579293       -1.79921143899022        7.16644407100530
B           -4.81745163114524       -2.42554568401131        0.65490603135889
B           -4.36151570468374       -0.99319315213702        0.14016755054700
B           -3.98969928233346        0.38583265429496       -0.71725667406040
B           -3.30283382463573       -2.42773528010828        0.10617104960860
B           -2.62926028703025        0.49877201998543        0.03597831205683
B           -4.13553899302861        0.48868428890446        1.07367018124581
B           -4.86781432530652        1.34787381890014        2.20830658370980
B           -4.38054294232098        2.81135552038252        2.77628574147784
B           -2.62654592442210        0.38924386359491        1.69385536806071
B           -3.09556510427568        2.78890446871447        3.77843406815966
B           -2.14691020429002       -3.60890650705186       -0.05014245131708
B           -1.71883987028520       -2.07757164690163        0.02259978117234
B           -1.44900405587003       -0.53867552542013        0.54848033602050
B           -0.51546545498430       -3.15611792974998        0.07643407720358
B           -0.02995954427257       -0.34643210336622        1.33077234380833
B           -1.33420070601234       -0.33760180178526        2.36218897907802
B           -1.60805997579173        1.28385730835865        2.63649565728029
B           -1.67468457687281        2.81503951224051        3.04265189627909
B           -0.13528640969836        0.49562512814092        2.93270459043666
B           -0.43539690622499        3.87019589637642        2.98187350763167
B            0.79447143288405       -4.19350664872364        0.16600125006003
B            1.02710182311950       -2.63760478997921        0.48235382648015
B            1.37860735859072       -1.17567494824835        1.02340104846496
B            2.13202670938234       -3.74980676742947        1.02730803084200
B            2.76633626506319       -0.63246748740977        1.65515938930220
B            1.37374529852889        0.08699814579749        2.12537265791140
B            1.25172272445819        1.35457534884353        3.24762786659812
B            0.79101070318412        2.87828024227963        3.04892264136682
B            2.67313892774829        1.09354732193952        2.39393887315727
B            1.60226645370353        2.66474455957629        1.59802728756955
B            3.00605174106008       -4.63263122129301        2.15524247479906
B            3.54232921841182       -3.18894038035234        1.62244488030187
B            4.08600848777306       -1.67183529506925        1.69865731929872
B            4.20660505984853       -3.85543899051126        2.88855073845968
B            5.53509434273565       -0.85646845429732        1.62926219651430
B            4.23492073914410       -0.10582764166304        2.24872428913640
B            4.25899609919612        1.66327933149710        2.57378881980179
B            3.20810888449516        2.65728684217489        1.72785869026608
B            5.61784611676043        0.72627983296129        2.41831292609772
B            4.69801426423543        3.03406601037615        1.88332014657663
H           -5.42712493755397       -3.12848165370498        1.36813138626467
H           -5.56272813273780       -1.61397294329722       -0.02235111277772
H           -4.64369152965611        0.82779047121541       -1.59340395020062
H           -5.75125253019322        0.84522514271123        2.82682852555243
H           -5.00971887736203        3.78139645571485        2.53949356237333
H           -3.28005680313854        2.59685938399616        4.92868761169955
H           -2.41822553016333       -4.72854352670908       -0.26235355579107
H           -0.48856161826085        5.02664221056528        2.76536209012296
H            0.73035603329647       -5.24964483093651       -0.33804203818667
H            1.03904197928953        2.56322698971689        0.56043946168243
H            2.68625506587691       -5.72583626876718        2.42893575358069
H            4.99644909399204       -3.86156178047988        3.74463026854872
H            6.58078720641746       -1.28205793073180        1.31887472835988
H            6.67958859297568        0.98480414377454        2.84303654098361
H            5.61278228869489        3.73995295704617        1.71608568157073
