117
Donepezil 90 deg
C      2.352987      7.045327      8.533328
O      1.101219      7.163907      7.873485
C      0.509808      6.013282      7.409359
C      1.061190      4.730355      7.559090
C      0.370785      3.641690      7.047809
C     -0.840360      3.834709      6.404814
C     -1.419998      5.079197      6.237120
C     -0.736758      6.187143      6.745768
O     -1.189729      7.481279      6.652832
C     -2.431725      7.696999      5.996806
C     -1.344783      2.540770      5.969925
O     -2.405894      2.395947      5.388087
C     -0.349857      1.450333      6.338363
C     -1.033333      0.343492      7.152322
C     -0.331688     -1.027944      7.082068
C      1.079226     -1.046588      7.673898
C      1.728046     -2.436579      7.558923
N      0.766589     -3.547542      7.538600
C      1.428795     -4.811189      7.899066
C      0.608020     -6.041135      7.570414
C      0.362118     -7.016533      8.547584
C     -0.377376     -8.159771      8.237512
C     -0.874189     -8.342619      6.948191
C     -0.631670     -7.383935      5.966592
C      0.107890     -6.241278      6.274654
C     -0.393977     -3.257404      8.378865
C     -1.200438     -2.097668      7.780493
C      0.766997      2.200490      7.105449
H      3.115684      6.634879      7.863458
H      2.263142      6.447110      9.445966
H      2.673787      8.049937      8.825389
H      2.006676      4.564358      8.062142
H     -2.370878      5.150144      5.723271
H     -2.384223      7.384547      4.948458
H     -3.249433      7.194717      6.524052
H     -2.636396      8.771833      6.013914
H      0.050353      1.051132      5.397916
H     -1.140228      0.657990      8.198776
H     -2.057517      0.207166      6.779451
H     -0.252055     -1.306391      6.021486
H      1.728821     -0.325776      7.168476
H      1.032686     -0.753125      8.730703
H      2.442618     -2.539089      8.386412
H      2.310934     -2.477875      6.630542
H      1.701726     -4.806424      8.962732
H      2.367855     -4.911332      7.337705
H      0.742849     -6.891267      9.558266
H     -0.565979     -8.908324      9.002457
H     -1.450823     -9.231791      6.708144
H     -1.019236     -7.523106      4.961017
H      0.288534     -5.494831      5.503643
H     -0.079520     -3.010985      9.401811
H     -1.067579     -4.118413      8.458863
H     -1.917055     -2.489345      7.046671
H     -1.797667     -1.649931      8.584740
H      0.847529      1.875617      8.147832
H      1.733503      2.053840      6.611359
B     -6.925574     -4.651113      0.258651
B     -5.109772     -2.249293      0.322202
B     -3.591500     -2.181365      0.212799
B      0.999259     -2.875448      0.063787
B      2.475853     -3.012223     -0.270859
B      5.299353     -3.831373     -0.667177
B      6.318286     -4.835948     -1.155795
B     -6.434811     -3.158276      0.286374
B     -6.751986     -1.633834      0.316446
B     -2.052572     -2.317325      0.334938
B     -0.484105     -2.461901      0.257444
B      4.018432     -2.901059     -0.287234
B      5.753195     -2.281523     -0.302825
B      6.830072     -3.228788     -1.092903
B     -7.656446     -0.254969      0.343088
B     -6.037404     -0.139472      0.191282
B     -4.431555     -0.535693      0.223935
B     -2.737864     -0.660395      0.328987
B     -1.051797     -0.915695      0.641867
B      0.517067     -1.172154      0.725732
B      3.123140     -1.483076     -0.063477
B      4.700072     -1.133969      0.340157
B      6.266701     -0.787165      0.251702
B      7.671979     -0.351666      1.032714
B     -6.918082      1.212094      0.191543
B     -3.418449      0.780084      0.080928
B     -1.654248      0.532626      0.123936
B      1.862187     -0.403738      0.324587
B      3.584717     -0.150377      0.785151
B      6.990973      0.611062     -0.106825
B      8.307368      1.062865      0.631577
B     -7.619446      2.804022      0.298592
B     -6.123847      2.518506     -0.176534
B     -3.588598      2.327656     -0.236793
B     -0.906130      1.819502     -0.419754
B      1.623430      1.019912     -0.410817
B      3.010841      1.309010      0.529678
B      6.372866      1.858188     -0.915986
B     -6.527660      4.045620     -0.160807
B     -4.873588      3.494810     -0.388449
B     -3.415521      3.880123     -0.606384
B     -2.023468      3.220559     -0.676715
B     -0.497363      3.279553     -0.896985
B      0.710715      2.332441     -0.745678
B      2.335338      2.478091     -0.475438
B      3.816082      2.619470     -0.094099
B      5.369811      2.864588     -0.148865
B      6.055136      4.080007      0.631212
H      6.204101      5.147675      0.146336
H      8.218389     -1.121032      1.726840
H      6.622436      1.981791     -2.067388
H     -7.089961     -5.250634     -0.753775
H     -6.791161      5.181470     -0.285186
H      9.156919      1.846573      0.789984
H     -8.827690     -0.375757      0.328558
H      6.783879     -5.868988     -1.446538
H     -8.724710      3.001220      0.638842
H      7.891803     -2.883539     -1.473727
H      6.428164      3.999644      1.748458
H     -7.224878     -5.282314      1.218688
