117
 energy: -145.596170524184 gnorm: 0.005624717656 xtb: 6.7.1pre (5071a88)
C           -2.15045540086994       -7.01139204544866        8.53683664518524
O           -0.91998231814996       -7.06832506075442        7.86146957487475
C           -0.42114121743503       -5.91343909740238        7.33608386263489
C           -0.99907127605046       -4.65917558439498        7.50517679434821
C           -0.41316500003957       -3.55839160300295        6.91737104776047
C            0.74231586629409       -3.68839666007278        6.14660769930145
C            1.34181393401353       -4.94298393112274        5.98060391581063
C            0.77164024726481       -6.04850920910814        6.57768547276488
O            1.26476496030264       -7.31905243602713        6.49873877079967
C            2.48900112295355       -7.50868980660971        5.83514214744065
C            1.14127763124864       -2.40676429570357        5.61026592957805
O            2.07721773544898       -2.14033849544147        4.86954539087977
C            0.14541385677921       -1.35171709560337        6.13498904604310
C            0.91723538086161       -0.25393923579717        6.87514392930139
C            0.20491351889969        1.09877113013933        6.97045996704963
C           -1.09394894651940        1.04812472310469        7.77054232316734
C           -1.81234289818906        2.40075329345657        7.70435277617424
N           -0.87574438152732        3.49975320637881        7.54001999732786
C           -1.49944410003140        4.77106870096377        7.85857764340957
C           -0.59949170021407        5.92746688478887        7.52156946103100
C           -0.37489927888657        6.94706608057468        8.43537973798225
C            0.46689129725030        8.00020208737015        8.12188975956789
C            1.09690448426928        8.03923008220803        6.89135541948793
C            0.87465337438050        7.02703550894121        5.97147084678851
C            0.02899357604086        5.97943241545596        6.28323117147767
C            0.33925926634069        3.25803380678157        8.29405881402930
C            1.13624220254618        2.13133011666593        7.62691701197844
C           -0.86237849235842       -2.13154642237334        6.99586257315128
H           -2.94387527019094       -6.61333598975860        7.89545052575244
H           -2.08593504287005       -6.40827255301646        9.44893416966011
H           -2.38858438743300       -8.04032664773244        8.80583166169560
H           -1.89605455323766       -4.53911822525510        8.09180952721015
H            2.23876752419375       -5.01229578047086        5.38899012965888
H            2.41449706433255       -7.26361023640325        4.77083599821314
H            3.28810792576011       -6.91342866830052        6.28873679529438
H            2.72071640357996       -8.56748273562933        5.94513871968907
H           -0.34512992685715       -0.90191150624782        5.26622640894060
H            1.16266115593470       -0.61031654005442        7.87941510039719
H            1.85927039043092       -0.10029560609829        6.34130210079227
H           -0.03847128661641        1.44089361390930        5.96014056831645
H           -1.76027411968577        0.28189595382824        7.38052729089829
H           -0.86013367747890        0.79628899170159        8.80720531364451
H           -2.42703150871221        2.52860143352134        8.61808986111644
H           -2.49415134387310        2.42570309290839        6.84334833016665
H           -1.79371287192004        4.82672443254017        8.92445909171755
H           -2.41647717208249        4.84166500043243        7.25965164676241
H           -0.85994272892327        6.91465458904654        9.40077601643130
H            0.63629431533130        8.78519761687653        8.84459855975805
H            1.76211850489793        8.85474111025881        6.65073478456574
H            1.36501055745203        7.05563149044855        5.01018472127543
H           -0.14253627798465        5.18019084075976        5.57922183126073
H            0.11120157335821        3.00305547504415        9.34391484405705
H            0.93176460260638        4.17563855738290        8.30156934320701
H            1.80138838019288        2.54865356321791        6.87088388506370
H            1.75584809138932        1.64367125360349        8.38194153183773
H           -0.84529727481654       -1.79532627080525        8.03413828386586
H           -1.88665092138922       -2.02864398534695        6.63043607717161
B           -6.90164937146191       -4.65851979336337        0.60459074022524
B           -5.11682240614467       -2.23406214573923        0.39921840201507
B           -3.59628311899293       -2.20982887930724        0.24256697508675
B            0.99599006673416       -2.89824606976851        0.30962880399853
B            2.47852347509975       -3.04857469795318        0.00207018358394
B            5.27068015580710       -3.81260887844532       -0.58445120057701
B            6.21311810057211       -4.74805649786910       -1.30555068612948
B           -6.42709237761854       -3.16693300178915        0.43994295663264
B           -6.76382834999893       -1.65133858593245        0.33511170747341
B           -2.06738447864523       -2.34885369406014        0.39427678772696
B           -0.49738186749409       -2.49189073522605        0.39979055864898
B            4.01672950050995       -2.90345250843320       -0.05465799899626
B            5.73880890390028       -2.30059084762229       -0.10812510879126
B            6.79086785833353       -3.19312384420209       -0.99535334218223
B           -7.64155228695379       -0.26371969752936        0.33701549215235
B           -6.03059810318965       -0.17101650163116        0.11657781584481
B           -4.42803476736735       -0.56964092416471        0.17330686823879
B           -2.73053699333997       -0.69449651534999        0.24369698843247
B           -1.06298685695196       -0.92489471383501        0.65683666586996
B            0.49691525017597       -1.19549735258565        0.85582484988580
B            3.10329960173702       -1.49292857539394        0.11755899967823
B            4.67967068319219       -1.17225488986979        0.56094807374349
B            6.24345003256482       -0.80140702081543        0.43639034561193
B            7.69331717145328       -0.36211000108539        1.12674679172012
B           -6.88416006331677        1.19105741134160        0.11391283800603
B           -3.40569832812283        0.74610484945360       -0.00727778744311
B           -1.65449558915536        0.51230951271055        0.08779930799086
B            1.83943690563345       -0.40273603592082        0.46008415323458
B            3.56643869319232       -0.16618121928488        0.97485965720229
B            6.94741802575621        0.59043721748423        0.02143585197852
B            8.32531702038607        1.03052101885913        0.64831185383485
B           -7.52625512775075        2.79038997079795        0.36919054360175
B           -6.15065405929566        2.49432512814224       -0.37574720680078
B           -3.57659712176451        2.28778892210898       -0.34299337172919
B           -0.88356166792891        1.80296789561890       -0.41349759431950
B            1.63536565695026        1.01888457549307       -0.27242404275463
B            2.98982527157567        1.28905910369419        0.72066498200000
B            6.32161816586186        1.84745687363612       -0.76627363046958
B           -6.48358026444132        4.02872030877774       -0.18580268449772
B           -4.86617222462193        3.43983551610177       -0.52601002191124
B           -3.40532223835708        3.84356506131962       -0.68909739300298
B           -1.99945955268336        3.21364235912599       -0.69883056205956
B           -0.46553638488529        3.28444135309680       -0.81923169625703
B            0.73782729204595        2.33936848090176       -0.62861527018295
B            2.34282610363751        2.48386292520009       -0.28022743183276
B            3.81464269886796        2.60715721225620        0.13124847097486
B            5.36678520542374        2.85392426950944        0.05702782931166
B            6.07374271451433        4.05194081136536        0.84331365310237
H            6.19176981180002        5.13985685438018        0.39797362850006
H            8.28285774742622       -1.12065622880624        1.79597518456626
H            6.51788727541117        1.97087829824044       -1.92747450018973
H           -6.99353957667709       -5.41284580093014       -0.30772188245611
H           -6.73492757484923        5.17087522491515       -0.25964334056314
H            9.20549778180380        1.79463811092406        0.71745218761122
H           -8.81432236635077       -0.33255598494504        0.36395584642982
H            6.62017432411912       -5.71970127384514       -1.80802530413405
H           -8.55943015010462        2.98510407853418        0.88555096307176
H            7.86896815465851       -2.84717226726579       -1.31573259189625
H            6.49330386710481        3.92575345673953        1.93936153006661
H           -7.24669681780117       -5.13436094614337        1.63377631358270
