112
EGCG 270 deg
O     -0.938058     -0.950903      5.067823
C     -0.136466     -0.923117      5.997251
O     -0.094430     -1.797494      7.077691
C     -1.136128     -2.726619      7.062883
C     -2.293150     -2.447159      7.794279
C     -3.307447     -3.392428      7.808091
O     -4.451091     -3.141370      8.509122
C     -3.163740     -4.591186      7.117408
O     -4.183929     -5.503889      7.151853
C     -1.998087     -4.862072      6.405031
O     -1.916804     -6.060363      5.751370
C     -0.964548     -3.933619      6.376226
C      0.959028      0.126438      6.124978
O      2.205200     -0.584990      6.201897
C      3.289459      0.229822      6.391553
C      4.530950     -0.317368      6.064579
C      5.680339      0.452693      6.199028
O      6.872810     -0.119614      5.866820
C      5.606565      1.768003      6.638986
C      4.361491      2.299291      6.962880
O      4.318816      3.618705      7.320530
C      3.190723      1.531687      6.894839
C      1.870389      2.077988      7.369610
O      1.564513      3.192333      6.524060
C      0.762491      1.002942      7.369325
C     -0.617105      1.610361      7.586967
C     -1.468593      1.967402      6.522319
C     -2.720266      2.521313      6.785754
O     -3.586323      2.857463      5.783239
C     -3.125005      2.751399      8.093303
O     -4.347181      3.304654      8.359579
C     -2.289425      2.418917      9.147337
O     -2.682368      2.646132     10.433392
C     -1.044684      1.850523      8.907540
H     -2.405592     -1.515626      8.338900
H     -5.005215     -3.935818      8.369255
H     -3.857156     -6.247838      6.604996
H     -1.066380     -6.091739      5.278677
H     -0.043558     -4.121911      5.836174
H      0.948939      0.715138      5.196995
H      4.602482     -1.336950      5.697117
H      7.579933      0.530542      6.015006
H      6.489915      2.392293      6.719946
H      3.445853      3.952811      7.029910
H      1.991238      2.466446      8.389368
H      0.776148      3.627512      6.900689
H      0.962192      0.348059      8.232915
H     -1.161174      1.819040      5.490264
H     -3.249238      2.485324      4.948458
H     -4.753090      3.428363      7.476662
H     -3.586383      3.014097     10.354209
H     -0.416859      1.594381      9.758698
B     -6.925574     -4.651113      0.258651
B     -5.109772     -2.249293      0.322202
B     -3.591500     -2.181365      0.212799
B      0.999259     -2.875448      0.063787
B      2.475853     -3.012223     -0.270859
B      5.299353     -3.831373     -0.667177
B      6.318286     -4.835948     -1.155795
B     -6.434811     -3.158276      0.286374
B     -6.751986     -1.633834      0.316446
B     -2.052572     -2.317325      0.334938
B     -0.484105     -2.461901      0.257444
B      4.018432     -2.901059     -0.287234
B      5.753195     -2.281523     -0.302825
B      6.830072     -3.228788     -1.092903
B     -7.656446     -0.254969      0.343088
B     -6.037404     -0.139472      0.191282
B     -4.431555     -0.535693      0.223935
B     -2.737864     -0.660395      0.328987
B     -1.051797     -0.915695      0.641867
B      0.517067     -1.172154      0.725732
B      3.123140     -1.483076     -0.063477
B      4.700072     -1.133969      0.340157
B      6.266701     -0.787165      0.251702
B      7.671979     -0.351666      1.032714
B     -6.918082      1.212094      0.191543
B     -3.418449      0.780084      0.080928
B     -1.654248      0.532626      0.123936
B      1.862187     -0.403738      0.324587
B      3.584717     -0.150377      0.785151
B      6.990973      0.611062     -0.106825
B      8.307368      1.062865      0.631577
B     -7.619446      2.804022      0.298592
B     -6.123847      2.518506     -0.176534
B     -3.588598      2.327656     -0.236793
B     -0.906130      1.819502     -0.419754
B      1.623430      1.019912     -0.410817
B      3.010841      1.309010      0.529678
B      6.372866      1.858188     -0.915986
B     -6.527660      4.045620     -0.160807
B     -4.873588      3.494810     -0.388449
B     -3.415521      3.880123     -0.606384
B     -2.023468      3.220559     -0.676715
B     -0.497363      3.279553     -0.896985
B      0.710715      2.332441     -0.745678
B      2.335338      2.478091     -0.475438
B      3.816082      2.619470     -0.094099
B      5.369811      2.864588     -0.148865
B      6.055136      4.080007      0.631212
H      6.204101      5.147675      0.146336
H      8.218389     -1.121032      1.726840
H      6.622436      1.981791     -2.067388
H     -7.089961     -5.250634     -0.753775
H     -6.791161      5.181470     -0.285186
H      9.156919      1.846573      0.789984
H     -8.827690     -0.375757      0.328558
H      6.783879     -5.868988     -1.446538
H     -8.724710      3.001220      0.638842
H      7.891803     -2.883539     -1.473727
H      6.428164      3.999644      1.748458
H     -7.224878     -5.282314      1.218688
