      -----------------------------------------------------------      
     |                   =====================                   |     
     |                           x T B                           |     
     |                   =====================                   |     
     |                         S. Grimme                         |     
     |          Mulliken Center for Theoretical Chemistry        |     
     |                    University of Bonn                     |     
      -----------------------------------------------------------      

   * xtb version 6.7.1pre (5071a88) compiled by 'Marcel@Raven' on 2024-07-23

   xtb is free software: you can redistribute it and/or modify it under
   the terms of the GNU Lesser General Public License as published by
   the Free Software Foundation, either version 3 of the License, or
   (at your option) any later version.
   
   xtb is distributed in the hope that it will be useful,
   but WITHOUT ANY WARRANTY; without even the implied warranty of
   MERCHANTABILITY or FITNESS FOR A PARTICULAR PURPOSE.  See the
   GNU Lesser General Public License for more details.
   
   Cite this work as:
   * C. Bannwarth, E. Caldeweyher, S. Ehlert, A. Hansen, P. Pracht,
     J. Seibert, S. Spicher, S. Grimme, WIREs Comput. Mol. Sci., 2020, 11,
     e01493. DOI: 10.1002/wcms.1493
   
   for GFN2-xTB:
   * C. Bannwarth, S. Ehlert and S. Grimme., J. Chem. Theory Comput., 2019,
     15, 1652-1671. DOI: 10.1021/acs.jctc.8b01176
   for GFN1-xTB:
   * S. Grimme, C. Bannwarth, P. Shushkov, J. Chem. Theory Comput., 2017,
     13, 1989-2009. DOI: 10.1021/acs.jctc.7b00118
   for GFN0-xTB:
   * P. Pracht, E. Caldeweyher, S. Ehlert, S. Grimme, ChemRxiv, 2019, preprint.
     DOI: 10.26434/chemrxiv.8326202.v1
   for GFN-FF:
   * S. Spicher and S. Grimme, Angew. Chem. Int. Ed., 2020, 59, 15665-15673.
     DOI: 10.1002/anie.202004239
   
   for ALPB and GBSA implicit solvation:
   * S. Ehlert, M. Stahn, S. Spicher, S. Grimme, J. Chem. Theory Comput.,
     2021, 17, 4250-4261. DOI: 10.1021/acs.jctc.1c00471
   
   for ddCOSMO and CPCM-X implicit solvation:
   * M. Stahn, S. Ehlert, S. Grimme, J. Phys. Chem. A,
     2023, XX, XXXX-XXXX. DOI: 10.1021/acs.jpca.3c04382
   
   for DFT-D4:
   * E. Caldeweyher, C. Bannwarth and S. Grimme, J. Chem. Phys., 2017,
     147, 034112. DOI: 10.1063/1.4993215
   * E. Caldeweyher, S. Ehlert, A. Hansen, H. Neugebauer, S. Spicher,
     C. Bannwarth and S. Grimme, J. Chem. Phys., 2019, 150, 154122.
     DOI: 10.1063/1.5090222
   * E. Caldeweyher, J.-M. Mewes, S. Ehlert and S. Grimme, Phys. Chem. Chem. Phys.
     2020, 22, 8499-8512. DOI: 10.1039/D0CP00502A
   
   for sTDA-xTB:
   * S. Grimme and C. Bannwarth, J. Chem. Phys., 2016, 145, 054103.
     DOI: 10.1063/1.4959605
   
   in the mass-spec context:
   * V. Asgeirsson, C. Bauer and S. Grimme, Chem. Sci., 2017, 8, 4879.
     DOI: 10.1039/c7sc00601b
   * J. Koopman and S. Grimme, ACS Omega 2019, 4, 12, 15120-15133.
     DOI: 10.1021/acsomega.9b02011
   
   for metadynamics refer to:
   * S. Grimme, J. Chem. Theory Comput., 2019, 155, 2847-2862
     DOI: 10.1021/acs.jctc.9b00143
   
   for SPH calculations refer to:
   * S. Spicher and S. Grimme, J. Chem. Theory Comput., 2021, 17, 1701-1714
     DOI: 10.1021/acs.jctc.0c01306
   
   for ONIOM refer to:
   * C. Plett, A. Katbashev, S. Ehlert, S. Grimme, M. Bursch,
     Phys. Chem. Chem. Phys., 2023, 25, 17860-17868. DOI: 10.1039/D3CP02178E
   
   for DIPRO refer to:
   * J. Kohn, N. Gildemeister, S. Grimme, D. Fazzi, A. Hansen,
     J. Chem. Phys., 2023, just accepted.
   
   for PTB refer to:
   * S. Grimme, M. Mueller, A. Hansen, J. Chem. Phys., 2023, 158, 124111.
     DOI: 10.1063/5.0137838
   
   with help from (in alphabetical order)
   P. Atkinson, C. Bannwarth, F. Bohle, G. Brandenburg, E. Caldeweyher
   M. Checinski, S. Dohm, S. Ehlert, S. Ehrlich, I. Gerasimov, C. Hölzer
   A. Katbashev, J. Kohn, J. Koopman, C. Lavigne, S. Lehtola, F. März, M. Müller,
   F. Musil, H. Neugebauer, J. Pisarek, C. Plett, P. Pracht, F. Pultar,
   J. Seibert, P. Shushkov, S. Spicher, M. Stahn, M. Steiner, T. Strunk,
   J. Stückrath, T. Rose, and J. Unsleber
   
 * started run on 2026/09/02 at 15:21:23.712     
   ID    Z sym.   atoms
    1    8 O      1, 3, 7, 9, 11, 14, 18, 21, 24, 29, 31, 33
    2    6 C      2, 4-6, 8, 10, 12, 13, 15-17, 19, 20, 22, 23, 25-28, 30,
                  32, 34
    3    1 H      35-52, 93-107
    4    5 B      53-92

           -------------------------------------------------
          |                Calculation Setup                |
           -------------------------------------------------

          program call               : "c:\Users\Andre\Proyectos doctorado\nano-qsar-ai-papers\kras-pancreatic-gC3N4-ai\tools\xtb\xtb-6.7.1\bin\xtb.exe" "c:\Users\Andre\Proyectos doctorado\borophene-alzheimer-tau-ai\calculations\tau\EGCG\EGCG_opt_270deg_input.xyz" --opt loose --gfn 2 --chrg 0 --uhf 0 --iterations 500 --cycles 400 --norestart
          coordinate file            : c:\Users\Andre\Proyectos doctorado\borophene-alzheimer-tau-ai\calculations\tau\EGCG\EGCG_opt_270deg_input.xyz
          omp threads                :                     4


molecular fragmentation (1/2 indicates fragments):
111111111111111111111111111111111111111111111111111122222222222222222222
22222222222222222222222222222222222
# atoms in fragment 1/2:    52    55
 fragment masses (1/2) :      474.37      447.56
CMA distance (Bohr)    :  15.713
constraining FC (au)   :  0.0500

           -------------------------------------------------
          |                 G F N 2 - x T B                 |
           -------------------------------------------------

        Reference                      10.1021/acs.jctc.8b01176
      * Hamiltonian:
        H0-scaling (s, p, d)           1.850000    2.230000    2.230000
        zeta-weighting                 0.500000
      * Dispersion:
        s8                             2.700000
        a1                             0.520000
        a2                             5.000000
        s9                             5.000000
      * Repulsion:
        kExp                           1.500000    1.000000
        rExp                           1.000000
      * Coulomb:
        alpha                          2.000000
        third order                    shell-resolved
        anisotropic                    true
        a3                             3.000000
        a5                             4.000000
        cn-shift                       1.200000
        cn-exp                         4.000000
        max-rad                        5.000000


          ...................................................
          :                      SETUP                      :
          :.................................................:
          :  # basis functions                 329          :
          :  # atomic orbitals                 329          :
          :  # shells                          181          :
          :  # electrons                       313          :
          :  max. iterations                   500          :
          :  Hamiltonian                  GFN2-xTB          :
          :  restarted?                      false          :
          :  GBSA solvation                  false          :
          :  PC potential                    false          :
          :  electronic temp.          300.0000000     K    :
          :  accuracy                    1.0000000          :
          :  -> integral cutoff          0.2500000E+02      :
          :  -> integral neglect         0.1000000E-07      :
          :  -> SCF convergence          0.1000000E-05 Eh   :
          :  -> wf. convergence          0.1000000E-03 e    :
          :  Broyden damping             0.4000000          :
          :  net charge                          0          :
          :  unpaired electrons                  0          :
          ...................................................

 iter      E             dE          RMSdq      gap      omega  full diag
   1   -162.5236404 -0.162524E+03  0.127E+01    0.25       0.0  T
   2   -161.5059537  0.101769E+01  0.818E+00    0.02       1.0  T
   3   -123.2556508  0.382503E+02  0.114E+01    0.28       1.0  T
   4   -123.6779679 -0.422317E+00  0.910E+00    0.21       1.0  T
   5   -146.3183914 -0.226404E+02  0.628E+00    0.09       1.0  T
   6   -158.6947127 -0.123763E+02  0.381E+00    0.16       1.0  T
   7   -162.4976201 -0.380291E+01  0.221E+00    0.50       1.0  T
   8   -163.0253044 -0.527684E+00  0.152E+00    0.26       1.0  T
   9   -163.1907393 -0.165435E+00  0.126E+00    0.49       1.0  T
  10   -163.1665413  0.241980E-01  0.105E+00    0.34       1.0  T
  11   -163.1585948  0.794652E-02  0.773E-01    0.15       1.0  T
  12   -163.0966814  0.619133E-01  0.817E-01    0.04       1.0  T
  13   -163.1924364 -0.957549E-01  0.493E-01    0.23       1.0  T
  14   -163.0241664  0.168270E+00  0.105E+00    0.21       1.0  T
  15   -163.0523921 -0.282257E-01  0.958E-01    0.13       1.0  T
  16   -163.0960321 -0.436400E-01  0.841E-01    0.08       1.0  T
  17   -163.1500081 -0.539760E-01  0.649E-01    0.03       1.0  T
  18   -163.2103090 -0.603010E-01  0.344E-01    0.04       1.0  T
  19   -163.2053958  0.491321E-02  0.358E-01    0.03       1.0  T
  20   -163.2088701 -0.347428E-02  0.306E-01    0.03       1.0  T
  21   -163.2213763 -0.125061E-01  0.140E-01    0.08       1.0  T
  22   -163.2234046 -0.202834E-02  0.763E-02    0.12       1.0  T
  23   -163.2235109 -0.106266E-03  0.707E-02    0.13       1.0  T
  24   -163.2235782 -0.673397E-04  0.631E-02    0.13       1.0  T
  25   -163.2237373 -0.159081E-03  0.398E-02    0.13       1.0  T
  26   -163.2238951 -0.157780E-03  0.216E-02    0.12       1.0  T
  27   -163.2239256 -0.305175E-04  0.152E-02    0.12       1.0  T
  28   -163.2239346 -0.905247E-05  0.943E-03    0.11       1.0  T
  29   -163.2239416 -0.692449E-05  0.501E-03    0.12       1.9  T
  30   -163.2239391  0.243382E-05  0.473E-03    0.12       2.0  T
  31   -163.2239403 -0.122812E-05  0.360E-03    0.12       2.7  T
  32   -163.2239426 -0.226097E-05  0.108E-03    0.12       8.9  T
  33   -163.2239426 -0.949817E-08  0.127E-03    0.12       7.6  T
  34   -163.2239428 -0.207481E-06  0.721E-04    0.12      13.4  T
  35   -163.2239429 -0.630513E-07  0.353E-04    0.12      27.4  T

   *** convergence criteria satisfied after 35 iterations ***

         #    Occupation            Energy/Eh            Energy/eV
      -------------------------------------------------------------
         1        2.0000           -0.7347301             -19.9930
       ...           ...                  ...                  ...
       151        2.0000           -0.2913402              -7.9278
       152        2.0000           -0.2854105              -7.7664
       153        2.0000           -0.2825955              -7.6898
       154        2.0000           -0.2794548              -7.6044
       155        2.0000           -0.2742751              -7.4634
       156        1.9993           -0.2711263              -7.3777
       157        0.9042           -0.2574049              -7.0043 (HOMO)
       158        0.0965           -0.2531547              -6.8887 (LUMO)
       159        0.0000           -0.2420992              -6.5879
       160                         -0.2279808              -6.2037
       161                         -0.2272037              -6.1825
       162                         -0.2250306              -6.1234
       ...                                ...                  ...
       329                          1.0711031              29.1462
      -------------------------------------------------------------
                  HL-Gap            0.0042502 Eh            0.1157 eV
             Fermi-level           -0.2597669 Eh           -7.0686 eV

 SCC (total)                   0 d,  0 h,  0 min,  1.095 sec
 SCC setup                      ...        0 min,  0.001 sec (  0.091%)
 Dispersion                     ...        0 min,  0.001 sec (  0.091%)
 classical contributions        ...        0 min,  0.001 sec (  0.091%)
 integral evaluation            ...        0 min,  0.020 sec (  1.827%)
 iterations                     ...        0 min,  1.009 sec ( 92.146%)
 molecular gradient             ...        0 min,  0.057 sec (  5.205%)
 printout                       ...        0 min,  0.006 sec (  0.548%)

         :::::::::::::::::::::::::::::::::::::::::::::::::::::
         ::                     SUMMARY                     ::
         :::::::::::::::::::::::::::::::::::::::::::::::::::::
         :: total energy            -161.331294253948 Eh    ::
         :: gradient norm              0.089429704551 Eh/a0 ::
         :: HOMO-LUMO gap              0.115653721724 eV    ::
         ::.................................................::
         :: SCC energy              -163.220757518198 Eh    ::
         :: -> isotropic ES            0.438275283792 Eh    ::
         :: -> anisotropic ES          0.009149993070 Eh    ::
         :: -> anisotropic XC         -0.018909772402 Eh    ::
         :: -> dispersion             -0.134092571399 Eh    ::
         :: repulsion energy           1.889463264250 Eh    ::
         :: add. restraining           0.000000000000 Eh    ::
         :: total charge               0.000000000956 e     ::
         :::::::::::::::::::::::::::::::::::::::::::::::::::::

      ----------------------------------------------------------- 
     |                   =====================                   |
     |                        A N C O P T                        |
     |                   =====================                   |
     |               Approximate Normal Coordinate               |
     |                Rational Function Optimizer                |
      ----------------------------------------------------------- 
      ----------------------------------------------------------- 
     |                   =====================                   |
     |                        A N C O P T                        |
     |                   =====================                   |
     |               Approximate Normal Coordinate               |
     |                Rational Function Optimizer                |
      ----------------------------------------------------------- 

          ...................................................
          :                      SETUP                      :
          :.................................................:
          :   optimization level             loose          :
          :   max. optcycles                   400          :
          :   ANC micro-cycles                  20          :
          :   degrees of freedom               315          :
          :.................................................:
          :   RF solver                   davidson          :
          :   write xtbopt.log                true          :
          :   linear?                        false          :
          :   energy convergence         0.5000000E-04 Eh   :
          :   grad. convergence          0.4000000E-02 Eh/α :
          :   maxmium RF displ.          1.0000000          :
          :   Hlow (freq-cutoff)         0.1000000E-01      :
          :   Hmax (freq-cutoff)         5.0000000          :
          :   S6 in model hess.         20.0000000          :
          ...................................................

generating ANC from exact Hessian ...
Using Lindh-Hessian (1995)
 Shifting diagonal of input Hessian by   1.029868194097080E-002
 Lowest  eigenvalues of input Hessian
    0.010000    0.010096    0.010115    0.010119    0.010266    0.000000
    0.000000    0.000000    0.000000    0.000000    0.000000    0.010314
    0.010319    0.010341    0.010353    0.010455    0.010651    0.010722
 Highest eigenvalues
    2.105330    2.138072    2.139915    2.147008    2.163161    2.198992
 

........................................................................
.............................. CYCLE    1 ..............................
........................................................................

 iter      E             dE          RMSdq      gap      omega  full diag
   1   -163.2239429 -0.163224E+03  0.430E-04    0.12       0.0  T
   2   -163.2239407  0.217720E-05  0.312E-03    0.11       3.1  T
   3   -163.2239429 -0.220811E-05  0.203E-04    0.12      47.7  T
   4   -163.2239429 -0.479912E-08  0.115E-04    0.12      84.4  T
   5   -163.2239429  0.342806E-08  0.145E-04    0.12      66.6  T
     SCC iter.                  ...        0 min,  0.102 sec
     gradient                   ...        0 min,  0.053 sec
 * total energy  :  -161.3312943 Eh     change       -0.1933606E-07 Eh
   gradient norm :     0.0894245 Eh/α   predicted     0.0000000E+00 (-100.00%)
   displ. norm   :     0.2641814 α      lambda       -0.1176063E-01
   maximum displ.:     0.0963536 α      in ANC's #40, #63, #54, ...

........................................................................
.............................. CYCLE    2 ..............................
........................................................................

 iter      E             dE          RMSdq      gap      omega  full diag
   1   -163.2664511 -0.163266E+03  0.128E-01    0.41       0.0  T
   2   -163.1308940  0.135557E+00  0.797E-01    0.08       1.0  T
   3   -163.2674716 -0.136578E+00  0.864E-02    0.29       1.0  T
   4   -163.2680220 -0.550347E-03  0.543E-02    0.20       1.0  T
   5   -163.2676246  0.397354E-03  0.557E-02    0.13       1.0  T
   6   -163.2677525 -0.127916E-03  0.554E-02    0.11       1.0  T
   7   -163.2683118 -0.559244E-03  0.273E-02    0.12       1.0  T
   8   -163.2684585 -0.146679E-03  0.918E-03    0.14       1.1  T
   9   -163.2684733 -0.148747E-04  0.435E-03    0.14       2.2  T
  10   -163.2684752 -0.185805E-05  0.369E-03    0.14       2.6  T
  11   -163.2684753 -0.113451E-06  0.341E-03    0.14       2.8  T
  12   -163.2684765 -0.122928E-05  0.239E-03    0.14       4.0  T
  13   -163.2684770 -0.492980E-06  0.175E-03    0.14       5.5  T
  14   -163.2684775 -0.487661E-06  0.905E-04    0.14      10.7  T
  15   -163.2684776 -0.118340E-06  0.515E-04    0.14      18.8  T
     SCC iter.                  ...        0 min,  0.405 sec
     gradient                   ...        0 min,  0.055 sec
 * total energy  :  -161.3395493 Eh     change       -0.8255030E-02 Eh
   gradient norm :     0.0383467 Eh/α   predicted    -0.6292067E-02 ( -23.78%)
   displ. norm   :     0.2861967 α      lambda       -0.4238755E-02
   maximum displ.:     0.1174708 α      in ANC's #40, #37, #35, ...

........................................................................
.............................. CYCLE    3 ..............................
........................................................................

 iter      E             dE          RMSdq      gap      omega  full diag
   1   -163.2911406 -0.163291E+03  0.904E-02    0.37       0.0  T
   2   -163.2805615  0.105791E-01  0.233E-01    0.06       1.0  T
   3   -163.2914784 -0.109169E-01  0.568E-02    0.28       1.0  T
   4   -163.2915157 -0.372815E-04  0.462E-02    0.20       1.0  T
   5   -163.2915417 -0.260801E-04  0.392E-02    0.18       1.0  T
   6   -163.2918287 -0.286996E-03  0.259E-02    0.15       1.0  T
   7   -163.2919026 -0.738336E-04  0.173E-02    0.15       1.0  T
   8   -163.2919620 -0.594841E-04  0.602E-03    0.17       1.6  T
   9   -163.2919679 -0.580664E-05  0.331E-03    0.17       2.9  T
  10   -163.2919692 -0.131561E-05  0.255E-03    0.17       3.8  T
  11   -163.2919697 -0.510832E-06  0.192E-03    0.17       5.0  T
  12   -163.2919702 -0.514369E-06  0.993E-04    0.17       9.7  T
  13   -163.2919703 -0.137298E-06  0.544E-04    0.17      17.8  T
     SCC iter.                  ...        0 min,  0.385 sec
     gradient                   ...        0 min,  0.054 sec
 * total energy  :  -161.3421006 Eh     change       -0.2551326E-02 Eh
   gradient norm :     0.0153440 Eh/α   predicted    -0.2293977E-02 ( -10.09%)
   displ. norm   :     0.2170478 α      lambda       -0.8937618E-03
   maximum displ.:     0.0824745 α      in ANC's #37, #35, #40, ...

........................................................................
.............................. CYCLE    4 ..............................
........................................................................

 iter      E             dE          RMSdq      gap      omega  full diag
   1   -163.2932194 -0.163293E+03  0.435E-02    0.20       0.0  T
   2   -163.2930364  0.183011E-03  0.407E-02    0.15       1.0  T
   3   -163.2930032  0.331324E-04  0.365E-02    0.23       1.0  T
   4   -163.2930956 -0.923651E-04  0.257E-02    0.19       1.0  T
   5   -163.2932075 -0.111934E-03  0.154E-02    0.18       1.0  T
   6   -163.2932620 -0.544927E-04  0.670E-03    0.18       1.4  T
   7   -163.2932699 -0.792895E-05  0.297E-03    0.18       3.3  T
   8   -163.2932716 -0.169411E-05  0.107E-03    0.18       9.0  T
   9   -163.2932718 -0.137147E-06  0.682E-04    0.18      14.2  T
  10   -163.2932718 -0.144903E-07  0.561E-04    0.18      17.2  T
     SCC iter.                  ...        0 min,  0.237 sec
     gradient                   ...        0 min,  0.053 sec
 * total energy  :  -161.3427673 Eh     change       -0.6666255E-03 Eh
   gradient norm :     0.0107060 Eh/α   predicted    -0.4679344E-03 ( -29.81%)
   displ. norm   :     0.2985108 α      lambda       -0.7632958E-03
   maximum displ.:     0.1083060 α      in ANC's #37, #35, #22, ...

........................................................................
.............................. CYCLE    5 ..............................
........................................................................

 iter      E             dE          RMSdq      gap      omega  full diag
   1   -163.2911584 -0.163291E+03  0.539E-02    0.16       0.0  T
   2   -163.2910189  0.139491E-03  0.449E-02    0.23       1.0  T
   3   -163.2906125  0.406336E-03  0.524E-02    0.14       1.0  T
   4   -163.2908500 -0.237444E-03  0.364E-02    0.21       1.0  T
   5   -163.2911582 -0.308262E-03  0.189E-02    0.20       1.0  T
   6   -163.2912242 -0.659231E-04  0.752E-03    0.19       1.3  T
   7   -163.2912309 -0.676057E-05  0.462E-03    0.18       2.1  T
   8   -163.2912356 -0.467270E-05  0.139E-03    0.18       6.9  T
   9   -163.2912356  0.419968E-07  0.126E-03    0.18       7.7  T
  10   -163.2912358 -0.280801E-06  0.536E-04    0.18      18.0  T
  11   -163.2912359 -0.424299E-07  0.298E-04    0.18      32.4  T
     SCC iter.                  ...        0 min,  0.296 sec
     gradient                   ...        0 min,  0.055 sec
 * total energy  :  -161.3432613 Eh     change       -0.4940024E-03 Eh
   gradient norm :     0.0106746 Eh/α   predicted    -0.4156613E-03 ( -15.86%)
   displ. norm   :     0.2278051 α      lambda       -0.3463099E-03
   maximum displ.:     0.0813704 α      in ANC's #22, #5, #7, ...

........................................................................
.............................. CYCLE    6 ..............................
........................................................................

 iter      E             dE          RMSdq      gap      omega  full diag
   1   -163.2904313 -0.163290E+03  0.516E-02    0.15       0.0  T
   2   -163.2901869  0.244405E-03  0.488E-02    0.24       1.0  T
   3   -163.2901315  0.553773E-04  0.426E-02    0.14       1.0  T
   4   -163.2899064  0.225089E-03  0.431E-02    0.19       1.0  T
   5   -163.2904844 -0.577968E-03  0.113E-02    0.19       1.0  T
   6   -163.2905057 -0.213078E-04  0.494E-03    0.18       2.0  T
   7   -163.2905092 -0.347616E-05  0.223E-03    0.17       4.3  T
   8   -163.2905098 -0.583098E-06  0.140E-03    0.17       6.9  T
   9   -163.2905100 -0.227786E-06  0.934E-04    0.17      10.3  T
  10   -163.2905101 -0.823807E-07  0.633E-04    0.17      15.3  T
     SCC iter.                  ...        0 min,  0.243 sec
     gradient                   ...        0 min,  0.051 sec
 * total energy  :  -161.3435088 Eh     change       -0.2475303E-03 Eh
   gradient norm :     0.0093539 Eh/α   predicted    -0.1822155E-03 ( -26.39%)
   displ. norm   :     0.3251862 α      lambda       -0.4012949E-03
   maximum displ.:     0.1231279 α      in ANC's #7, #5, #22, ...

........................................................................
.............................. CYCLE    7 ..............................
........................................................................

 iter      E             dE          RMSdq      gap      omega  full diag
   1   -163.2903190 -0.163290E+03  0.673E-02    0.14       0.0  T
   2   -163.2898646  0.454402E-03  0.659E-02    0.27       1.0  T
   3   -163.2899527 -0.881664E-04  0.503E-02    0.14       1.0  T
   4   -163.2893488  0.603930E-03  0.591E-02    0.18       1.0  T
   5   -163.2904386 -0.108979E-02  0.140E-02    0.18       1.0  T
   6   -163.2904733 -0.347234E-04  0.538E-03    0.17       1.8  T
   7   -163.2904762 -0.293326E-05  0.339E-03    0.17       2.9  T
   8   -163.2904781 -0.182230E-05  0.154E-03    0.17       6.3  T
   9   -163.2904781 -0.822260E-07  0.138E-03    0.17       7.0  T
  10   -163.2904784 -0.271821E-06  0.728E-04    0.17      13.3  T
  11   -163.2904785 -0.107060E-06  0.223E-04    0.17      43.3  T
     SCC iter.                  ...        0 min,  0.212 sec
     gradient                   ...        0 min,  0.050 sec
 * total energy  :  -161.3437898 Eh     change       -0.2810523E-03 Eh
   gradient norm :     0.0072571 Eh/α   predicted    -0.2218759E-03 ( -21.06%)
   displ. norm   :     0.3588258 α      lambda       -0.3632164E-03
   maximum displ.:     0.1506297 α      in ANC's #7, #5, #22, ...

........................................................................
.............................. CYCLE    8 ..............................
........................................................................

 iter      E             dE          RMSdq      gap      omega  full diag
   1   -163.2909866 -0.163291E+03  0.778E-02    0.13       0.0  T
   2   -163.2902743  0.712333E-03  0.786E-02    0.28       1.0  T
   3   -163.2904797 -0.205448E-03  0.589E-02    0.13       1.0  T
   4   -163.2897493  0.730406E-03  0.675E-02    0.17       1.0  T
   5   -163.2911535 -0.140422E-02  0.157E-02    0.17       1.0  T
   6   -163.2911993 -0.457946E-04  0.619E-03    0.16       1.6  T
   7   -163.2912038 -0.442428E-05  0.369E-03    0.16       2.6  T
   8   -163.2912058 -0.206862E-05  0.178E-03    0.16       5.4  T
   9   -163.2912058  0.289221E-07  0.178E-03    0.16       5.4  T
  10   -163.2912063 -0.536713E-06  0.725E-04    0.16      13.3  T
  11   -163.2912064 -0.100107E-06  0.275E-04    0.16      35.1  T
     SCC iter.                  ...        0 min,  0.207 sec
     gradient                   ...        0 min,  0.051 sec
 * total energy  :  -161.3440489 Eh     change       -0.2590179E-03 Eh
   gradient norm :     0.0068664 Eh/α   predicted    -0.2049921E-03 ( -20.86%)
   displ. norm   :     0.4314822 α      lambda       -0.4119476E-03
   maximum displ.:     0.1927250 α      in ANC's #7, #5, #25, ...

........................................................................
.............................. CYCLE    9 ..............................
........................................................................

 iter      E             dE          RMSdq      gap      omega  full diag
   1   -163.2916945 -0.163292E+03  0.118E-01    0.11       0.0  T
   2   -163.2904104  0.128406E-02  0.117E-01    0.37       1.0  T
   3   -163.2915304 -0.111995E-02  0.713E-02    0.15       1.0  T
   4   -163.2900093  0.152102E-02  0.933E-02    0.14       1.0  T
   5   -163.2917295 -0.172013E-02  0.553E-02    0.12       1.0  T
   6   -163.2923429 -0.613433E-03  0.164E-02    0.16       1.0  T
   7   -163.2923828 -0.398494E-04  0.983E-03    0.16       1.0  T
   8   -163.2923964 -0.136564E-04  0.417E-03    0.16       2.3  T
   9   -163.2923974 -0.971407E-06  0.307E-03    0.15       3.2  T
  10   -163.2923990 -0.165621E-05  0.173E-03    0.15       5.6  T
  11   -163.2923995 -0.480011E-06  0.779E-04    0.15      12.4  T
  12   -163.2923996 -0.107594E-06  0.512E-04    0.15      18.9  T
     SCC iter.                  ...        0 min,  0.231 sec
     gradient                   ...        0 min,  0.052 sec
 * total energy  :  -161.3442687 Eh     change       -0.2198290E-03 Eh
   gradient norm :     0.0086133 Eh/α   predicted    -0.2443218E-03 (  11.14%)
   displ. norm   :     0.3952814 α      lambda       -0.4287027E-03
   maximum displ.:     0.1853777 α      in ANC's #7, #5, #25, ...

........................................................................
.............................. CYCLE   10 ..............................
........................................................................

 iter      E             dE          RMSdq      gap      omega  full diag
   1   -163.2923900 -0.163292E+03  0.107E-01    0.11       0.0  T
   2   -163.2907582  0.163177E-02  0.119E-01    0.37       1.0  T
   3   -163.2923757 -0.161750E-02  0.684E-02    0.16       1.0  T
   4   -163.2915600  0.815704E-03  0.793E-02    0.13       1.0  T
   5   -163.2921183 -0.558250E-03  0.682E-02    0.11       1.0  T
   6   -163.2930580 -0.939672E-03  0.152E-02    0.15       1.0  T
   7   -163.2930862 -0.282576E-04  0.111E-02    0.16       1.0  T
   8   -163.2931055 -0.192903E-04  0.433E-03    0.15       2.2  T
   9   -163.2931060 -0.469084E-06  0.345E-03    0.14       2.8  T
  10   -163.2931077 -0.171704E-05  0.211E-03    0.14       4.6  T
  11   -163.2931085 -0.806701E-06  0.589E-04    0.15      16.4  T
  12   -163.2931085 -0.193926E-07  0.518E-04    0.15      18.6  T
     SCC iter.                  ...        0 min,  0.237 sec
     gradient                   ...        0 min,  0.052 sec
 * total energy  :  -161.3445715 Eh     change       -0.3027799E-03 Eh
   gradient norm :     0.0094953 Eh/α   predicted    -0.2478434E-03 ( -18.14%)
   displ. norm   :     0.4520304 α      lambda       -0.4251777E-03
   maximum displ.:     0.2183966 α      in ANC's #7, #5, #25, ...

........................................................................
.............................. CYCLE   11 ..............................
........................................................................

 iter      E             dE          RMSdq      gap      omega  full diag
   1   -163.2917174 -0.163292E+03  0.938E-02    0.12       0.0  T
   2   -163.2903930  0.132436E-02  0.102E-01    0.29       1.0  T
   3   -163.2910623 -0.669332E-03  0.697E-02    0.11       1.0  T
   4   -163.2898637  0.119861E-02  0.827E-02    0.17       1.0  T
   5   -163.2919421 -0.207834E-02  0.222E-02    0.16       1.0  T
   6   -163.2920316 -0.895219E-04  0.855E-03    0.14       1.1  T
   7   -163.2920422 -0.106203E-04  0.457E-03    0.14       2.1  T
   8   -163.2920450 -0.282943E-05  0.259E-03    0.14       3.7  T
   9   -163.2920450  0.463513E-07  0.254E-03    0.14       3.8  T
  10   -163.2920462 -0.115306E-05  0.816E-04    0.14      11.8  T
  11   -163.2920462 -0.900940E-07  0.565E-04    0.14      17.1  T
  12   -163.2920463 -0.396114E-07  0.325E-04    0.14      29.8  T
     SCC iter.                  ...        0 min,  0.262 sec
     gradient                   ...        0 min,  0.056 sec
 * total energy  :  -161.3448646 Eh     change       -0.2931520E-03 Eh
   gradient norm :     0.0112481 Eh/α   predicted    -0.2560314E-03 ( -12.66%)
   displ. norm   :     0.4906897 α      lambda       -0.6833348E-03
   maximum displ.:     0.2467569 α      in ANC's #7, #5, #8, ...

........................................................................
.............................. CYCLE   12 ..............................
........................................................................

 iter      E             dE          RMSdq      gap      omega  full diag
   1   -163.2955423 -0.163296E+03  0.939E-02    0.15       0.0  T
   2   -163.2947711  0.771177E-03  0.834E-02    0.10       1.0  T
   3   -163.2942323  0.538817E-03  0.908E-02    0.27       1.0  T
   4   -163.2945472 -0.314894E-03  0.668E-02    0.20       1.0  T
   5   -163.2951538 -0.606567E-03  0.454E-02    0.19       1.0  T
   6   -163.2954296 -0.275860E-03  0.293E-02    0.17       1.0  T
   7   -163.2955572 -0.127577E-03  0.138E-02    0.16       1.0  T
   8   -163.2955900 -0.328189E-04  0.400E-03    0.14       2.4  T
   9   -163.2955914 -0.140548E-05  0.327E-03    0.15       3.0  T
  10   -163.2955928 -0.141273E-05  0.167E-03    0.14       5.8  T
  11   -163.2955933 -0.481956E-06  0.732E-04    0.14      13.2  T
  12   -163.2955933  0.706986E-07  0.907E-04    0.14      10.7  T
     SCC iter.                  ...        0 min,  0.255 sec
     gradient                   ...        0 min,  0.055 sec
 * total energy  :  -161.3452087 Eh     change       -0.3440536E-03 Eh
   gradient norm :     0.0130724 Eh/α   predicted    -0.4239340E-03 (  23.22%)
   displ. norm   :     0.5416139 α      lambda       -0.5106889E-03
   maximum displ.:     0.2657034 α      in ANC's #7, #5, #8, ...

........................................................................
.............................. CYCLE   13 ..............................
........................................................................

 iter      E             dE          RMSdq      gap      omega  full diag
   1   -163.2759307 -0.163276E+03  0.278E-01    0.03       0.0  T
   2   -163.2691978  0.673288E-02  0.332E-01    0.49       1.0  T
   3   -163.2825698 -0.133720E-01  0.208E-01    0.35       1.0  T
   4   -163.2854537 -0.288390E-02  0.163E-01    0.44       1.0  T
   5   -163.2886846 -0.323087E-02  0.116E-01    0.34       1.0  T
   6   -163.2899017 -0.121718E-02  0.700E-02    0.18       1.0  T
   7   -163.2496883  0.402134E-01  0.445E-01    0.00       1.0  T
   8   -163.2893904 -0.397020E-01  0.840E-02    0.26       1.0  T
   9   -163.2894360 -0.455994E-04  0.827E-02    0.26       1.0  T
  10   -163.2896158 -0.179812E-03  0.751E-02    0.23       1.0  T
  11   -163.2897769 -0.161111E-03  0.682E-02    0.22       1.0  T
  12   -163.2900728 -0.295899E-03  0.541E-02    0.19       1.0  T
  13   -163.2905268 -0.454009E-03  0.215E-02    0.15       1.0  T
  14   -163.2905751 -0.482891E-04  0.145E-02    0.14       1.0  T
  15   -163.2906076 -0.324546E-04  0.623E-03    0.14       1.6  T
  16   -163.2906136 -0.607783E-05  0.271E-03    0.13       3.6  T
  17   -163.2906150 -0.134227E-05  0.567E-04    0.13      17.1  T
  18   -163.2906149  0.621600E-07  0.781E-04    0.13      12.4  T
  19   -163.2906150 -0.584116E-07  0.565E-04    0.13      17.1  T
     SCC iter.                  ...        0 min,  0.443 sec
     gradient                   ...        0 min,  0.061 sec
 * total energy  :  -161.3455531 Eh     change       -0.3444659E-03 Eh
   gradient norm :     0.0141868 Eh/α   predicted    -0.3302534E-03 (  -4.13%)
   displ. norm   :     0.3882202 α      lambda       -0.5298642E-03
   maximum displ.:     0.2089677 α      in ANC's #7, #8, #5, ...

........................................................................
.............................. CYCLE   14 ..............................
........................................................................

 iter      E             dE          RMSdq      gap      omega  full diag
   1   -163.2910682 -0.163291E+03  0.878E-02    0.19       0.0  T
   2   -163.2297451  0.613230E-01  0.545E-01    0.02       1.0  T
   3   -163.2912741 -0.615290E-01  0.558E-02    0.17       1.0  T
   4   -163.2910756  0.198553E-03  0.414E-02    0.13       1.0  T
   5   -163.2914525 -0.376928E-03  0.198E-02    0.14       1.0  T
   6   -163.2915480 -0.954872E-04  0.727E-03    0.14       1.3  T
   7   -163.2915554 -0.739047E-05  0.420E-03    0.14       2.3  T
   8   -163.2915565 -0.107916E-05  0.349E-03    0.14       2.8  T
   9   -163.2915565 -0.297182E-07  0.331E-03    0.14       2.9  T
  10   -163.2915575 -0.104041E-05  0.253E-03    0.14       3.8  T
  11   -163.2915579 -0.363581E-06  0.203E-03    0.14       4.8  T
  12   -163.2915583 -0.421054E-06  0.145E-03    0.14       6.7  T
  13   -163.2915586 -0.275261E-06  0.827E-04    0.14      11.7  T
  14   -163.2915587 -0.699133E-07  0.555E-04    0.14      17.4  T
     SCC iter.                  ...        0 min,  0.312 sec
     gradient                   ...        0 min,  0.054 sec
 * total energy  :  -161.3458654 Eh     change       -0.3122839E-03 Eh
   gradient norm :     0.0088789 Eh/α   predicted    -0.3048638E-03 (  -2.38%)
   displ. norm   :     0.5436198 α      lambda       -0.5058139E-03
   maximum displ.:     0.2862564 α      in ANC's #7, #8, #5, ...

........................................................................
.............................. CYCLE   15 ..............................
........................................................................

 iter      E             dE          RMSdq      gap      omega  full diag
   1   -163.2855035 -0.163286E+03  0.178E-01    0.06       0.0  T
   2   -163.2810490  0.445455E-02  0.222E-01    0.46       1.0  T
   3   -163.2870140 -0.596499E-02  0.143E-01    0.34       1.0  T
   4   -163.2877372 -0.723199E-03  0.117E-01    0.28       1.0  T
   5   -163.2901291 -0.239199E-02  0.508E-02    0.14       1.0  T
   6   -163.2688783  0.212509E-01  0.320E-01    0.02       1.0  T
   7   -163.2899272 -0.210489E-01  0.493E-02    0.17       1.0  T
   8   -163.2900220 -0.948327E-04  0.435E-02    0.17       1.0  T
   9   -163.2902439 -0.221913E-03  0.268E-02    0.15       1.0  T
  10   -163.2903642 -0.120221E-03  0.896E-03    0.13       1.1  T
  11   -163.2903787 -0.145642E-04  0.206E-03    0.13       4.7  T
  12   -163.2903786  0.138678E-06  0.212E-03    0.13       4.6  T
  13   -163.2903792 -0.663005E-06  0.100E-03    0.13       9.7  T
  14   -163.2903794 -0.179209E-06  0.316E-04    0.13      30.6  T
  15   -163.2903794 -0.181680E-07  0.203E-04    0.13      47.6  T
     SCC iter.                  ...        0 min,  0.283 sec
     gradient                   ...        0 min,  0.052 sec
 * total energy  :  -161.3462361 Eh     change       -0.3706542E-03 Eh
   gradient norm :     0.0085531 Eh/α   predicted    -0.3276480E-03 ( -11.60%)
   displ. norm   :     0.5183595 α      lambda       -0.5376033E-03
   maximum displ.:     0.2883372 α      in ANC's #7, #8, #6, ...

........................................................................
.............................. CYCLE   16 ..............................
........................................................................

 iter      E             dE          RMSdq      gap      omega  full diag
   1   -163.2941957 -0.163294E+03  0.826E-02    0.13       0.0  T
   2   -163.2936840  0.511721E-03  0.717E-02    0.10       1.0  T
   3   -163.2926798  0.100420E-02  0.941E-02    0.24       1.0  T
   4   -163.2935408 -0.860953E-03  0.546E-02    0.16       1.0  T
   5   -163.2938841 -0.343342E-03  0.398E-02    0.16       1.0  T
   6   -163.2941300 -0.245898E-03  0.220E-02    0.14       1.0  T
   7   -163.2942126 -0.826294E-04  0.821E-03    0.13       1.2  T
   8   -163.2942238 -0.111273E-04  0.264E-03    0.13       3.7  T
   9   -163.2942245 -0.772164E-06  0.201E-03    0.13       4.8  T
  10   -163.2942250 -0.420435E-06  0.120E-03    0.13       8.0  T
  11   -163.2942253 -0.294835E-06  0.469E-04    0.13      20.6  T
  12   -163.2942253 -0.656576E-08  0.439E-04    0.13      22.0  T
     SCC iter.                  ...        0 min,  0.240 sec
     gradient                   ...        0 min,  0.069 sec
 * total energy  :  -161.3466386 Eh     change       -0.4025269E-03 Eh
   gradient norm :     0.0103706 Eh/α   predicted    -0.3410290E-03 ( -15.28%)
   displ. norm   :     0.6768444 α      lambda       -0.5005648E-03
   maximum displ.:     0.3682330 α      in ANC's #7, #8, #6, ...

........................................................................
.............................. CYCLE   17 ..............................
........................................................................

 iter      E             dE          RMSdq      gap      omega  full diag
   1   -163.2921827 -0.163292E+03  0.131E-01    0.08       0.0  T
   2   -163.2889679  0.321475E-02  0.162E-01    0.42       1.0  T
   3   -163.2923465 -0.337858E-02  0.919E-02    0.17       1.0  T
   4   -163.2921737  0.172768E-03  0.803E-02    0.13       1.0  T
   5   -163.2823189  0.985481E-02  0.233E-01    0.04       1.0  T
   6   -163.2932322 -0.109133E-01  0.436E-02    0.16       1.0  T
   7   -163.2933644 -0.132164E-03  0.345E-02    0.15       1.0  T
   8   -163.2935152 -0.150771E-03  0.192E-02    0.14       1.0  T
   9   -163.2935767 -0.615011E-04  0.557E-03    0.13       1.7  T
  10   -163.2935808 -0.409500E-05  0.256E-03    0.13       3.8  T
  11   -163.2935818 -0.101801E-05  0.120E-03    0.12       8.1  T
  12   -163.2935820 -0.239379E-06  0.611E-04    0.12      15.8  T
  13   -163.2935821 -0.367907E-07  0.451E-04    0.12      21.4  T
     SCC iter.                  ...        0 min,  0.370 sec
     gradient                   ...        0 min,  0.055 sec
 * total energy  :  -161.3470671 Eh     change       -0.4285263E-03 Eh
   gradient norm :     0.0088894 Eh/α   predicted    -0.3649416E-03 ( -14.84%)
   displ. norm   :     0.6476195 α      lambda       -0.5666672E-03
   maximum displ.:     0.3679486 α      in ANC's #7, #8, #6, ...

........................................................................
.............................. CYCLE   18 ..............................
........................................................................

 iter      E             dE          RMSdq      gap      omega  full diag
   1   -163.2974341 -0.163297E+03  0.926E-02    0.16       0.0  T
   2   -163.2669035  0.305306E-01  0.391E-01    0.01       1.0  T
   3   -163.2974004 -0.304969E-01  0.613E-02    0.16       1.0  T
   4   -163.2959795  0.142092E-02  0.788E-02    0.12       1.0  T
   5   -163.2975558 -0.157635E-02  0.256E-02    0.14       1.0  T
   6   -163.2976714 -0.115555E-03  0.156E-02    0.14       1.0  T
   7   -163.2977003 -0.289029E-04  0.106E-02    0.13       1.0  T
   8   -163.2977098 -0.948417E-05  0.790E-03    0.13       1.2  T
   9   -163.2977165 -0.674482E-05  0.515E-03    0.13       1.9  T
  10   -163.2977195 -0.301013E-05  0.315E-03    0.13       3.1  T
  11   -163.2977209 -0.138623E-05  0.174E-03    0.13       5.6  T
  12   -163.2977214 -0.424394E-06  0.925E-04    0.13      10.5  T
  13   -163.2977215 -0.110395E-06  0.484E-04    0.13      20.0  T
     SCC iter.                  ...        0 min,  0.434 sec
     gradient                   ...        0 min,  0.052 sec
 * total energy  :  -161.3475041 Eh     change       -0.4370085E-03 Eh
   gradient norm :     0.0078492 Eh/α   predicted    -0.4021689E-03 (  -7.97%)
   displ. norm   :     0.7394862 α      lambda       -0.5458609E-03
   maximum displ.:     0.4132003 α      in ANC's #7, #8, #6, ...

........................................................................
.............................. CYCLE   19 ..............................
........................................................................

 iter      E             dE          RMSdq      gap      omega  full diag
   1   -163.2908709 -0.163291E+03  0.188E-01    0.06       0.0  T
   2   -163.2855117  0.535919E-02  0.236E-01    0.46       1.0  T
   3   -163.2923749 -0.686318E-02  0.151E-01    0.33       1.0  T
   4   -163.2930456 -0.670722E-03  0.124E-01    0.26       1.0  T
   5   -163.2959975 -0.295192E-02  0.484E-02    0.13       1.0  T
   6   -163.2752991  0.206984E-01  0.317E-01    0.02       1.0  T
   7   -163.2956691 -0.203699E-01  0.535E-02    0.16       1.0  T
   8   -163.2957871 -0.118004E-03  0.466E-02    0.16       1.0  T
   9   -163.2960822 -0.295169E-03  0.249E-02    0.14       1.0  T
  10   -163.2961896 -0.107368E-03  0.674E-03    0.12       1.4  T
  11   -163.2961959 -0.628059E-05  0.347E-03    0.12       2.8  T
  12   -163.2961971 -0.124597E-05  0.220E-03    0.12       4.4  T
  13   -163.2961980 -0.867451E-06  0.545E-04    0.12      17.7  T
  14   -163.2961980  0.200109E-08  0.564E-04    0.12      17.1  T
     SCC iter.                  ...        0 min,  0.315 sec
     gradient                   ...        0 min,  0.054 sec
 * total energy  :  -161.3479938 Eh     change       -0.4896828E-03 Eh
   gradient norm :     0.0073553 Eh/α   predicted    -0.4221801E-03 ( -13.78%)
   displ. norm   :     0.6876676 α      lambda       -0.6076660E-03
   maximum displ.:     0.3937732 α      in ANC's #7, #8, #6, ...

........................................................................
.............................. CYCLE   20 ..............................
........................................................................

 iter      E             dE          RMSdq      gap      omega  full diag
   1   -163.2983854 -0.163298E+03  0.892E-02    0.10       0.0  T
   2   -163.2967405  0.164496E-02  0.105E-01    0.22       1.0  T
   3   -163.2944415  0.229893E-02  0.141E-01    0.06       1.0  T
   4   -163.2971482 -0.270665E-02  0.807E-02    0.19       1.0  T
   5   -163.2977868 -0.638643E-03  0.614E-02    0.17       1.0  T
   6   -163.2980777 -0.290887E-03  0.476E-02    0.16       1.0  T
   7   -163.2983544 -0.276732E-03  0.319E-02    0.14       1.0  T
   8   -163.2985364 -0.181990E-03  0.110E-02    0.13       1.0  T
   9   -163.2985590 -0.225916E-04  0.368E-03    0.12       2.6  T
  10   -163.2985593 -0.257595E-06  0.327E-03    0.12       3.0  T
  11   -163.2985611 -0.176776E-05  0.143E-03    0.12       6.8  T
  12   -163.2985614 -0.362852E-06  0.475E-04    0.12      20.4  T
  13   -163.2985614 -0.260131E-07  0.291E-04    0.12      33.3  T
     SCC iter.                  ...        0 min,  0.264 sec
     gradient                   ...        0 min,  0.050 sec
 * total energy  :  -161.3485233 Eh     change       -0.5294557E-03 Eh
   gradient norm :     0.0076265 Eh/α   predicted    -0.4475165E-03 ( -15.48%)
   displ. norm   :     0.7128756 α      lambda       -0.6639873E-03
   maximum displ.:     0.4061675 α      in ANC's #7, #8, #6, ...
 * RMSD in coord.:     0.7773120 α      energy gain  -0.1722902E-01 Eh

generating ANC from exact Hessian ...
Using Lindh-Hessian (1995)
 Shifting diagonal of input Hessian by   1.029281416080361E-002
 Lowest  eigenvalues of input Hessian
    0.010000    0.010082    0.010121    0.010146    0.010262    0.000000
    0.000000    0.000000    0.000000    0.000000    0.000000    0.010308
    0.010324    0.010374    0.010427    0.010454    0.010662    0.010671
 Highest eigenvalues
    2.145627    2.155458    2.157512    2.166888    2.194008    2.365419
 

........................................................................
.............................. CYCLE   21 ..............................
........................................................................

 iter      E             dE          RMSdq      gap      omega  full diag
   1   -163.2996054 -0.163300E+03  0.935E-02    0.10       0.0  T
   2   -163.2973822  0.222313E-02  0.121E-01    0.27       1.0  T
   3   -163.2988964 -0.151422E-02  0.755E-02    0.09       1.0  T
   4   -163.2976544  0.124209E-02  0.871E-02    0.16       1.0  T
   5   -163.2997495 -0.209512E-02  0.337E-02    0.14       1.0  T
   6   -163.2999576 -0.208138E-03  0.115E-02    0.12       1.0  T
   7   -163.2999780 -0.204116E-04  0.679E-03    0.11       1.4  T
   8   -163.2999860 -0.793177E-05  0.378E-03    0.12       2.6  T
   9   -163.2999869 -0.916837E-06  0.289E-03    0.12       3.3  T
  10   -163.2999885 -0.165457E-05  0.100E-03    0.12       9.7  T
  11   -163.2999887 -0.193905E-06  0.573E-04    0.12      16.9  T
  12   -163.2999888 -0.498364E-07  0.274E-04    0.12      35.2  T
     SCC iter.                  ...        0 min,  0.255 sec
     gradient                   ...        0 min,  0.053 sec
 * total energy  :  -161.3490934 Eh     change       -0.5700862E-03 Eh
   gradient norm :     0.0090385 Eh/α   predicted     0.0000000E+00 (-100.00%)
   displ. norm   :     0.1229240 α      lambda       -0.3188739E-03
   maximum displ.:     0.0366952 α      in ANC's #9, #4, #11, ...

........................................................................
.............................. CYCLE   22 ..............................
........................................................................

 iter      E             dE          RMSdq      gap      omega  full diag
   1   -163.2991363 -0.163299E+03  0.845E-02    0.13       0.0  T
   2   -163.2903992  0.873708E-02  0.211E-01    0.04       1.0  T
   3   -163.2983426 -0.794339E-02  0.800E-02    0.18       1.0  T
   4   -163.2979843  0.358271E-03  0.751E-02    0.15       1.0  T
   5   -163.2987575 -0.773152E-03  0.478E-02    0.16       1.0  T
   6   -163.2989972 -0.239739E-03  0.355E-02    0.15       1.0  T
   7   -163.2991012 -0.103997E-03  0.271E-02    0.14       1.0  T
   8   -163.2991903 -0.890673E-04  0.167E-02    0.13       1.0  T
   9   -163.2992347 -0.444025E-04  0.732E-03    0.12       1.3  T
  10   -163.2992429 -0.828257E-05  0.279E-03    0.12       3.5  T
  11   -163.2992443 -0.137141E-05  0.113E-03    0.12       8.6  T
  12   -163.2992445 -0.231335E-06  0.314E-04    0.12      30.8  T
  13   -163.2992445  0.916529E-08  0.364E-04    0.12      26.6  T
     SCC iter.                  ...        0 min,  0.263 sec
     gradient                   ...        0 min,  0.054 sec
 * total energy  :  -161.3492268 Eh     change       -0.1333930E-03 Eh
   gradient norm :     0.0052001 Eh/α   predicted    -0.1618483E-03 (  21.33%)
   displ. norm   :     0.2109602 α      lambda       -0.4612197E-03
   maximum displ.:     0.0718475 α      in ANC's #7, #9, #8, ...

........................................................................
.............................. CYCLE   23 ..............................
........................................................................

 iter      E             dE          RMSdq      gap      omega  full diag
   1   -163.2980738 -0.163298E+03  0.687E-02    0.14       0.0  T
   2   -163.2777958  0.202780E-01  0.314E-01    0.02       1.0  T
   3   -163.2979888 -0.201930E-01  0.518E-02    0.15       1.0  T
   4   -163.2977127  0.276160E-03  0.490E-02    0.13       1.0  T
   5   -163.2981790 -0.466299E-03  0.210E-02    0.13       1.0  T
   6   -163.2982276 -0.485752E-04  0.140E-02    0.13       1.0  T
   7   -163.2982575 -0.299236E-04  0.937E-03    0.13       1.0  T
   8   -163.2982679 -0.104338E-04  0.586E-03    0.13       1.6  T
   9   -163.2982718 -0.391441E-05  0.375E-03    0.12       2.6  T
  10   -163.2982739 -0.211262E-05  0.157E-03    0.12       6.2  T
  11   -163.2982744 -0.436385E-06  0.471E-04    0.12      20.5  T
  12   -163.2982744 -0.279305E-07  0.248E-04    0.12      39.0  T
     SCC iter.                  ...        0 min,  0.255 sec
     gradient                   ...        0 min,  0.053 sec
 * total energy  :  -161.3495253 Eh     change       -0.2985625E-03 Eh
   gradient norm :     0.0071465 Eh/α   predicted    -0.2408743E-03 ( -19.32%)
   displ. norm   :     0.2382571 α      lambda       -0.2712472E-03
   maximum displ.:     0.0911938 α      in ANC's #9, #7, #11, ...

........................................................................
.............................. CYCLE   24 ..............................
........................................................................

 iter      E             dE          RMSdq      gap      omega  full diag
   1   -163.2974506 -0.163297E+03  0.453E-02    0.13       0.0  T
   2   -163.2966631  0.787440E-03  0.653E-02    0.09       1.0  T
   3   -163.2969255 -0.262365E-03  0.555E-02    0.16       1.0  T
   4   -163.2973178 -0.392276E-03  0.269E-02    0.13       1.0  T
   5   -163.2974001 -0.822845E-04  0.181E-02    0.13       1.0  T
   6   -163.2974569 -0.568288E-04  0.924E-03    0.13       1.0  T
   7   -163.2974695 -0.125853E-04  0.486E-03    0.13       2.0  T
   8   -163.2974744 -0.493170E-05  0.120E-03    0.12       8.1  T
   9   -163.2974744 -0.118446E-07  0.124E-03    0.12       7.8  T
  10   -163.2974747 -0.290581E-06  0.475E-04    0.12      20.4  T
  11   -163.2974747 -0.275548E-07  0.333E-04    0.12      29.1  T
     SCC iter.                  ...        0 min,  0.234 sec
     gradient                   ...        0 min,  0.051 sec
 * total energy  :  -161.3497262 Eh     change       -0.2008778E-03 Eh
   gradient norm :     0.0094706 Eh/α   predicted    -0.1433259E-03 ( -28.65%)
   displ. norm   :     0.3938966 α      lambda       -0.3815301E-03
   maximum displ.:     0.1556105 α      in ANC's #9, #7, #11, ...

........................................................................
.............................. CYCLE   25 ..............................
........................................................................

 iter      E             dE          RMSdq      gap      omega  full diag
   1   -163.2969649 -0.163297E+03  0.564E-02    0.12       0.0  T
   2   -163.2969428  0.220248E-04  0.362E-02    0.13       1.0  T
   3   -163.2961649  0.777896E-03  0.603E-02    0.10       1.0  T
   4   -163.2967303 -0.565375E-03  0.338E-02    0.15       1.0  T
   5   -163.2969304 -0.200092E-03  0.125E-02    0.12       1.0  T
   6   -163.2969702 -0.397884E-04  0.542E-03    0.13       1.8  T
   7   -163.2969761 -0.592538E-05  0.222E-03    0.12       4.4  T
   8   -163.2969766 -0.480092E-06  0.141E-03    0.12       6.8  T
   9   -163.2969768 -0.229690E-06  0.988E-04    0.12       9.8  T
  10   -163.2969770 -0.141787E-06  0.553E-04    0.12      17.5  T
     SCC iter.                  ...        0 min,  0.186 sec
     gradient                   ...        0 min,  0.050 sec
 * total energy  :  -161.3500177 Eh     change       -0.2914565E-03 Eh
   gradient norm :     0.0082197 Eh/α   predicted    -0.2203636E-03 ( -24.39%)
   displ. norm   :     0.4478927 α      lambda       -0.4047155E-03
   maximum displ.:     0.1848037 α      in ANC's #9, #7, #11, ...

........................................................................
.............................. CYCLE   26 ..............................
........................................................................

 iter      E             dE          RMSdq      gap      omega  full diag
   1   -163.2984282 -0.163298E+03  0.528E-02    0.12       0.0  T
   2   -163.2984130  0.152032E-04  0.326E-02    0.12       1.0  T
   3   -163.2977092  0.703887E-03  0.506E-02    0.14       1.0  T
   4   -163.2980623 -0.353128E-03  0.422E-02    0.10       1.0  T
   5   -163.2983793 -0.317026E-03  0.163E-02    0.13       1.0  T
   6   -163.2984334 -0.540951E-04  0.483E-03    0.13       2.0  T
   7   -163.2984371 -0.371729E-05  0.278E-03    0.13       3.5  T
   8   -163.2984386 -0.149541E-05  0.134E-03    0.12       7.2  T
   9   -163.2984389 -0.265115E-06  0.709E-04    0.12      13.6  T
  10   -163.2984389 -0.375999E-08  0.604E-04    0.12      16.0  T
     SCC iter.                  ...        0 min,  0.186 sec
     gradient                   ...        0 min,  0.054 sec
 * total energy  :  -161.3503250 Eh     change       -0.3073921E-03 Eh
   gradient norm :     0.0050386 Eh/α   predicted    -0.2429578E-03 ( -20.96%)
   displ. norm   :     0.4949721 α      lambda       -0.3328208E-03
   maximum displ.:     0.2088614 α      in ANC's #7, #9, #11, ...

........................................................................
.............................. CYCLE   27 ..............................
........................................................................

 iter      E             dE          RMSdq      gap      omega  full diag
   1   -163.2995566 -0.163300E+03  0.623E-02    0.14       0.0  T
   2   -163.2958891  0.366751E-02  0.137E-01    0.07       1.0  T
   3   -163.2992290 -0.333983E-02  0.544E-02    0.16       1.0  T
   4   -163.2991791  0.499019E-04  0.447E-02    0.15       1.0  T
   5   -163.2994097 -0.230608E-03  0.303E-02    0.15       1.0  T
   6   -163.2995510 -0.141310E-03  0.196E-02    0.14       1.0  T
   7   -163.2996009 -0.499155E-04  0.114E-02    0.13       1.0  T
   8   -163.2996216 -0.206703E-04  0.530E-03    0.13       1.8  T
   9   -163.2996264 -0.482897E-05  0.155E-03    0.13       6.2  T
  10   -163.2996267 -0.324652E-06  0.712E-04    0.13      13.6  T
  11   -163.2996268 -0.751158E-07  0.344E-04    0.13      28.1  T
     SCC iter.                  ...        0 min,  0.220 sec
     gradient                   ...        0 min,  0.051 sec
 * total energy  :  -161.3505912 Eh     change       -0.2661527E-03 Eh
   gradient norm :     0.0046729 Eh/α   predicted    -0.2071825E-03 ( -22.16%)
   displ. norm   :     0.4890320 α      lambda       -0.3008890E-03
   maximum displ.:     0.2210145 α      in ANC's #7, #9, #11, ...

........................................................................
.............................. CYCLE   28 ..............................
........................................................................

 iter      E             dE          RMSdq      gap      omega  full diag
   1   -163.3020571 -0.163302E+03  0.585E-02    0.15       0.0  T
   2   -163.2932646  0.879251E-02  0.208E-01    0.05       1.0  T
   3   -163.3020422 -0.877764E-02  0.394E-02    0.15       1.0  T
   4   -163.3017862  0.256030E-03  0.387E-02    0.14       1.0  T
   5   -163.3021116 -0.325387E-03  0.168E-02    0.14       1.0  T
   6   -163.3021663 -0.547763E-04  0.969E-03    0.14       1.0  T
   7   -163.3021758 -0.945702E-05  0.654E-03    0.13       1.5  T
   8   -163.3021814 -0.559502E-05  0.386E-03    0.13       2.5  T
   9   -163.3021833 -0.192127E-05  0.195E-03    0.13       4.9  T
  10   -163.3021840 -0.671186E-06  0.650E-04    0.13      14.9  T
  11   -163.3021841 -0.756471E-07  0.212E-04    0.13      45.6  T
     SCC iter.                  ...        0 min,  0.189 sec
     gradient                   ...        0 min,  0.052 sec
 * total energy  :  -161.3508267 Eh     change       -0.2354777E-03 Eh
   gradient norm :     0.0061824 Eh/α   predicted    -0.1864245E-03 ( -20.83%)
   displ. norm   :     0.5145215 α      lambda       -0.2642632E-03
   maximum displ.:     0.2453499 α      in ANC's #7, #9, #11, ...

........................................................................
.............................. CYCLE   29 ..............................
........................................................................

 iter      E             dE          RMSdq      gap      omega  full diag
   1   -163.3023945 -0.163302E+03  0.605E-02    0.14       0.0  T
   2   -163.3010870  0.130749E-02  0.859E-02    0.09       1.0  T
   3   -163.3018202 -0.733168E-03  0.609E-02    0.18       1.0  T
   4   -163.3020885 -0.268315E-03  0.402E-02    0.15       1.0  T
   5   -163.3022502 -0.161722E-03  0.281E-02    0.15       1.0  T
   6   -163.3023633 -0.113054E-03  0.186E-02    0.15       1.0  T
   7   -163.3024126 -0.493572E-04  0.102E-02    0.14       1.0  T
   8   -163.3024313 -0.187150E-04  0.339E-03    0.13       2.9  T
   9   -163.3024333 -0.197553E-05  0.126E-03    0.13       7.7  T
  10   -163.3024334 -0.125118E-06  0.825E-04    0.13      11.7  T
  11   -163.3024336 -0.129422E-06  0.378E-04    0.13      25.6  T
     SCC iter.                  ...        0 min,  0.222 sec
     gradient                   ...        0 min,  0.050 sec
 * total energy  :  -161.3510355 Eh     change       -0.2088615E-03 Eh
   gradient norm :     0.0042056 Eh/α   predicted    -0.1671116E-03 ( -19.99%)
   displ. norm   :     0.4391741 α      lambda       -0.2466144E-03
   maximum displ.:     0.2275369 α      in ANC's #7, #6, #9, ...

........................................................................
.............................. CYCLE   30 ..............................
........................................................................

 iter      E             dE          RMSdq      gap      omega  full diag
   1   -163.3035795 -0.163304E+03  0.561E-02    0.14       0.0  T
   2   -163.3030321  0.547337E-03  0.611E-02    0.10       1.0  T
   3   -163.3028306  0.201547E-03  0.640E-02    0.19       1.0  T
   4   -163.3033590 -0.528403E-03  0.338E-02    0.15       1.0  T
   5   -163.3034778 -0.118818E-03  0.232E-02    0.15       1.0  T
   6   -163.3035564 -0.785606E-04  0.146E-02    0.14       1.0  T
   7   -163.3035875 -0.311489E-04  0.805E-03    0.14       1.2  T
   8   -163.3035991 -0.116122E-04  0.176E-03    0.13       5.5  T
   9   -163.3035996 -0.466313E-06  0.109E-03    0.13       8.9  T
  10   -163.3035997 -0.897847E-07  0.730E-04    0.13      13.2  T
  11   -163.3035998 -0.113137E-06  0.273E-04    0.13      35.4  T
     SCC iter.                  ...        0 min,  0.197 sec
     gradient                   ...        0 min,  0.049 sec
 * total energy  :  -161.3512359 Eh     change       -0.2003763E-03 Eh
   gradient norm :     0.0064873 Eh/α   predicted    -0.1470947E-03 ( -26.59%)
   displ. norm   :     0.4354904 α      lambda       -0.2637938E-03
   maximum displ.:     0.2419907 α      in ANC's #7, #6, #11, ...

........................................................................
.............................. CYCLE   31 ..............................
........................................................................

 iter      E             dE          RMSdq      gap      omega  full diag
   1   -163.3033470 -0.163303E+03  0.586E-02    0.13       0.0  T
   2   -163.3032686  0.783860E-04  0.413E-02    0.15       1.0  T
   3   -163.2964853  0.678329E-02  0.182E-01    0.06       1.0  T
   4   -163.3028326 -0.634733E-02  0.458E-02    0.16       1.0  T
   5   -163.3033048 -0.472175E-03  0.171E-02    0.14       1.0  T
   6   -163.3033159 -0.111301E-04  0.144E-02    0.14       1.0  T
   7   -163.3033376 -0.216485E-04  0.105E-02    0.14       1.0  T
   8   -163.3033496 -0.120530E-04  0.678E-03    0.14       1.4  T
   9   -163.3033575 -0.787690E-05  0.238E-03    0.13       4.1  T
  10   -163.3033584 -0.897887E-06  0.814E-04    0.13      11.9  T
  11   -163.3033585 -0.692066E-07  0.454E-04    0.13      21.3  T
     SCC iter.                  ...        0 min,  0.278 sec
     gradient                   ...        0 min,  0.060 sec
 * total energy  :  -161.3514640 Eh     change       -0.2280754E-03 Eh
   gradient norm :     0.0053677 Eh/α   predicted    -0.1569137E-03 ( -31.20%)
   displ. norm   :     0.4847907 α      lambda       -0.3390390E-03
   maximum displ.:     0.2792278 α      in ANC's #7, #6, #11, ...

........................................................................
.............................. CYCLE   32 ..............................
........................................................................

 iter      E             dE          RMSdq      gap      omega  full diag
   1   -163.3031997 -0.163303E+03  0.708E-02    0.12       0.0  T
   2   -163.3027329  0.466810E-03  0.655E-02    0.18       1.0  T
   3   -163.2978896  0.484325E-02  0.160E-01    0.06       1.0  T
   4   -163.3024165 -0.452684E-02  0.602E-02    0.18       1.0  T
   5   -163.3030008 -0.584334E-03  0.370E-02    0.17       1.0  T
   6   -163.3030455 -0.447134E-04  0.317E-02    0.16       1.0  T
   7   -163.3031394 -0.939348E-04  0.243E-02    0.15       1.0  T
   8   -163.3031936 -0.541143E-04  0.175E-02    0.15       1.0  T
   9   -163.3032397 -0.461396E-04  0.844E-03    0.14       1.1  T
  10   -163.3032492 -0.946797E-05  0.474E-03    0.13       2.0  T
  11   -163.3032529 -0.373141E-05  0.137E-03    0.13       7.1  T
  12   -163.3032533 -0.355212E-06  0.479E-04    0.13      20.2  T
  13   -163.3032533 -0.361806E-08  0.507E-04    0.13      19.1  T
     SCC iter.                  ...        0 min,  0.268 sec
     gradient                   ...        0 min,  0.061 sec
 * total energy  :  -161.3517554 Eh     change       -0.2914270E-03 Eh
   gradient norm :     0.0053339 Eh/α   predicted    -0.2093641E-03 ( -28.16%)
   displ. norm   :     0.5630749 α      lambda       -0.3978464E-03
   maximum displ.:     0.3304468 α      in ANC's #7, #6, #5, ...

........................................................................
.............................. CYCLE   33 ..............................
........................................................................

 iter      E             dE          RMSdq      gap      omega  full diag
   1   -163.3012748 -0.163301E+03  0.894E-02    0.10       0.0  T
   2   -163.2996846  0.159014E-02  0.109E-01    0.27       1.0  T
   3   -163.3010498 -0.136512E-02  0.582E-02    0.11       1.0  T
   4   -163.2993735  0.167630E-02  0.821E-02    0.15       1.0  T
   5   -163.3015477 -0.217422E-02  0.188E-02    0.13       1.0  T
   6   -163.3016098 -0.621187E-04  0.854E-03    0.13       1.1  T
   7   -163.3016240 -0.141914E-04  0.404E-03    0.13       2.4  T
   8   -163.3016267 -0.270926E-05  0.214E-03    0.13       4.5  T
   9   -163.3016267 -0.310704E-07  0.189E-03    0.13       5.1  T
  10   -163.3016275 -0.762031E-06  0.732E-04    0.13      13.2  T
  11   -163.3016276 -0.917252E-07  0.418E-04    0.13      23.1  T
     SCC iter.                  ...        0 min,  0.246 sec
     gradient                   ...        0 min,  0.057 sec
 * total energy  :  -161.3520804 Eh     change       -0.3249630E-03 Eh
   gradient norm :     0.0064566 Eh/α   predicted    -0.2619958E-03 ( -19.38%)
   displ. norm   :     0.5701311 α      lambda       -0.3871183E-03
   maximum displ.:     0.3359713 α      in ANC's #7, #6, #5, ...

........................................................................
.............................. CYCLE   34 ..............................
........................................................................

 iter      E             dE          RMSdq      gap      omega  full diag
   1   -163.3005961 -0.163301E+03  0.867E-02    0.11       0.0  T
   2   -163.2990194  0.157675E-02  0.105E-01    0.25       1.0  T
   3   -163.2997373 -0.717937E-03  0.763E-02    0.10       1.0  T
   4   -163.2987526  0.984764E-03  0.822E-02    0.17       1.0  T
   5   -163.3006091 -0.185657E-02  0.347E-02    0.15       1.0  T
   6   -163.3007997 -0.190598E-03  0.170E-02    0.14       1.0  T
   7   -163.3008582 -0.584785E-04  0.505E-03    0.13       1.9  T
   8   -163.3008623 -0.412230E-05  0.301E-03    0.13       3.2  T
   9   -163.3008631 -0.792278E-06  0.258E-03    0.13       3.7  T
  10   -163.3008637 -0.557829E-06  0.191E-03    0.13       5.1  T
  11   -163.3008644 -0.751762E-06  0.511E-04    0.13      18.9  T
  12   -163.3008644 -0.291393E-07  0.349E-04    0.13      27.7  T
     SCC iter.                  ...        0 min,  0.226 sec
     gradient                   ...        0 min,  0.055 sec
 * total energy  :  -161.3524004 Eh     change       -0.3200499E-03 Eh
   gradient norm :     0.0087529 Eh/α   predicted    -0.2564778E-03 ( -19.86%)
   displ. norm   :     0.5689075 α      lambda       -0.4195423E-03
   maximum displ.:     0.3369081 α      in ANC's #7, #6, #5, ...

........................................................................
.............................. CYCLE   35 ..............................
........................................................................

 iter      E             dE          RMSdq      gap      omega  full diag
   1   -163.3009326 -0.163301E+03  0.781E-02    0.10       0.0  T
   2   -163.2993531  0.157948E-02  0.102E-01    0.24       1.0  T
   3   -163.3005414 -0.118830E-02  0.596E-02    0.10       1.0  T
   4   -163.2994300  0.111147E-02  0.726E-02    0.15       1.0  T
   5   -163.3010629 -0.163297E-02  0.229E-02    0.14       1.0  T
   6   -163.3011662 -0.103279E-03  0.777E-03    0.13       1.2  T
   7   -163.3011744 -0.821049E-05  0.466E-03    0.12       2.1  T
   8   -163.3011789 -0.444711E-05  0.184E-03    0.12       5.3  T
   9   -163.3011786  0.257672E-06  0.219E-03    0.13       4.4  T
  10   -163.3011794 -0.770942E-06  0.113E-03    0.13       8.6  T
  11   -163.3011796 -0.229548E-06  0.442E-04    0.12      21.9  T
  12   -163.3011796 -0.196249E-07  0.290E-04    0.12      33.4  T
     SCC iter.                  ...        0 min,  0.277 sec
     gradient                   ...        0 min,  0.051 sec
 * total energy  :  -161.3527744 Eh     change       -0.3739840E-03 Eh
   gradient norm :     0.0089742 Eh/α   predicted    -0.2776658E-03 ( -25.75%)
   displ. norm   :     0.6428743 α      lambda       -0.5347240E-03
   maximum displ.:     0.3790005 α      in ANC's #7, #6, #5, ...

........................................................................
.............................. CYCLE   36 ..............................
........................................................................

 iter      E             dE          RMSdq      gap      omega  full diag
   1   -163.3035478 -0.163304E+03  0.827E-02    0.11       0.0  T
   2   -163.3026766  0.871169E-03  0.824E-02    0.19       1.0  T
   3   -163.2961346  0.654200E-02  0.189E-01    0.05       1.0  T
   4   -163.3022046 -0.606999E-02  0.781E-02    0.19       1.0  T
   5   -163.3030225 -0.817906E-03  0.558E-02    0.18       1.0  T
   6   -163.3031757 -0.153213E-03  0.470E-02    0.17       1.0  T
   7   -163.3034040 -0.228329E-03  0.342E-02    0.15       1.0  T
   8   -163.3035108 -0.106773E-03  0.245E-02    0.14       1.0  T
   9   -163.3036024 -0.915939E-04  0.125E-02    0.13       1.0  T
  10   -163.3036237 -0.212887E-04  0.620E-03    0.13       1.6  T
  11   -163.3036304 -0.671332E-05  0.239E-03    0.13       4.0  T
  12   -163.3036313 -0.931231E-06  0.769E-04    0.12      12.6  T
  13   -163.3036314 -0.741432E-07  0.441E-04    0.12      21.9  T
     SCC iter.                  ...        0 min,  0.222 sec
     gradient                   ...        0 min,  0.050 sec
 * total energy  :  -161.3532325 Eh     change       -0.4580792E-03 Eh
   gradient norm :     0.0054657 Eh/α   predicted    -0.3778662E-03 ( -17.51%)
   displ. norm   :     0.7478085 α      lambda       -0.5050346E-03
   maximum displ.:     0.4479434 α      in ANC's #7, #6, #5, ...

........................................................................
.............................. CYCLE   37 ..............................
........................................................................

 iter      E             dE          RMSdq      gap      omega  full diag
   1   -163.3041216 -0.163304E+03  0.949E-02    0.11       0.0  T
   2   -163.3030687  0.105291E-02  0.926E-02    0.20       1.0  T
   3   -163.2932699  0.979881E-02  0.229E-01    0.04       1.0  T
   4   -163.3023823 -0.911249E-02  0.898E-02    0.20       1.0  T
   5   -163.3034000 -0.101769E-02  0.659E-02    0.19       1.0  T
   6   -163.3035614 -0.161379E-03  0.577E-02    0.18       1.0  T
   7   -163.3038325 -0.271066E-03  0.456E-02    0.16       1.0  T
   8   -163.3039684 -0.135914E-03  0.364E-02    0.15       1.0  T
   9   -163.3041529 -0.184543E-03  0.204E-02    0.14       1.0  T
  10   -163.3042060 -0.531024E-04  0.112E-02    0.13       1.0  T
  11   -163.3042288 -0.227445E-04  0.339E-03    0.13       2.9  T
  12   -163.3042304 -0.157507E-05  0.170E-03    0.12       5.7  T
  13   -163.3042309 -0.506256E-06  0.439E-04    0.12      22.0  T
  14   -163.3042309 -0.831449E-09  0.504E-04    0.12      19.2  T
     SCC iter.                  ...        0 min,  0.235 sec
     gradient                   ...        0 min,  0.051 sec
 * total energy  :  -161.3537001 Eh     change       -0.4675832E-03 Eh
   gradient norm :     0.0052471 Eh/α   predicted    -0.3937341E-03 ( -15.79%)
   displ. norm   :     0.7663055 α      lambda       -0.5357839E-03
   maximum displ.:     0.4621704 α      in ANC's #7, #6, #5, ...

........................................................................
.............................. CYCLE   38 ..............................
........................................................................

 iter      E             dE          RMSdq      gap      omega  full diag
   1   -163.3050609 -0.163305E+03  0.103E-01    0.10       0.0  T
   2   -163.3036156  0.144531E-02  0.106E-01    0.22       1.0  T
   3   -163.2975032  0.611243E-02  0.193E-01    0.05       1.0  T
   4   -163.3030523 -0.554911E-02  0.978E-02    0.21       1.0  T
   5   -163.3042159 -0.116357E-02  0.734E-02    0.20       1.0  T
   6   -163.3044080 -0.192159E-03  0.642E-02    0.18       1.0  T
   7   -163.3047166 -0.308622E-03  0.518E-02    0.17       1.0  T
   8   -163.3049535 -0.236915E-03  0.380E-02    0.15       1.0  T
   9   -163.3051761 -0.222595E-03  0.186E-02    0.13       1.0  T
  10   -163.3052288 -0.526838E-04  0.893E-03    0.13       1.1  T
  11   -163.3052443 -0.154567E-04  0.843E-04    0.12      11.5  T
  12   -163.3052442  0.114462E-06  0.113E-03    0.12       8.6  T
  13   -163.3052444 -0.238227E-06  0.352E-04    0.12      27.5  T
  14   -163.3052443  0.595256E-07  0.704E-04    0.12      13.7  T
     SCC iter.                  ...        0 min,  0.242 sec
     gradient                   ...        0 min,  0.048 sec
 * total energy  :  -161.3542138 Eh     change       -0.5137296E-03 Eh
   gradient norm :     0.0059855 Eh/α   predicted    -0.4252116E-03 ( -17.23%)
   displ. norm   :     0.8066856 α      lambda       -0.6196757E-03
   maximum displ.:     0.4894011 α      in ANC's #7, #6, #5, ...

........................................................................
.............................. CYCLE   39 ..............................
........................................................................

 iter      E             dE          RMSdq      gap      omega  full diag
   1   -163.3058238 -0.163306E+03  0.111E-01    0.10       0.0  T
   2   -163.3041518  0.167200E-02  0.115E-01    0.23       1.0  T
   3   -163.2980343  0.611752E-02  0.197E-01    0.05       1.0  T
   4   -163.3033995 -0.536523E-02  0.107E-01    0.22       1.0  T
   5   -163.3048667 -0.146719E-02  0.795E-02    0.20       1.0  T
   6   -163.3050699 -0.203247E-03  0.702E-02    0.19       1.0  T
   7   -163.3053882 -0.318212E-03  0.584E-02    0.17       1.0  T
   8   -163.3056871 -0.298929E-03  0.430E-02    0.15       1.0  T
   9   -163.3059732 -0.286113E-03  0.207E-02    0.13       1.0  T
  10   -163.3060354 -0.621751E-04  0.111E-02    0.13       1.0  T
  11   -163.3060584 -0.230361E-04  0.170E-03    0.12       5.7  T
  12   -163.3060587 -0.322500E-06  0.106E-03    0.12       9.1  T
  13   -163.3060583  0.461889E-06  0.187E-03    0.12       5.2  T
  14   -163.3060589 -0.620250E-06  0.426E-04    0.12      22.7  T
  15   -163.3060589 -0.336434E-07  0.104E-04    0.12      93.1  T
     SCC iter.                  ...        0 min,  0.258 sec
     gradient                   ...        0 min,  0.048 sec
 * total energy  :  -161.3548112 Eh     change       -0.5974261E-03 Eh
   gradient norm :     0.0067058 Eh/α   predicted    -0.5114669E-03 ( -14.39%)
   displ. norm   :     0.8358739 α      lambda       -0.6959670E-03
   maximum displ.:     0.5106139 α      in ANC's #7, #6, #5, ...

........................................................................
.............................. CYCLE   40 ..............................
........................................................................

 iter      E             dE          RMSdq      gap      omega  full diag
   1   -163.3067374 -0.163307E+03  0.121E-01    0.10       0.0  T
   2   -163.3049635  0.177383E-02  0.122E-01    0.23       1.0  T
   3   -163.2946803  0.102832E-01  0.244E-01    0.04       1.0  T
   4   -163.3039083 -0.922799E-02  0.118E-01    0.23       1.0  T
   5   -163.3055651 -0.165678E-02  0.882E-02    0.22       1.0  T
   6   -163.3057408 -0.175682E-03  0.798E-02    0.20       1.0  T
   7   -163.3060734 -0.332559E-03  0.693E-02    0.18       1.0  T
   8   -163.3063461 -0.272706E-03  0.574E-02    0.17       1.0  T
   9   -163.3067583 -0.412235E-03  0.344E-02    0.14       1.0  T
  10   -163.3069346 -0.176337E-03  0.171E-02    0.13       1.0  T
  11   -163.3069906 -0.559394E-04  0.119E-03    0.12       8.1  T
  12   -163.3069904  0.161026E-06  0.170E-03    0.12       5.7  T
  13   -163.3069899  0.526703E-06  0.233E-03    0.12       4.2  T
  14   -163.3069909 -0.969206E-06  0.355E-04    0.12      27.2  T
  15   -163.3069909 -0.239882E-07  0.149E-04    0.12      64.8  T
     SCC iter.                  ...        0 min,  0.245 sec
     gradient                   ...        0 min,  0.051 sec
 * total energy  :  -161.3554750 Eh     change       -0.6637261E-03 Eh
   gradient norm :     0.0067489 Eh/α   predicted    -0.5911222E-03 ( -10.94%)
   displ. norm   :     0.8535214 α      lambda       -0.7309507E-03
   maximum displ.:     0.5228442 α      in ANC's #7, #6, #5, ...

........................................................................
.............................. CYCLE   41 ..............................
........................................................................

 iter      E             dE          RMSdq      gap      omega  full diag
   1   -163.3064330 -0.163306E+03  0.125E-01    0.09       0.0  T
   2   -163.3042825  0.215041E-02  0.133E-01    0.25       1.0  T
   3   -163.2994498  0.483275E-02  0.190E-01    0.05       1.0  T
   4   -163.3028028 -0.335297E-02  0.128E-01    0.24       1.0  T
   5   -163.3053126 -0.250983E-02  0.898E-02    0.21       1.0  T
   6   -163.3055489 -0.236344E-03  0.795E-02    0.19       1.0  T
   7   -163.3059186 -0.369692E-03  0.671E-02    0.17       1.0  T
   8   -163.3063752 -0.456547E-03  0.461E-02    0.15       1.0  T
   9   -163.3067324 -0.357238E-03  0.184E-02    0.13       1.0  T
  10   -163.3067701 -0.376426E-04  0.130E-02    0.12       1.0  T
  11   -163.3068011 -0.310409E-04  0.177E-03    0.11       5.4  T
  12   -163.3068016 -0.501982E-06  0.791E-04    0.11      12.2  T
  13   -163.3068015  0.144214E-06  0.118E-03    0.11       8.2  T
  14   -163.3068017 -0.207881E-06  0.633E-04    0.11      15.3  T
     SCC iter.                  ...        0 min,  0.235 sec
     gradient                   ...        0 min,  0.051 sec
 * total energy  :  -161.3561658 Eh     change       -0.6908783E-03 Eh
   gradient norm :     0.0061625 Eh/α   predicted    -0.6317274E-03 (  -8.56%)
   displ. norm   :     0.8456723 α      lambda       -0.7348717E-03
   maximum displ.:     0.5204349 α      in ANC's #7, #6, #5, ...

........................................................................
.............................. CYCLE   42 ..............................
........................................................................

 iter      E             dE          RMSdq      gap      omega  full diag
   1   -163.3071123 -0.163307E+03  0.119E-01    0.10       0.0  T
   2   -163.3052200  0.189227E-02  0.125E-01    0.22       1.0  T
   3   -163.2955711  0.964896E-02  0.241E-01    0.03       1.0  T
   4   -163.3036112 -0.804013E-02  0.128E-01    0.22       1.0  T
   5   -163.3058699 -0.225870E-02  0.907E-02    0.21       1.0  T
   6   -163.3060745 -0.204593E-03  0.814E-02    0.19       1.0  T
   7   -163.3064529 -0.378427E-03  0.693E-02    0.17       1.0  T
   8   -163.3067264 -0.273441E-03  0.574E-02    0.16       1.0  T
   9   -163.3071665 -0.440106E-03  0.321E-02    0.13       1.0  T
  10   -163.3073126 -0.146150E-03  0.170E-02    0.12       1.0  T
  11   -163.3073666 -0.540108E-04  0.129E-03    0.11       7.5  T
  12   -163.3073668 -0.188430E-06  0.976E-04    0.11       9.9  T
  13   -163.3073665  0.367874E-06  0.170E-03    0.11       5.7  T
  14   -163.3073670 -0.530646E-06  0.309E-04    0.11      31.3  T
     SCC iter.                  ...        0 min,  0.241 sec
     gradient                   ...        0 min,  0.051 sec
 * total energy  :  -161.3568512 Eh     change       -0.6853812E-03 Eh
   gradient norm :     0.0058463 Eh/α   predicted    -0.6302162E-03 (  -8.05%)
   displ. norm   :     0.8467490 α      lambda       -0.7311319E-03
   maximum displ.:     0.5201697 α      in ANC's #7, #6, #5, ...
 * RMSD in coord.:     1.0609720 α      energy gain  -0.8327939E-02 Eh

generating ANC from exact Hessian ...
Using Lindh-Hessian (1995)
 Shifting diagonal of input Hessian by   1.393985789823017E-002
 Lowest  eigenvalues of input Hessian
    0.010000    0.013685    0.013743    0.013790    0.013899    0.000000
    0.000000    0.000000    0.000000    0.000000    0.000000    0.013971
    0.013984    0.014021    0.014075    0.014099    0.014212    0.014366
 Highest eigenvalues
    2.151203    2.153080    2.163311    2.168166    2.197493    2.385247
 

........................................................................
.............................. CYCLE   43 ..............................
........................................................................

 iter      E             dE          RMSdq      gap      omega  full diag
   1   -163.3065371 -0.163307E+03  0.121E-01    0.09       0.0  T
   2   -163.3045111  0.202597E-02  0.128E-01    0.22       1.0  T
   3   -163.2944493  0.100619E-01  0.247E-01    0.03       1.0  T
   4   -163.3029399 -0.849063E-02  0.130E-01    0.22       1.0  T
   5   -163.3051961 -0.225622E-02  0.936E-02    0.21       1.0  T
   6   -163.3054249 -0.228761E-03  0.840E-02    0.19       1.0  T
   7   -163.3058314 -0.406545E-03  0.712E-02    0.17       1.0  T
   8   -163.3061263 -0.294907E-03  0.587E-02    0.15       1.0  T
   9   -163.3065983 -0.471993E-03  0.320E-02    0.13       1.0  T
  10   -163.3067430 -0.144707E-03  0.170E-02    0.12       1.0  T
  11   -163.3067975 -0.545043E-04  0.170E-03    0.11       5.7  T
  12   -163.3067978 -0.270909E-06  0.126E-03    0.11       7.7  T
  13   -163.3067976  0.206770E-06  0.159E-03    0.11       6.1  T
  14   -163.3067980 -0.437782E-06  0.375E-04    0.11      25.8  T
  15   -163.3067980 -0.137393E-07  0.280E-04    0.11      34.5  T
     SCC iter.                  ...        0 min,  0.259 sec
     gradient                   ...        0 min,  0.048 sec
 * total energy  :  -161.3575372 Eh     change       -0.6859360E-03 Eh
   gradient norm :     0.0067712 Eh/α   predicted     0.0000000E+00 (-100.00%)
   displ. norm   :     0.0867368 α      lambda       -0.1856141E-03
   maximum displ.:     0.0436409 α      in ANC's #8, #7, #10, ...

........................................................................
.............................. CYCLE   44 ..............................
........................................................................

 iter      E             dE          RMSdq      gap      omega  full diag
   1   -163.3083558 -0.163308E+03  0.351E-02    0.11       0.0  T
   2   -163.3080642  0.291638E-03  0.438E-02    0.14       1.0  T
   3   -163.3075613  0.502847E-03  0.636E-02    0.08       1.0  T
   4   -163.3082559 -0.694517E-03  0.245E-02    0.12       1.0  T
   5   -163.3083134 -0.575657E-04  0.153E-02    0.12       1.0  T
   6   -163.3083568 -0.433901E-04  0.770E-03    0.12       1.3  T
   7   -163.3083647 -0.785083E-05  0.407E-03    0.11       2.4  T
   8   -163.3083679 -0.320197E-05  0.990E-04    0.11       9.8  T
   9   -163.3083680 -0.140228E-06  0.470E-04    0.11      20.6  T
  10   -163.3083680 -0.272334E-07  0.334E-04    0.11      29.0  T
     SCC iter.                  ...        0 min,  0.161 sec
     gradient                   ...        0 min,  0.049 sec
 * total energy  :  -161.3576852 Eh     change       -0.1480638E-03 Eh
   gradient norm :     0.0035464 Eh/α   predicted    -0.9441292E-04 ( -36.23%)
   displ. norm   :     0.3174509 α      lambda       -0.5056615E-03
   maximum displ.:     0.1744893 α      in ANC's #8, #7, #10, ...

........................................................................
.............................. CYCLE   45 ..............................
........................................................................

 iter      E             dE          RMSdq      gap      omega  full diag
   1   -163.3122130 -0.163312E+03  0.752E-02    0.09       0.0  T
   2   -163.3100381  0.217486E-02  0.115E-01    0.22       1.0  T
   3   -163.3114116 -0.137346E-02  0.741E-02    0.08       1.0  T
   4   -163.3107883  0.623254E-03  0.773E-02    0.15       1.0  T
   5   -163.3121449 -0.135653E-02  0.379E-02    0.13       1.0  T
   6   -163.3123920 -0.247154E-03  0.151E-02    0.12       1.0  T
   7   -163.3124364 -0.443577E-04  0.427E-03    0.11       2.3  T
   8   -163.3124401 -0.375833E-05  0.208E-03    0.11       4.6  T
   9   -163.3124406 -0.508743E-06  0.175E-03    0.11       5.5  T
  10   -163.3124407 -0.627658E-07  0.170E-03    0.11       5.7  T
  11   -163.3124412 -0.500014E-06  0.565E-04    0.11      17.1  T
  12   -163.3124413 -0.598000E-07  0.245E-04    0.11      39.4  T
     SCC iter.                  ...        0 min,  0.207 sec
     gradient                   ...        0 min,  0.055 sec
 * total energy  :  -161.3579752 Eh     change       -0.2899837E-03 Eh
   gradient norm :     0.0084900 Eh/α   predicted    -0.2783117E-03 (  -4.03%)
   displ. norm   :     0.2644985 α      lambda       -0.2819443E-03
   maximum displ.:     0.1578258 α      in ANC's #8, #7, #10, ...

........................................................................
.............................. CYCLE   46 ..............................
........................................................................

 iter      E             dE          RMSdq      gap      omega  full diag
   1   -163.3123848 -0.163312E+03  0.653E-02    0.10       0.0  T
   2   -163.3112830  0.110182E-02  0.846E-02    0.17       1.0  T
   3   -163.3099346  0.134834E-02  0.113E-01    0.07       1.0  T
   4   -163.3117346 -0.179995E-02  0.601E-02    0.14       1.0  T
   5   -163.3121175 -0.382896E-03  0.400E-02    0.13       1.0  T
   6   -163.3122993 -0.181823E-03  0.277E-02    0.13       1.0  T
   7   -163.3123742 -0.749318E-04  0.192E-02    0.12       1.0  T
   8   -163.3124388 -0.645456E-04  0.751E-03    0.11       1.3  T
   9   -163.3124479 -0.915641E-05  0.211E-03    0.11       4.6  T
  10   -163.3124481 -0.165170E-06  0.206E-03    0.11       4.7  T
  11   -163.3124487 -0.633693E-06  0.767E-04    0.11      12.6  T
  12   -163.3124489 -0.110368E-06  0.268E-04    0.11      36.1  T
     SCC iter.                  ...        0 min,  0.199 sec
     gradient                   ...        0 min,  0.050 sec
 * total energy  :  -161.3581726 Eh     change       -0.1973900E-03 Eh
   gradient norm :     0.0091276 Eh/α   predicted    -0.1508429E-03 ( -23.58%)
   displ. norm   :     0.4286377 α      lambda       -0.4044156E-03
   maximum displ.:     0.2672951 α      in ANC's #8, #7, #10, ...

........................................................................
.............................. CYCLE   47 ..............................
........................................................................

 iter      E             dE          RMSdq      gap      omega  full diag
   1   -163.3105016 -0.163311E+03  0.696E-02    0.10       0.0  T
   2   -163.3090601  0.144146E-02  0.965E-02    0.18       1.0  T
   3   -163.3086370  0.423129E-03  0.101E-01    0.07       1.0  T
   4   -163.3093653 -0.728348E-03  0.722E-02    0.15       1.0  T
   5   -163.3102703 -0.904953E-03  0.413E-02    0.13       1.0  T
   6   -163.3104229 -0.152608E-03  0.298E-02    0.13       1.0  T
   7   -163.3105279 -0.105063E-03  0.192E-02    0.12       1.0  T
   8   -163.3105935 -0.655185E-04  0.617E-03    0.11       1.6  T
   9   -163.3106003 -0.678782E-05  0.224E-03    0.11       4.3  T
  10   -163.3106006 -0.385281E-06  0.159E-03    0.11       6.1  T
  11   -163.3106010 -0.362732E-06  0.850E-04    0.11      11.4  T
  12   -163.3106011 -0.971911E-07  0.431E-04    0.11      22.4  T
     SCC iter.                  ...        0 min,  0.206 sec
     gradient                   ...        0 min,  0.050 sec
 * total energy  :  -161.3585092 Eh     change       -0.3366494E-03 Eh
   gradient norm :     0.0064555 Eh/α   predicted    -0.2393609E-03 ( -28.90%)
   displ. norm   :     0.5113491 α      lambda       -0.5317589E-03
   maximum displ.:     0.3218478 α      in ANC's #8, #7, #10, ...

........................................................................
.............................. CYCLE   48 ..............................
........................................................................

 iter      E             dE          RMSdq      gap      omega  full diag
   1   -163.3086050 -0.163309E+03  0.759E-02    0.10       0.0  T
   2   -163.3072046  0.140047E-02  0.975E-02    0.17       1.0  T
   3   -163.3051393  0.206532E-02  0.136E-01    0.06       1.0  T
   4   -163.3069784 -0.183909E-02  0.853E-02    0.15       1.0  T
   5   -163.3082730 -0.129467E-02  0.484E-02    0.14       1.0  T
   6   -163.3084390 -0.166012E-03  0.373E-02    0.13       1.0  T
   7   -163.3085739 -0.134828E-03  0.267E-02    0.12       1.0  T
   8   -163.3086723 -0.984242E-04  0.143E-02    0.11       1.0  T
   9   -163.3087105 -0.382148E-04  0.342E-03    0.11       2.8  T
  10   -163.3087118 -0.129681E-05  0.204E-03    0.11       4.7  T
  11   -163.3087122 -0.368504E-06  0.146E-03    0.11       6.6  T
  12   -163.3087125 -0.350108E-06  0.369E-04    0.11      26.2  T
  13   -163.3087125 -0.283701E-07  0.181E-04    0.11      53.4  T
     SCC iter.                  ...        0 min,  0.213 sec
     gradient                   ...        0 min,  0.049 sec
 * total energy  :  -161.3589551 Eh     change       -0.4458371E-03 Eh
   gradient norm :     0.0063281 Eh/α   predicted    -0.3354016E-03 ( -24.77%)
   displ. norm   :     0.6117729 α      lambda       -0.5759749E-03
   maximum displ.:     0.3852819 α      in ANC's #8, #7, #10, ...

........................................................................
.............................. CYCLE   49 ..............................
........................................................................

 iter      E             dE          RMSdq      gap      omega  full diag
   1   -163.3078180 -0.163308E+03  0.871E-02    0.09       0.0  T
   2   -163.3056349  0.218312E-02  0.121E-01    0.21       1.0  T
   3   -163.3055339  0.100977E-03  0.115E-01    0.07       1.0  T
   4   -163.3055008  0.331064E-04  0.101E-01    0.16       1.0  T
   5   -163.3074231 -0.192229E-02  0.566E-02    0.14       1.0  T
   6   -163.3076868 -0.263673E-03  0.411E-02    0.13       1.0  T
   7   -163.3079021 -0.215264E-03  0.251E-02    0.12       1.0  T
   8   -163.3080182 -0.116119E-03  0.623E-03    0.11       1.6  T
   9   -163.3080239 -0.570127E-05  0.423E-03    0.11       2.3  T
  10   -163.3080250 -0.115668E-05  0.315E-03    0.11       3.1  T
  11   -163.3080268 -0.175582E-05  0.951E-04    0.11      10.2  T
  12   -163.3080270 -0.173048E-06  0.244E-04    0.11      39.6  T
  13   -163.3080270  0.637962E-08  0.290E-04    0.11      33.4  T
     SCC iter.                  ...        0 min,  0.230 sec
     gradient                   ...        0 min,  0.050 sec
 * total energy  :  -161.3594648 Eh     change       -0.5097296E-03 Eh
   gradient norm :     0.0089046 Eh/α   predicted    -0.3957736E-03 ( -22.36%)
   displ. norm   :     0.6895639 α      lambda       -0.6687582E-03
   maximum displ.:     0.4328970 α      in ANC's #8, #7, #10, ...

........................................................................
.............................. CYCLE   50 ..............................
........................................................................

 iter      E             dE          RMSdq      gap      omega  full diag
   1   -163.3083729 -0.163308E+03  0.894E-02    0.09       0.0  T
   2   -163.3054039  0.296901E-02  0.138E-01    0.24       1.0  T
   3   -163.3079245 -0.252063E-02  0.695E-02    0.08       1.0  T
   4   -163.3059973  0.192717E-02  0.972E-02    0.14       1.0  T
   5   -163.3086010 -0.260374E-02  0.261E-02    0.11       1.0  T
   6   -163.3087252 -0.124175E-03  0.878E-03    0.11       1.1  T
   7   -163.3087354 -0.102011E-04  0.516E-03    0.10       1.9  T
   8   -163.3087423 -0.687746E-05  0.181E-03    0.10       5.3  T
   9   -163.3087421  0.226632E-06  0.224E-03    0.11       4.3  T
  10   -163.3087427 -0.673849E-06  0.126E-03    0.10       7.7  T
  11   -163.3087430 -0.298308E-06  0.464E-04    0.10      20.8  T
  12   -163.3087431 -0.171977E-07  0.311E-04    0.10      31.1  T
     SCC iter.                  ...        0 min,  0.213 sec
     gradient                   ...        0 min,  0.049 sec
 * total energy  :  -161.3600814 Eh     change       -0.6166142E-03 Eh
   gradient norm :     0.0093446 Eh/α   predicted    -0.4933772E-03 ( -19.99%)
   displ. norm   :     0.7483788 α      lambda       -0.7977044E-03
   maximum displ.:     0.4667317 α      in ANC's #8, #7, #10, ...

........................................................................
.............................. CYCLE   51 ..............................
........................................................................

 iter      E             dE          RMSdq      gap      omega  full diag
   1   -163.3105976 -0.163311E+03  0.965E-02    0.08       0.0  T
   2   -163.3071318  0.346581E-02  0.148E-01    0.26       1.0  T
   3   -163.3103397 -0.320790E-02  0.667E-02    0.09       1.0  T
   4   -163.3082276  0.211214E-02  0.974E-02    0.14       1.0  T
   5   -163.3109763 -0.274877E-02  0.214E-02    0.10       1.0  T
   6   -163.3110566 -0.802953E-04  0.840E-03    0.10       1.2  T
   7   -163.3110663 -0.961608E-05  0.484E-03    0.10       2.0  T
   8   -163.3110714 -0.513095E-05  0.225E-03    0.10       4.3  T
   9   -163.3110718 -0.459292E-06  0.177E-03    0.10       5.5  T
  10   -163.3110724 -0.593552E-06  0.628E-04    0.10      15.4  T
  11   -163.3110725 -0.419315E-07  0.473E-04    0.10      20.4  T
     SCC iter.                  ...        0 min,  0.194 sec
     gradient                   ...        0 min,  0.051 sec
 * total energy  :  -161.3608230 Eh     change       -0.7416108E-03 Eh
   gradient norm :     0.0078886 Eh/α   predicted    -0.6222387E-03 ( -16.10%)
   displ. norm   :     0.8025386 α      lambda       -0.9016055E-03
   maximum displ.:     0.4981635 α      in ANC's #8, #7, #10, ...

........................................................................
.............................. CYCLE   52 ..............................
........................................................................

 iter      E             dE          RMSdq      gap      omega  full diag
   1   -163.3133034 -0.163313E+03  0.101E-01    0.08       0.0  T
   2   -163.3093331  0.397037E-02  0.157E-01    0.28       1.0  T
   3   -163.3132516 -0.391852E-02  0.640E-02    0.09       1.0  T
   4   -163.3112486  0.200295E-02  0.927E-02    0.13       1.0  T
   5   -163.3136959 -0.244727E-02  0.314E-02    0.09       1.0  T
   6   -163.3138608 -0.164894E-03  0.108E-02    0.10       1.0  T
   7   -163.3138830 -0.221603E-04  0.508E-03    0.10       1.9  T
   8   -163.3138871 -0.414318E-05  0.307E-03    0.10       3.1  T
   9   -163.3138887 -0.157777E-05  0.161E-03    0.10       6.0  T
  10   -163.3138891 -0.385436E-06  0.923E-04    0.10      10.5  T
  11   -163.3138892 -0.130308E-06  0.407E-04    0.10      23.8  T
     SCC iter.                  ...        0 min,  0.167 sec
     gradient                   ...        0 min,  0.048 sec
 * total energy  :  -161.3616562 Eh     change       -0.8331241E-03 Eh
   gradient norm :     0.0063298 Eh/α   predicted    -0.7411611E-03 ( -11.04%)
   displ. norm   :     0.8499429 α      lambda       -0.9361640E-03
   maximum displ.:     0.5249150 α      in ANC's #8, #7, #10, ...

........................................................................
.............................. CYCLE   53 ..............................
........................................................................

 iter      E             dE          RMSdq      gap      omega  full diag
   1   -163.3152737 -0.163315E+03  0.115E-01    0.08       0.0  T
   2   -163.3108630  0.441070E-02  0.167E-01    0.29       1.0  T
   3   -163.3150390 -0.417595E-02  0.759E-02    0.09       1.0  T
   4   -163.3126450  0.239392E-02  0.104E-01    0.13       1.0  T
   5   -163.3157576 -0.311252E-02  0.322E-02    0.10       1.0  T
   6   -163.3159360 -0.178451E-03  0.123E-02    0.10       1.0  T
   7   -163.3159637 -0.277345E-04  0.591E-03    0.10       1.6  T
   8   -163.3159707 -0.697099E-05  0.322E-03    0.10       3.0  T
   9   -163.3159722 -0.149187E-05  0.185E-03    0.10       5.2  T
  10   -163.3159727 -0.545526E-06  0.913E-04    0.10      10.6  T
  11   -163.3159729 -0.109527E-06  0.559E-04    0.10      17.3  T
     SCC iter.                  ...        0 min,  0.178 sec
     gradient                   ...        0 min,  0.045 sec
 * total energy  :  -161.3625304 Eh     change       -0.8742244E-03 Eh
   gradient norm :     0.0068203 Eh/α   predicted    -0.8062333E-03 (  -7.78%)
   displ. norm   :     0.8894696 α      lambda       -0.9656418E-03
   maximum displ.:     0.5457103 α      in ANC's #8, #7, #10, ...

........................................................................
.............................. CYCLE   54 ..............................
........................................................................

 iter      E             dE          RMSdq      gap      omega  full diag
   1   -163.3160235 -0.163316E+03  0.122E-01    0.08       0.0  T
   2   -163.3109578  0.506575E-02  0.179E-01    0.32       1.0  T
   3   -163.3163309 -0.537317E-02  0.692E-02    0.10       1.0  T
   4   -163.3146836  0.164732E-02  0.891E-02    0.10       1.0  T
   5   -163.3158916 -0.120799E-02  0.729E-02    0.08       1.0  T
   6   -163.3168793 -0.987656E-03  0.189E-02    0.11       1.0  T
   7   -163.3169527 -0.734436E-04  0.768E-03    0.11       1.3  T
   8   -163.3169579 -0.516221E-05  0.592E-03    0.11       1.6  T
   9   -163.3169641 -0.623635E-05  0.173E-03    0.10       5.6  T
  10   -163.3169641  0.344230E-07  0.181E-03    0.10       5.3  T
  11   -163.3169646 -0.578030E-06  0.544E-04    0.10      17.8  T
  12   -163.3169646  0.610677E-08  0.606E-04    0.10      16.0  T
     SCC iter.                  ...        0 min,  0.194 sec
     gradient                   ...        0 min,  0.044 sec
 * total energy  :  -161.3634598 Eh     change       -0.9294196E-03 Eh
   gradient norm :     0.0079657 Eh/α   predicted    -0.8648134E-03 (  -6.95%)
   displ. norm   :     0.9140299 α      lambda       -0.1055584E-02
   maximum displ.:     0.5537867 α      in ANC's #8, #7, #10, ...

........................................................................
.............................. CYCLE   55 ..............................
........................................................................

 iter      E             dE          RMSdq      gap      omega  full diag
   1   -163.3161916 -0.163316E+03  0.130E-01    0.08       0.0  T
   2   -163.3106332  0.555839E-02  0.188E-01    0.34       1.0  T
   3   -163.3166269 -0.599362E-02  0.747E-02    0.11       1.0  T
   4   -163.3152925  0.133439E-02  0.909E-02    0.09       1.0  T
   5   -163.3161915 -0.898984E-03  0.739E-02    0.08       1.0  T
   6   -163.3172219 -0.103043E-02  0.207E-02    0.11       1.0  T
   7   -163.3173068 -0.849136E-04  0.831E-03    0.11       1.2  T
   8   -163.3173108 -0.400852E-05  0.724E-03    0.11       1.3  T
   9   -163.3173199 -0.914004E-05  0.186E-03    0.10       5.2  T
  10   -163.3173200 -0.761002E-07  0.178E-03    0.10       5.4  T
  11   -163.3173206 -0.553109E-06  0.695E-04    0.10      13.9  T
  12   -163.3173206 -0.193186E-07  0.726E-04    0.11      13.3  T
     SCC iter.                  ...        0 min,  0.212 sec
     gradient                   ...        0 min,  0.048 sec
 * total energy  :  -161.3644930 Eh     change       -0.1033229E-02 Eh
   gradient norm :     0.0082250 Eh/α   predicted    -0.9687420E-03 (  -6.24%)
   displ. norm   :     0.9052146 α      lambda       -0.1189772E-02
   maximum displ.:     0.5306969 α      in ANC's #8, #7, #10, ...

........................................................................
.............................. CYCLE   56 ..............................
........................................................................

 iter      E             dE          RMSdq      gap      omega  full diag
   1   -163.3158537 -0.163316E+03  0.138E-01    0.08       0.0  T
   2   -163.3093827  0.647102E-02  0.202E-01    0.37       1.0  T
   3   -163.3163879 -0.700523E-02  0.877E-02    0.13       1.0  T
   4   -163.3160628  0.325122E-03  0.819E-02    0.09       1.0  T
   5   -163.3157609  0.301881E-03  0.870E-02    0.08       1.0  T
   6   -163.3172416 -0.148072E-02  0.209E-02    0.11       1.0  T
   7   -163.3173193 -0.776650E-04  0.105E-02    0.11       1.0  T
   8   -163.3173218 -0.252702E-05  0.918E-03    0.11       1.1  T
   9   -163.3173361 -0.142890E-04  0.242E-03    0.11       4.0  T
  10   -163.3173369 -0.751722E-06  0.170E-03    0.11       5.7  T
  11   -163.3173373 -0.425258E-06  0.108E-03    0.11       9.0  T
  12   -163.3173375 -0.189342E-06  0.658E-04    0.11      14.7  T
  13   -163.3173375 -0.595977E-07  0.281E-04    0.11      34.3  T
     SCC iter.                  ...        0 min,  0.211 sec
     gradient                   ...        0 min,  0.048 sec
 * total energy  :  -161.3656363 Eh     change       -0.1143270E-02 Eh
   gradient norm :     0.0083128 Eh/α   predicted    -0.1082352E-02 (  -5.33%)
   displ. norm   :     0.9182805 α      lambda       -0.1246382E-02
   maximum displ.:     0.5288840 α      in ANC's #8, #7, #10, ...

........................................................................
.............................. CYCLE   57 ..............................
........................................................................

 iter      E             dE          RMSdq      gap      omega  full diag
   1   -163.3135022 -0.163314E+03  0.153E-01    0.07       0.0  T
   2   -163.3058208  0.768144E-02  0.225E-01    0.42       1.0  T
   3   -163.3140185 -0.819772E-02  0.115E-01    0.17       1.0  T
   4   -163.3152881 -0.126966E-02  0.634E-02    0.12       1.0  T
   5   -163.3073729  0.791519E-02  0.209E-01    0.05       1.0  T
   6   -163.3154097 -0.803680E-02  0.418E-02    0.13       1.0  T
   7   -163.3157381 -0.328365E-03  0.236E-02    0.12       1.0  T
   8   -163.3157635 -0.254274E-04  0.203E-02    0.12       1.0  T
   9   -163.3158227 -0.591527E-04  0.796E-03    0.12       1.2  T
  10   -163.3158313 -0.862736E-05  0.276E-03    0.11       3.5  T
  11   -163.3158323 -0.100587E-05  0.978E-04    0.11       9.9  T
  12   -163.3158324 -0.933266E-07  0.747E-04    0.11      13.0  T
  13   -163.3158325 -0.512488E-07  0.488E-04    0.11      19.8  T
     SCC iter.                  ...        0 min,  0.216 sec
     gradient                   ...        0 min,  0.043 sec
 * total energy  :  -161.3668508 Eh     change       -0.1214517E-02 Eh
   gradient norm :     0.0109428 Eh/α   predicted    -0.1148708E-02 (  -5.42%)
   displ. norm   :     0.8834916 α      lambda       -0.1397474E-02
   maximum displ.:     0.4846743 α      in ANC's #8, #7, #10, ...

........................................................................
.............................. CYCLE   58 ..............................
........................................................................

 iter      E             dE          RMSdq      gap      omega  full diag
   1   -163.3143484 -0.163314E+03  0.129E-01    0.10       0.0  T
   2   -163.3090770  0.527136E-02  0.173E-01    0.30       1.0  T
   3   -163.3139373 -0.486029E-02  0.899E-02    0.10       1.0  T
   4   -163.3128631  0.107427E-02  0.903E-02    0.12       1.0  T
   5   -163.3150579 -0.219484E-02  0.270E-02    0.13       1.0  T
   6   -163.3151996 -0.141663E-03  0.113E-02    0.13       1.0  T
   7   -163.3152064 -0.686164E-05  0.840E-03    0.12       1.2  T
   8   -163.3152198 -0.133936E-04  0.386E-03    0.12       2.5  T
   9   -163.3152213 -0.151701E-05  0.272E-03    0.12       3.6  T
  10   -163.3152225 -0.120213E-05  0.188E-03    0.12       5.1  T
  11   -163.3152231 -0.574762E-06  0.747E-04    0.12      12.9  T
  12   -163.3152232 -0.875032E-07  0.375E-04    0.12      25.8  T
     SCC iter.                  ...        0 min,  0.199 sec
     gradient                   ...        0 min,  0.048 sec
 * total energy  :  -161.3681521 Eh     change       -0.1301314E-02 Eh
   gradient norm :     0.0141234 Eh/α   predicted    -0.1244144E-02 (  -4.39%)
   displ. norm   :     0.8927836 α      lambda       -0.1432633E-02
   maximum displ.:     0.5037094 α      in ANC's #8, #7, #10, ...

........................................................................
.............................. CYCLE   59 ..............................
........................................................................

 iter      E             dE          RMSdq      gap      omega  full diag
   1   -163.3081326 -0.163308E+03  0.183E-01    0.07       0.0  T
   2   -163.2987774  0.935519E-02  0.263E-01    0.43       1.0  T
   3   -163.3092854 -0.105080E-01  0.144E-01    0.24       1.0  T
   4   -163.3112007 -0.191537E-02  0.906E-02    0.19       1.0  T
   5   -163.3098910  0.130975E-02  0.113E-01    0.08       1.0  T
   6   -163.3113769 -0.148594E-02  0.666E-02    0.11       1.0  T
   7   -163.3123903 -0.101333E-02  0.137E-02    0.13       1.0  T
   8   -163.3124014 -0.110952E-04  0.144E-02    0.14       1.0  T
   9   -163.3124261 -0.247846E-04  0.894E-03    0.13       1.1  T
  10   -163.3124361 -0.993154E-05  0.392E-03    0.13       2.5  T
  11   -163.3124382 -0.214124E-05  0.139E-03    0.13       6.9  T
  12   -163.3124385 -0.270756E-06  0.851E-04    0.13      11.4  T
  13   -163.3124386 -0.132248E-06  0.449E-04    0.13      21.5  T
     SCC iter.                  ...        0 min,  0.227 sec
     gradient                   ...        0 min,  0.051 sec
 * total energy  :  -161.3695167 Eh     change       -0.1364599E-02 Eh
   gradient norm :     0.0164432 Eh/α   predicted    -0.1287269E-02 (  -5.67%)
   displ. norm   :     0.7151068 α      lambda       -0.2032544E-02
   maximum displ.:     0.3097357 α      in ANC's #8, #7, #10, ...

........................................................................
.............................. CYCLE   60 ..............................
........................................................................

 iter      E             dE          RMSdq      gap      omega  full diag
   1   -163.3184475 -0.163318E+03  0.175E-01    0.21       0.0  T
   2   -163.3018678  0.165797E-01  0.326E-01    0.04       1.0  T
   3   -163.3175329 -0.156652E-01  0.122E-01    0.25       1.0  T
   4   -163.3101553  0.737758E-02  0.172E-01    0.14       1.0  T
   5   -163.3183254 -0.817011E-02  0.637E-02    0.20       1.0  T
   6   -163.3188192 -0.493734E-03  0.447E-02    0.19       1.0  T
   7   -163.3189561 -0.136939E-03  0.348E-02    0.18       1.0  T
   8   -163.3190565 -0.100372E-03  0.260E-02    0.17       1.0  T
   9   -163.3191156 -0.591399E-04  0.163E-02    0.16       1.0  T
  10   -163.3191516 -0.359247E-04  0.739E-03    0.15       1.3  T
  11   -163.3191577 -0.618597E-05  0.256E-03    0.15       3.8  T
  12   -163.3191587 -0.906597E-06  0.126E-03    0.15       7.7  T
  13   -163.3191589 -0.214198E-06  0.778E-04    0.15      12.4  T
  14   -163.3191590 -0.160002E-06  0.308E-04    0.15      31.4  T
     SCC iter.                  ...        0 min,  0.248 sec
     gradient                   ...        0 min,  0.054 sec
 * total energy  :  -161.3703182 Eh     change       -0.8015084E-03 Eh
   gradient norm :     0.0220264 Eh/α   predicted    -0.1535978E-02 (  91.64%)
   displ. norm   :     0.7393290 α      lambda       -0.2033642E-02
   maximum displ.:     0.4449268 α      in ANC's #8, #7, #10, ...

........................................................................
.............................. CYCLE   61 ..............................
........................................................................

 iter      E             dE          RMSdq      gap      omega  full diag
   1   -163.3020533 -0.163302E+03  0.275E-01    0.05       0.0  T
   2   -163.2909006  0.111527E-01  0.364E-01    0.45       1.0  T
   3   -163.3082305 -0.173298E-01  0.201E-01    0.33       1.0  T
   4   -163.3105283 -0.229780E-02  0.150E-01    0.35       1.0  T
   5   -163.3134628 -0.293452E-02  0.944E-02    0.23       1.0  T
   6   -163.3137910 -0.328193E-03  0.677E-02    0.12       1.0  T
   7   -163.3121409  0.165003E-02  0.115E-01    0.09       1.0  T
   8   -163.3145205 -0.237957E-02  0.231E-02    0.15       1.0  T
   9   -163.3145243 -0.379603E-05  0.277E-02    0.17       1.0  T
  10   -163.3145671 -0.427809E-04  0.233E-02    0.17       1.0  T
  11   -163.3146210 -0.539059E-04  0.148E-02    0.16       1.0  T
  12   -163.3146541 -0.331127E-04  0.425E-03    0.15       2.3  T
  13   -163.3146564 -0.225977E-05  0.211E-03    0.15       4.6  T
  14   -163.3146569 -0.539388E-06  0.124E-03    0.15       7.8  T
  15   -163.3146571 -0.219272E-06  0.497E-04    0.15      19.5  T
  16   -163.3146572 -0.311527E-07  0.236E-04    0.15      41.0  T
     SCC iter.                  ...        0 min,  0.247 sec
     gradient                   ...        0 min,  0.042 sec
 * total energy  :  -161.3719118 Eh     change       -0.1593579E-02 Eh
   gradient norm :     0.0127576 Eh/α   predicted    -0.1572624E-02 (  -1.31%)
   displ. norm   :     0.8479022 α      lambda       -0.1573093E-02
   maximum displ.:     0.5204008 α      in ANC's #8, #7, #10, ...

........................................................................
.............................. CYCLE   62 ..............................
........................................................................

 iter      E             dE          RMSdq      gap      omega  full diag
   1   -163.3142847 -0.163314E+03  0.980E-02    0.15       0.0  T
   2   -163.3132985  0.986253E-03  0.877E-02    0.21       1.0  T
   3   -163.3119155  0.138303E-02  0.114E-01    0.11       1.0  T
   4   -163.3135099 -0.159443E-02  0.625E-02    0.21       1.0  T
   5   -163.3143584 -0.848511E-03  0.224E-02    0.17       1.0  T
   6   -163.3144096 -0.512343E-04  0.156E-02    0.17       1.0  T
   7   -163.3144631 -0.534537E-04  0.775E-03    0.17       1.2  T
   8   -163.3144692 -0.611125E-05  0.465E-03    0.16       2.1  T
   9   -163.3144726 -0.337118E-05  0.256E-03    0.16       3.8  T
  10   -163.3144735 -0.933960E-06  0.133E-03    0.16       7.3  T
  11   -163.3144737 -0.193679E-06  0.650E-04    0.16      14.9  T
  12   -163.3144738 -0.653794E-07  0.309E-04    0.16      31.3  T
     SCC iter.                  ...        0 min,  0.184 sec
     gradient                   ...        0 min,  0.045 sec
 * total energy  :  -161.3733814 Eh     change       -0.1469548E-02 Eh
   gradient norm :     0.0093215 Eh/α   predicted    -0.1352026E-02 (  -8.00%)
   displ. norm   :     0.8138757 α      lambda       -0.1713757E-02
   maximum displ.:     0.5049682 α      in ANC's #8, #7, #10, ...

........................................................................
.............................. CYCLE   63 ..............................
........................................................................

 iter      E             dE          RMSdq      gap      omega  full diag
   1   -163.3240710 -0.163324E+03  0.936E-02    0.19       0.0  T
   2   -163.3236882  0.382856E-03  0.703E-02    0.17       1.0  T
   3   -163.3221747  0.151351E-02  0.935E-02    0.21       1.0  T
   4   -163.3237954 -0.162078E-02  0.419E-02    0.19       1.0  T
   5   -163.3241447 -0.349229E-03  0.117E-02    0.18       1.0  T
   6   -163.3241653 -0.206610E-04  0.614E-03    0.18       1.6  T
   7   -163.3241729 -0.759462E-05  0.296E-03    0.18       3.3  T
   8   -163.3241747 -0.182116E-05  0.164E-03    0.18       5.9  T
   9   -163.3241753 -0.600062E-06  0.662E-04    0.18      14.6  T
  10   -163.3241753 -0.124672E-08  0.543E-04    0.18      17.8  T
     SCC iter.                  ...        0 min,  0.174 sec
     gradient                   ...        0 min,  0.049 sec
 * total energy  :  -161.3747996 Eh     change       -0.1418199E-02 Eh
   gradient norm :     0.0078773 Eh/α   predicted    -0.1424478E-02 (   0.44%)
   displ. norm   :     0.9581989 α      lambda       -0.1567888E-02
   maximum displ.:     0.5703572 α      in ANC's #8, #7, #10, ...

........................................................................
.............................. CYCLE   64 ..............................
........................................................................

 iter      E             dE          RMSdq      gap      omega  full diag
   1   -163.3223653 -0.163322E+03  0.120E-01    0.16       0.0  T
   2   -163.3200871  0.227816E-02  0.125E-01    0.31       1.0  T
   3   -163.3214805 -0.139345E-02  0.898E-02    0.19       1.0  T
   4   -163.3212595  0.221011E-03  0.874E-02    0.16       1.0  T
   5   -163.3229024 -0.164288E-02  0.206E-02    0.21       1.0  T
   6   -163.3229899 -0.875058E-04  0.769E-03    0.21       1.3  T
   7   -163.3229971 -0.715779E-05  0.455E-03    0.20       2.1  T
   8   -163.3229995 -0.240977E-05  0.302E-03    0.21       3.2  T
   9   -163.3230010 -0.156924E-05  0.199E-03    0.20       4.9  T
  10   -163.3230019 -0.828492E-06  0.753E-04    0.20      12.8  T
  11   -163.3230019 -0.420806E-07  0.482E-04    0.20      20.1  T
     SCC iter.                  ...        0 min,  0.192 sec
     gradient                   ...        0 min,  0.050 sec
 * total energy  :  -161.3762408 Eh     change       -0.1441211E-02 Eh
   gradient norm :     0.0064266 Eh/α   predicted    -0.1503723E-02 (   4.34%)
   displ. norm   :     0.8132641 α      lambda       -0.1469459E-02
   maximum displ.:     0.4766904 α      in ANC's #8, #7, #10, ...

........................................................................
.............................. CYCLE   65 ..............................
........................................................................

 iter      E             dE          RMSdq      gap      omega  full diag
   1   -163.3325335 -0.163333E+03  0.127E-01    0.23       0.0  T
   2   -163.3318874  0.646035E-03  0.897E-02    0.26       1.0  T
   3   -163.3270277  0.485971E-02  0.146E-01    0.21       1.0  T
   4   -163.3322082 -0.518051E-02  0.456E-02    0.24       1.0  T
   5   -163.3326403 -0.432105E-03  0.138E-02    0.25       1.0  T
   6   -163.3326745 -0.342215E-04  0.623E-03    0.25       1.6  T
   7   -163.3326807 -0.619405E-05  0.320E-03    0.24       3.0  T
   8   -163.3326816 -0.860191E-06  0.253E-03    0.24       3.8  T
   9   -163.3326830 -0.143796E-05  0.116E-03    0.24       8.4  T
  10   -163.3326832 -0.126190E-06  0.781E-04    0.24      12.4  T
  11   -163.3326832 -0.927497E-07  0.407E-04    0.24      23.8  T
     SCC iter.                  ...        0 min,  0.201 sec
     gradient                   ...        0 min,  0.048 sec
 * total energy  :  -161.3773136 Eh     change       -0.1072862E-02 Eh
   gradient norm :     0.0134294 Eh/α   predicted    -0.1220681E-02 (  13.78%)
   displ. norm   :     0.8564029 α      lambda       -0.1492846E-02
   maximum displ.:     0.5271692 α      in ANC's #8, #7, #10, ...

........................................................................
.............................. CYCLE   66 ..............................
........................................................................

 iter      E             dE          RMSdq      gap      omega  full diag
   1   -163.3296786 -0.163330E+03  0.116E-01    0.23       0.0  T
   2   -163.3288040  0.874606E-03  0.911E-02    0.30       1.0  T
   3   -163.3267776  0.202633E-02  0.114E-01    0.23       1.0  T
   4   -163.3290756 -0.229792E-02  0.609E-02    0.23       1.0  T
   5   -163.3298693 -0.793773E-03  0.140E-02    0.26       1.0  T
   6   -163.3299056 -0.362589E-04  0.587E-03    0.26       1.6  T
   7   -163.3299101 -0.449891E-05  0.357E-03    0.26       2.7  T
   8   -163.3299126 -0.251305E-05  0.206E-03    0.26       4.7  T
   9   -163.3299135 -0.870580E-06  0.116E-03    0.26       8.3  T
  10   -163.3299137 -0.189319E-06  0.636E-04    0.26      15.2  T
  11   -163.3299137 -0.185603E-07  0.483E-04    0.26      20.0  T
     SCC iter.                  ...        0 min,  0.180 sec
     gradient                   ...        0 min,  0.041 sec
 * total energy  :  -161.3785495 Eh     change       -0.1235824E-02 Eh
   gradient norm :     0.0096404 Eh/α   predicted    -0.1293871E-02 (   4.70%)
   displ. norm   :     0.8114764 α      lambda       -0.1189276E-02
   maximum displ.:     0.5072652 α      in ANC's #8, #7, #10, ...
 * RMSD in coord.:     1.5872717 α      energy gain  -0.2169824E-01 Eh

generating ANC from exact Hessian ...
Using Lindh-Hessian (1995)
 Shifting diagonal of input Hessian by   1.047214085913563E-002
 Lowest  eigenvalues of input Hessian
    0.010000    0.010273    0.010321    0.000000    0.010404    0.000000
    0.000000    0.000000    0.000000    0.000000    0.010546    0.010558
    0.010647    0.010723    0.010765    0.010807    0.010877    0.011014
 Highest eigenvalues
    2.151910    2.154967    2.163537    2.165040    2.199582    2.358646
 

........................................................................
.............................. CYCLE   67 ..............................
........................................................................

 iter      E             dE          RMSdq      gap      omega  full diag
   1   -163.3302559 -0.163330E+03  0.997E-02    0.24       0.0  T
   2   -163.3294642  0.791755E-03  0.826E-02    0.31       1.0  T
   3   -163.3286363  0.827837E-03  0.911E-02    0.26       1.0  T
   4   -163.3297329 -0.109656E-02  0.564E-02    0.25       1.0  T
   5   -163.3304607 -0.727856E-03  0.127E-02    0.28       1.0  T
   6   -163.3304893 -0.285836E-04  0.580E-03    0.28       1.7  T
   7   -163.3304942 -0.492561E-05  0.338E-03    0.28       2.9  T
   8   -163.3304967 -0.249161E-05  0.165E-03    0.28       5.9  T
   9   -163.3304972 -0.494135E-06  0.101E-03    0.28       9.5  T
  10   -163.3304974 -0.153744E-06  0.550E-04    0.28      17.6  T
  11   -163.3304974 -0.383129E-07  0.317E-04    0.28      30.5  T
     SCC iter.                  ...        0 min,  0.185 sec
     gradient                   ...        0 min,  0.041 sec
 * total energy  :  -161.3796612 Eh     change       -0.1111716E-02 Eh
   gradient norm :     0.0067537 Eh/α   predicted     0.0000000E+00 (-100.00%)
   displ. norm   :     0.1758240 α      lambda       -0.4901810E-03
   maximum displ.:     0.1014145 α      in ANC's #9, #1, #13, ...

........................................................................
.............................. CYCLE   68 ..............................
........................................................................

 iter      E             dE          RMSdq      gap      omega  full diag
   1   -163.3303207 -0.163330E+03  0.478E-02    0.26       0.0  T
   2   -163.3301689  0.151751E-03  0.433E-02    0.29       1.0  T
   3   -163.3302097 -0.407937E-04  0.317E-02    0.28       1.0  T
   4   -163.3300277  0.181988E-03  0.349E-02    0.26       1.0  T
   5   -163.3303680 -0.340257E-03  0.862E-03    0.28       1.1  T
   6   -163.3303878 -0.198275E-04  0.350E-03    0.28       2.8  T
   7   -163.3303903 -0.247167E-05  0.216E-03    0.28       4.5  T
   8   -163.3303912 -0.941330E-06  0.993E-04    0.28       9.7  T
   9   -163.3303913 -0.112653E-06  0.546E-04    0.28      17.7  T
     SCC iter.                  ...        0 min,  0.138 sec
     gradient                   ...        0 min,  0.048 sec
 * total energy  :  -161.3800936 Eh     change       -0.4324711E-03 Eh
   gradient norm :     0.0037330 Eh/α   predicted    -0.2527327E-03 ( -41.56%)
   displ. norm   :     0.5781323 α      lambda       -0.1281754E-02
   maximum displ.:     0.3229622 α      in ANC's #9, #13, #1, ...

........................................................................
.............................. CYCLE   69 ..............................
........................................................................

 iter      E             dE          RMSdq      gap      omega  full diag
   1   -163.3267482 -0.163327E+03  0.145E-01    0.22       0.0  T
   2   -163.3252485  0.149970E-02  0.139E-01    0.33       1.0  T
   3   -163.3264967 -0.124811E-02  0.855E-02    0.28       1.0  T
   4   -163.3239893  0.250738E-02  0.111E-01    0.22       1.0  T
   5   -163.3273367 -0.334746E-02  0.286E-02    0.27       1.0  T
   6   -163.3275355 -0.198764E-03  0.127E-02    0.27       1.0  T
   7   -163.3275716 -0.360875E-04  0.723E-03    0.27       1.3  T
   8   -163.3275827 -0.111210E-04  0.319E-03    0.27       3.0  T
   9   -163.3275840 -0.125611E-05  0.180E-03    0.27       5.4  T
  10   -163.3275842 -0.220794E-06  0.104E-03    0.27       9.3  T
  11   -163.3275843 -0.165794E-06  0.459E-04    0.27      21.1  T
  12   -163.3275844 -0.285209E-07  0.237E-04    0.27      40.9  T
     SCC iter.                  ...        0 min,  0.197 sec
     gradient                   ...        0 min,  0.050 sec
 * total energy  :  -161.3810489 Eh     change       -0.9552510E-03 Eh
   gradient norm :     0.0107110 Eh/α   predicted    -0.8550828E-03 ( -10.49%)
   displ. norm   :     0.6150933 α      lambda       -0.1135602E-02
   maximum displ.:     0.3544324 α      in ANC's #9, #13, #1, ...

........................................................................
.............................. CYCLE   70 ..............................
........................................................................

 iter      E             dE          RMSdq      gap      omega  full diag
   1   -163.3239775 -0.163324E+03  0.151E-01    0.24       0.0  T
   2   -163.3234216  0.555871E-03  0.112E-01    0.30       1.0  T
   3   -163.3212499  0.217168E-02  0.129E-01    0.23       1.0  T
   4   -163.3224113 -0.116137E-02  0.795E-02    0.24       1.0  T
   5   -163.3241062 -0.169492E-02  0.191E-02    0.27       1.0  T
   6   -163.3242154 -0.109232E-03  0.619E-03    0.27       1.6  T
   7   -163.3242192 -0.374111E-05  0.400E-03    0.27       2.4  T
   8   -163.3242207 -0.154454E-05  0.279E-03    0.26       3.5  T
   9   -163.3242222 -0.143712E-05  0.144E-03    0.27       6.7  T
  10   -163.3242225 -0.290713E-06  0.811E-04    0.27      11.9  T
  11   -163.3242225 -0.619642E-07  0.509E-04    0.27      19.0  T
     SCC iter.                  ...        0 min,  0.179 sec
     gradient                   ...        0 min,  0.045 sec
 * total energy  :  -161.3818107 Eh     change       -0.7618388E-03 Eh
   gradient norm :     0.0151306 Eh/α   predicted    -0.7826232E-03 (   2.73%)
   displ. norm   :     0.5542316 α      lambda       -0.1161839E-02
   maximum displ.:     0.3255759 α      in ANC's #9, #13, #1, ...

........................................................................
.............................. CYCLE   71 ..............................
........................................................................

 iter      E             dE          RMSdq      gap      omega  full diag
   1   -163.3237691 -0.163324E+03  0.120E-01    0.28       0.0  T
   2   -163.3231688  0.600292E-03  0.891E-02    0.24       1.0  T
   3   -163.3205750  0.259383E-02  0.127E-01    0.28       1.0  T
   4   -163.3230816 -0.250658E-02  0.550E-02    0.31       1.0  T
   5   -163.3238495 -0.767868E-03  0.137E-02    0.26       1.0  T
   6   -163.3238863 -0.368204E-04  0.796E-03    0.26       1.2  T
   7   -163.3239018 -0.155523E-04  0.288E-03    0.26       3.4  T
   8   -163.3239028 -0.100465E-05  0.168E-03    0.26       5.7  T
   9   -163.3239030 -0.148589E-06  0.125E-03    0.26       7.7  T
  10   -163.3239033 -0.266141E-06  0.455E-04    0.26      21.3  T
  11   -163.3239033 -0.195839E-07  0.293E-04    0.26      33.0  T
     SCC iter.                  ...        0 min,  0.171 sec
     gradient                   ...        0 min,  0.051 sec
 * total energy  :  -161.3828351 Eh     change       -0.1024400E-02 Eh
   gradient norm :     0.0105587 Eh/α   predicted    -0.7593634E-03 ( -25.87%)
   displ. norm   :     0.6596732 α      lambda       -0.1564334E-02
   maximum displ.:     0.4032228 α      in ANC's #9, #13, #1, ...

........................................................................
.............................. CYCLE   72 ..............................
........................................................................

 iter      E             dE          RMSdq      gap      omega  full diag
   1   -163.3276253 -0.163328E+03  0.137E-01    0.32       0.0  T
   2   -163.3251348  0.249041E-02  0.138E-01    0.22       1.0  T
   3   -163.3260308 -0.895989E-03  0.111E-01    0.28       1.0  T
   4   -163.3262503 -0.219430E-03  0.873E-02    0.33       1.0  T
   5   -163.3280496 -0.179937E-02  0.263E-02    0.27       1.0  T
   6   -163.3282404 -0.190749E-03  0.106E-02    0.27       1.0  T
   7   -163.3282673 -0.269507E-04  0.454E-03    0.27       2.1  T
   8   -163.3282702 -0.286421E-05  0.235E-03    0.27       4.1  T
   9   -163.3282706 -0.408408E-06  0.165E-03    0.27       5.9  T
  10   -163.3282709 -0.249609E-06  0.839E-04    0.27      11.5  T
  11   -163.3282709 -0.863530E-07  0.496E-04    0.27      19.5  T
     SCC iter.                  ...        0 min,  0.181 sec
     gradient                   ...        0 min,  0.050 sec
 * total energy  :  -161.3840995 Eh     change       -0.1264377E-02 Eh
   gradient norm :     0.0116881 Eh/α   predicted    -0.1122542E-02 ( -11.22%)
   displ. norm   :     0.7412926 α      lambda       -0.1315376E-02
   maximum displ.:     0.4546812 α      in ANC's #9, #13, #1, ...

........................................................................
.............................. CYCLE   73 ..............................
........................................................................

 iter      E             dE          RMSdq      gap      omega  full diag
   1   -163.3291120 -0.163329E+03  0.125E-01    0.29       0.0  T
   2   -163.3281141  0.997921E-03  0.955E-02    0.26       1.0  T
   3   -163.3247830  0.333116E-02  0.140E-01    0.27       1.0  T
   4   -163.3286884 -0.390540E-02  0.493E-02    0.31       1.0  T
   5   -163.3292107 -0.522378E-03  0.179E-02    0.27       1.0  T
   6   -163.3292905 -0.797938E-04  0.548E-03    0.27       1.8  T
   7   -163.3292955 -0.495301E-05  0.336E-03    0.27       2.9  T
   8   -163.3292974 -0.187650E-05  0.170E-03    0.27       5.7  T
   9   -163.3292975 -0.160042E-06  0.121E-03    0.27       8.0  T
  10   -163.3292977 -0.189833E-06  0.638E-04    0.27      15.1  T
  11   -163.3292978 -0.637309E-07  0.308E-04    0.27      31.4  T
     SCC iter.                  ...        0 min,  0.186 sec
     gradient                   ...        0 min,  0.049 sec
 * total energy  :  -161.3852958 Eh     change       -0.1196335E-02 Eh
   gradient norm :     0.0143199 Eh/α   predicted    -0.1019098E-02 ( -14.82%)
   displ. norm   :     0.7241426 α      lambda       -0.1343339E-02
   maximum displ.:     0.4542476 α      in ANC's #9, #13, #1, ...

........................................................................
.............................. CYCLE   74 ..............................
........................................................................

 iter      E             dE          RMSdq      gap      omega  full diag
   1   -163.3315395 -0.163332E+03  0.114E-01    0.27       0.0  T
   2   -163.3306160  0.923541E-03  0.881E-02    0.29       1.0  T
   3   -163.3277020  0.291398E-02  0.129E-01    0.26       1.0  T
   4   -163.3312926 -0.359061E-02  0.401E-02    0.27       1.0  T
   5   -163.3316501 -0.357490E-03  0.135E-02    0.28       1.0  T
   6   -163.3316883 -0.382346E-04  0.557E-03    0.28       1.7  T
   7   -163.3316942 -0.590030E-05  0.323E-03    0.28       3.0  T
   8   -163.3316965 -0.232484E-05  0.140E-03    0.28       6.9  T
   9   -163.3316966 -0.115330E-07  0.115E-03    0.28       8.4  T
  10   -163.3316967 -0.158871E-06  0.653E-04    0.28      14.8  T
  11   -163.3316968 -0.664722E-07  0.303E-04    0.28      31.9  T
     SCC iter.                  ...        0 min,  0.186 sec
     gradient                   ...        0 min,  0.060 sec
 * total energy  :  -161.3864961 Eh     change       -0.1200287E-02 Eh
   gradient norm :     0.0107226 Eh/α   predicted    -0.1023882E-02 ( -14.70%)
   displ. norm   :     0.7001428 α      lambda       -0.1231089E-02
   maximum displ.:     0.4533038 α      in ANC's #9, #13, #1, ...

........................................................................
.............................. CYCLE   75 ..............................
........................................................................

 iter      E             dE          RMSdq      gap      omega  full diag
   1   -163.3338701 -0.163334E+03  0.109E-01    0.26       0.0  T
   2   -163.3328068  0.106336E-02  0.915E-02    0.31       1.0  T
   3   -163.3315605  0.124628E-02  0.107E-01    0.27       1.0  T
   4   -163.3334543 -0.189379E-02  0.522E-02    0.27       1.0  T
   5   -163.3340178 -0.563511E-03  0.175E-02    0.29       1.0  T
   6   -163.3340827 -0.649028E-04  0.598E-03    0.29       1.6  T
   7   -163.3340873 -0.457122E-05  0.432E-03    0.29       2.2  T
   8   -163.3340923 -0.500823E-05  0.152E-03    0.29       6.4  T
   9   -163.3340924 -0.109352E-06  0.118E-03    0.29       8.2  T
  10   -163.3340925 -0.118734E-06  0.746E-04    0.29      13.0  T
  11   -163.3340926 -0.811111E-07  0.347E-04    0.29      27.9  T
     SCC iter.                  ...        0 min,  0.170 sec
     gradient                   ...        0 min,  0.045 sec
 * total energy  :  -161.3875339 Eh     change       -0.1037752E-02 Eh
   gradient norm :     0.0072169 Eh/α   predicted    -0.9172856E-03 ( -11.61%)
   displ. norm   :     0.6543943 α      lambda       -0.9337352E-03
   maximum displ.:     0.4303338 α      in ANC's #9, #13, #1, ...

........................................................................
.............................. CYCLE   76 ..............................
........................................................................

 iter      E             dE          RMSdq      gap      omega  full diag
   1   -163.3339582 -0.163334E+03  0.114E-01    0.28       0.0  T
   2   -163.3331402  0.818029E-03  0.895E-02    0.32       1.0  T
   3   -163.3311470  0.199322E-02  0.115E-01    0.28       1.0  T
   4   -163.3334332 -0.228621E-02  0.543E-02    0.28       1.0  T
   5   -163.3340693 -0.636144E-03  0.168E-02    0.29       1.0  T
   6   -163.3341327 -0.633521E-04  0.514E-03    0.30       1.9  T
   7   -163.3341360 -0.335861E-05  0.377E-03    0.30       2.6  T
   8   -163.3341395 -0.350600E-05  0.148E-03    0.30       6.5  T
   9   -163.3341396 -0.974864E-07  0.115E-03    0.30       8.4  T
  10   -163.3341398 -0.127139E-06  0.712E-04    0.30      13.6  T
  11   -163.3341398 -0.766600E-07  0.309E-04    0.30      31.3  T
     SCC iter.                  ...        0 min,  0.170 sec
     gradient                   ...        0 min,  0.039 sec
 * total energy  :  -161.3882962 Eh     change       -0.7623115E-03 Eh
   gradient norm :     0.0077355 Eh/α   predicted    -0.6667996E-03 ( -12.53%)
   displ. norm   :     0.5787414 α      lambda       -0.7247464E-03
   maximum displ.:     0.3906250 α      in ANC's #9, #13, #6, ...

........................................................................
.............................. CYCLE   77 ..............................
........................................................................

 iter      E             dE          RMSdq      gap      omega  full diag
   1   -163.3353264 -0.163335E+03  0.938E-02    0.29       0.0  T
   2   -163.3347683  0.558157E-03  0.732E-02    0.32       1.0  T
   3   -163.3331152  0.165310E-02  0.100E-01    0.29       1.0  T
   4   -163.3349792 -0.186406E-02  0.446E-02    0.29       1.0  T
   5   -163.3353905 -0.411269E-03  0.133E-02    0.30       1.0  T
   6   -163.3354341 -0.436541E-04  0.405E-03    0.31       2.4  T
   7   -163.3354367 -0.258170E-05  0.266E-03    0.31       3.6  T
   8   -163.3354381 -0.135471E-05  0.128E-03    0.31       7.5  T
   9   -163.3354382 -0.131531E-06  0.897E-04    0.31      10.8  T
  10   -163.3354383 -0.753558E-07  0.540E-04    0.31      17.9  T
     SCC iter.                  ...        0 min,  0.156 sec
     gradient                   ...        0 min,  0.047 sec
 * total energy  :  -161.3888881 Eh     change       -0.5918818E-03 Eh
   gradient norm :     0.0079842 Eh/α   predicted    -0.4837477E-03 ( -18.27%)
   displ. norm   :     0.5680944 α      lambda       -0.6493895E-03
   maximum displ.:     0.3781408 α      in ANC's #9, #10, #8, ...

........................................................................
.............................. CYCLE   78 ..............................
........................................................................

 iter      E             dE          RMSdq      gap      omega  full diag
   1   -163.3353266 -0.163335E+03  0.109E-01    0.31       0.0  T
   2   -163.3350251  0.301534E-03  0.745E-02    0.32       1.0  T
   3   -163.3310270  0.399807E-02  0.132E-01    0.30       1.0  T
   4   -163.3349713 -0.394434E-02  0.405E-02    0.31       1.0  T
   5   -163.3353584 -0.387100E-03  0.103E-02    0.31       1.0  T
   6   -163.3353834 -0.249348E-04  0.444E-03    0.31       2.2  T
   7   -163.3353870 -0.361347E-05  0.250E-03    0.31       3.9  T
   8   -163.3353884 -0.137530E-05  0.110E-03    0.31       8.8  T
   9   -163.3353884 -0.148247E-07  0.953E-04    0.31      10.1  T
  10   -163.3353885 -0.120799E-06  0.453E-04    0.31      21.3  T
     SCC iter.                  ...        0 min,  0.174 sec
     gradient                   ...        0 min,  0.046 sec
 * total energy  :  -161.3894399 Eh     change       -0.5518085E-03 Eh
   gradient norm :     0.0062640 Eh/α   predicted    -0.4294861E-03 ( -22.17%)
   displ. norm   :     0.5944928 α      lambda       -0.6513074E-03
   maximum displ.:     0.3924649 α      in ANC's #9, #8, #10, ...

........................................................................
.............................. CYCLE   79 ..............................
........................................................................

 iter      E             dE          RMSdq      gap      omega  full diag
   1   -163.3357839 -0.163336E+03  0.112E-01    0.32       0.0  T
   2   -163.3356232  0.160636E-03  0.731E-02    0.32       1.0  T
   3   -163.3313332  0.429007E-02  0.131E-01    0.31       1.0  T
   4   -163.3354374 -0.410419E-02  0.393E-02    0.33       1.0  T
   5   -163.3357957 -0.358310E-03  0.108E-02    0.32       1.0  T
   6   -163.3358224 -0.267423E-04  0.495E-03    0.32       2.0  T
   7   -163.3358273 -0.489311E-05  0.256E-03    0.32       3.8  T
   8   -163.3358288 -0.146515E-05  0.115E-03    0.32       8.4  T
   9   -163.3358289 -0.958777E-07  0.776E-04    0.32      12.5  T
  10   -163.3358289 -0.549501E-07  0.472E-04    0.32      20.5  T
     SCC iter.                  ...        0 min,  0.181 sec
     gradient                   ...        0 min,  0.051 sec
 * total energy  :  -161.3899935 Eh     change       -0.5536399E-03 Eh
   gradient norm :     0.0049859 Eh/α   predicted    -0.4407548E-03 ( -20.39%)
   displ. norm   :     0.6177601 α      lambda       -0.6353743E-03
   maximum displ.:     0.3994282 α      in ANC's #9, #8, #10, ...

........................................................................
.............................. CYCLE   80 ..............................
........................................................................

 iter      E             dE          RMSdq      gap      omega  full diag
   1   -163.3361752 -0.163336E+03  0.125E-01    0.33       0.0  T
   2   -163.3360764  0.987673E-04  0.807E-02    0.32       1.0  T
   3   -163.3322663  0.381015E-02  0.125E-01    0.32       1.0  T
   4   -163.3356625 -0.339616E-02  0.455E-02    0.33       1.0  T
   5   -163.3361941 -0.531656E-03  0.927E-03    0.32       1.0  T
   6   -163.3362117 -0.176129E-04  0.410E-03    0.32       2.4  T
   7   -163.3362139 -0.222046E-05  0.244E-03    0.32       4.0  T
   8   -163.3362147 -0.754501E-06  0.150E-03    0.32       6.4  T
   9   -163.3362150 -0.334855E-06  0.783E-04    0.32      12.3  T
  10   -163.3362151 -0.847817E-07  0.416E-04    0.32      23.2  T
     SCC iter.                  ...        0 min,  0.155 sec
     gradient                   ...        0 min,  0.042 sec
 * total energy  :  -161.3905186 Eh     change       -0.5251129E-03 Eh
   gradient norm :     0.0064324 Eh/α   predicted    -0.4389254E-03 ( -16.41%)
   displ. norm   :     0.6236595 α      lambda       -0.6157133E-03
   maximum displ.:     0.3952042 α      in ANC's #9, #8, #10, ...

........................................................................
.............................. CYCLE   81 ..............................
........................................................................

 iter      E             dE          RMSdq      gap      omega  full diag
   1   -163.3359357 -0.163336E+03  0.126E-01    0.32       0.0  T
   2   -163.3358437  0.920568E-04  0.811E-02    0.32       1.0  T
   3   -163.3325168  0.332691E-02  0.122E-01    0.32       1.0  T
   4   -163.3354837 -0.296696E-02  0.433E-02    0.33       1.0  T
   5   -163.3359525 -0.468799E-03  0.101E-02    0.32       1.0  T
   6   -163.3359726 -0.200285E-04  0.378E-03    0.32       2.6  T
   7   -163.3359740 -0.145220E-05  0.248E-03    0.32       3.9  T
   8   -163.3359750 -0.967718E-06  0.143E-03    0.32       6.8  T
   9   -163.3359753 -0.321578E-06  0.739E-04    0.32      13.1  T
  10   -163.3359754 -0.768311E-07  0.433E-04    0.32      22.3  T
     SCC iter.                  ...        0 min,  0.158 sec
     gradient                   ...        0 min,  0.049 sec
 * total energy  :  -161.3910256 Eh     change       -0.5069738E-03 Eh
   gradient norm :     0.0074159 Eh/α   predicted    -0.4276013E-03 ( -15.66%)
   displ. norm   :     0.6140370 α      lambda       -0.5890379E-03
   maximum displ.:     0.3819681 α      in ANC's #9, #8, #7, ...

........................................................................
.............................. CYCLE   82 ..............................
........................................................................

 iter      E             dE          RMSdq      gap      omega  full diag
   1   -163.3361566 -0.163336E+03  0.113E-01    0.32       0.0  T
   2   -163.3360251  0.131569E-03  0.739E-02    0.32       1.0  T
   3   -163.3324035  0.362156E-02  0.122E-01    0.31       1.0  T
   4   -163.3358144 -0.341088E-02  0.381E-02    0.32       1.0  T
   5   -163.3361708 -0.356456E-03  0.101E-02    0.32       1.0  T
   6   -163.3361926 -0.217324E-04  0.347E-03    0.32       2.8  T
   7   -163.3361939 -0.135056E-05  0.227E-03    0.32       4.3  T
   8   -163.3361947 -0.781601E-06  0.133E-03    0.32       7.3  T
   9   -163.3361950 -0.299841E-06  0.632E-04    0.32      15.3  T
  10   -163.3361951 -0.459117E-07  0.391E-04    0.32      24.7  T
     SCC iter.                  ...        0 min,  0.164 sec
     gradient                   ...        0 min,  0.051 sec
 * total energy  :  -161.3915420 Eh     change       -0.5164110E-03 Eh
   gradient norm :     0.0066960 Eh/α   predicted    -0.4055696E-03 ( -21.46%)
   displ. norm   :     0.6258572 α      lambda       -0.6413461E-03
   maximum displ.:     0.3810050 α      in ANC's #9, #8, #7, ...

........................................................................
.............................. CYCLE   83 ..............................
........................................................................

 iter      E             dE          RMSdq      gap      omega  full diag
   1   -163.3368306 -0.163337E+03  0.111E-01    0.31       0.0  T
   2   -163.3366774  0.153247E-03  0.733E-02    0.31       1.0  T
   3   -163.3322679  0.440945E-02  0.126E-01    0.30       1.0  T
   4   -163.3364999 -0.423196E-02  0.379E-02    0.31       1.0  T
   5   -163.3368484 -0.348532E-03  0.975E-03    0.31       1.0  T
   6   -163.3368673 -0.188905E-04  0.387E-03    0.31       2.5  T
   7   -163.3368695 -0.220968E-05  0.242E-03    0.31       4.0  T
   8   -163.3368706 -0.104750E-05  0.115E-03    0.31       8.4  T
   9   -163.3368707 -0.122918E-06  0.669E-04    0.31      14.4  T
  10   -163.3368708 -0.490778E-07  0.430E-04    0.31      22.5  T
     SCC iter.                  ...        0 min,  0.163 sec
     gradient                   ...        0 min,  0.049 sec
 * total energy  :  -161.3921049 Eh     change       -0.5628571E-03 Eh
   gradient norm :     0.0052102 Eh/α   predicted    -0.4462802E-03 ( -20.71%)
   displ. norm   :     0.6649718 α      lambda       -0.6787429E-03
   maximum displ.:     0.3972655 α      in ANC's #9, #8, #7, ...

........................................................................
.............................. CYCLE   84 ..............................
........................................................................

 iter      E             dE          RMSdq      gap      omega  full diag
   1   -163.3376621 -0.163338E+03  0.112E-01    0.31       0.0  T
   2   -163.3374801  0.181982E-03  0.737E-02    0.30       1.0  T
   3   -163.3320953  0.538480E-02  0.132E-01    0.30       1.0  T
   4   -163.3373555 -0.526022E-02  0.367E-02    0.31       1.0  T
   5   -163.3376824 -0.326846E-03  0.946E-03    0.30       1.0  T
   6   -163.3376999 -0.175208E-04  0.453E-03    0.30       2.1  T
   7   -163.3377035 -0.365321E-05  0.257E-03    0.30       3.8  T
   8   -163.3377046 -0.110936E-05  0.109E-03    0.30       8.8  T
   9   -163.3377047 -0.578418E-07  0.722E-04    0.30      13.4  T
  10   -163.3377048 -0.570018E-07  0.408E-04    0.30      23.7  T
     SCC iter.                  ...        0 min,  0.164 sec
     gradient                   ...        0 min,  0.054 sec
 * total energy  :  -161.3926742 Eh     change       -0.5693152E-03 Eh
   gradient norm :     0.0061930 Eh/α   predicted    -0.4894386E-03 ( -14.03%)
   displ. norm   :     0.6684989 α      lambda       -0.5986596E-03
   maximum displ.:     0.3983502 α      in ANC's #9, #8, #7, ...

........................................................................
.............................. CYCLE   85 ..............................
........................................................................

 iter      E             dE          RMSdq      gap      omega  full diag
   1   -163.3383561 -0.163338E+03  0.115E-01    0.30       0.0  T
   2   -163.3381917  0.164414E-03  0.755E-02    0.29       1.0  T
   3   -163.3331469  0.504481E-02  0.132E-01    0.30       1.0  T
   4   -163.3379935 -0.484665E-02  0.381E-02    0.31       1.0  T
   5   -163.3383758 -0.382309E-03  0.922E-03    0.30       1.0  T
   6   -163.3383934 -0.175291E-04  0.378E-03    0.30       2.6  T
   7   -163.3383949 -0.157440E-05  0.283E-03    0.30       3.4  T
   8   -163.3383964 -0.149380E-05  0.102E-03    0.30       9.5  T
   9   -163.3383964 -0.113725E-07  0.826E-04    0.30      11.7  T
  10   -163.3383966 -0.100331E-06  0.423E-04    0.30      22.8  T
     SCC iter.                  ...        0 min,  0.167 sec
     gradient                   ...        0 min,  0.051 sec
 * total energy  :  -161.3931594 Eh     change       -0.4852008E-03 Eh
   gradient norm :     0.0072398 Eh/α   predicted    -0.4330994E-03 ( -10.74%)
   displ. norm   :     0.6201509 α      lambda       -0.4777389E-03
   maximum displ.:     0.3724934 α      in ANC's #9, #8, #7, ...

........................................................................
.............................. CYCLE   86 ..............................
........................................................................

 iter      E             dE          RMSdq      gap      omega  full diag
   1   -163.3384090 -0.163338E+03  0.102E-01    0.30       0.0  T
   2   -163.3382534  0.155547E-03  0.670E-02    0.28       1.0  T
   3   -163.3350436  0.320983E-02  0.113E-01    0.30       1.0  T
   4   -163.3380890 -0.304538E-02  0.350E-02    0.31       1.0  T
   5   -163.3384206 -0.331580E-03  0.104E-02    0.29       1.0  T
   6   -163.3384472 -0.266284E-04  0.347E-03    0.29       2.8  T
   7   -163.3384486 -0.140681E-05  0.237E-03    0.29       4.1  T
   8   -163.3384494 -0.820868E-06  0.114E-03    0.29       8.5  T
   9   -163.3384495 -0.837310E-07  0.805E-04    0.29      12.0  T
  10   -163.3384496 -0.116242E-06  0.373E-04    0.29      26.0  T
     SCC iter.                  ...        0 min,  0.161 sec
     gradient                   ...        0 min,  0.046 sec
 * total energy  :  -161.3935411 Eh     change       -0.3817033E-03 Eh
   gradient norm :     0.0067838 Eh/α   predicted    -0.3307397E-03 ( -13.35%)
   displ. norm   :     0.5404027 α      lambda       -0.3750948E-03
   maximum displ.:     0.3284591 α      in ANC's #9, #8, #7, ...

........................................................................
.............................. CYCLE   87 ..............................
........................................................................

 iter      E             dE          RMSdq      gap      omega  full diag
   1   -163.3400183 -0.163340E+03  0.910E-02    0.30       0.0  T
   2   -163.3398573  0.161007E-03  0.615E-02    0.27       1.0  T
   3   -163.3380288  0.182855E-02  0.944E-02    0.31       1.0  T
   4   -163.3396909 -0.166209E-02  0.362E-02    0.31       1.0  T
   5   -163.3400236 -0.332731E-03  0.123E-02    0.29       1.0  T
   6   -163.3400668 -0.432224E-04  0.338E-03    0.29       2.9  T
   7   -163.3400681 -0.131470E-05  0.234E-03    0.29       4.1  T
   8   -163.3400690 -0.854589E-06  0.118E-03    0.29       8.2  T
   9   -163.3400691 -0.139737E-06  0.740E-04    0.29      13.1  T
  10   -163.3400692 -0.829202E-07  0.351E-04    0.29      27.5  T
     SCC iter.                  ...        0 min,  0.159 sec
     gradient                   ...        0 min,  0.051 sec
 * total energy  :  -161.3938322 Eh     change       -0.2911091E-03 Eh
   gradient norm :     0.0055756 Eh/α   predicted    -0.2423190E-03 ( -16.76%)
   displ. norm   :     0.4647046 α      lambda       -0.2930032E-03
   maximum displ.:     0.2830668 α      in ANC's #9, #8, #7, ...

........................................................................
.............................. CYCLE   88 ..............................
........................................................................

 iter      E             dE          RMSdq      gap      omega  full diag
   1   -163.3386726 -0.163339E+03  0.815E-02    0.29       0.0  T
   2   -163.3385433  0.129375E-03  0.544E-02    0.27       1.0  T
   3   -163.3371206  0.142266E-02  0.845E-02    0.30       1.0  T
   4   -163.3385909 -0.147031E-02  0.228E-02    0.29       1.0  T
   5   -163.3386958 -0.104898E-03  0.767E-03    0.28       1.3  T
   6   -163.3387097 -0.139203E-04  0.221E-03    0.28       4.4  T
   7   -163.3387104 -0.630056E-06  0.127E-03    0.28       7.6  T
   8   -163.3387105 -0.123272E-06  0.830E-04    0.28      11.6  T
   9   -163.3387105 -0.150214E-07  0.614E-04    0.28      15.7  T
     SCC iter.                  ...        0 min,  0.145 sec
     gradient                   ...        0 min,  0.046 sec
 * total energy  :  -161.3940490 Eh     change       -0.2168038E-03 Eh
   gradient norm :     0.0049228 Eh/α   predicted    -0.1781440E-03 ( -17.83%)
   displ. norm   :     0.4031345 α      lambda       -0.2558318E-03
   maximum displ.:     0.2361567 α      in ANC's #9, #8, #5, ...

........................................................................
.............................. CYCLE   89 ..............................
........................................................................

 iter      E             dE          RMSdq      gap      omega  full diag
   1   -163.3419198 -0.163342E+03  0.740E-02    0.29       0.0  T
   2   -163.3417861  0.133650E-03  0.512E-02    0.27       1.0  T
   3   -163.3408128  0.973330E-03  0.723E-02    0.30       1.0  T
   4   -163.3417932 -0.980354E-03  0.254E-02    0.29       1.0  T
   5   -163.3419392 -0.146044E-03  0.876E-03    0.28       1.1  T
   6   -163.3419615 -0.223525E-04  0.252E-03    0.28       3.8  T
   7   -163.3419618 -0.220372E-06  0.224E-03    0.28       4.3  T
   8   -163.3419627 -0.927344E-06  0.124E-03    0.28       7.8  T
   9   -163.3419629 -0.222925E-06  0.696E-04    0.28      13.9  T
  10   -163.3419630 -0.744128E-07  0.306E-04    0.28      31.5  T
     SCC iter.                  ...        0 min,  0.183 sec
     gradient                   ...        0 min,  0.053 sec
 * total energy  :  -161.3942300 Eh     change       -0.1809630E-03 Eh
   gradient norm :     0.0066688 Eh/α   predicted    -0.1487067E-03 ( -17.82%)
   displ. norm   :     0.3695553 α      lambda       -0.2429516E-03
   maximum displ.:     0.2035357 α      in ANC's #9, #6, #5, ...

........................................................................
.............................. CYCLE   90 ..............................
........................................................................

 iter      E             dE          RMSdq      gap      omega  full diag
   1   -163.3402625 -0.163340E+03  0.722E-02    0.27       0.0  T
   2   -163.3401519  0.110620E-03  0.486E-02    0.27       1.0  T
   3   -163.3387277  0.142412E-02  0.765E-02    0.28       1.0  T
   4   -163.3401172 -0.138949E-02  0.261E-02    0.27       1.0  T
   5   -163.3402766 -0.159406E-03  0.755E-03    0.27       1.3  T
   6   -163.3402896 -0.129436E-04  0.245E-03    0.27       3.9  T
   7   -163.3402896 -0.350150E-07  0.188E-03    0.27       5.1  T
   8   -163.3402903 -0.710241E-06  0.104E-03    0.27       9.3  T
   9   -163.3402905 -0.223666E-06  0.505E-04    0.27      19.2  T
  10   -163.3402906 -0.375905E-07  0.258E-04    0.27      37.5  T
     SCC iter.                  ...        0 min,  0.160 sec
     gradient                   ...        0 min,  0.047 sec
 * total energy  :  -161.3944193 Eh     change       -0.1893265E-03 Eh
   gradient norm :     0.0062708 Eh/α   predicted    -0.1380685E-03 ( -27.07%)
   displ. norm   :     0.3987953 α      lambda       -0.2921671E-03
   maximum displ.:     0.1948472 α      in ANC's #6, #9, #5, ...

........................................................................
.............................. CYCLE   91 ..............................
........................................................................

 iter      E             dE          RMSdq      gap      omega  full diag
   1   -163.3398959 -0.163340E+03  0.834E-02    0.26       0.0  T
   2   -163.3397962  0.996228E-04  0.551E-02    0.27       1.0  T
   3   -163.3381660  0.163021E-02  0.822E-02    0.27       1.0  T
   4   -163.3397074 -0.154141E-02  0.280E-02    0.26       1.0  T
   5   -163.3399087 -0.201222E-03  0.859E-03    0.27       1.1  T
   6   -163.3399257 -0.170542E-04  0.292E-03    0.27       3.3  T
   7   -163.3399258 -0.898382E-07  0.231E-03    0.27       4.2  T
   8   -163.3399268 -0.987175E-06  0.127E-03    0.27       7.6  T
   9   -163.3399271 -0.299119E-06  0.630E-04    0.27      15.4  T
  10   -163.3399272 -0.627190E-07  0.290E-04    0.27      33.3  T
     SCC iter.                  ...        0 min,  0.150 sec
     gradient                   ...        0 min,  0.051 sec
 * total energy  :  -161.3946379 Eh     change       -0.2185953E-03 Eh
   gradient norm :     0.0077421 Eh/α   predicted    -0.1693175E-03 ( -22.54%)
   displ. norm   :     0.4324239 α      lambda       -0.3485763E-03
   maximum displ.:     0.2400349 α      in ANC's #6, #5, #9, ...

........................................................................
.............................. CYCLE   92 ..............................
........................................................................

 iter      E             dE          RMSdq      gap      omega  full diag
   1   -163.3421271 -0.163342E+03  0.963E-02    0.26       0.0  T
   2   -163.3419683  0.158764E-03  0.645E-02    0.27       1.0  T
   3   -163.3396002  0.236816E-02  0.987E-02    0.26       1.0  T
   4   -163.3417147 -0.211454E-02  0.408E-02    0.25       1.0  T
   5   -163.3421466 -0.431932E-03  0.115E-02    0.26       1.0  T
   6   -163.3421749 -0.282675E-04  0.462E-03    0.27       2.1  T
   7   -163.3421776 -0.273487E-05  0.264E-03    0.27       3.7  T
   8   -163.3421786 -0.100746E-05  0.166E-03    0.26       5.8  T
   9   -163.3421790 -0.380643E-06  0.801E-04    0.26      12.1  T
  10   -163.3421791 -0.713818E-07  0.519E-04    0.26      18.6  T
     SCC iter.                  ...        0 min,  0.155 sec
     gradient                   ...        0 min,  0.044 sec
 * total energy  :  -161.3948073 Eh     change       -0.1693835E-03 Eh
   gradient norm :     0.0097718 Eh/α   predicted    -0.2068812E-03 (  22.14%)
   displ. norm   :     0.3927151 α      lambda       -0.2745703E-03
   maximum displ.:     0.1949327 α      in ANC's #9, #6, #5, ...
 * RMSD in coord.:     1.1413178 α      energy gain  -0.1625782E-01 Eh

generating ANC from exact Hessian ...
Using Lindh-Hessian (1995)
 Shifting diagonal of input Hessian by   1.022974766015131E-002
 Lowest  eigenvalues of input Hessian
    0.010000    0.010019    0.000000    0.000000    0.000000    0.000000
    0.000000    0.000000    0.010317    0.010362    0.010446    0.010479
    0.010542    0.010598    0.010741    0.010770    0.010871    0.010951
 Highest eigenvalues
    2.146439    2.152664    2.161869    2.165588    2.197172    2.337870
 

........................................................................
.............................. CYCLE   93 ..............................
........................................................................

 iter      E             dE          RMSdq      gap      omega  full diag
   1   -163.3376619 -0.163338E+03  0.719E-02    0.26       0.0  T
   2   -163.3376232  0.386701E-04  0.455E-02    0.26       1.0  T
   3   -163.3365334  0.108974E-02  0.646E-02    0.27       1.0  T
   4   -163.3375645 -0.103107E-02  0.200E-02    0.26       1.0  T
   5   -163.3376712 -0.106695E-03  0.546E-03    0.26       1.8  T
   6   -163.3376764 -0.519797E-05  0.284E-03    0.26       3.4  T
   7   -163.3376772 -0.833301E-06  0.172E-03    0.26       5.6  T
   8   -163.3376775 -0.231792E-06  0.137E-03    0.26       7.0  T
   9   -163.3376779 -0.388289E-06  0.616E-04    0.26      15.7  T
  10   -163.3376779 -0.546826E-07  0.315E-04    0.26      30.7  T
     SCC iter.                  ...        0 min,  0.179 sec
     gradient                   ...        0 min,  0.052 sec
 * total energy  :  -161.3949635 Eh     change       -0.1562231E-03 Eh
   gradient norm :     0.0070385 Eh/α   predicted     0.0000000E+00 (-100.00%)
   displ. norm   :     0.0679450 α      lambda       -0.1482041E-03
   maximum displ.:     0.0226022 α      in ANC's #3, #5, #15, ...

........................................................................
.............................. CYCLE   94 ..............................
........................................................................

 iter      E             dE          RMSdq      gap      omega  full diag
   1   -163.3402773 -0.163340E+03  0.228E-02    0.27       0.0  T
   2   -163.3402732  0.410479E-05  0.147E-02    0.27       1.0  T
   3   -163.3402003  0.728462E-04  0.204E-02    0.27       1.0  T
   4   -163.3402581 -0.577975E-04  0.975E-03    0.27       1.0  T
   5   -163.3402780 -0.198474E-04  0.276E-03    0.27       3.5  T
   6   -163.3402795 -0.152911E-05  0.109E-03    0.27       8.9  T
   7   -163.3402797 -0.181053E-06  0.624E-04    0.27      15.5  T
   8   -163.3402797 -0.385896E-07  0.460E-04    0.27      21.0  T
     SCC iter.                  ...        0 min,  0.146 sec
     gradient                   ...        0 min,  0.059 sec
 * total energy  :  -161.3950799 Eh     change       -0.1163928E-03 Eh
   gradient norm :     0.0034164 Eh/α   predicted    -0.7495280E-04 ( -35.60%)
   displ. norm   :     0.1598219 α      lambda       -0.1824413E-03
   maximum displ.:     0.0609819 α      in ANC's #3, #5, #15, ...

........................................................................
.............................. CYCLE   95 ..............................
........................................................................

 iter      E             dE          RMSdq      gap      omega  full diag
   1   -163.3428125 -0.163343E+03  0.424E-02    0.28       0.0  T
   2   -163.3427823  0.302749E-04  0.288E-02    0.27       1.0  T
   3   -163.3424384  0.343870E-03  0.429E-02    0.27       1.0  T
   4   -163.3427527 -0.314288E-03  0.177E-02    0.28       1.0  T
   5   -163.3428167 -0.639900E-04  0.507E-03    0.27       1.9  T
   6   -163.3428220 -0.533304E-05  0.199E-03    0.27       4.9  T
   7   -163.3428225 -0.517659E-06  0.118E-03    0.27       8.2  T
   8   -163.3428227 -0.179165E-06  0.789E-04    0.27      12.2  T
   9   -163.3428228 -0.128379E-06  0.316E-04    0.27      30.6  T
     SCC iter.                  ...        0 min,  0.160 sec
     gradient                   ...        0 min,  0.051 sec
 * total energy  :  -161.3951966 Eh     change       -0.1166791E-03 Eh
   gradient norm :     0.0033309 Eh/α   predicted    -0.9355129E-04 ( -19.82%)
   displ. norm   :     0.1425660 α      lambda       -0.8214605E-04
   maximum displ.:     0.0576976 α      in ANC's #3, #5, #15, ...

........................................................................
.............................. CYCLE   96 ..............................
........................................................................

 iter      E             dE          RMSdq      gap      omega  full diag
   1   -163.3428841 -0.163343E+03  0.422E-02    0.28       0.0  T
   2   -163.3428656  0.184964E-04  0.276E-02    0.28       1.0  T
   3   -163.3424322  0.433455E-03  0.444E-02    0.28       1.0  T
   4   -163.3428620 -0.429793E-03  0.112E-02    0.28       1.0  T
   5   -163.3428880 -0.260496E-04  0.260E-03    0.28       3.7  T
   6   -163.3428892 -0.118095E-05  0.116E-03    0.28       8.3  T
   7   -163.3428892 -0.916970E-08  0.946E-04    0.28      10.2  T
   8   -163.3428893 -0.127164E-06  0.574E-04    0.28      16.8  T
     SCC iter.                  ...        0 min,  0.133 sec
     gradient                   ...        0 min,  0.053 sec
 * total energy  :  -161.3952517 Eh     change       -0.5509976E-04 Eh
   gradient norm :     0.0039810 Eh/α   predicted    -0.4190865E-04 ( -23.94%)
   displ. norm   :     0.2641391 α      lambda       -0.1358313E-03
   maximum displ.:     0.1107176 α      in ANC's #3, #5, #8, ...

........................................................................
.............................. CYCLE   97 ..............................
........................................................................

 iter      E             dE          RMSdq      gap      omega  full diag
   1   -163.3416892 -0.163342E+03  0.746E-02    0.29       0.0  T
   2   -163.3416110  0.781286E-04  0.504E-02    0.29       1.0  T
   3   -163.3401551  0.145596E-02  0.840E-02    0.28       1.0  T
   4   -163.3416013 -0.144624E-02  0.222E-02    0.29       1.0  T
   5   -163.3416999 -0.985823E-04  0.595E-03    0.29       1.6  T
   6   -163.3417073 -0.744494E-05  0.251E-03    0.29       3.9  T
   7   -163.3417078 -0.477431E-06  0.179E-03    0.29       5.4  T
   8   -163.3417085 -0.679338E-06  0.885E-04    0.29      10.9  T
   9   -163.3417086 -0.139845E-06  0.478E-04    0.29      20.2  T
     SCC iter.                  ...        0 min,  0.154 sec
     gradient                   ...        0 min,  0.052 sec
 * total energy  :  -161.3953087 Eh     change       -0.5698661E-04 Eh
   gradient norm :     0.0042298 Eh/α   predicted    -0.7266736E-04 (  27.52%)
   displ. norm   :     0.1473767 α      lambda       -0.1058503E-03
   maximum displ.:     0.0633968 α      in ANC's #3, #5, #15, ...

........................................................................
.............................. CYCLE   98 ..............................
........................................................................

 iter      E             dE          RMSdq      gap      omega  full diag
   1   -163.3407862 -0.163341E+03  0.430E-02    0.29       0.0  T
   2   -163.3407694  0.168700E-04  0.276E-02    0.29       1.0  T
   3   -163.3403139  0.455468E-03  0.453E-02    0.29       1.0  T
   4   -163.3407630 -0.449071E-03  0.101E-02    0.29       1.0  T
   5   -163.3407886 -0.256550E-04  0.305E-03    0.29       3.2  T
   6   -163.3407908 -0.220907E-05  0.142E-03    0.29       6.8  T
   7   -163.3407910 -0.169824E-06  0.107E-03    0.29       9.0  T
   8   -163.3407912 -0.202025E-06  0.534E-04    0.29      18.1  T
   9   -163.3407912 -0.383703E-07  0.278E-04    0.29      34.8  T
     SCC iter.                  ...        0 min,  0.152 sec
     gradient                   ...        0 min,  0.052 sec
 * total energy  :  -161.3953821 Eh     change       -0.7346220E-04 Eh
   gradient norm :     0.0029799 Eh/α   predicted    -0.5407624E-04 ( -26.39%)
   displ. norm   :     0.1842876 α      lambda       -0.1037076E-03
   maximum displ.:     0.0818758 α      in ANC's #3, #5, #8, ...

........................................................................
.............................. CYCLE   99 ..............................
........................................................................

 iter      E             dE          RMSdq      gap      omega  full diag
   1   -163.3401147 -0.163340E+03  0.455E-02    0.29       0.0  T
   2   -163.3400871  0.276127E-04  0.298E-02    0.30       1.0  T
   3   -163.3395040  0.583137E-03  0.513E-02    0.29       1.0  T
   4   -163.3400757 -0.571730E-03  0.127E-02    0.29       1.0  T
   5   -163.3401172 -0.414737E-04  0.408E-03    0.30       2.4  T
   6   -163.3401214 -0.424699E-05  0.172E-03    0.30       5.6  T
   7   -163.3401218 -0.365686E-06  0.117E-03    0.30       8.3  T
   8   -163.3401220 -0.214053E-06  0.530E-04    0.30      18.2  T
   9   -163.3401220 -0.279000E-07  0.290E-04    0.30      33.4  T
     SCC iter.                  ...        0 min,  0.157 sec
     gradient                   ...        0 min,  0.049 sec
 * total energy  :  -161.3954558 Eh     change       -0.7368222E-04 Eh
   gradient norm :     0.0030838 Eh/α   predicted    -0.5361835E-04 ( -27.23%)
   displ. norm   :     0.2616855 α      lambda       -0.9581948E-04
   maximum displ.:     0.1187361 α      in ANC's #3, #5, #8, ...

........................................................................
.............................. CYCLE  100 ..............................
........................................................................

 iter      E             dE          RMSdq      gap      omega  full diag
   1   -163.3398282 -0.163340E+03  0.608E-02    0.30       0.0  T
   2   -163.3397724  0.557822E-04  0.401E-02    0.30       1.0  T
   3   -163.3386720  0.110043E-02  0.693E-02    0.30       1.0  T
   4   -163.3397635 -0.109153E-02  0.172E-02    0.29       1.0  T
   5   -163.3398362 -0.727291E-04  0.461E-03    0.30       2.1  T
   6   -163.3398413 -0.501767E-05  0.202E-03    0.30       4.8  T
   7   -163.3398418 -0.517678E-06  0.144E-03    0.30       6.7  T
   8   -163.3398421 -0.361903E-06  0.616E-04    0.30      15.7  T
   9   -163.3398422 -0.376954E-07  0.355E-04    0.30      27.2  T
     SCC iter.                  ...        0 min,  0.270 sec
     gradient                   ...        0 min,  0.058 sec
 * total energy  :  -161.3955263 Eh     change       -0.7047940E-04 Eh
   gradient norm :     0.0036489 Eh/α   predicted    -0.5119355E-04 ( -27.36%)
   displ. norm   :     0.2949487 α      lambda       -0.8592779E-04
   maximum displ.:     0.1362565 α      in ANC's #3, #5, #8, ...

........................................................................
.............................. CYCLE  101 ..............................
........................................................................

 iter      E             dE          RMSdq      gap      omega  full diag
   1   -163.3400202 -0.163340E+03  0.653E-02    0.30       0.0  T
   2   -163.3399489  0.713709E-04  0.434E-02    0.31       1.0  T
   3   -163.3385687  0.138018E-02  0.755E-02    0.31       1.0  T
   4   -163.3399506 -0.138189E-02  0.184E-02    0.30       1.0  T
   5   -163.3400309 -0.803452E-04  0.482E-03    0.30       2.0  T
   6   -163.3400363 -0.542400E-05  0.210E-03    0.30       4.6  T
   7   -163.3400370 -0.623645E-06  0.149E-03    0.31       6.5  T
   8   -163.3400373 -0.369163E-06  0.637E-04    0.30      15.2  T
   9   -163.3400374 -0.359821E-07  0.370E-04    0.30      26.2  T
     SCC iter.                  ...        0 min,  0.191 sec
     gradient                   ...        0 min,  0.053 sec
 * total energy  :  -161.3955902 Eh     change       -0.6391913E-04 Eh
   gradient norm :     0.0029065 Eh/α   predicted    -0.4670184E-04 ( -26.94%)
   displ. norm   :     0.2989539 α      lambda       -0.7383584E-04
   maximum displ.:     0.1406592 α      in ANC's #3, #5, #8, ...

........................................................................
.............................. CYCLE  102 ..............................
........................................................................

 iter      E             dE          RMSdq      gap      omega  full diag
   1   -163.3404329 -0.163340E+03  0.688E-02    0.31       0.0  T
   2   -163.3403545  0.783909E-04  0.454E-02    0.31       1.0  T
   3   -163.3386978  0.165668E-02  0.797E-02    0.31       1.0  T
   4   -163.3403501 -0.165231E-02  0.199E-02    0.30       1.0  T
   5   -163.3404442 -0.941095E-04  0.519E-03    0.31       1.9  T
   6   -163.3404506 -0.637576E-05  0.212E-03    0.31       4.6  T
   7   -163.3404513 -0.685341E-06  0.139E-03    0.31       6.9  T
   8   -163.3404516 -0.305001E-06  0.619E-04    0.31      15.6  T
   9   -163.3404516 -0.220134E-07  0.397E-04    0.31      24.4  T
     SCC iter.                  ...        0 min,  0.196 sec
     gradient                   ...        0 min,  0.064 sec
 * total energy  :  -161.3956446 Eh     change       -0.5438651E-04 Eh
   gradient norm :     0.0019217 Eh/α   predicted    -0.4022048E-04 ( -26.05%)
   displ. norm   :     0.4119781 α      lambda       -0.6114058E-04
   maximum displ.:     0.1977774 α      in ANC's #3, #5, #8, ...

........................................................................
.............................. CYCLE  103 ..............................
........................................................................

 iter      E             dE          RMSdq      gap      omega  full diag
   1   -163.3409677 -0.163341E+03  0.917E-02    0.31       0.0  T
   2   -163.3408233  0.144433E-03  0.606E-02    0.32       1.0  T
   3   -163.3379661  0.285719E-02  0.103E-01    0.32       1.0  T
   4   -163.3407797 -0.281363E-02  0.294E-02    0.30       1.0  T
   5   -163.3409910 -0.211310E-03  0.740E-03    0.31       1.3  T
   6   -163.3410041 -0.131260E-04  0.295E-03    0.32       3.3  T
   7   -163.3410053 -0.112808E-05  0.214E-03    0.32       4.5  T
   8   -163.3410060 -0.748451E-06  0.946E-04    0.31      10.2  T
   9   -163.3410061 -0.357029E-07  0.643E-04    0.31      15.0  T
     SCC iter.                  ...        0 min,  0.195 sec
     gradient                   ...        0 min,  0.057 sec
 * total energy  :  -161.3957018 Eh     change       -0.5724182E-04 Eh
   gradient norm :     0.0027974 Eh/α   predicted    -0.3287880E-04 ( -42.56%)
   displ. norm   :     0.1761602 α      lambda       -0.4596786E-04
   maximum displ.:     0.0838465 α      in ANC's #5, #3, #14, ...

........................................................................
.............................. CYCLE  104 ..............................
........................................................................

 iter      E             dE          RMSdq      gap      omega  full diag
   1   -163.3410999 -0.163341E+03  0.480E-02    0.31       0.0  T
   2   -163.3410695  0.304430E-04  0.312E-02    0.32       1.0  T
   3   -163.3402502  0.819280E-03  0.530E-02    0.32       1.0  T
   4   -163.3410562 -0.805999E-03  0.139E-02    0.31       1.0  T
   5   -163.3411039 -0.476691E-04  0.377E-03    0.32       2.6  T
   6   -163.3411074 -0.353323E-05  0.136E-03    0.32       7.1  T
   7   -163.3411076 -0.226506E-06  0.101E-03    0.32       9.5  T
   8   -163.3411078 -0.149110E-06  0.504E-04    0.32      19.2  T
   9   -163.3411078 -0.279314E-07  0.238E-04    0.32      40.6  T
     SCC iter.                  ...        0 min,  0.177 sec
     gradient                   ...        0 min,  0.055 sec
 * total energy  :  -161.3957365 Eh     change       -0.3461816E-04 Eh
   gradient norm :     0.0026254 Eh/α   predicted    -0.2370228E-04 ( -31.53%)
   displ. norm   :     0.2506661 α      lambda       -0.6888601E-04
   maximum displ.:     0.1141160 α      in ANC's #5, #3, #14, ...

   *** GEOMETRY OPTIMIZATION CONVERGED AFTER 104 ITERATIONS ***

------------------------------------------------------------------------
 total energy gain   :        -0.0644422 Eh      -40.4381 kcal/mol
 total RMSD          :         3.8921622 a0        2.0596 Å
 total power (kW/mol):        -1.6268555 (step)   -5.5733 (real)
------------------------------------------------------------------------

 ANCopt (total)                0 d,  0 h,  0 min, 30.358 sec
 optimizer setup                ...        0 min,  0.001 sec (  0.003%)
 model hessian                  ...        0 min,  0.255 sec (  0.840%)
 ANC generation                 ...        0 min,  0.066 sec (  0.217%)
 coordinate transformation      ...        0 min,  0.006 sec (  0.020%)
 single point calculation       ...        0 min, 29.821 sec ( 98.231%)
 optimization log               ...        0 min,  0.151 sec (  0.497%)
 hessian update                 ...        0 min,  0.013 sec (  0.043%)
 rational function              ...        0 min,  0.033 sec (  0.109%)

================
 final structure:
================
107
 xtb: 6.7.1pre (5071a88)
O           -0.33732059449962       -1.51005981371405        4.19015544935609
C           -0.12789499084792       -1.13967056221007        5.33710169289864
O           -0.78268612448841       -1.52457789519432        6.43731806934194
C           -1.76141996526531       -2.49886819950520        6.45577755700095
C           -2.29596135730055       -2.76314085013051        7.71336937801745
C           -3.26562585958346       -3.74186940289173        7.85645753987169
O           -3.79001615953434       -4.01155616082285        9.07730172749882
C           -3.70540708373947       -4.45443388042937        6.73820215034035
O           -4.66644766273381       -5.42474922287811        6.90544008396381
C           -3.17095108417498       -4.17359858681366        5.48406963187720
O           -3.63875220364284       -4.89631086061571        4.42774643734824
C           -2.19966040353812       -3.19476716075689        5.33791862352331
C            0.84628246198729       -0.00822552717744        5.55144061317858
O            2.17254635975002       -0.50193601492690        5.41544170575639
C            3.10535930724287        0.48697640257024        5.38581284686927
C            4.35884044894668        0.16489441484277        4.88344024483052
C            5.31829374203354        1.15803069798567        4.75310955375521
O            6.53718142984955        0.80484110006194        4.27443330263958
C            5.00435001540782        2.47742427549733        5.05183220197677
C            3.75239577080121        2.79234250481895        5.56273142330761
O            3.45884772816876        4.08709113754215        5.80996411949775
C            2.81237947413287        1.78487665511692        5.80185976712917
C            1.52365249900384        2.12516399382847        6.52075909134448
O            0.81502639803255        3.05751711769619        5.72176312587455
C            0.72570949962523        0.83459295374380        6.81729682291496
C           -0.69635196236366        1.11804943722537        7.21955723345174
C           -1.67191995947086        1.42172151443004        6.27122338240802
C           -2.98186471847721        1.64142715344017        6.67110361745335
O           -4.00496061676522        1.91684941649703        5.81666941837453
C           -3.31983436264887        1.57600973302289        8.02270352483287
O           -4.61109275439064        1.78414909765005        8.43666928414355
C           -2.34165885107257        1.29355809528729        8.97356971079948
O           -2.66500159487272        1.23604613402891       10.28800902726253
C           -1.03530082090548        1.06953514650749        8.56281710449840
H           -1.95783338629945       -2.21355540905638        8.57391599652795
H           -4.44026101335038       -4.71917769513142        8.96344656472970
H           -4.83707238987371       -5.79654411704922        6.03044089291313
H           -3.26266184436125       -4.53571484016875        3.60598790383100
H           -1.79839202230912       -2.99639345871376        4.35849358240986
H            0.66427616727662        0.65913325540668        4.66220725687515
H            4.57565577471887       -0.84916363049747        4.59652556791049
H            7.08372456858373        1.58894397128266        4.15287832443500
H            5.71492652670456        3.27281837364141        4.89498881311460
H            2.49551400791847        4.17202227968038        5.87580406060992
H            1.77136149042190        2.60122684185990        7.48684128423495
H           -0.09551177256741        3.12523243579531        6.03394303747188
H            1.22760107821255        0.31035610543432        7.63515464840456
H           -1.44197060716535        1.46165967794882        5.21732161693645
H           -3.70196805353830        2.07611730476107        4.90661736524287
H           -5.13358762585772        1.94372873228955        7.63942540715463
H           -3.61833131777921        1.38348162683652       10.36120520558453
H           -0.29849443856878        0.83793718395599        9.31373546935539
B           -4.56240768466072       -2.07612746355014        2.62959400220167
B           -4.33553876859441       -0.95542667852933        1.52310123064948
B           -4.23446447310876        0.03025827721993        0.19283884864653
B           -3.25229365420946       -2.35098253957663        1.73982204931862
B           -2.74770654490521        0.36360896890996        0.53329584127937
B           -3.97688700601748        0.75226809590906        1.83023071135856
B           -4.55780882254346        1.96753093986793        2.70194023065089
B           -3.95136738844162        3.49318388404653        2.69685493588621
B           -2.36736936737685        0.79053873868781        2.09292334442202
B           -2.52817236113381        3.77063521881060        3.44623745612200
B           -2.12095087887543       -3.55634392329779        1.67162215083775
B           -1.75208439556208       -2.10324640619272        1.12963520399795
B           -1.42681902090029       -0.49249189164236        1.05246498971512
B           -0.51150903247281       -3.13254100835527        1.34201652364953
B            0.12370198461636       -0.09930291453824        1.40080666075557
B           -0.94641516050943        0.21772597109866        2.63989128921151
B           -1.21393530244738        1.87491828942049        2.52656464039448
B           -1.26220602331198        3.46079919836088        2.51412652987588
B            0.31022816859940        1.18060565458308        2.68512414604616
B           -0.07535365428089        4.44415170337687        1.95393063948577
B            0.81653483167106       -4.10858640400400        1.58681070889494
B            1.05742719687204       -2.55379959441032        1.24971791793058
B            1.48195912936339       -1.02260538553148        1.14372948970956
B            2.26535315414178       -3.42399917221035        1.98611003391964
B            2.94819082140715       -0.34963548432378        1.31992739837562
B            1.63470174625329        0.53410158926951        1.74553308845076
B            1.70680839302345        2.05874393361814        2.50182678100919
B            1.18054116674445        3.48912814449453        2.00698599180248
B            2.95170736375210        1.53329010194881        1.51842814374246
B            1.73055622190555        2.88780500661700        0.54256123135072
B            3.34428275760916       -3.86816565223339        3.19040491561416
B            3.76819426345480       -2.78093519981289        2.04935871793661
B            4.27506818633661       -1.36055757066332        1.47058500064828
B            4.72451104011297       -3.04707845901126        3.27458809907691
B            5.62957516431082       -0.65509313113268        0.82363360989553
B            4.47693748475660        0.30169664422788        1.45846511980206
B            4.53722331287668        2.08324554172225        1.27311492765390
B            3.33531789223980        2.85872396971358        0.39345374904500
B            5.84753860835151        1.09089078764747        1.09750850623480
B            4.82598472495198        3.21652765747975        0.19020516112617
H           -4.93059170035755       -2.38506362124837        3.69903664551936
H           -5.49841638857573       -1.55037543488631        1.90476983698768
H           -5.08843419090730        0.17453773809723       -0.60698995184833
H           -5.40135724871376        1.74171208179451        3.50813599700869
H           -4.57768287293136        4.36236791455947        2.20063222941523
H           -2.48788906897034        4.05738489544708        4.59334191369390
H           -2.38310020465238       -4.69640553248311        1.80367121983993
H           -0.19850669585761        5.54302732063168        1.54813678862347
H            0.70986377010816       -5.27360947808675        1.53148754123677
H            0.99414360885978        2.54026853566563       -0.31770887108460
H            3.07411800230849       -4.72578518818213        3.93777207449873
H            5.72642040478543       -2.86910940759372        3.84091686242390
H            6.58349492270675       -1.17050283179738        0.38540369044083
H            6.97417080499299        1.39938217771276        1.18859126622684
H            5.68434863657404        3.83372391004831       -0.30414971948129
 
 Bond Distances (Angstroems)
 ---------------------------
O1-C2=1.2233         C2-O1=1.2233         C2-O3=1.3369         C2-C13=1.5084        O3-C2=1.3369         O3-C4=1.3811         
C4-O3=1.3811         C4-C5=1.3918         C4-C12=1.3878        C5-C4=1.3918         C5-C6=1.3851         C5-H35=1.0756        
C6-C5=1.3851         C6-O7=1.3558         C6-C8=1.3970         O7-C6=1.3558         O7-H36=0.9677        C8-C6=1.3970         
C8-O9=1.3759         C8-C10=1.3919        O9-C8=1.3759         O9-H37=0.9659        C10-C8=1.3919        C10-O11=1.3627       
C10-C12=1.3867       O11-C10=1.3627       O11-H38=0.9730       C12-C4=1.3878        C12-C10=1.3867       C12-H39=1.0769       
C13-C2=1.5084        C13-O14=1.4217       C13-C25=1.5255       C13-H40=1.1266       O14-C13=1.4217       O14-C15=1.3598       
C15-O14=1.3598       C15-C16=1.3883       C15-C22=1.3941       C16-C15=1.3883       C16-C17=1.3870       C16-H41=1.0759       
C17-C16=1.3870       C17-O18=1.3563       C17-C19=1.3887       O18-C17=1.3563       O18-H42=0.9635       C19-C17=1.3887       
C19-C20=1.3884       C19-H43=1.0780       C20-C19=1.3884       C20-O21=1.3504       C20-C22=1.3985       O21-C20=1.3504       
O21-H44=0.9693       C22-C15=1.3941       C22-C20=1.3985       C22-C23=1.5144       C23-C22=1.5144       C23-O24=1.4177       
C23-C25=1.5460       C23-H45=1.1051       O24-C23=1.4177       O24-H46=0.9649       C25-C13=1.5255       C25-C23=1.5460       
C25-C26=1.5048       C25-H47=1.0934       C26-C25=1.5048       C26-C27=1.3940       C26-C34=1.3862       C27-C26=1.3940       
C27-C28=1.3871       C27-H48=1.0794       C28-C27=1.3871       C28-O29=1.3611       C28-C30=1.3947       O29-C28=1.3611       
O29-H49=0.9723       C30-C28=1.3947       C30-O31=1.3719       C30-C32=1.3931       O31-C30=1.3719       O31-H50=0.9665       
C32-C30=1.3931       C32-O33=1.3548       C32-C34=1.3876       O33-C32=1.3548       O33-H51=0.9674       C34-C26=1.3862       
C34-C32=1.3876       C34-H52=1.0772       H35-C5=1.0756        H36-O7=0.9677        H37-O9=0.9659        H38-O11=0.9730       
H39-C12=1.0769       H40-C13=1.1266       H41-C16=1.0759       H42-O18=0.9635       H43-C19=1.0780       H44-O21=0.9693       
H45-C23=1.1051       H46-O24=0.9649       H47-C25=1.0934       H48-C27=1.0794       H49-O29=0.9723       H50-O31=0.9665       
H51-O33=0.9674       H52-C34=1.0772       B53-B54=1.5912       B53-B56=1.6074       B53-H93=1.1725       B53-H94=1.2953       
B54-B53=1.5912       B54-B55=1.6587       B54-B56=1.7799       B54-B58=1.7718       B54-H94=1.3609       B55-B54=1.6587       
B55-B57=1.5612       B55-B58=1.8080       B55-H95=1.1789       B56-B53=1.6074       B56-B54=1.7799       B56-B63=1.6545       
B56-B64=1.6384       B57-B55=1.5612       B57-B58=1.8287       B57-B61=1.6611       B57-B65=1.6575       B58-B54=1.7718       
B58-B55=1.8080       B58-B57=1.8287       B58-B59=1.6044       B58-B61=1.6313       B59-B58=1.6044       B59-B60=1.6418       
B59-H96=1.1885       B60-B59=1.6418       B60-B62=1.6322       B60-H97=1.1807       B61-B57=1.6611       B61-B58=1.6313       
B61-B65=1.9009       B61-B68=1.6268       B61-B69=1.6414       B62-B60=1.6322       B62-B70=1.6023       B62-H98=1.1831       
B63-B56=1.6545       B63-B64=1.5941       B63-B66=1.6966       B63-H99=1.1772       B64-B56=1.6384       B64-B63=1.5941       
B64-B65=1.6451       B64-B66=1.6259       B65-B57=1.6575       B65-B61=1.9009       B65-B64=1.6451       B65-B67=1.6371       
B65-B68=1.8042       B66-B63=1.6966       B66-B64=1.6259       B66-B73=1.6662       B66-B74=1.6748       B67-B65=1.6371       
B67-B68=1.6676       B67-B71=1.8228       B67-B75=1.6624       B67-B78=1.6743       B68-B61=1.6268       B68-B65=1.8042       
B68-B67=1.6676       B68-B69=1.6825       B68-B71=1.5838       B69-B61=1.6414       B69-B68=1.6825       B69-B70=1.5867       
B69-B71=1.6823       B70-B62=1.6023       B70-B69=1.5867       B70-B72=1.6399       B71-B67=1.8228       B71-B68=1.5838       
B71-B69=1.6823       B71-B78=1.7479       B71-B79=1.6599       B72-B70=1.6399       B72-B80=1.5787       B72-H100=1.1779      
B73-B66=1.6662       B73-B74=1.6090       B73-B76=1.6514       B73-H101=1.1712      B74-B66=1.6748       B74-B73=1.6090       
B74-B75=1.5925       B74-B76=1.6609       B75-B67=1.6624       B75-B74=1.5925       B75-B77=1.6229       B75-B78=1.6760       
B76-B73=1.6514       B76-B74=1.6609       B76-B83=1.6768       B76-B84=1.6359       B77-B75=1.6229       B77-B78=1.6393       
B77-B81=1.8934       B77-B85=1.6749       B77-B88=1.6675       B78-B67=1.6743       B78-B71=1.7479       B78-B75=1.6760       
B78-B77=1.6393       B78-B79=1.7034       B78-B81=1.6687       B79-B71=1.6599       B79-B78=1.7034       B79-B80=1.6024       
B79-B81=1.6712       B79-B82=2.1276       B80-B72=1.5787       B80-B79=1.6024       B80-B82=1.6759       B81-B77=1.8934       
B81-B78=1.6687       B81-B79=1.6712       B81-B82=2.0684       B81-B88=1.9613       B81-B89=1.6960       B81-B90=1.7803       
B82-B79=2.1276       B82-B80=1.6759       B82-B81=2.0684       B82-B90=1.6119       B82-H102=1.1845      B83-B76=1.6768       
B83-B84=1.6321       B83-B86=1.6082       B83-H103=1.1692      B84-B76=1.6359       B84-B83=1.6321       B84-B85=1.6154       
B84-B86=1.5769       B85-B77=1.6749       B85-B84=1.6154       B85-B87=1.6586       B85-B88=1.6745       B86-B83=1.6082       
B86-B84=1.5769       B86-H104=1.1646      B87-B85=1.6586       B87-B88=1.6270       B87-B91=1.7807       B87-H105=1.1695      
B88-B77=1.6675       B88-B81=1.9613       B88-B85=1.6745       B88-B87=1.6270       B88-B89=1.7922       B88-B91=1.6222       
B89-B81=1.6960       B89-B88=1.7922       B89-B90=1.6792       B89-B91=1.6530       B89-B92=1.5939       B90-B81=1.7803       
B90-B82=1.6119       B90-B89=1.6792       B90-B92=1.5464       B91-B87=1.7807       B91-B88=1.6222       B91-B89=1.6530       
B91-H106=1.1716      B92-B89=1.5939       B92-B90=1.5464       B92-H107=1.1671      H93-B53=1.1725       H94-B53=1.2953       
H94-B54=1.3609       H95-B55=1.1789       H96-B59=1.1885       H97-B60=1.1807       H98-B62=1.1831       H99-B63=1.1772       
H100-B72=1.1779      H101-B73=1.1712      H102-B82=1.1845      H103-B83=1.1692      H104-B86=1.1646      H105-B87=1.1695      
H106-B91=1.1716      H107-B92=1.1671      
 B  H  Rav=1.1945 sigma=0.0522  Rmin=1.1646  Rmax=1.3609    16
 B  B  Rav=1.6813 sigma=0.1044  Rmin=1.5464  Rmax=2.1276    77
 C  H  Rav=1.0876 sigma=0.0167  Rmin=1.0756  Rmax=1.1266     9
 C  C  Rav=1.4186 sigma=0.0539  Rmin=1.3851  Rmax=1.5460    23
 O  H  Rav=0.9678 sigma=0.0030  Rmin=0.9635  Rmax=0.9730     9
 O  C  Rav=1.3592 sigma=0.0442  Rmin=1.2233  Rmax=1.4217    14
 
 selected bond angles (degree)
 --------------------
O3-C2-O1=126.91                C13-C2-O1=118.09               C13-C2-O3=114.54               C4-O3-C2=124.14                
C5-C4-O3=114.72                C12-C4-O3=124.52               C12-C4-C5=120.75               C6-C5-C4=119.76                
H35-C5-C4=120.34               H35-C5-C6=119.90               O7-C6-C5=120.29                C8-C6-C5=119.87                
C8-C6-O7=119.84                H36-O7-C6=107.42               O9-C8-C6=118.84                C10-C8-C6=119.83               
C10-C8-O9=121.33               H37-O9-C8=106.54               O11-C10-C8=117.36              C12-C10-C8=120.42              
C12-C10-O11=122.22             
 
 selected dihedral angles (degree)
 ---------------------------------
C4-O3-C2-O1=  4.92            C4-O3-C2-C13=176.96           C5-C4-O3-C2=178.79            C12-C4-O3-C2=359.42           
C6-C5-C4-O3=181.34            C6-C5-C4-C12=  0.74           H35-C5-C4-O3=  1.16           H35-C5-C4-C12=180.56          
O7-C6-C5-C4=179.75            O7-C6-C5-H35=359.93           C8-C6-C5-C4=359.75            C8-C6-C5-H35=179.93           
H36-O7-C6-C5=180.16           H36-O7-C6-C8=  0.15           O9-C8-C6-C5=179.80            O9-C8-C6-O7=359.80            
C10-C8-C6-C5=359.73           C10-C8-C6-O7=179.73           H37-O9-C8-C6=179.84           H37-O9-C8-C10=359.91          
O11-C10-C8-C6=180.18          O11-C10-C8-O9=  0.10          C12-C10-C8-C6=  0.30          C12-C10-C8-O9=180.23          
 
 CMA Distance (Angstroems)
 ---------------------------
R(CMA):  4.7544
           -------------------------------------------------
          |                Final Singlepoint                |
           -------------------------------------------------

          ...................................................
          :                      SETUP                      :
          :.................................................:
          :  # basis functions                 329          :
          :  # atomic orbitals                 329          :
          :  # shells                          181          :
          :  # electrons                       313          :
          :  max. iterations                   500          :
          :  Hamiltonian                  GFN2-xTB          :
          :  restarted?                      false          :
          :  GBSA solvation                  false          :
          :  PC potential                    false          :
          :  electronic temp.          300.0000000     K    :
          :  accuracy                    1.0000000          :
          :  -> integral cutoff          0.2500000E+02      :
          :  -> integral neglect         0.1000000E-07      :
          :  -> SCF convergence          0.1000000E-05 Eh   :
          :  -> wf. convergence          0.1000000E-03 e    :
          :  Broyden damping             0.4000000          :
          :  net charge                          0          :
          :  unpaired electrons                  0          :
          ...................................................

 iter      E             dE          RMSdq      gap      omega  full diag
   1   -163.3411078 -0.163341E+03  0.124E-04    0.32       0.0  T
   2   -163.3411078  0.120071E-07  0.232E-04    0.32      41.7  T
   3   -163.3411078 -0.146074E-07  0.548E-05    0.32     176.4  T

   *** convergence criteria satisfied after 3 iterations ***

         #    Occupation            Energy/Eh            Energy/eV
      -------------------------------------------------------------
         1        2.0000           -0.7375745             -20.0704
       ...           ...                  ...                  ...
       151        2.0000           -0.2945139              -8.0141
       152        2.0000           -0.2900397              -7.8924
       153        2.0000           -0.2876189              -7.8265
       154        2.0000           -0.2855927              -7.7714
       155        2.0000           -0.2786136              -7.5815
       156        1.9996           -0.2748971              -7.4803
       157        0.9982           -0.2602062              -7.0806 (HOMO)
       158        0.0022           -0.2485914              -6.7645 (LUMO)
       159        0.0001           -0.2457819              -6.6881
       160                         -0.2325450              -6.3279
       161                         -0.2208119              -6.0086
       162                         -0.2184175              -5.9434
       ...                                ...                  ...
       329                          1.0647192              28.9725
      -------------------------------------------------------------
                  HL-Gap            0.0116148 Eh            0.3161 eV
             Fermi-level           -0.2609826 Eh           -7.1017 eV

 SCC (total)                   0 d,  0 h,  0 min,  0.146 sec
 SCC setup                      ...        0 min,  0.001 sec (  0.685%)
 Dispersion                     ...        0 min,  0.001 sec (  0.685%)
 classical contributions        ...        0 min,  0.001 sec (  0.685%)
 integral evaluation            ...        0 min,  0.016 sec ( 10.959%)
 iterations                     ...        0 min,  0.065 sec ( 44.521%)
 molecular gradient             ...        0 min,  0.055 sec ( 37.671%)
 printout                       ...        0 min,  0.007 sec (  4.795%)

         :::::::::::::::::::::::::::::::::::::::::::::::::::::
         ::                     SUMMARY                     ::
         :::::::::::::::::::::::::::::::::::::::::::::::::::::
         :: total energy            -161.395736464433 Eh    ::
         :: gradient norm              0.002665682654 Eh/a0 ::
         :: HOMO-LUMO gap              0.316054032129 eV    ::
         ::.................................................::
         :: SCC energy              -163.330959529299 Eh    ::
         :: -> isotropic ES            0.414239611165 Eh    ::
         :: -> anisotropic ES         -0.004001573106 Eh    ::
         :: -> anisotropic XC         -0.023771491700 Eh    ::
         :: -> dispersion             -0.167469135376 Eh    ::
         :: repulsion energy           1.935223064866 Eh    ::
         :: add. restraining           0.000000000000 Eh    ::
         :: total charge               0.000000000288 e     ::
         :::::::::::::::::::::::::::::::::::::::::::::::::::::

           -------------------------------------------------
          |                Property Printout                |
           -------------------------------------------------

    * Orbital Energies and Occupations

         #    Occupation            Energy/Eh            Energy/eV
      -------------------------------------------------------------
         1        2.0000           -0.7375745             -20.0704
       ...           ...                  ...                  ...
       145        2.0000           -0.3138619              -8.5406
       146        2.0000           -0.3098099              -8.4304
       147        2.0000           -0.3080856              -8.3834
       148        2.0000           -0.3057903              -8.3210
       149        2.0000           -0.3013357              -8.1998
       150        2.0000           -0.2988414              -8.1319
       151        2.0000           -0.2945139              -8.0141
       152        2.0000           -0.2900397              -7.8924
       153        2.0000           -0.2876189              -7.8265
       154        2.0000           -0.2855927              -7.7714
       155        2.0000           -0.2786136              -7.5815
       156        1.9996           -0.2748971              -7.4803
       157        0.9982           -0.2602062              -7.0806 (HOMO)
       158        0.0022           -0.2485914              -6.7645 (LUMO)
       159        0.0001           -0.2457819              -6.6881
       160                         -0.2325450              -6.3279
       161                         -0.2208119              -6.0086
       162                         -0.2184175              -5.9434
       163                         -0.2177235              -5.9246
       164                         -0.2154350              -5.8623
       165                         -0.2144072              -5.8343
       166                         -0.2116134              -5.7583
       167                         -0.2081418              -5.6638
       168                         -0.2028210              -5.5190
       ...                                ...                  ...
       329                          1.0647192              28.9725
      -------------------------------------------------------------
                  HL-Gap            0.0116148 Eh            0.3161 eV
             Fermi-level           -0.2609826 Eh           -7.1017 eV

     #   Z          covCN         q      C6AA      α(0)
     1   8 O        0.858    -0.439    22.469     6.355
     2   6 C        2.703     0.303    21.847     7.650
     3   8 O        1.709    -0.240    17.972     5.724
     4   6 C        2.863     0.126    25.229     8.233
     5   6 C        2.918    -0.096    30.423     9.045
     6   6 C        2.845     0.125    25.254     8.236
     7   8 O        1.660    -0.380    20.458     6.106
     8   6 C        2.844     0.075    26.316     8.407
     9   8 O        1.658    -0.410    21.048     6.193
    10   6 C        2.846     0.108    25.615     8.295
    11   8 O        1.659    -0.418    21.194     6.215
    12   6 C        2.915    -0.131    31.353     9.182
    13   6 C        3.777     0.067    19.489     6.290
    14   8 O        1.705    -0.279    18.637     5.829
    15   6 C        2.894     0.131    25.136     8.220
    16   6 C        2.917    -0.119    31.024     9.134
    17   6 C        2.847     0.140    24.935     8.184
    18   8 O        1.660    -0.389    20.645     6.134
    19   6 C        2.916    -0.121    31.081     9.142
    20   6 C        2.850     0.143    24.892     8.177
    21   8 O        1.660    -0.395    20.742     6.148
    22   6 C        2.968    -0.089    30.238     9.020
    23   6 C        3.738     0.115    18.783     6.184
    24   8 O        1.655    -0.467    22.196     6.360
    25   6 C        3.860    -0.047    21.368     6.574
    26   6 C        2.971    -0.011    28.293     8.725
    27   6 C        2.919    -0.124    31.160     9.154
    28   6 C        2.843     0.106    25.652     8.300
    29   8 O        1.659    -0.423    21.294     6.229
    30   6 C        2.847     0.081    26.196     8.388
    31   8 O        1.659    -0.410    21.041     6.192
    32   6 C        2.843     0.125    25.261     8.237
    33   8 O        1.660    -0.382    20.504     6.113
    34   6 C        2.924    -0.083    30.076     8.994
    35   1 H        0.926     0.079     1.993     2.208
    36   1 H        0.805     0.326     0.648     1.265
    37   1 H        0.805     0.325     0.651     1.267
    38   1 H        0.804     0.336     0.623     1.240
    39   1 H        0.926     0.100     1.785     2.089
    40   1 H        0.918     0.080     1.978     2.199
    41   1 H        0.926     0.090     1.879     2.143
    42   1 H        0.805     0.313     0.684     1.299
    43   1 H        0.926     0.058     2.218     2.329
    44   1 H        0.805     0.337     0.619     1.235
    45   1 H        0.922     0.022     2.699     2.569
    46   1 H        0.805     0.307     0.700     1.314
    47   1 H        0.924     0.057     2.238     2.340
    48   1 H        0.926     0.059     2.214     2.327
    49   1 H        0.804     0.336     0.623     1.240
    50   1 H        0.805     0.327     0.644     1.261
    51   1 H        0.805     0.325     0.650     1.267
    52   1 H        0.926     0.059     2.207     2.323
    53   5 B        3.720     0.060    21.527     7.500
    54   5 B        4.574     0.066    21.557     7.481
    55   5 B        3.752     0.028    22.151     7.597
    56   5 B        3.801     0.032    22.128     7.585
    57   5 B        3.866     0.061    21.631     7.495
    58   5 B        4.587     0.022    22.333     7.614
    59   5 B        2.872     0.040    20.723     7.599
    60   5 B        2.866     0.073    20.181     7.499
    61   5 B        4.633     0.023    22.319     7.612
    62   5 B        2.885     0.064    20.314     7.523
    63   5 B        3.819     0.048    21.851     7.536
    64   5 B        3.869     0.033    22.126     7.581
    65   5 B        4.544    -0.005    22.844     7.701
    66   5 B        3.831     0.062    21.610     7.493
    67   5 B        4.709     0.068    21.518     7.474
    68   5 B        4.737     0.097    21.028     7.389
    69   5 B        3.859     0.031    22.163     7.587
    70   5 B        2.921     0.023    21.000     7.647
    71   5 B        4.683     0.028    22.232     7.597
    72   5 B        2.875     0.059    20.404     7.540
    73   5 B        3.830     0.065    21.551     7.483
    74   5 B        3.860     0.029    22.195     7.593
    75   5 B        3.857     0.005    22.637     7.668
    76   5 B        3.844     0.059    21.669     7.503
    77   5 B        4.629     0.031    22.177     7.588
    78   5 B        5.707     0.111    20.795     7.347
    79   5 B        4.179     0.025    22.289     7.607
    80   5 B        2.917     0.034    20.808     7.612
    81   5 B        5.678     0.061    21.636     7.495
    82   5 B        3.664     0.065    21.260     7.489
    83   5 B        3.831     0.054    21.756     7.518
    84   5 B        3.876     0.028    22.218     7.596
    85   5 B        3.851     0.023    22.310     7.613
    86   5 B        2.894     0.099    19.754     7.418
    87   5 B        3.770     0.076    21.334     7.452
    88   5 B        5.413     0.105    20.893     7.365
    89   5 B        4.732     0.045    21.922     7.544
    90   5 B        3.804     0.015    22.437     7.637
    91   5 B        3.778     0.081    21.243     7.434
    92   5 B        2.896     0.049    20.569     7.569
    93   1 H        0.938    -0.124     6.486     3.982
    94   1 H        1.557     0.034     2.507     2.472
    95   1 H        0.936    -0.145     7.450     4.268
    96   1 H        0.932    -0.133     6.863     4.096
    97   1 H        0.935    -0.115     6.129     3.871
    98   1 H        0.934    -0.134     6.900     4.107
    99   1 H        0.936    -0.123     6.416     3.960
   100   1 H        0.936    -0.135     6.947     4.121
   101   1 H        0.939    -0.092     5.287     3.595
   102   1 H        0.934    -0.150     7.684     4.334
   103   1 H        0.939    -0.091     5.253     3.583
   104   1 H        0.941    -0.128     6.653     4.033
   105   1 H        0.939    -0.108     5.863     3.786
   106   1 H        0.938    -0.113     6.051     3.846
   107   1 H        0.940    -0.141     7.230     4.204

 Mol. C6AA /au·bohr⁶  :     167733.562369
 Mol. C8AA /au·bohr⁸  :    4923159.458955
 Mol. α(0) /au        :        647.121612


Wiberg/Mayer (AO) data.
largest (>0.10) Wiberg bond orders for each atom

 ---------------------------------------------------------------------------
     #   Z sym  total        # sym  WBO       # sym  WBO       # sym  WBO
 ---------------------------------------------------------------------------
     1   8 O    1.996 --     2 C    1.608     3 O    0.140
     2   6 C    3.886 --     1 O    1.608     3 O    1.106    13 C    0.965
     3   8 O    2.362 --     2 C    1.106     4 C    0.992     1 O    0.140
     4   6 C    3.907 --    12 C    1.382     5 C    1.363     3 O    0.992
     5   6 C    3.966 --     6 C    1.386     4 C    1.363    35 H    0.963
     6   6 C    3.948 --     5 C    1.386     8 C    1.311     7 O    1.089
     7   8 O    2.130 --     6 C    1.089    36 H    0.872
     8   6 C    3.923 --    10 C    1.331     6 C    1.311     9 O    1.048
     9   8 O    2.080 --     8 C    1.048    37 H    0.872
    10   6 C    3.947 --    12 C    1.369     8 C    1.331    11 O    1.075
    11   8 O    2.099 --    10 C    1.075    38 H    0.836
    12   6 C    3.960 --     4 C    1.382    10 C    1.369    39 H    0.943
    13   6 C    3.925 --    25 C    0.972     2 C    0.965    14 O    0.946
                            40 H    0.864
    14   8 O    2.219 --    15 C    1.059    13 C    0.946
    15   6 C    3.936 --    16 C    1.367    22 C    1.352    14 O    1.059
    16   6 C    3.967 --    17 C    1.373    15 C    1.367    41 H    0.950
    17   6 C    3.942 --    16 C    1.373    19 C    1.368    18 O    1.081
    18   8 O    2.125 --    17 C    1.081    42 H    0.881
    19   6 C    3.969 --    20 C    1.376    17 C    1.368    43 H    0.963
    20   6 C    3.946 --    19 C    1.376    22 C    1.332    21 O    1.102
    21   8 O    2.131 --    20 C    1.102    44 H    0.850
    22   6 C    3.963 --    15 C    1.352    20 C    1.332    23 C    0.987
    23   6 C    3.955 --    22 C    0.987    24 O    0.980    25 C    0.956
                            45 H    0.951
    24   8 O    1.961 --    23 C    0.980    46 H    0.869
    25   6 C    3.992 --    26 C    1.002    13 C    0.972    47 H    0.961
                            23 C    0.956
    26   6 C    3.986 --    34 C    1.417    27 C    1.390    25 C    1.002
    27   6 C    3.974 --    26 C    1.390    28 C    1.374    48 H    0.952
    28   6 C    3.944 --    27 C    1.374    30 C    1.321    29 O    1.074
    29   8 O    2.101 --    28 C    1.074    49 H    0.833
    30   6 C    3.935 --    32 C    1.323    28 C    1.321    31 O    1.055
    31   8 O    2.091 --    30 C    1.055    50 H    0.868
    32   6 C    3.946 --    34 C    1.367    30 C    1.323    33 O    1.089
    33   8 O    2.131 --    32 C    1.089    51 H    0.872
    34   6 C    3.981 --    26 C    1.417    32 C    1.367    52 H    0.965
    35   1 H    0.994 --     5 C    0.963
    36   1 H    0.894 --     7 O    0.872
    37   1 H    0.894 --     9 O    0.872
    38   1 H    0.886 --    11 O    0.836
    39   1 H    0.990 --    12 C    0.943
    40   1 H    0.991 --    13 C    0.864
    41   1 H    0.991 --    16 C    0.950
    42   1 H    0.902 --    18 O    0.881
    43   1 H    0.996 --    19 C    0.963
    44   1 H    0.886 --    21 O    0.850
    45   1 H    0.998 --    23 C    0.951
    46   1 H    0.905 --    24 O    0.869
    47   1 H    0.995 --    25 C    0.961
    48   1 H    0.996 --    27 C    0.952
    49   1 H    0.886 --    29 O    0.833
    50   1 H    0.893 --    31 O    0.868
    51   1 H    0.894 --    33 O    0.872
    52   1 H    0.996 --    34 C    0.965
    53   5 B    3.583 --    93 H    0.951    56 B    0.945    54 B    0.866
                            94 H    0.524
    54   5 B    3.551 --    53 B    0.866    55 B    0.771    56 B    0.593
                            58 B    0.541    94 H    0.438    57 B    0.139
    55   5 B    3.572 --    57 B    1.126    95 H    0.950    54 B    0.771
                            58 B    0.436
    56   5 B    3.576 --    53 B    0.945    63 B    0.868    64 B    0.805
                            54 B    0.593    66 B    0.101
    57   5 B    3.387 --    55 B    1.126    65 B    0.803    61 B    0.623
                            58 B    0.429    54 B    0.139
    58   5 B    3.600 --    59 B    1.073    61 B    0.794    54 B    0.541
                            55 B    0.436    57 B    0.429
    59   5 B    3.431 --    58 B    1.073    60 B    1.015    96 H    0.912
                            61 B    0.137
    60   5 B    3.271 --    62 B    1.016    59 B    1.015    97 H    0.931
                            70 B    0.113
    61   5 B    3.685 --    58 B    0.794    69 B    0.780    68 B    0.703
                            57 B    0.623    65 B    0.367    59 B    0.137
    62   5 B    3.405 --    60 B    1.016    70 B    1.006    98 H    0.923
                            69 B    0.165
    63   5 B    3.644 --    99 H    0.913    56 B    0.868    64 B    0.841
                            66 B    0.775
    64   5 B    3.607 --    63 B    0.841    66 B    0.832    65 B    0.827
                            56 B    0.805
    65   5 B    3.650 --    64 B    0.827    67 B    0.826    57 B    0.803
                            68 B    0.452    61 B    0.367
    66   5 B    3.568 --    64 B    0.832    73 B    0.791    63 B    0.775
                            74 B    0.719    56 B    0.101
    67   5 B    3.564 --    65 B    0.826    75 B    0.684    68 B    0.599
                            78 B    0.577    71 B    0.450
    68   5 B    3.590 --    71 B    0.843    61 B    0.703    67 B    0.599
                            69 B    0.582    65 B    0.452
    69   5 B    3.561 --    70 B    0.979    61 B    0.780    71 B    0.690
                            68 B    0.582    62 B    0.165
    70   5 B    3.443 --    62 B    1.006    69 B    0.979    72 B    0.931
                            80 B    0.169    60 B    0.113
    71   5 B    3.649 --    68 B    0.843    79 B    0.736    69 B    0.690
                            78 B    0.472    67 B    0.450
    72   5 B    3.405 --    80 B    1.148   100 H    0.954    70 B    0.931
                            82 B    0.117
    73   5 B    3.578 --   101 H    0.921    76 B    0.834    74 B    0.796
                            66 B    0.791
    74   5 B    3.606 --    75 B    1.003    73 B    0.796    66 B    0.719
                            76 B    0.718
    75   5 B    3.616 --    74 B    1.003    77 B    0.886    67 B    0.684
                            78 B    0.589
    76   5 B    3.592 --    73 B    0.834    84 B    0.812    83 B    0.774
                            74 B    0.718    86 B    0.146
    77   5 B    3.663 --    75 B    0.886    85 B    0.709    78 B    0.657
                            88 B    0.619    81 B    0.401
    78   5 B    3.666 --    77 B    0.657    75 B    0.589    67 B    0.577
                            81 B    0.570    79 B    0.527    71 B    0.472
    79   5 B    3.527 --    80 B    0.982    81 B    0.769    71 B    0.736
                            78 B    0.527    82 B    0.203
    80   5 B    3.394 --    72 B    1.148    79 B    0.982    82 B    0.766
                            70 B    0.169
    81   5 B    3.635 --    79 B    0.769    89 B    0.606    78 B    0.570
                            90 B    0.489    77 B    0.401    88 B    0.318
                            82 B    0.266
    82   5 B    3.503 --    90 B    0.973   102 H    0.941    80 B    0.766
                            81 B    0.266    79 B    0.203    72 B    0.117
    83   5 B    3.602 --    86 B    0.995   103 H    0.916    76 B    0.774
                            84 B    0.758
    84   5 B    3.616 --    86 B    0.953    85 B    0.895    76 B    0.812
                            83 B    0.758
    85   5 B    3.612 --    84 B    0.895    87 B    0.875    77 B    0.709
                            88 B    0.620    86 B    0.203
    86   5 B    3.454 --    83 B    0.995   104 H    0.971    84 B    0.953
                            85 B    0.203    76 B    0.146
    87   5 B    3.509 --   105 H    0.953    85 B    0.875    88 B    0.758
                            91 B    0.675
    88   5 B    3.656 --    91 B    0.758    87 B    0.758    85 B    0.620
                            77 B    0.619    89 B    0.437    81 B    0.318
    89   5 B    3.631 --    92 B    0.960    91 B    0.771    90 B    0.699
                            81 B    0.606    88 B    0.437
    90   5 B    3.566 --    92 B    1.164    82 B    0.973    89 B    0.699
                            81 B    0.489
    91   5 B    3.549 --   106 H    0.953    89 B    0.771    88 B    0.758
                            87 B    0.675    92 B    0.183
    92   5 B    3.509 --    90 B    1.164   107 H    0.969    89 B    0.960
                            91 B    0.183
    93   1 H    0.980 --    53 B    0.951
    94   1 H    0.995 --    53 B    0.524    54 B    0.438
    95   1 H    0.977 --    55 B    0.950
    96   1 H    0.979 --    59 B    0.912
    97   1 H    0.984 --    60 B    0.931
    98   1 H    0.978 --    62 B    0.923
    99   1 H    0.975 --    63 B    0.913
   100   1 H    0.978 --    72 B    0.954
   101   1 H    0.979 --    73 B    0.921
   102   1 H    0.976 --    82 B    0.941
   103   1 H    0.982 --    83 B    0.916
   104   1 H    0.983 --    86 B    0.971
   105   1 H    0.984 --    87 B    0.953
   106   1 H    0.983 --    91 B    0.953
   107   1 H    0.979 --    92 B    0.969
 ---------------------------------------------------------------------------

Topologies differ in total number of bonds
Writing topology from bond orders to xtbtopo.mol

molecular dipole:
                 x           y           z       tot (Debye)
 q only:        0.765      -0.570      -2.817
   full:        0.129      -0.900      -1.809       5.146
molecular quadrupole (traceless):
                xx          xy          yy          xz          yz          zz
 q only:       13.233       9.574      15.560       9.102      19.189     -28.793
  q+dip:       35.046      11.341       7.548       7.923      18.379     -42.594
   full:       25.164       7.459       6.360       9.428      20.800     -31.524

           -------------------------------------------------
          |                Geometry Summary                 |
           -------------------------------------------------

      molecular mass/u    :      921.9322156
   center of mass at/Å    :       -0.0219790      -0.0569642       4.1365629
  moments of inertia/u·Å² :        0.1039067E+05   0.1613709E+05   0.1728015E+05
rotational constants/cm⁻¹ :        0.1622381E-02   0.1044651E-02   0.9755492E-03

 * 132 selected distances

     #   Z          #   Z                                           value/Å
     1   8 O        2   6 C                                       1.2233288
     2   6 C        3   8 O                                       1.3369299
     3   8 O        4   6 C                                       1.3811237
     4   6 C        5   6 C                                       1.3918017
     5   6 C        6   6 C                                       1.3851474
     6   6 C        7   8 O                                       1.3557939
     6   6 C        8   6 C                                       1.3970151
     8   6 C        9   8 O                                       1.3758923
     8   6 C       10   6 C                                       1.3918909
    10   6 C       11   8 O                                       1.3627068
     4   6 C       12   6 C                                       1.3877820
    10   6 C       12   6 C                                       1.3866784
    13   6 C       14   8 O                                       1.4216969
    14   8 O       15   6 C                                       1.3597669
    15   6 C       16   6 C                                       1.3882832
    16   6 C       17   6 C                                       1.3870316
    17   6 C       18   8 O                                       1.3563043
    17   6 C       19   6 C                                       1.3887389
    19   6 C       20   6 C                                       1.3883736
    20   6 C       21   8 O                                       1.3504328
    15   6 C       22   6 C                                       1.3940867
    20   6 C       22   6 C                                       1.3984995
    23   6 C       24   8 O                                       1.4176841
    13   6 C       25   6 C                                       1.5255403
    26   6 C       27   6 C                                       1.3940183
    27   6 C       28   6 C                                       1.3871303
    28   6 C       29   8 O                                       1.3611175
    28   6 C       30   6 C                                       1.3947493
    30   6 C       31   8 O                                       1.3718740
    30   6 C       32   6 C                                       1.3931092
    32   6 C       33   8 O                                       1.3548466
    26   6 C       34   6 C                                       1.3862133
    32   6 C       34   6 C                                       1.3876151
     5   6 C       35   1 H                                       1.0756000
     7   8 O       36   1 H                                       0.9677344
     9   8 O       37   1 H                                       0.9659027
    11   8 O       38   1 H                                       0.9730163
    12   6 C       39   1 H                                       1.0768668
    13   6 C       40   1 H                                       1.1266012
    16   6 C       41   1 H                                       1.0759381
    18   8 O       42   1 H                                       0.9634846 (min)
    19   6 C       43   1 H                                       1.0780403
    21   8 O       44   1 H                                       0.9693091
    23   6 C       45   1 H                                       1.1051292
    24   8 O       46   1 H                                       0.9649464
    25   6 C       47   1 H                                       1.0934400
    27   6 C       48   1 H                                       1.0794355
    29   8 O       49   1 H                                       0.9722992
    31   8 O       50   1 H                                       0.9664701
    33   8 O       51   1 H                                       0.9674361
    34   6 C       52   1 H                                       1.0772186
    53   5 B       54   5 B                                       1.5911526
    54   5 B       55   5 B                                       1.6587313
    53   5 B       56   5 B                                       1.6073701
    55   5 B       57   5 B                                       1.5612441
    54   5 B       58   5 B                                       1.7717736
    58   5 B       59   5 B                                       1.6044351
    59   5 B       60   5 B                                       1.6417718
    57   5 B       61   5 B                                       1.6611333
    58   5 B       61   5 B                                       1.6312632
    60   5 B       62   5 B                                       1.6321881
    56   5 B       63   5 B                                       1.6545345
    56   5 B       64   5 B                                       1.6383924
    63   5 B       64   5 B                                       1.5941472
    57   5 B       65   5 B                                       1.6574648
    64   5 B       65   5 B                                       1.6450785
    63   5 B       66   5 B                                       1.6966297
    64   5 B       66   5 B                                       1.6259093
    65   5 B       67   5 B                                       1.6370875
    61   5 B       68   5 B                                       1.6267759
    67   5 B       68   5 B                                       1.6676298
    61   5 B       69   5 B                                       1.6414428
    68   5 B       69   5 B                                       1.6824675
    62   5 B       70   5 B                                       1.6023422
    69   5 B       70   5 B                                       1.5866643
    68   5 B       71   5 B                                       1.5837728
    69   5 B       71   5 B                                       1.6823454
    70   5 B       72   5 B                                       1.6399453
    66   5 B       73   5 B                                       1.6662202
    66   5 B       74   5 B                                       1.6748200
    73   5 B       74   5 B                                       1.6090442
    67   5 B       75   5 B                                       1.6623595
    74   5 B       75   5 B                                       1.5924877
    73   5 B       76   5 B                                       1.6514160
    74   5 B       76   5 B                                       1.6609053
    75   5 B       77   5 B                                       1.6228894
    67   5 B       78   5 B                                       1.6742635
    71   5 B       78   5 B                                       1.7478643
    75   5 B       78   5 B                                       1.6759579
    77   5 B       78   5 B                                       1.6393247
    71   5 B       79   5 B                                       1.6598679
    78   5 B       79   5 B                                       1.7034419
    72   5 B       80   5 B                                       1.5786567
    79   5 B       80   5 B                                       1.6024432
    78   5 B       81   5 B                                       1.6686697
    79   5 B       81   5 B                                       1.6712117
    80   5 B       82   5 B                                       1.6759017
    76   5 B       83   5 B                                       1.6768123
    76   5 B       84   5 B                                       1.6358678
    83   5 B       84   5 B                                       1.6321023
    77   5 B       85   5 B                                       1.6748926
    84   5 B       85   5 B                                       1.6153555
    83   5 B       86   5 B                                       1.6081982
    84   5 B       86   5 B                                       1.5768835
    85   5 B       87   5 B                                       1.6585885
    77   5 B       88   5 B                                       1.6674811
    85   5 B       88   5 B                                       1.6745112
    87   5 B       88   5 B                                       1.6269701
    81   5 B       89   5 B                                       1.6960221
    88   5 B       89   5 B                                       1.7921792 (max)
    81   5 B       90   5 B                                       1.7803089
    82   5 B       90   5 B                                       1.6119365
    89   5 B       90   5 B                                       1.6792105
    88   5 B       91   5 B                                       1.6222407
    89   5 B       91   5 B                                       1.6530373
    89   5 B       92   5 B                                       1.5938650
    90   5 B       92   5 B                                       1.5464222
    53   5 B       93   1 H                                       1.1724798
    53   5 B       94   1 H                                       1.2953370
    55   5 B       95   1 H                                       1.1789008
    59   5 B       96   1 H                                       1.1884948
    60   5 B       97   1 H                                       1.1806732
    62   5 B       98   1 H                                       1.1830879
    63   5 B       99   1 H                                       1.1772425
    72   5 B      100   1 H                                       1.1778638
    73   5 B      101   1 H                                       1.1712038
    82   5 B      102   1 H                                       1.1845463
    83   5 B      103   1 H                                       1.1692126
    86   5 B      104   1 H                                       1.1645703
    87   5 B      105   1 H                                       1.1694682
    91   5 B      106   1 H                                       1.1716498
    92   5 B      107   1 H                                       1.1670933

 * 6 distinct bonds (by element types)

   Z      Z             #   av. dist./Å        max./Å        min./Å
   1 H    5 B          15     1.1834550     1.2953370     1.1645703
   5 B    5 B          66     1.6467322     1.7921792     1.5464222
   1 H    6 C           9     1.0875855     1.1266012     1.0756000
   6 C    6 C          19     1.3975634     1.5255403     1.3851474
   1 H    8 O           9     0.9678443     0.9730163     0.9634846
   6 C    8 O          14     1.3592499     1.4216969     1.2233288


optimized geometry written to: xtbopt.xyz


           -------------------------------------------------
          | TOTAL ENERGY             -161.395736464433 Eh   |
          | GRADIENT NORM               0.002665682654 Eh/α |
          | HOMO-LUMO GAP               0.316054032129 eV   |
           -------------------------------------------------

------------------------------------------------------------------------
 * finished run on 2026/09/02 at 15:21:55.404     
------------------------------------------------------------------------
 total:
 * wall-time:     0 d,  0 h,  0 min, 31.690 sec
 *  cpu-time:     0 d,  0 h,  1 min, 58.609 sec
 * ratio c/w:     3.743 speedup
 SCF:
 * wall-time:     0 d,  0 h,  0 min,  1.096 sec
 *  cpu-time:     0 d,  0 h,  0 min,  3.422 sec
 * ratio c/w:     3.122 speedup
 ANC optimizer:
 * wall-time:     0 d,  0 h,  0 min, 30.515 sec
 *  cpu-time:     0 d,  0 h,  1 min, 54.969 sec
 * ratio c/w:     3.768 speedup

