      -----------------------------------------------------------      
     |                   =====================                   |     
     |                           x T B                           |     
     |                   =====================                   |     
     |                         S. Grimme                         |     
     |          Mulliken Center for Theoretical Chemistry        |     
     |                    University of Bonn                     |     
      -----------------------------------------------------------      

   * xtb version 6.7.1pre (5071a88) compiled by 'Marcel@Raven' on 2024-07-23

   xtb is free software: you can redistribute it and/or modify it under
   the terms of the GNU Lesser General Public License as published by
   the Free Software Foundation, either version 3 of the License, or
   (at your option) any later version.
   
   xtb is distributed in the hope that it will be useful,
   but WITHOUT ANY WARRANTY; without even the implied warranty of
   MERCHANTABILITY or FITNESS FOR A PARTICULAR PURPOSE.  See the
   GNU Lesser General Public License for more details.
   
   Cite this work as:
   * C. Bannwarth, E. Caldeweyher, S. Ehlert, A. Hansen, P. Pracht,
     J. Seibert, S. Spicher, S. Grimme, WIREs Comput. Mol. Sci., 2020, 11,
     e01493. DOI: 10.1002/wcms.1493
   
   for GFN2-xTB:
   * C. Bannwarth, S. Ehlert and S. Grimme., J. Chem. Theory Comput., 2019,
     15, 1652-1671. DOI: 10.1021/acs.jctc.8b01176
   for GFN1-xTB:
   * S. Grimme, C. Bannwarth, P. Shushkov, J. Chem. Theory Comput., 2017,
     13, 1989-2009. DOI: 10.1021/acs.jctc.7b00118
   for GFN0-xTB:
   * P. Pracht, E. Caldeweyher, S. Ehlert, S. Grimme, ChemRxiv, 2019, preprint.
     DOI: 10.26434/chemrxiv.8326202.v1
   for GFN-FF:
   * S. Spicher and S. Grimme, Angew. Chem. Int. Ed., 2020, 59, 15665-15673.
     DOI: 10.1002/anie.202004239
   
   for ALPB and GBSA implicit solvation:
   * S. Ehlert, M. Stahn, S. Spicher, S. Grimme, J. Chem. Theory Comput.,
     2021, 17, 4250-4261. DOI: 10.1021/acs.jctc.1c00471
   
   for ddCOSMO and CPCM-X implicit solvation:
   * M. Stahn, S. Ehlert, S. Grimme, J. Phys. Chem. A,
     2023, XX, XXXX-XXXX. DOI: 10.1021/acs.jpca.3c04382
   
   for DFT-D4:
   * E. Caldeweyher, C. Bannwarth and S. Grimme, J. Chem. Phys., 2017,
     147, 034112. DOI: 10.1063/1.4993215
   * E. Caldeweyher, S. Ehlert, A. Hansen, H. Neugebauer, S. Spicher,
     C. Bannwarth and S. Grimme, J. Chem. Phys., 2019, 150, 154122.
     DOI: 10.1063/1.5090222
   * E. Caldeweyher, J.-M. Mewes, S. Ehlert and S. Grimme, Phys. Chem. Chem. Phys.
     2020, 22, 8499-8512. DOI: 10.1039/D0CP00502A
   
   for sTDA-xTB:
   * S. Grimme and C. Bannwarth, J. Chem. Phys., 2016, 145, 054103.
     DOI: 10.1063/1.4959605
   
   in the mass-spec context:
   * V. Asgeirsson, C. Bauer and S. Grimme, Chem. Sci., 2017, 8, 4879.
     DOI: 10.1039/c7sc00601b
   * J. Koopman and S. Grimme, ACS Omega 2019, 4, 12, 15120-15133.
     DOI: 10.1021/acsomega.9b02011
   
   for metadynamics refer to:
   * S. Grimme, J. Chem. Theory Comput., 2019, 155, 2847-2862
     DOI: 10.1021/acs.jctc.9b00143
   
   for SPH calculations refer to:
   * S. Spicher and S. Grimme, J. Chem. Theory Comput., 2021, 17, 1701-1714
     DOI: 10.1021/acs.jctc.0c01306
   
   for ONIOM refer to:
   * C. Plett, A. Katbashev, S. Ehlert, S. Grimme, M. Bursch,
     Phys. Chem. Chem. Phys., 2023, 25, 17860-17868. DOI: 10.1039/D3CP02178E
   
   for DIPRO refer to:
   * J. Kohn, N. Gildemeister, S. Grimme, D. Fazzi, A. Hansen,
     J. Chem. Phys., 2023, just accepted.
   
   for PTB refer to:
   * S. Grimme, M. Mueller, A. Hansen, J. Chem. Phys., 2023, 158, 124111.
     DOI: 10.1063/5.0137838
   
   with help from (in alphabetical order)
   P. Atkinson, C. Bannwarth, F. Bohle, G. Brandenburg, E. Caldeweyher
   M. Checinski, S. Dohm, S. Ehlert, S. Ehrlich, I. Gerasimov, C. Hölzer
   A. Katbashev, J. Kohn, J. Koopman, C. Lavigne, S. Lehtola, F. März, M. Müller,
   F. Musil, H. Neugebauer, J. Pisarek, C. Plett, P. Pracht, F. Pultar,
   J. Seibert, P. Shushkov, S. Spicher, M. Stahn, M. Steiner, T. Strunk,
   J. Stückrath, T. Rose, and J. Unsleber
   
 * started run on 2026/08/31 at 22:04:30.197     
   ID    Z sym.   atoms
    1    8 O      1, 3, 7, 9, 11, 14, 18, 21, 24, 29, 31, 33
    2    6 C      2, 4-6, 8, 10, 12, 13, 15-17, 19, 20, 22, 23, 25-28, 30,
                  32, 34
    3    1 H      35-52, 106-112
    4    5 B      53-105

           -------------------------------------------------
          |                Calculation Setup                |
           -------------------------------------------------

          program call               : "c:\Users\Andre\Proyectos doctorado\kras-pancreatic-gC3N4-ai\tools\xtb\xtb-6.7.1\bin\xtb.exe" "c:\Users\Andre\Proyectos doctorado\borophene-alzheimer-tau-ai\calculations\tau\EGCG\EGCG_B48H12_clean_complex.xyz" --gfn 2 --sp --chrg 0 --uhf 0 --etemp 300 --iterations 500 --norestart
          coordinate file            : c:\Users\Andre\Proyectos doctorado\borophene-alzheimer-tau-ai\calculations\tau\EGCG\EGCG_B48H12_clean_complex.xyz
          omp threads                :                    16


molecular fragmentation (1/2 indicates fragments):
111111111111111111111111111111111111111111111111111122222222222222222222
2222222222222222222222222222222222222222
# atoms in fragment 1/2:    52    60
 fragment masses (1/2) :      474.37      580.04
CMA distance (Bohr)    :  13.783
constraining FC (au)   :  0.0500

           -------------------------------------------------
          |                 G F N 2 - x T B                 |
           -------------------------------------------------

        Reference                      10.1021/acs.jctc.8b01176
      * Hamiltonian:
        H0-scaling (s, p, d)           1.850000    2.230000    2.230000
        zeta-weighting                 0.500000
      * Dispersion:
        s8                             2.700000
        a1                             0.520000
        a2                             5.000000
        s9                             5.000000
      * Repulsion:
        kExp                           1.500000    1.000000
        rExp                           1.000000
      * Coulomb:
        alpha                          2.000000
        third order                    shell-resolved
        anisotropic                    true
        a3                             3.000000
        a5                             4.000000
        cn-shift                       1.200000
        cn-exp                         4.000000
        max-rad                        5.000000


          ...................................................
          :                      SETUP                      :
          :.................................................:
          :  # basis functions                 373          :
          :  # atomic orbitals                 373          :
          :  # shells                          199          :
          :  # electrons                       344          :
          :  max. iterations                   500          :
          :  Hamiltonian                  GFN2-xTB          :
          :  restarted?                      false          :
          :  GBSA solvation                  false          :
          :  PC potential                    false          :
          :  electronic temp.          300.0000000     K    :
          :  accuracy                    1.0000000          :
          :  -> integral cutoff          0.2500000E+02      :
          :  -> integral neglect         0.1000000E-07      :
          :  -> SCF convergence          0.1000000E-05 Eh   :
          :  -> wf. convergence          0.1000000E-03 e    :
          :  Broyden damping             0.4000000          :
          :  net charge                          0          :
          :  unpaired electrons                  0          :
          ...................................................

 iter      E             dE          RMSdq      gap      omega  full diag
   1   -173.9992190 -0.173999E+03  0.144E+01    0.36       0.0  T
   2   -162.8911391  0.111081E+02  0.101E+01    0.01       1.0  T
   3     50.5395362  0.213431E+03  0.180E+01    0.09       1.0  T
   4    -12.5708989 -0.631104E+02  0.158E+01    0.04       1.0  T
   5   -149.6796256 -0.137109E+03  0.826E+00    0.24       1.0  T
   6    -94.1567437  0.555229E+02  0.993E+00    0.09       1.0  T
   7   -137.0753396 -0.429186E+02  0.816E+00    0.16       1.0  T
   8   -166.9105040 -0.298352E+02  0.434E+00    0.17       1.0  T
   9   -170.6601516 -0.374965E+01  0.395E+00    0.15       1.0  T
  10   -174.1719292 -0.351178E+01  0.276E+00    0.32       1.0  T
  11   -174.6512360 -0.479307E+00  0.257E+00    0.34       1.0  T
  12   -174.7997848 -0.148549E+00  0.232E+00    0.37       1.0  T
  13   -174.7902889  0.949590E-02  0.207E+00    0.39       1.0  T
  14   -174.8537925 -0.635036E-01  0.162E+00    0.44       1.0  T
  15   -174.8759208 -0.221283E-01  0.105E+00    0.41       1.0  T
  16   -174.9298181 -0.538973E-01  0.959E-01    0.27       1.0  T
  17   -174.9249329  0.488518E-02  0.830E-01    0.21       1.0  T
  18   -174.9474810 -0.225481E-01  0.614E-01    0.18       1.0  T
  19   -174.7035397  0.243941E+00  0.112E+00    0.03       1.0  T
  20   -174.9350275 -0.231488E+00  0.505E-01    0.05       1.0  T
  21   -174.3911436  0.543884E+00  0.165E+00    0.14       1.0  T
  22   -174.7789160 -0.387772E+00  0.977E-01    0.02       1.0  T
  23   -174.9546261 -0.175710E+00  0.433E-01    0.05       1.0  T
  24   -174.9929028 -0.382767E-01  0.178E-01    0.17       1.0  T
  25   -174.9953869 -0.248410E-02  0.145E-01    0.13       1.0  T
  26   -174.9967851 -0.139816E-02  0.117E-01    0.12       1.0  T
  27   -174.9975474 -0.762295E-03  0.721E-02    0.13       1.0  T
  28   -174.9985222 -0.974860E-03  0.450E-02    0.11       1.0  T
  29   -174.9985989 -0.766361E-04  0.401E-02    0.11       1.0  T
  30   -174.9979053  0.693559E-03  0.740E-02    0.10       1.0  T
  31   -174.9941589  0.374641E-02  0.148E-01    0.08       1.0  T
  32   -174.9904060  0.375286E-02  0.194E-01    0.07       1.0  T
  33   -174.9906573 -0.251320E-03  0.191E-01    0.07       1.0  T
  34   -174.9919415 -0.128420E-02  0.172E-01    0.07       1.0  T
  35   -174.9939458 -0.200424E-02  0.144E-01    0.08       1.0  T
  36   -174.9957586 -0.181277E-02  0.114E-01    0.09       1.0  T
  37   -174.9973853 -0.162675E-02  0.775E-02    0.09       1.0  T
  38   -174.9984684 -0.108312E-02  0.376E-02    0.10       1.0  T
  39   -174.9986934 -0.224970E-03  0.214E-02    0.11       1.0  T
  40   -174.9986967 -0.328611E-05  0.208E-02    0.11       1.0  T
  41   -174.9986970 -0.316668E-06  0.208E-02    0.11       1.0  T
  42   -174.9987388 -0.417548E-04  0.162E-02    0.11       1.0  T
  43   -174.9987893 -0.505764E-04  0.771E-03    0.11       1.2  T
  44   -174.9988007 -0.113437E-04  0.376E-03    0.11       2.5  T
  45   -174.9988030 -0.228225E-05  0.235E-03    0.11       4.0  T
  46   -174.9988032 -0.259233E-06  0.220E-03    0.11       4.3  T
  47   -174.9988038 -0.530193E-06  0.178E-03    0.11       5.3  T
  48   -174.9988044 -0.619585E-06  0.867E-04    0.11      10.9  T
  49   -174.9988046 -0.192950E-06  0.223E-04    0.11      42.3  T

   *** convergence criteria satisfied after 49 iterations ***

         #    Occupation            Energy/Eh            Energy/eV
      -------------------------------------------------------------
         1        2.0000           -0.7280579             -19.8115
       ...           ...                  ...                  ...
       166        2.0000           -0.2630402              -7.1577
       167        2.0000           -0.2574473              -7.0055
       168        2.0000           -0.2574349              -7.0052
       169        2.0000           -0.2530730              -6.8865
       170        2.0000           -0.2487990              -6.7702
       171        1.9997           -0.2466682              -6.7122
       172        1.8029           -0.2404580              -6.5432 (HOMO)
       173        0.1975           -0.2362543              -6.4288 (LUMO)
       174        0.0000           -0.2236640              -6.0862
       175        0.0000           -0.2226655              -6.0590
       176                         -0.2219954              -6.0408
       177                         -0.2207475              -6.0068
       ...                                ...                  ...
       373                          1.1988446              32.6222
      -------------------------------------------------------------
                  HL-Gap            0.0042037 Eh            0.1144 eV
             Fermi-level           -0.2383552 Eh           -6.4860 eV

 SCC (total)                   0 d,  0 h,  0 min,  1.536 sec
 SCC setup                      ...        0 min,  0.001 sec (  0.065%)
 Dispersion                     ...        0 min,  0.003 sec (  0.195%)
 classical contributions        ...        0 min,  0.000 sec (  0.000%)
 integral evaluation            ...        0 min,  0.011 sec (  0.716%)
 iterations                     ...        0 min,  1.486 sec ( 96.745%)
 molecular gradient             ...        0 min,  0.032 sec (  2.083%)
 printout                       ...        0 min,  0.003 sec (  0.195%)

         :::::::::::::::::::::::::::::::::::::::::::::::::::::
         ::                     SUMMARY                     ::
         :::::::::::::::::::::::::::::::::::::::::::::::::::::
         :: total energy            -172.811674958679 Eh    ::
         :: gradient norm              0.080444062143 Eh/a0 ::
         :: HOMO-LUMO gap              0.114387289495 eV    ::
         ::.................................................::
         :: SCC energy              -174.994237334221 Eh    ::
         :: -> isotropic ES            0.475154108940 Eh    ::
         :: -> anisotropic ES          0.001576212930 Eh    ::
         :: -> anisotropic XC         -0.056025384201 Eh    ::
         :: -> dispersion             -0.144062559802 Eh    ::
         :: repulsion energy           2.182562375542 Eh    ::
         :: add. restraining           0.000000000000 Eh    ::
         :: total charge               0.000000000143 e     ::
         :::::::::::::::::::::::::::::::::::::::::::::::::::::

           -------------------------------------------------
          |                Property Printout                |
           -------------------------------------------------

    * Orbital Energies and Occupations

         #    Occupation            Energy/Eh            Energy/eV
      -------------------------------------------------------------
         1        2.0000           -0.7280579             -19.8115
       ...           ...                  ...                  ...
       160        2.0000           -0.2781656              -7.5693
       161        2.0000           -0.2765769              -7.5260
       162        2.0000           -0.2718332              -7.3970
       163        2.0000           -0.2692903              -7.3278
       164        2.0000           -0.2682223              -7.2987
       165        2.0000           -0.2645526              -7.1988
       166        2.0000           -0.2630402              -7.1577
       167        2.0000           -0.2574473              -7.0055
       168        2.0000           -0.2574349              -7.0052
       169        2.0000           -0.2530730              -6.8865
       170        2.0000           -0.2487990              -6.7702
       171        1.9997           -0.2466682              -6.7122
       172        1.8029           -0.2404580              -6.5432 (HOMO)
       173        0.1975           -0.2362543              -6.4288 (LUMO)
       174        0.0000           -0.2236640              -6.0862
       175        0.0000           -0.2226655              -6.0590
       176                         -0.2219954              -6.0408
       177                         -0.2207475              -6.0068
       178                         -0.2204969              -6.0000
       179                         -0.2166416              -5.8951
       180                         -0.2160050              -5.8778
       181                         -0.2151486              -5.8545
       182                         -0.2128413              -5.7917
       183                         -0.2072009              -5.6382
       ...                                ...                  ...
       373                          1.1988446              32.6222
      -------------------------------------------------------------
                  HL-Gap            0.0042037 Eh            0.1144 eV
             Fermi-level           -0.2383552 Eh           -6.4860 eV

     #   Z          covCN         q      C6AA      α(0)
     1   8 O        0.856    -0.433    22.356     6.339
     2   6 C        2.729     0.313    21.682     7.623
     3   8 O        1.704    -0.266    18.413     5.794
     4   6 C        2.892     0.135    25.056     8.207
     5   6 C        2.910    -0.084    30.100     8.996
     6   6 C        2.847     0.125    25.253     8.236
     7   8 O        1.658    -0.378    20.435     6.102
     8   6 C        2.844     0.081    26.183     8.386
     9   8 O        1.657    -0.403    20.910     6.173
    10   6 C        2.845     0.105    25.674     8.304
    11   8 O        1.658    -0.403    20.912     6.173
    12   6 C        2.909    -0.102    30.566     9.066
    13   6 C        3.758     0.082    19.263     6.257
    14   8 O        1.703    -0.272    18.507     5.808
    15   6 C        2.879     0.135    25.058     8.206
    16   6 C        2.913    -0.098    30.473     9.052
    17   6 C        2.846     0.141    24.914     8.180
    18   8 O        1.659    -0.386    20.587     6.125
    19   6 C        2.910    -0.111    30.807     9.101
    20   6 C        2.850     0.140    24.941     8.185
    21   8 O        1.658    -0.403    20.915     6.174
    22   6 C        2.962    -0.076    29.889     8.967
    23   6 C        3.733     0.119    18.728     6.177
    24   8 O        1.653    -0.459    22.037     6.337
    25   6 C        3.855    -0.041    21.275     6.560
    26   6 C        2.961    -0.012    28.319     8.729
    27   6 C        2.912    -0.103    30.592     9.070
    28   6 C        2.842     0.103    25.714     8.310
    29   8 O        1.658    -0.412    21.073     6.197
    30   6 C        2.845     0.083    26.143     8.380
    31   8 O        1.657    -0.408    21.011     6.188
    32   6 C        2.843     0.121    25.327     8.248
    33   8 O        1.658    -0.387    20.597     6.127
    34   6 C        2.915    -0.083    30.086     8.994
    35   1 H        0.925     0.081     1.971     2.195
    36   1 H        0.804     0.329     0.640     1.257
    37   1 H        0.803     0.330     0.638     1.255
    38   1 H        0.804     0.313     0.684     1.299
    39   1 H        0.925     0.060     2.201     2.320
    40   1 H        0.923     0.071     2.074     2.252
    41   1 H        0.925     0.075     2.029     2.228
    42   1 H        0.804     0.307     0.701     1.315
    43   1 H        0.925     0.056     2.246     2.344
    44   1 H        0.803     0.327     0.645     1.262
    45   1 H        0.923     0.027     2.628     2.535
    46   1 H        0.803     0.294     0.740     1.351
    47   1 H        0.923     0.066     2.132     2.283
    48   1 H        0.925     0.063     2.164     2.300
    49   1 H        0.804     0.326     0.648     1.264
    50   1 H        0.803     0.330     0.637     1.254
    51   1 H        0.803     0.326     0.648     1.265
    52   1 H        0.925     0.059     2.210     2.325
    53   5 B        2.872     0.038    20.766     7.607
    54   5 B        3.645     0.021    21.945     7.627
    55   5 B        3.704     0.002    22.529     7.680
    56   5 B        3.599     0.001    22.000     7.694
    57   5 B        3.804     0.010    22.535     7.654
    58   5 B        3.812     0.034    22.091     7.577
    59   5 B        4.425     0.058    21.700     7.506
    60   5 B        3.843     0.022    22.330     7.616
    61   5 B        5.059     0.044    21.933     7.546
    62   5 B        5.523     0.104    20.902     7.366
    63   5 B        3.792     0.000    22.706     7.684
    64   5 B        4.799     0.085    21.233     7.424
    65   5 B        4.746     0.060    21.664     7.499
    66   5 B        3.691     0.008    22.376     7.662
    67   5 B        3.741     0.015    22.372     7.638
    68   5 B        4.170    -0.016    23.041     7.734
    69   5 B        3.938     0.007    22.611     7.662
    70   5 B        3.779     0.071    21.432     7.467
    71   5 B        3.808     0.063    21.589     7.491
    72   5 B        3.812    -0.012    22.950     7.723
    73   5 B        3.702    -0.010    22.751     7.719
    74   5 B        3.825     0.014    22.466     7.641
    75   5 B        4.691     0.051    21.817     7.526
    76   5 B        4.735     0.041    21.992     7.556
    77   5 B        3.813     0.072    21.424     7.462
    78   5 B        2.071    -0.002    43.100    13.732
    79   5 B        3.706     0.000    22.574     7.687
    80   5 B        4.547     0.020    22.375     7.621
    81   5 B        4.200     0.030    22.191     7.590
    82   5 B        3.748     0.070    21.402     7.468
    83   5 B        3.840    -0.008    22.883     7.710
    84   5 B        3.769     0.016    22.401     7.636
    85   5 B        4.530     0.063    21.598     7.488
    86   5 B        5.624     0.098    21.008     7.385
    87   5 B        3.805     0.018    22.385     7.628
    88   5 B        3.825     0.008    22.575     7.659
    89   5 B        2.886     0.066    20.292     7.519
    90   5 B        2.918     0.037    20.766     7.604
    91   5 B        2.913     0.013    21.169     7.678
    92   5 B        3.630     0.008    22.086     7.670
    93   5 B        3.792     0.001    22.697     7.683
    94   5 B        2.860    -0.010    21.613     7.762
    95   5 B        2.920    -0.041    22.153     7.854
    96   5 B        3.825     0.006    22.616     7.666
    97   5 B        2.901    -0.034    22.026     7.832
    98   5 B        4.532     0.042    21.981     7.554
    99   5 B        3.896     0.031    22.165     7.587
   100   5 B        3.818     0.012    22.493     7.646
   101   5 B        3.778    -0.040    23.470     7.815
   102   5 B        3.628    -0.023    22.646     7.768
   103   5 B        4.556     0.022    22.345     7.616
   104   5 B        3.280     0.014    21.137     7.667
   105   5 B        4.869     0.086    21.213     7.421
   106   1 H        0.937    -0.182     9.547     4.831
   107   1 H        0.935    -0.150     7.680     4.333
   108   1 H        0.936    -0.146     7.461     4.271
   109   1 H        0.939    -0.160     8.218     4.482
   110   1 H        0.936    -0.147     7.523     4.289
   111   1 H        0.937    -0.151     7.716     4.343
   112   1 H        0.934    -0.149     7.626     4.318

 Mol. C6AA /au·bohr⁶  :     208425.151548
 Mol. C8AA /au·bohr⁸  :    6578559.009868
 Mol. α(0) /au        :        727.649184


Wiberg/Mayer (AO) data.
largest (>0.10) Wiberg bond orders for each atom

 ---------------------------------------------------------------------------
     #   Z sym  total        # sym  WBO       # sym  WBO       # sym  WBO
 ---------------------------------------------------------------------------
     1   8 O    1.909 --     2 C    1.674     3 O    0.150
     2   6 C    3.741 --     1 O    1.674     3 O    1.043    13 C    0.951
     3   8 O    2.262 --     2 C    1.043     4 C    0.975     1 O    0.150
     4   6 C    3.930 --     5 C    1.401    12 C    1.390     3 O    0.975
     5   6 C    3.978 --     4 C    1.401     6 C    1.374    35 H    0.963
     6   6 C    3.951 --     5 C    1.374     8 C    1.320     7 O    1.088
     7   8 O    2.129 --     6 C    1.088    36 H    0.869
     8   6 C    3.938 --    10 C    1.330     6 C    1.320     9 O    1.056
     9   8 O    2.093 --     8 C    1.056    37 H    0.866
    10   6 C    3.938 --    12 C    1.380     8 C    1.330    11 O    1.053
    11   8 O    2.099 --    10 C    1.053    38 H    0.880
    12   6 C    3.976 --     4 C    1.390    10 C    1.380    39 H    0.963
    13   6 C    3.941 --    25 C    0.964    40 H    0.953     2 C    0.951
                            14 O    0.948
    14   8 O    2.211 --    15 C    1.059    13 C    0.948
    15   6 C    3.936 --    16 C    1.368    22 C    1.350    14 O    1.059
    16   6 C    3.971 --    17 C    1.378    15 C    1.368    41 H    0.963
    17   6 C    3.942 --    16 C    1.378    19 C    1.368    18 O    1.077
    18   8 O    2.120 --    17 C    1.077    42 H    0.885
    19   6 C    3.971 --    20 C    1.384    17 C    1.368    43 H    0.962
    20   6 C    3.946 --    19 C    1.384    22 C    1.342    21 O    1.078
    21   8 O    2.099 --    20 C    1.078    44 H    0.858
    22   6 C    3.967 --    15 C    1.350    20 C    1.342    23 C    0.993
    23   6 C    3.951 --    22 C    0.993    24 O    0.968    25 C    0.958
                            45 H    0.955
    24   8 O    1.963 --    23 C    0.968    46 H    0.893
    25   6 C    3.982 --    26 C    0.997    13 C    0.964    23 C    0.958
                            47 H    0.956
    26   6 C    3.984 --    34 C    1.406    27 C    1.404    25 C    0.997
    27   6 C    3.979 --    26 C    1.404    28 C    1.378    48 H    0.961
    28   6 C    3.939 --    27 C    1.378    30 C    1.331    29 O    1.057
    29   8 O    2.095 --    28 C    1.057    49 H    0.871
    30   6 C    3.938 --    28 C    1.331    32 C    1.321    31 O    1.055
    31   8 O    2.092 --    30 C    1.055    50 H    0.866
    32   6 C    3.947 --    34 C    1.377    30 C    1.321    33 O    1.081
    33   8 O    2.121 --    32 C    1.081    51 H    0.871
    34   6 C    3.979 --    26 C    1.406    32 C    1.377    52 H    0.965
    35   1 H    0.993 --     5 C    0.963
    36   1 H    0.891 --     7 O    0.869
    37   1 H    0.891 --     9 O    0.866
    38   1 H    0.902 --    11 O    0.880
    39   1 H    0.996 --    12 C    0.963
    40   1 H    0.994 --    13 C    0.953
    41   1 H    0.994 --    16 C    0.963
    42   1 H    0.905 --    18 O    0.885
    43   1 H    0.996 --    19 C    0.962
    44   1 H    0.893 --    21 O    0.858
    45   1 H    0.997 --    23 C    0.955
    46   1 H    0.913 --    24 O    0.893
    47   1 H    0.995 --    25 C    0.956
    48   1 H    0.996 --    27 C    0.961
    49   1 H    0.893 --    29 O    0.871
    50   1 H    0.891 --    31 O    0.866
    51   1 H    0.893 --    33 O    0.871
    52   1 H    0.996 --    34 C    0.965
    53   5 B    3.494 --    95 B    1.437   106 H    0.956    59 B    0.841
    54   5 B    3.507 --    95 B    1.123    96 B    0.994    60 B    0.559
                            59 B    0.507
    55   5 B    3.510 --    97 B    1.279    96 B    1.017    62 B    0.485
                            61 B    0.448
    56   5 B    3.472 --    97 B    1.290    57 B    1.016    62 B    0.561
                            98 B    0.358
    57   5 B    3.533 --    99 B    1.097    56 B    1.016    63 B    0.683
                            98 B    0.483
    58   5 B    3.599 --   110 H    0.940    99 B    0.857    70 B    0.813
                            64 B    0.800
    59   5 B    3.620 --    53 B    0.841    65 B    0.835    95 B    0.792
                            54 B    0.507    66 B    0.388
    60   5 B    3.577 --    66 B    1.111    96 B    0.773    61 B    0.688
                            54 B    0.559
    61   5 B    3.593 --    67 B    0.972    60 B    0.688    62 B    0.520
                            96 B    0.504    55 B    0.448    68 B    0.233
    62   5 B    3.596 --    68 B    0.627    98 B    0.617    97 B    0.590
                            56 B    0.561    61 B    0.520    55 B    0.485
    63   5 B    3.596 --    69 B    1.106    98 B    0.919    57 B    0.683
                            99 B    0.507
    64   5 B    3.596 --    70 B    0.845    58 B    0.800    76 B    0.686
                            99 B    0.592    69 B    0.517
    65   5 B    3.620 --    59 B    0.835    71 B    0.754    66 B    0.692
                            72 B    0.558   105 B    0.495
    66   5 B    3.555 --    60 B    1.111    72 B    0.932    65 B    0.692
                            59 B    0.388
    67   5 B    3.440 --    73 B    1.104    61 B    0.972    74 B    0.587
                            68 B    0.416
    68   5 B    3.603 --    74 B    1.116    98 B    0.909    62 B    0.627
                            67 B    0.416    61 B    0.233
    69   5 B    3.552 --    63 B    1.106    75 B    0.832    76 B    0.608
                            64 B    0.517    99 B    0.180
    70   5 B    3.517 --   111 H    0.951    64 B    0.845    58 B    0.813
                            76 B    0.681
    71   5 B    3.531 --   107 H    0.939    77 B    0.835    65 B    0.754
                           105 B    0.731
    72   5 B    3.626 --    78 B    1.268    66 B    0.932    65 B    0.558
                           105 B    0.544
    73   5 B    3.479 --    79 B    1.164    67 B    1.104    74 B    0.554
                            80 B    0.392
    74   5 B    3.566 --    68 B    1.116    80 B    0.970    67 B    0.587
                            73 B    0.554
    75   5 B    3.582 --    81 B    0.867    69 B    0.832    88 B    0.559
                            76 B    0.539    82 B    0.499
    76   5 B    3.608 --    82 B    0.870    64 B    0.686    70 B    0.681
                            69 B    0.608    75 B    0.539
    77   5 B    3.574 --   108 H    0.941    71 B    0.835   105 B    0.775
                            83 B    0.723
    78   5 B    3.415 --    84 B    1.330    72 B    1.268   105 B    0.204
                           100 B    0.158
    79   5 B    3.430 --    73 B    1.164    85 B    1.015    86 B    0.508
                            80 B    0.455
    80   5 B    3.584 --    74 B    0.970   103 B    0.784    86 B    0.659
                            79 B    0.455    73 B    0.392
    81   5 B    3.561 --    87 B    1.007    75 B    0.867    88 B    0.632
                            94 B    0.538   104 B    0.317
    82   5 B    3.416 --   112 H    0.924    88 B    0.893    76 B    0.870
                            75 B    0.499
    83   5 B    3.610 --    89 B    1.236    77 B    0.723   100 B    0.715
                           105 B    0.690
    84   5 B    3.574 --    78 B    1.330    90 B    0.687   100 B    0.605
                           101 B    0.577
    85   5 B    3.514 --    79 B    1.015    91 B    0.647   101 B    0.577
                            86 B    0.538   102 B    0.452
    86   5 B    3.612 --    80 B    0.659   103 B    0.632    85 B    0.538
                            92 B    0.524    79 B    0.508   102 B    0.504
    87   5 B    3.544 --   103 B    1.029    81 B    1.007    93 B    0.628
                           104 B    0.522
    88   5 B    3.508 --    94 B    1.233    82 B    0.893    81 B    0.632
                            75 B    0.559
    89   5 B    3.470 --    83 B    1.236   109 H    0.955   100 B    0.855
                            90 B    0.144
    90   5 B    3.405 --   101 B    1.166   100 B    1.105    84 B    0.687
                            89 B    0.144
    91   5 B    3.349 --   102 B    1.211   101 B    1.133    85 B    0.647
    92   5 B    3.389 --   102 B    1.132    93 B    1.081    86 B    0.524
                           103 B    0.389
    93   5 B    3.490 --    92 B    1.081   104 B    1.067    87 B    0.628
                           103 B    0.491
    94   5 B    3.342 --   104 B    1.268    88 B    1.233    81 B    0.538
    95   5 B    3.534 --    53 B    1.437    54 B    1.123    59 B    0.792
    96   5 B    3.537 --    55 B    1.017    54 B    0.994    60 B    0.773
                            61 B    0.504
    97   5 B    3.447 --    56 B    1.290    55 B    1.279    62 B    0.590
    98   5 B    3.558 --    63 B    0.919    68 B    0.909    62 B    0.617
                            57 B    0.483    56 B    0.358
    99   5 B    3.485 --    57 B    1.097    58 B    0.857    64 B    0.592
                            63 B    0.507    69 B    0.180
   100   5 B    3.636 --    90 B    1.105    89 B    0.855    83 B    0.715
                            84 B    0.605    78 B    0.158
   101   5 B    3.625 --    90 B    1.166    91 B    1.133    85 B    0.577
                            84 B    0.577
   102   5 B    3.507 --    91 B    1.211    92 B    1.132    86 B    0.504
                            85 B    0.452
   103   5 B    3.601 --    87 B    1.029    80 B    0.784    86 B    0.632
                            93 B    0.491    92 B    0.389
   104   5 B    3.395 --    94 B    1.268    93 B    1.067    87 B    0.522
                            81 B    0.317
   105   5 B    3.628 --    77 B    0.775    71 B    0.731    83 B    0.690
                            72 B    0.544    65 B    0.495    78 B    0.204
   106   1 H    0.965 --    53 B    0.956
   107   1 H    0.971 --    71 B    0.939
   108   1 H    0.973 --    77 B    0.941
   109   1 H    0.971 --    89 B    0.955
   110   1 H    0.968 --    58 B    0.940
   111   1 H    0.973 --    70 B    0.951
   112   1 H    0.971 --    82 B    0.924
 ---------------------------------------------------------------------------

Topologies differ in total number of bonds
Writing topology from bond orders to xtbtopo.mol

molecular dipole:
                 x           y           z       tot (Debye)
 q only:        1.986       0.820      -0.330
   full:        2.208       0.609      -1.899       7.563
molecular quadrupole (traceless):
                xx          xy          yy          xz          yz          zz
 q only:      -44.661      18.972      64.945     -16.311      -1.666     -20.285
  q+dip:        0.451      -2.236      33.267     -13.673      13.380     -33.718
   full:      -11.122       2.789      23.168      -8.129      14.769     -12.046


           -------------------------------------------------
          | TOTAL ENERGY             -172.811674958679 Eh   |
          | GRADIENT NORM               0.080444062143 Eh/α |
          | HOMO-LUMO GAP               0.114387289495 eV   |
           -------------------------------------------------

------------------------------------------------------------------------
 * finished run on 2026/08/31 at 22:04:31.793     
------------------------------------------------------------------------
 total:
 * wall-time:     0 d,  0 h,  0 min,  1.595 sec
 *  cpu-time:     0 d,  0 h,  0 min, 12.734 sec
 * ratio c/w:     7.984 speedup
 SCF:
 * wall-time:     0 d,  0 h,  0 min,  1.538 sec
 *  cpu-time:     0 d,  0 h,  0 min, 12.312 sec
 * ratio c/w:     8.006 speedup

normal termination of xtb
