107
EGCG/B40H15 GFN2 opt
O      -1.77625098      2.25351666      7.46942034
C      -1.32588897      1.45085734      6.69228323
O      -1.99346684      0.54441440      5.98638907
C      -3.36651552      0.38496137      5.94927809
C      -4.27578849      1.26900217      6.50629878
C      -5.63166966      1.01825244      6.35670165
O      -6.59269162      1.85012672      6.86826745
C      -6.07422945     -0.10426898      5.66404222
O      -7.41070409     -0.36578672      5.49503267
C      -5.14508243     -0.98681333      5.10589099
O      -5.56664233     -2.07122336      4.41982318
C      -3.79122213     -0.73760061      5.24995166
C       0.15284973      1.33472891      6.30204337
O       0.51975979     -0.01982101      6.18962186
C       0.89931779     -0.66570907      7.32720741
C       1.00910667     -2.04652373      7.22288693
C       1.40177852     -2.79243752      8.32308329
O       1.51776016     -4.14538790      8.25780117
C       1.68029218     -2.16070596      9.52527009
C       1.57988078     -0.77908656      9.62654289
O       1.86922766     -0.21613474     10.81971063
C       1.19678561     -0.00940176      8.51888428
C       1.07517393      1.50013734      8.61022944
O       2.03904892      2.09397387      9.46544650
C       1.10194054      2.12903748      7.21019326
C       2.44924667      2.13925269      6.52060883
C       3.47647248      1.25776984      6.82147258
C       4.60966337      1.20371493      6.01937671
O       5.60342566      0.33311684      6.31433668
C       4.70644708      1.99801219      4.87547999
O       5.79470321      1.83614315      4.06953166
C       3.67796014      2.89113314      4.57887560
O       3.78576880      3.61098722      3.42150581
C       2.58337217      2.98298874      5.42232347
H      -3.94208436      2.14109690      7.04317304
H      -6.16409673      2.59582807      7.30188610
H      -7.89705354      0.35605047      5.91209106
H      -6.53250871     -2.04181536      4.38305828
H      -3.07545853     -1.40889567      4.81129857
H       0.21133338      1.71562111      5.27136540
H       0.78022071     -2.51115938      6.27760639
H       1.29859270     -4.44181015      7.36656625
H       1.97844478     -2.73393536     10.38542934
H       1.88416666      0.75349304     10.71195989
H       0.11145154      1.75518162      9.07459374
H       2.89290929      2.08107752      9.01307062
H       0.72446394      3.15271925      7.28522970
H       3.42058037      0.54773018      7.62996429
H       6.23552279      0.36553351      5.58076405
H       5.59883232      2.20797811      3.18854412
H       2.92179336      3.96226037      3.17690143
H       1.79581811      3.68371542      5.19030557
B      -4.74484148     -2.69888438      1.02488256
B      -4.20902610     -1.21919999      0.63029041
B      -3.85676357      0.16601692     -0.23897757
B      -3.40349261     -2.61425347      0.16979285
B      -2.40742402      0.27924650      0.33716670
B      -3.71310532      0.15141052      1.59587805
B      -4.58021521      1.23896334      2.42246954
B      -3.82117761      2.65846892      2.37742544
B      -2.13867541     -0.01137000      1.95850375
B      -2.54632778      2.84046902      3.35473943
B      -2.35054918     -3.78334485     -0.37825599
B      -1.78532269     -2.29892764      0.00187188
B      -1.20456216     -0.83185910      0.49345079
B      -0.86854339     -3.60592129      0.30788358
B       0.32990077     -0.56233098      0.85723025
B      -0.84240758     -0.99550451      2.19922353
B      -0.93787273      0.51591204      3.06296615
B      -1.23616208      2.05134442      2.89664070
B       0.40563084     -0.45913849      3.13229656
B       0.25476825      2.52370447      2.40393176
B      -0.48486295     -3.67803391      2.10696317
B       0.61471379     -3.68307964      0.82625470
B       1.79189426     -2.62976534      0.82513187
B       1.04587152     -3.04295771      2.31997917
B       3.17709186     -1.86001075      0.65453023
B       1.79422577     -0.97895575      0.46909330
B       1.55365977      0.26953500      1.75803364
B       1.20273655      1.83859066      1.33236047
B       3.12342937     -0.12322037      0.86409725
B       2.17996953      1.90949488      0.04795391
B      -0.28639798     -2.23190576      3.17987802
B       1.56191338     -1.95344551      3.38697602
B       3.07052523     -1.54068842      3.57110291
B       2.03406298     -0.21970978      3.35786952
B       4.56582443     -1.47806540      3.16862544
B       4.49224976     -1.44525076      1.43134909
B       4.72279724      0.45240640      1.22999476
B       3.67419574      1.44545159      0.45903568
B       5.86230390     -0.69306904      1.48584950
B       5.08893658      1.94217354      0.95977323
H      -5.25727294     -3.44407762      1.76641727
H      -5.49068178     -1.67741412      0.77678442
H      -4.60886716      0.64803619     -1.00513403
H      -5.60203332      1.00592181      2.96760291
H      -4.08876587      3.48006898      1.57453048
H      -2.61128175      3.48552844      4.34284211
H      -2.65192008     -4.66357545     -1.09581889
H       0.72516699      3.22273562      3.24185765
H      -1.16085630     -4.49526775      2.61728583
H       1.83097277      1.95739125     -1.08012369
H      -0.77509456     -2.47081344      4.23784929
H       2.34888750      0.58145837      4.16130876
H       5.54290013     -1.32924697      3.81060188
H       7.02128560     -0.73995174      1.61351383
H       5.87140939      2.80968897      0.99331580
