107
 energy: -161.461023602821 gnorm: 0.005073669993 xtb: 6.7.1pre (5071a88)
O           -0.48133052075959        0.59058599040454        4.83201683297930
C           -0.80959164742186        0.76419520895777        5.97849206810345
O           -0.31861853327376        1.66860782352113        6.80577476745067
C            0.79011855470176        2.44425819459562        6.45303122184562
C            1.61648068742430        2.80406980948119        7.50812152433886
C            2.75980591040101        3.54767826269477        7.25552422403327
O            3.57518847744169        3.91786418046917        8.27373177875167
C            3.07943184333280        3.89961212094916        5.94430419030346
O            4.23132645853602        4.61038086600878        5.70641785321867
C            2.23891742947048        3.53393151343612        4.89271337697876
O            2.62932306947658        3.89943464077345        3.64845658512476
C            1.07535479004455        2.82006232974713        5.14995839109437
C           -1.80914101559372       -0.17946858570130        6.63874094181119
O           -3.02282107112444        0.47518547982191        6.93581093499780
C           -3.96200259633233       -0.39275257485791        7.41497945952484
C           -5.29284977681351       -0.01605769056985        7.30770904494569
C           -6.28915801297972       -0.89416537554960        7.70911060375762
O           -7.58165114304431       -0.49514462226290        7.59274889097491
C           -5.95809986450644       -2.16121812885833        8.17136827290587
C           -4.62607119762919       -2.53273257541152        8.28303645273145
O           -4.33737615772414       -3.78602810747298        8.70459240999002
C           -3.60923879468640       -1.62927277435634        7.95762306442034
C           -2.16783026107261       -2.00761591701422        8.22941153262411
O           -1.84376739166399       -3.15932636963804        7.46245761600890
C           -1.24948630922077       -0.81028426382381        7.92091820189884
C            0.20615584836623       -1.18789309583718        7.82823615349897
C            0.77764266109116       -1.55832334698779        6.61583699306868
C            2.13957596203793       -1.80543152968812        6.52459086138459
O            2.76281968190526       -2.10326681065066        5.34740262553531
C            2.93113597289990       -1.75403892709632        7.66987044115549
O            4.28082880490016       -1.99645406265450        7.61444878621719
C            2.35155826262601       -1.44052864008100        8.90051575603244
O            3.11327151384550       -1.40517249495223       10.02119680324896
C            0.99689570945107       -1.14571317431927        8.96876140366295
H            1.38127272137410        2.50907990755061        8.51527055752721
H            4.30623699959401        4.42274554206600        7.88974795757023
H            4.26845356197250        4.75284757876329        4.75015070523304
H            1.97817875324817        3.58702433983595        2.95532525130344
H            0.42173343250942        2.56179768703957        4.33562723482807
H           -2.01213284566858       -0.97193178985496        5.89989198480795
H           -5.54586419260536        0.94548660638559        6.89722305748023
H           -8.16635874150417       -1.20749751004134        7.87828154870542
H           -6.71986753033968       -2.87798541133244        8.43836624895741
H           -3.41532028660852       -3.97866614456678        8.47733449608816
H           -2.05937855886298       -2.25970161793471        9.30056020123192
H           -0.88224603172913       -3.23537022287992        7.41616098277916
H           -1.37189232251396       -0.07561588593821        8.72244736168517
H            0.18471351002668       -1.61976414236753        5.71858402866177
H            2.17909569055136       -1.89570966475286        4.59641916104778
H            4.50106320188884       -2.13325195353088        6.68333500299576
H            4.02671512911061       -1.59066575171194        9.76210326211258
H            0.58279376770780       -0.86888864661832        9.92430902902098
B           -4.04240302878801       -2.97958212538628        1.00561795269587
B           -3.86421689004277       -1.53071451342866        0.33918039145290
B           -3.89175411836404       -0.11763954035137       -0.60403754105956
B           -2.87645669201823       -2.82477870759019       -0.07539690043987
B           -2.39312331841745        0.15190703007039       -0.29391921643127
B           -3.47510814093633        0.00749665753540        1.12739388993100
B           -4.17533875262729        0.91388950641668        2.26317618276766
B           -3.70561618707660        2.46713825148464        2.38625118463574
B           -1.84284750102696       -0.00391482327027        1.26534622755249
B           -2.30478488323883        2.76784871826612        3.14499274081133
B           -1.74570628853294       -3.92255092732668       -0.60472209544031
B           -1.38070406613137       -2.31898796716430       -0.58310201385601
B           -1.00407812860612       -0.76347860038866       -0.19610343062820
B           -0.20542480724004       -3.42991603890501       -0.35645231655463
B            0.53659081769389       -0.30988372548005       -0.05938220771779
B           -0.34125517497381       -0.65298755584266        1.47013562042559
B           -0.77507733155576        0.94044574548972        2.08064229882557
B           -1.03657763110241        2.48844304382286        2.20492635185779
B            0.73552049204538        0.33534355461698        2.20306599229686
B            0.07384840588081        3.64787899046484        1.74864486937690
B            0.73956640862394       -3.86107263437170        1.01224659390366
B            1.27598499941931       -2.85069540548261       -0.16985203269311
B            2.06404366962075       -1.48585857935126       -0.06775715085016
B            1.59222899811457       -2.56665190023785        1.47053802071993
B            3.37673504090292       -0.57333839619496       -0.07179304299337
B            1.93332552179153        0.29190412774877       -0.20897514292032
B            1.90781827649906        1.27996242412216        1.44510170147981
B            1.29610834620364        2.78540121394203        1.24732427243166
B            3.13280731678122        1.25619211589371        0.22843863576677
B            1.83233086097762        3.02056156649132       -0.29712879381949
B            0.75625992493395       -1.41719259209283        2.55044192697172
B            2.52741243469192       -1.54764898892289        2.20047368223560
B            3.76556980810989       -0.57092135111702        2.20230021075169
B            2.29386179073469        0.14826345051956        2.78683100890397
B            5.20890914154297        0.05903550802280        2.17946439130561
B            4.65572394679277        0.11350509337944        0.55018434281304
B            4.69597522719156        1.96998302965062        0.41231658224806
B            3.43763651683322        2.90027937825330       -0.15342785445055
B            5.95890812575917        0.97762468438012        0.77439711488052
B            4.83350780520404        3.52181719373859        0.17906363749547
H           -4.32389461115000       -3.70231369217616        1.88159068771952
H           -4.99689919021204       -2.13572936246557        0.73999418368208
H           -4.81816543715684        0.19506268102457       -1.25880411058118
H           -4.95892934697954        0.45845157562438        3.02579453847336
H           -4.35362617132749        3.32991890386273        1.91260042569334
H           -2.29548503743881        3.05501117346468        4.28857211381323
H           -2.03476628341174       -4.94936820651017       -1.10018055682053
H           -0.13405958739461        4.80874910301174        1.76003791305039
H            0.47524446438931       -4.83889061230249        1.60141498660321
H            1.21791330125821        3.10770629587783       -1.29594770507559
H            0.33035288978769       -1.82545351571163        3.58560466017331
H            2.43890950692572        0.52523963597550        3.90280492254749
H            6.00892753247244        0.27112049790877        3.00754284718472
H            7.11875524066369        1.10934344052035        0.68235854318960
H            5.53887319159135        4.44959089760494        0.22213833016330
