107
EGCG 90 deg on B40H15
O      0.938058      0.950903      6.295039
C      0.136466      0.923117      7.224467
O      0.094430      1.797494      8.304907
C      1.136128      2.726619      8.290099
C      2.293150      2.447159      9.021495
C      3.307447      3.392428      9.035307
O      4.451091      3.141370      9.736338
C      3.163740      4.591186      8.344624
O      4.183929      5.503889      8.379069
C      1.998087      4.862072      7.632247
O      1.916804      6.060363      6.978586
C      0.964548      3.933619      7.603442
C     -0.959028     -0.126438      7.352194
O     -2.205200      0.584990      7.429113
C     -3.289459     -0.229822      7.618769
C     -4.530950      0.317368      7.291795
C     -5.680339     -0.452693      7.426244
O     -6.872810      0.119614      7.094036
C     -5.606565     -1.768003      7.866202
C     -4.361491     -2.299291      8.190096
O     -4.318816     -3.618705      8.547746
C     -3.190723     -1.531687      8.122055
C     -1.870389     -2.077988      8.596826
O     -1.564513     -3.192333      7.751276
C     -0.762491     -1.002942      8.596541
C      0.617105     -1.610361      8.814183
C      1.468593     -1.967402      7.749535
C      2.720266     -2.521313      8.012970
O      3.586323     -2.857463      7.010455
C      3.125005     -2.751399      9.320519
O      4.347181     -3.304654      9.586795
C      2.289425     -2.418917     10.374553
O      2.682368     -2.646132     11.660608
C      1.044684     -1.850523     10.134756
H      2.405592      1.515626      9.566116
H      5.005215      3.935818      9.596471
H      3.857156      6.247838      7.832212
H      1.066380      6.091739      6.505893
H      0.043558      4.121911      7.063390
H     -0.948939     -0.715138      6.424211
H     -4.602482      1.336950      6.924333
H     -7.579933     -0.530542      7.242222
H     -6.489915     -2.392293      7.947162
H     -3.445853     -3.952811      8.257126
H     -1.991238     -2.466446      9.616584
H     -0.776148     -3.627512      8.127905
H     -0.962192     -0.348059      9.460131
H      1.161174     -1.819040      6.717480
H      3.249238     -2.485324      6.175674
H      4.753090     -3.428363      8.703878
H      3.586383     -3.014097     11.581425
H      0.416859     -1.594381     10.985914
B     -4.780602     -2.604513      0.317266
B     -4.569465     -1.356683     -0.648004
B     -4.463861     -0.247381     -1.882945
B     -3.396531     -2.661979     -0.502827
B     -3.038009      0.177607     -1.404773
B     -4.390872      0.342644     -0.192397
B     -5.031012      1.403078      0.819222
B     -4.620094      2.986388      0.997562
B     -2.808851      0.512803      0.199513
B     -3.218551      3.227540      1.793236
B     -2.161133     -3.775821     -0.584343
B     -1.876928     -2.248084     -0.933414
B     -1.697164     -0.613334     -0.835751
B     -0.584443     -3.218984     -0.835049
B     -0.219751     -0.148448     -0.311803
B     -1.394985      0.035818      0.852087
B     -1.775686      1.662110      0.759224
B     -1.897502      3.236989      0.882584
B     -0.215292      1.037200      1.069695
B     -0.752118      4.348002      0.558417
B      0.826501     -4.112870     -0.740049
B      0.925144     -2.505404     -0.749723
B      1.214364     -0.948979     -0.586972
B      2.200665     -3.402586     -0.168167
B      2.622046     -0.195651     -0.292977
B      1.234081      0.551562      0.142600
B      1.124844      2.000923      1.042986
B      0.536600      3.437229      0.618007
B      2.458015      1.672646      0.087495
B      1.213646      3.017073     -0.852963
B      3.220244     -3.850820      1.104428
B      3.624046     -2.653486      0.063737
B      4.025027     -1.121930     -0.236552
B      4.417376     -2.835474      1.420329
B      5.363640     -0.241898     -0.689778
B      4.104119      0.531009     -0.013477
B      4.018093      2.321775     -0.033810
B      2.821838      3.096833     -0.912930
B      5.422007      1.458254     -0.185288
B      4.296118      3.550090     -1.013979
H     -5.168734     -3.094856      1.310677
H     -5.716063     -2.076392     -0.393509
H     -5.264034     -0.120717     -2.741690
H     -5.771097      1.007443      1.664604
H     -5.364514      3.843125      0.672044
H     -3.234300      3.224974      2.975674
H     -2.359297     -4.926237     -0.473225
H     -0.896482      5.475480      0.244253
H      0.822346     -5.249794     -1.023329
H      0.553695      2.694294     -1.783686
H      2.970323     -4.817556      1.717250
H      5.263074     -2.512454      2.156542
H      6.384778     -0.646686     -1.095590
H      6.503197      1.838169      0.065012
H      5.138890      4.252414     -1.415442
