107
Drug@beta12-B40H15 clean complex
O      0.950903     -0.938058      6.295039
C      0.923117     -0.136466      7.224467
O      1.797494     -0.094430      8.304907
C      2.726619     -1.136128      8.290099
C      2.447159     -2.293150      9.021495
C      3.392428     -3.307447      9.035307
O      3.141370     -4.451091      9.736338
C      4.591186     -3.163740      8.344624
O      5.503889     -4.183929      8.379069
C      4.862072     -1.998087      7.632247
O      6.060363     -1.916804      6.978586
C      3.933619     -0.964548      7.603442
C     -0.126438      0.959028      7.352194
O      0.584990      2.205200      7.429113
C     -0.229822      3.289459      7.618769
C      0.317368      4.530950      7.291795
C     -0.452693      5.680339      7.426244
O      0.119614      6.872810      7.094036
C     -1.768003      5.606565      7.866202
C     -2.299291      4.361491      8.190096
O     -3.618705      4.318816      8.547746
C     -1.531687      3.190723      8.122055
C     -2.077988      1.870389      8.596826
O     -3.192333      1.564513      7.751276
C     -1.002942      0.762491      8.596541
C     -1.610361     -0.617105      8.814183
C     -1.967402     -1.468593      7.749535
C     -2.521313     -2.720266      8.012970
O     -2.857463     -3.586323      7.010455
C     -2.751399     -3.125005      9.320519
O     -3.304654     -4.347181      9.586795
C     -2.418917     -2.289425     10.374553
O     -2.646132     -2.682368     11.660608
C     -1.850523     -1.044684     10.134756
H      1.515626     -2.405592      9.566116
H      3.935818     -5.005215      9.596471
H      6.247838     -3.857156      7.832212
H      6.091739     -1.066380      6.505893
H      4.121911     -0.043558      7.063390
H     -0.715138      0.948939      6.424211
H      1.336950      4.602482      6.924333
H     -0.530542      7.579933      7.242222
H     -2.392293      6.489915      7.947162
H     -3.952811      3.445853      8.257126
H     -2.466446      1.991238      9.616584
H     -3.627512      0.776148      8.127905
H     -0.348059      0.962192      9.460131
H     -1.819040     -1.161174      6.717480
H     -2.485324     -3.249238      6.175674
H     -3.428363     -4.753090      8.703878
H     -3.014097     -3.586383     11.581425
H     -1.594381     -0.416859     10.985914
B     -4.780602     -2.604513      0.317266
B     -4.569465     -1.356683     -0.648004
B     -4.463861     -0.247381     -1.882945
B     -3.396531     -2.661979     -0.502827
B     -3.038009      0.177607     -1.404773
B     -4.390872      0.342644     -0.192397
B     -5.031012      1.403078      0.819222
B     -4.620094      2.986388      0.997562
B     -2.808851      0.512803      0.199513
B     -3.218551      3.227540      1.793236
B     -2.161133     -3.775821     -0.584343
B     -1.876928     -2.248084     -0.933414
B     -1.697164     -0.613334     -0.835751
B     -0.584443     -3.218984     -0.835049
B     -0.219751     -0.148448     -0.311803
B     -1.394985      0.035818      0.852087
B     -1.775686      1.662110      0.759224
B     -1.897502      3.236989      0.882584
B     -0.215292      1.037200      1.069695
B     -0.752118      4.348002      0.558417
B      0.826501     -4.112870     -0.740049
B      0.925144     -2.505404     -0.749723
B      1.214364     -0.948979     -0.586972
B      2.200665     -3.402586     -0.168167
B      2.622046     -0.195651     -0.292977
B      1.234081      0.551562      0.142600
B      1.124844      2.000923      1.042986
B      0.536600      3.437229      0.618007
B      2.458015      1.672646      0.087495
B      1.213646      3.017073     -0.852963
B      3.220244     -3.850820      1.104428
B      3.624046     -2.653486      0.063737
B      4.025027     -1.121930     -0.236552
B      4.417376     -2.835474      1.420329
B      5.363640     -0.241898     -0.689778
B      4.104119      0.531009     -0.013477
B      4.018093      2.321775     -0.033810
B      2.821838      3.096833     -0.912930
B      5.422007      1.458254     -0.185288
B      4.296118      3.550090     -1.013979
H     -5.168734     -3.094856      1.310677
H     -5.716063     -2.076392     -0.393509
H     -5.264034     -0.120717     -2.741690
H     -5.771097      1.007443      1.664604
H     -5.364514      3.843125      0.672044
H     -3.234300      3.224974      2.975674
H     -2.359297     -4.926237     -0.473225
H     -0.896482      5.475480      0.244253
H      0.822346     -5.249794     -1.023329
H      0.553695      2.694294     -1.783686
H      2.970323     -4.817556      1.717250
H      5.263074     -2.512454      2.156542
H      6.384778     -0.646686     -1.095590
H      6.503197      1.838169      0.065012
H      5.138890      4.252414     -1.415442
