52
EGCG - ETKDG+MMFF conformer
O      0.950903     -0.938058     -1.976519
C      0.923117     -0.136466     -1.047091
O      1.797494     -0.094430      0.033349
C      2.726619     -1.136128      0.018541
C      2.447159     -2.293150      0.749937
C      3.392428     -3.307447      0.763749
O      3.141370     -4.451091      1.464780
C      4.591186     -3.163740      0.073066
O      5.503889     -4.183929      0.107511
C      4.862072     -1.998087     -0.639311
O      6.060363     -1.916804     -1.292972
C      3.933619     -0.964548     -0.668116
C     -0.126438      0.959028     -0.919364
O      0.584990      2.205200     -0.842445
C     -0.229822      3.289459     -0.652789
C      0.317368      4.530950     -0.979763
C     -0.452693      5.680339     -0.845314
O      0.119614      6.872810     -1.177522
C     -1.768003      5.606565     -0.405356
C     -2.299291      4.361491     -0.081462
O     -3.618705      4.318816      0.276188
C     -1.531687      3.190723     -0.149503
C     -2.077988      1.870389      0.325268
O     -3.192333      1.564513     -0.520282
C     -1.002942      0.762491      0.324983
C     -1.610361     -0.617105      0.542625
C     -1.967402     -1.468593     -0.522023
C     -2.521313     -2.720266     -0.258588
O     -2.857463     -3.586323     -1.261103
C     -2.751399     -3.125005      1.048961
O     -3.304654     -4.347181      1.315237
C     -2.418917     -2.289425      2.102995
O     -2.646132     -2.682368      3.389050
C     -1.850523     -1.044684      1.863198
H      1.515626     -2.405592      1.294558
H      3.935818     -5.005215      1.324913
H      6.247838     -3.857156     -0.439346
H      6.091739     -1.066380     -1.765665
H      4.121911     -0.043558     -1.208168
H     -0.715138      0.948939     -1.847347
H      1.336950      4.602482     -1.347225
H     -0.530542      7.579933     -1.029336
H     -2.392293      6.489915     -0.324396
H     -3.952811      3.445853     -0.014432
H     -2.466446      1.991238      1.345026
H     -3.627512      0.776148     -0.143653
H     -0.348059      0.962192      1.188573
H     -1.819040     -1.161174     -1.554078
H     -2.485324     -3.249238     -2.095884
H     -3.428363     -4.753090      0.432320
H     -3.014097     -3.586383      3.309867
H     -1.594381     -0.416859      2.714356
