      -----------------------------------------------------------      
     |                   =====================                   |     
     |                           x T B                           |     
     |                   =====================                   |     
     |                         S. Grimme                         |     
     |          Mulliken Center for Theoretical Chemistry        |     
     |                    University of Bonn                     |     
      -----------------------------------------------------------      

   * xtb version 6.7.1pre (5071a88) compiled by 'Marcel@Raven' on 2024-07-23

   xtb is free software: you can redistribute it and/or modify it under
   the terms of the GNU Lesser General Public License as published by
   the Free Software Foundation, either version 3 of the License, or
   (at your option) any later version.
   
   xtb is distributed in the hope that it will be useful,
   but WITHOUT ANY WARRANTY; without even the implied warranty of
   MERCHANTABILITY or FITNESS FOR A PARTICULAR PURPOSE.  See the
   GNU Lesser General Public License for more details.
   
   Cite this work as:
   * C. Bannwarth, E. Caldeweyher, S. Ehlert, A. Hansen, P. Pracht,
     J. Seibert, S. Spicher, S. Grimme, WIREs Comput. Mol. Sci., 2020, 11,
     e01493. DOI: 10.1002/wcms.1493
   
   for GFN2-xTB:
   * C. Bannwarth, S. Ehlert and S. Grimme., J. Chem. Theory Comput., 2019,
     15, 1652-1671. DOI: 10.1021/acs.jctc.8b01176
   for GFN1-xTB:
   * S. Grimme, C. Bannwarth, P. Shushkov, J. Chem. Theory Comput., 2017,
     13, 1989-2009. DOI: 10.1021/acs.jctc.7b00118
   for GFN0-xTB:
   * P. Pracht, E. Caldeweyher, S. Ehlert, S. Grimme, ChemRxiv, 2019, preprint.
     DOI: 10.26434/chemrxiv.8326202.v1
   for GFN-FF:
   * S. Spicher and S. Grimme, Angew. Chem. Int. Ed., 2020, 59, 15665-15673.
     DOI: 10.1002/anie.202004239
   
   for ALPB and GBSA implicit solvation:
   * S. Ehlert, M. Stahn, S. Spicher, S. Grimme, J. Chem. Theory Comput.,
     2021, 17, 4250-4261. DOI: 10.1021/acs.jctc.1c00471
   
   for ddCOSMO and CPCM-X implicit solvation:
   * M. Stahn, S. Ehlert, S. Grimme, J. Phys. Chem. A,
     2023, XX, XXXX-XXXX. DOI: 10.1021/acs.jpca.3c04382
   
   for DFT-D4:
   * E. Caldeweyher, C. Bannwarth and S. Grimme, J. Chem. Phys., 2017,
     147, 034112. DOI: 10.1063/1.4993215
   * E. Caldeweyher, S. Ehlert, A. Hansen, H. Neugebauer, S. Spicher,
     C. Bannwarth and S. Grimme, J. Chem. Phys., 2019, 150, 154122.
     DOI: 10.1063/1.5090222
   * E. Caldeweyher, J.-M. Mewes, S. Ehlert and S. Grimme, Phys. Chem. Chem. Phys.
     2020, 22, 8499-8512. DOI: 10.1039/D0CP00502A
   
   for sTDA-xTB:
   * S. Grimme and C. Bannwarth, J. Chem. Phys., 2016, 145, 054103.
     DOI: 10.1063/1.4959605
   
   in the mass-spec context:
   * V. Asgeirsson, C. Bauer and S. Grimme, Chem. Sci., 2017, 8, 4879.
     DOI: 10.1039/c7sc00601b
   * J. Koopman and S. Grimme, ACS Omega 2019, 4, 12, 15120-15133.
     DOI: 10.1021/acsomega.9b02011
   
   for metadynamics refer to:
   * S. Grimme, J. Chem. Theory Comput., 2019, 155, 2847-2862
     DOI: 10.1021/acs.jctc.9b00143
   
   for SPH calculations refer to:
   * S. Spicher and S. Grimme, J. Chem. Theory Comput., 2021, 17, 1701-1714
     DOI: 10.1021/acs.jctc.0c01306
   
   for ONIOM refer to:
   * C. Plett, A. Katbashev, S. Ehlert, S. Grimme, M. Bursch,
     Phys. Chem. Chem. Phys., 2023, 25, 17860-17868. DOI: 10.1039/D3CP02178E
   
   for DIPRO refer to:
   * J. Kohn, N. Gildemeister, S. Grimme, D. Fazzi, A. Hansen,
     J. Chem. Phys., 2023, just accepted.
   
   for PTB refer to:
   * S. Grimme, M. Mueller, A. Hansen, J. Chem. Phys., 2023, 158, 124111.
     DOI: 10.1063/5.0137838
   
   with help from (in alphabetical order)
   P. Atkinson, C. Bannwarth, F. Bohle, G. Brandenburg, E. Caldeweyher
   M. Checinski, S. Dohm, S. Ehlert, S. Ehrlich, I. Gerasimov, C. Hölzer
   A. Katbashev, J. Kohn, J. Koopman, C. Lavigne, S. Lehtola, F. März, M. Müller,
   F. Musil, H. Neugebauer, J. Pisarek, C. Plett, P. Pracht, F. Pultar,
   J. Seibert, P. Shushkov, S. Spicher, M. Stahn, M. Steiner, T. Strunk,
   J. Stückrath, T. Rose, and J. Unsleber
   
 * started run on 2026/09/01 at 20:33:38.436     
   ID    Z sym.   atoms
    1    8 O      1, 3, 7, 9, 11, 14, 18, 21, 24, 29, 31, 33
    2    6 C      2, 4-6, 8, 10, 12, 13, 15-17, 19, 20, 22, 23, 25-28, 30,
                  32, 34
    3    1 H      35-52, 93-107
    4    5 B      53-92

           -------------------------------------------------
          |                Calculation Setup                |
           -------------------------------------------------

          program call               : "c:\Users\Andre\Proyectos doctorado\nano-qsar-ai-papers\kras-pancreatic-gC3N4-ai\tools\xtb\xtb-6.7.1\bin\xtb.exe" "c:\Users\Andre\Proyectos doctorado\borophene-alzheimer-tau-ai\calculations\tau\EGCG\EGCG_opt_180deg_input.xyz" --opt vloose --gfn 2 --chrg 0 --uhf 0 --iterations 500 --cycles 100 --norestart
          coordinate file            : c:\Users\Andre\Proyectos doctorado\borophene-alzheimer-tau-ai\calculations\tau\EGCG\EGCG_opt_180deg_input.xyz
          omp threads                :                    16


molecular fragmentation (1/2 indicates fragments):
111111111111111111111111111111111111111111111111111122222222222222222222
22222222222222222222222222222222222
# atoms in fragment 1/2:    52    55
 fragment masses (1/2) :      474.37      447.56
CMA distance (Bohr)    :  15.711
constraining FC (au)   :  0.0500

           -------------------------------------------------
          |                 G F N 2 - x T B                 |
           -------------------------------------------------

        Reference                      10.1021/acs.jctc.8b01176
      * Hamiltonian:
        H0-scaling (s, p, d)           1.850000    2.230000    2.230000
        zeta-weighting                 0.500000
      * Dispersion:
        s8                             2.700000
        a1                             0.520000
        a2                             5.000000
        s9                             5.000000
      * Repulsion:
        kExp                           1.500000    1.000000
        rExp                           1.000000
      * Coulomb:
        alpha                          2.000000
        third order                    shell-resolved
        anisotropic                    true
        a3                             3.000000
        a5                             4.000000
        cn-shift                       1.200000
        cn-exp                         4.000000
        max-rad                        5.000000


          ...................................................
          :                      SETUP                      :
          :.................................................:
          :  # basis functions                 329          :
          :  # atomic orbitals                 329          :
          :  # shells                          181          :
          :  # electrons                       313          :
          :  max. iterations                   500          :
          :  Hamiltonian                  GFN2-xTB          :
          :  restarted?                      false          :
          :  GBSA solvation                  false          :
          :  PC potential                    false          :
          :  electronic temp.          300.0000000     K    :
          :  accuracy                    1.0000000          :
          :  -> integral cutoff          0.2500000E+02      :
          :  -> integral neglect         0.1000000E-07      :
          :  -> SCF convergence          0.1000000E-05 Eh   :
          :  -> wf. convergence          0.1000000E-03 e    :
          :  Broyden damping             0.4000000          :
          :  net charge                          0          :
          :  unpaired electrons                  0          :
          ...................................................

 iter      E             dE          RMSdq      gap      omega  full diag
   1   -162.5106328 -0.162511E+03  0.127E+01    0.24       0.0  T
   2   -161.3624101  0.114822E+01  0.822E+00    0.04       1.0  T
   3   -116.5572055  0.448052E+02  0.119E+01    0.06       1.0  T
   4   -114.0623761  0.249483E+01  0.988E+00    0.14       1.0  T
   5   -149.9208281 -0.358585E+02  0.565E+00    0.10       1.0  T
   6   -158.1657406 -0.824491E+01  0.404E+00    0.13       1.0  T
   7   -162.4357454 -0.427000E+01  0.233E+00    0.61       1.0  T
   8   -163.0295451 -0.593800E+00  0.151E+00    0.22       1.0  T
   9   -163.1719115 -0.142366E+00  0.132E+00    0.49       1.0  T
  10   -163.1143920  0.575195E-01  0.114E+00    0.15       1.0  T
  11   -163.1406889 -0.262968E-01  0.862E-01    0.28       1.0  T
  12   -163.0938651  0.468237E-01  0.848E-01    0.04       1.0  T
  13   -163.1903779 -0.965128E-01  0.503E-01    0.31       1.0  T
  14   -163.0700440  0.120334E+00  0.911E-01    0.09       1.0  T
  15   -163.1812261 -0.111182E+00  0.535E-01    0.01       1.0  T
  16   -163.2024685 -0.212424E-01  0.412E-01    0.03       1.0  T
  17   -163.1843273  0.181412E-01  0.482E-01    0.01       1.0  T
  18   -163.2158430 -0.315157E-01  0.244E-01    0.06       1.0  T
  19   -163.2219377 -0.609472E-02  0.104E-01    0.10       1.0  T
  20   -163.2222033 -0.265604E-03  0.810E-02    0.11       1.0  T
  21   -163.2223543 -0.150961E-03  0.650E-02    0.11       1.0  T
  22   -163.2223757 -0.214171E-04  0.387E-02    0.13       1.0  T
  23   -163.2224437 -0.680379E-04  0.300E-02    0.13       1.0  T
  24   -163.2225105 -0.668000E-04  0.224E-02    0.13       1.0  T
  25   -163.2225713 -0.608160E-04  0.114E-02    0.12       1.0  T
  26   -163.2225789 -0.759365E-05  0.626E-03    0.12       1.5  T
  27   -163.2225788  0.181489E-06  0.487E-03    0.12       2.0  T
  28   -163.2225793 -0.556382E-06  0.439E-03    0.12       2.2  T
  29   -163.2225798 -0.514174E-06  0.410E-03    0.12       2.4  T
  30   -163.2225808 -0.949420E-06  0.347E-03    0.12       2.8  T
  31   -163.2225826 -0.183431E-05  0.179E-03    0.12       5.4  T
  32   -163.2225830 -0.404469E-06  0.796E-04    0.12      12.2  T
  33   -163.2225831 -0.821693E-07  0.360E-04    0.12      26.8  T

   *** convergence criteria satisfied after 33 iterations ***

         #    Occupation            Energy/Eh            Energy/eV
      -------------------------------------------------------------
         1        2.0000           -0.7337658             -19.9668
       ...           ...                  ...                  ...
       151        2.0000           -0.2908354              -7.9140
       152        2.0000           -0.2848396              -7.7509
       153        2.0000           -0.2818776              -7.6703
       154        2.0000           -0.2788981              -7.5892
       155        2.0000           -0.2738472              -7.4518
       156        1.9994           -0.2708930              -7.3714
       157        0.9076           -0.2569479              -6.9919 (HOMO)
       158        0.0930           -0.2526208              -6.8742 (LUMO)
       159        0.0000           -0.2416504              -6.5756
       160                         -0.2296157              -6.2482
       161                         -0.2254147              -6.1338
       162                         -0.2237951              -6.0898
       ...                                ...                  ...
       329                          1.0710301              29.1442
      -------------------------------------------------------------
                  HL-Gap            0.0043271 Eh            0.1177 eV
             Fermi-level           -0.2593444 Eh           -7.0571 eV

 SCC (total)                   0 d,  0 h,  0 min,  0.592 sec
 SCC setup                      ...        0 min,  0.000 sec (  0.000%)
 Dispersion                     ...        0 min,  0.002 sec (  0.338%)
 classical contributions        ...        0 min,  0.000 sec (  0.000%)
 integral evaluation            ...        0 min,  0.007 sec (  1.182%)
 iterations                     ...        0 min,  0.557 sec ( 94.088%)
 molecular gradient             ...        0 min,  0.021 sec (  3.547%)
 printout                       ...        0 min,  0.005 sec (  0.845%)

         :::::::::::::::::::::::::::::::::::::::::::::::::::::
         ::                     SUMMARY                     ::
         :::::::::::::::::::::::::::::::::::::::::::::::::::::
         :: total energy            -161.329890560505 Eh    ::
         :: gradient norm              0.090291461092 Eh/a0 ::
         :: HOMO-LUMO gap              0.117746730367 eV    ::
         ::.................................................::
         :: SCC energy              -163.219353611624 Eh    ::
         :: -> isotropic ES            0.438579446127 Eh    ::
         :: -> anisotropic ES          0.009422015571 Eh    ::
         :: -> anisotropic XC         -0.018877581198 Eh    ::
         :: -> dispersion             -0.134086469412 Eh    ::
         :: repulsion energy           1.889463051119 Eh    ::
         :: add. restraining           0.000000000000 Eh    ::
         :: total charge               0.000000000020 e     ::
         :::::::::::::::::::::::::::::::::::::::::::::::::::::

      ----------------------------------------------------------- 
     |                   =====================                   |
     |                        A N C O P T                        |
     |                   =====================                   |
     |               Approximate Normal Coordinate               |
     |                Rational Function Optimizer                |
      ----------------------------------------------------------- 
      ----------------------------------------------------------- 
     |                   =====================                   |
     |                        A N C O P T                        |
     |                   =====================                   |
     |               Approximate Normal Coordinate               |
     |                Rational Function Optimizer                |
      ----------------------------------------------------------- 

          ...................................................
          :                      SETUP                      :
          :.................................................:
          :   optimization level            normal          :
          :   max. optcycles                   100          :
          :   ANC micro-cycles                  20          :
          :   degrees of freedom               315          :
          :.................................................:
          :   RF solver                   davidson          :
          :   write xtbopt.log                true          :
          :   linear?                        false          :
          :   energy convergence         0.5000000E-05 Eh   :
          :   grad. convergence          0.1000000E-02 Eh/α :
          :   maxmium RF displ.          1.0000000          :
          :   Hlow (freq-cutoff)         0.1000000E-01      :
          :   Hmax (freq-cutoff)         5.0000000          :
          :   S6 in model hess.         20.0000000          :
          ...................................................

generating ANC from exact Hessian ...
Using Lindh-Hessian (1995)
 Shifting diagonal of input Hessian by   1.030011574956717E-002
 Lowest  eigenvalues of input Hessian
    0.010000    0.010097    0.010115    0.010119    0.010267    0.000000
    0.000000    0.000000    0.000000    0.000000    0.000000    0.010316
    0.010322    0.010335    0.010356    0.010456    0.010654    0.010724
 Highest eigenvalues
    2.105331    2.138068    2.139918    2.147010    2.163162    2.199006
 

........................................................................
.............................. CYCLE    1 ..............................
........................................................................

 iter      E             dE          RMSdq      gap      omega  full diag
   1   -163.2225831 -0.163223E+03  0.168E-04    0.12       0.0  T
   2   -163.2225831  0.217465E-07  0.330E-04    0.12      29.3  T
   3   -163.2225831 -0.873973E-08  0.283E-04    0.12      34.1  T
     SCC iter.                  ...        0 min,  0.052 sec
     gradient                   ...        0 min,  0.021 sec
 * total energy  :  -161.3298906 Eh     change       -0.6206164E-08 Eh
   gradient norm :     0.0903427 Eh/α   predicted     0.0000000E+00 (-100.00%)
   displ. norm   :     0.2635030 α      lambda       -0.1183424E-01
   maximum displ.:     0.0981964 α      in ANC's #40, #63, #47, ...

........................................................................
.............................. CYCLE    2 ..............................
........................................................................

 iter      E             dE          RMSdq      gap      omega  full diag
   1   -163.2658219 -0.163266E+03  0.126E-01    0.41       0.0  T
   2   -163.1522475  0.113574E+00  0.726E-01    0.05       1.0  T
   3   -163.2667594 -0.114512E+00  0.845E-02    0.30       1.0  T
   4   -163.2672066 -0.447165E-03  0.564E-02    0.20       1.0  T
   5   -163.2665311  0.675519E-03  0.630E-02    0.15       1.0  T
   6   -163.2671507 -0.619637E-03  0.493E-02    0.11       1.0  T
   7   -163.2675455 -0.394791E-03  0.281E-02    0.13       1.0  T
   8   -163.2676994 -0.153874E-03  0.938E-03    0.14       1.0  T
   9   -163.2677149 -0.155413E-04  0.471E-03    0.15       2.1  T
  10   -163.2677178 -0.287490E-05  0.377E-03    0.15       2.6  T
  11   -163.2677179 -0.110589E-06  0.347E-03    0.15       2.8  T
  12   -163.2677192 -0.127573E-05  0.245E-03    0.15       4.0  T
  13   -163.2677198 -0.591723E-06  0.174E-03    0.15       5.6  T
  14   -163.2677202 -0.450559E-06  0.932E-04    0.15      10.4  T
  15   -163.2677203 -0.133609E-06  0.503E-04    0.15      19.2  T
     SCC iter.                  ...        0 min,  0.243 sec
     gradient                   ...        0 min,  0.021 sec
 * total energy  :  -161.3381839 Eh     change       -0.8293377E-02 Eh
   gradient norm :     0.0387561 Eh/α   predicted    -0.6329385E-02 ( -23.68%)
   displ. norm   :     0.2859267 α      lambda       -0.4229191E-02
   maximum displ.:     0.1210644 α      in ANC's #40, #27, #37, ...

........................................................................
.............................. CYCLE    3 ..............................
........................................................................

 iter      E             dE          RMSdq      gap      omega  full diag
   1   -163.2907493 -0.163291E+03  0.901E-02    0.38       0.0  T
   2   -163.2862225  0.452677E-02  0.162E-01    0.09       1.0  T
   3   -163.2908927 -0.467020E-02  0.573E-02    0.29       1.0  T
   4   -163.2906428  0.249920E-03  0.577E-02    0.21       1.0  T
   5   -163.2913031 -0.660362E-03  0.298E-02    0.18       1.0  T
   6   -163.2913663 -0.631892E-04  0.243E-02    0.16       1.0  T
   7   -163.2914466 -0.803198E-04  0.135E-02    0.16       1.0  T
   8   -163.2914828 -0.361074E-04  0.483E-03    0.18       2.0  T
   9   -163.2914855 -0.272077E-05  0.350E-03    0.18       2.8  T
  10   -163.2914868 -0.134920E-05  0.272E-03    0.18       3.6  T
  11   -163.2914876 -0.749284E-06  0.183E-03    0.18       5.3  T
  12   -163.2914881 -0.490184E-06  0.845E-04    0.18      11.4  T
  13   -163.2914882 -0.114635E-06  0.359E-04    0.18      26.9  T
     SCC iter.                  ...        0 min,  0.203 sec
     gradient                   ...        0 min,  0.018 sec
 * total energy  :  -161.3407211 Eh     change       -0.2537198E-02 Eh
   gradient norm :     0.0156086 Eh/α   predicted    -0.2288546E-02 (  -9.80%)
   displ. norm   :     0.2191757 α      lambda       -0.9062553E-03
   maximum displ.:     0.0816207 α      in ANC's #40, #27, #37, ...

........................................................................
.............................. CYCLE    4 ..............................
........................................................................

 iter      E             dE          RMSdq      gap      omega  full diag
   1   -163.2927028 -0.163293E+03  0.519E-02    0.20       0.0  T
   2   -163.2926245  0.783518E-04  0.382E-02    0.16       1.0  T
   3   -163.2922696  0.354877E-03  0.451E-02    0.24       1.0  T
   4   -163.2924726 -0.202984E-03  0.313E-02    0.20       1.0  T
   5   -163.2927141 -0.241543E-03  0.124E-02    0.18       1.0  T
   6   -163.2927413 -0.271733E-04  0.649E-03    0.19       1.5  T
   7   -163.2927499 -0.854701E-05  0.260E-03    0.19       3.7  T
   8   -163.2927510 -0.118916E-05  0.118E-03    0.19       8.2  T
   9   -163.2927512 -0.128347E-06  0.889E-04    0.19      10.9  T
  10   -163.2927513 -0.117712E-06  0.558E-04    0.19      17.3  T
     SCC iter.                  ...        0 min,  0.159 sec
     gradient                   ...        0 min,  0.021 sec
 * total energy  :  -161.3413722 Eh     change       -0.6510917E-03 Eh
   gradient norm :     0.0105106 Eh/α   predicted    -0.4748989E-03 ( -27.06%)
   displ. norm   :     0.3265480 α      lambda       -0.8659053E-03
   maximum displ.:     0.1220591 α      in ANC's #27, #22, #37, ...

........................................................................
.............................. CYCLE    5 ..............................
........................................................................

 iter      E             dE          RMSdq      gap      omega  full diag
   1   -163.2899524 -0.163290E+03  0.106E-01    0.17       0.0  T
   2   -163.2898188  0.133620E-03  0.716E-02    0.23       1.0  T
   3   -163.2811137  0.870507E-02  0.186E-01    0.08       1.0  T
   4   -163.2895518 -0.843813E-02  0.507E-02    0.28       1.0  T
   5   -163.2898205 -0.268663E-03  0.340E-02    0.24       1.0  T
   6   -163.2898826 -0.621543E-04  0.254E-02    0.24       1.0  T
   7   -163.2899726 -0.899662E-04  0.181E-02    0.22       1.0  T
   8   -163.2899937 -0.210939E-04  0.146E-02    0.21       1.0  T
   9   -163.2900185 -0.247669E-04  0.975E-03    0.20       1.0  T
  10   -163.2900339 -0.154519E-04  0.419E-03    0.19       2.3  T
  11   -163.2900364 -0.245248E-05  0.235E-03    0.19       4.1  T
  12   -163.2900374 -0.101709E-05  0.843E-04    0.19      11.5  T
  13   -163.2900375 -0.129468E-06  0.296E-04    0.19      32.7  T
  14   -163.2900375 -0.275523E-08  0.229E-04    0.19      42.1  T
     SCC iter.                  ...        0 min,  0.263 sec
     gradient                   ...        0 min,  0.020 sec
 * total energy  :  -161.3417085 Eh     change       -0.3363129E-03 Eh
   gradient norm :     0.0130765 Eh/α   predicted    -0.4791750E-03 (  42.48%)
   displ. norm   :     0.2193177 α      lambda       -0.6297746E-03
   maximum displ.:     0.0849068 α      in ANC's #22, #27, #4, ...

........................................................................
.............................. CYCLE    6 ..............................
........................................................................

 iter      E             dE          RMSdq      gap      omega  full diag
   1   -163.2885647 -0.163289E+03  0.119E-01    0.15       0.0  T
   2   -163.2882537  0.311002E-03  0.848E-02    0.26       1.0  T
   3   -163.2786112  0.964258E-02  0.210E-01    0.07       1.0  T
   4   -163.2875124 -0.890122E-02  0.702E-02    0.32       1.0  T
   5   -163.2884003 -0.887899E-03  0.420E-02    0.28       1.0  T
   6   -163.2883947  0.554135E-05  0.381E-02    0.27       1.0  T
   7   -163.2885119 -0.117192E-03  0.316E-02    0.25       1.0  T
   8   -163.2885589 -0.469337E-04  0.271E-02    0.24       1.0  T
   9   -163.2886039 -0.450639E-04  0.220E-02    0.22       1.0  T
  10   -163.2886515 -0.475201E-04  0.151E-02    0.21       1.0  T
  11   -163.2886900 -0.385287E-04  0.571E-03    0.19       1.7  T
  12   -163.2886962 -0.626248E-05  0.133E-03    0.18       7.3  T
  13   -163.2886965 -0.299089E-06  0.519E-04    0.18      18.6  T
  14   -163.2886963  0.267212E-06  0.131E-03    0.18       7.4  T
  15   -163.2886966 -0.315035E-06  0.219E-04    0.18      44.2  T
     SCC iter.                  ...        0 min,  0.237 sec
     gradient                   ...        0 min,  0.019 sec
 * total energy  :  -161.3419412 Eh     change       -0.2326913E-03 Eh
   gradient norm :     0.0125693 Eh/α   predicted    -0.3300400E-03 (  41.84%)
   displ. norm   :     0.0991034 α      lambda       -0.3241037E-03
   maximum displ.:     0.0364153 α      in ANC's #5, #7, #22, ...

........................................................................
.............................. CYCLE    7 ..............................
........................................................................

 iter      E             dE          RMSdq      gap      omega  full diag
   1   -163.2905920 -0.163291E+03  0.555E-02    0.18       0.0  T
   2   -163.2905758  0.162045E-04  0.353E-02    0.18       1.0  T
   3   -163.2899620  0.613753E-03  0.518E-02    0.17       1.0  T
   4   -163.2905312 -0.569160E-03  0.159E-02    0.18       1.0  T
   5   -163.2905858 -0.546239E-04  0.768E-03    0.17       1.3  T
   6   -163.2905996 -0.138331E-04  0.380E-03    0.18       2.5  T
   7   -163.2906026 -0.299824E-05  0.156E-03    0.18       6.2  T
   8   -163.2906030 -0.362526E-06  0.930E-04    0.18      10.4  T
   9   -163.2906031 -0.843466E-07  0.664E-04    0.18      14.6  T
     SCC iter.                  ...        0 min,  0.146 sec
     gradient                   ...        0 min,  0.020 sec
 * total energy  :  -161.3421396 Eh     change       -0.1984033E-03 Eh
   gradient norm :     0.0054637 Eh/α   predicted    -0.1636480E-03 ( -17.52%)
   displ. norm   :     0.1969524 α      lambda       -0.2909230E-03
   maximum displ.:     0.0778945 α      in ANC's #5, #7, #22, ...

........................................................................
.............................. CYCLE    8 ..............................
........................................................................

 iter      E             dE          RMSdq      gap      omega  full diag
   1   -163.2921074 -0.163292E+03  0.512E-02    0.17       0.0  T
   2   -163.2920801  0.273289E-04  0.334E-02    0.19       1.0  T
   3   -163.2907081  0.137195E-02  0.733E-02    0.13       1.0  T
   4   -163.2920060 -0.129785E-02  0.221E-02    0.20       1.0  T
   5   -163.2921034 -0.974423E-04  0.837E-03    0.18       1.2  T
   6   -163.2921113 -0.786090E-05  0.477E-03    0.18       2.0  T
   7   -163.2921166 -0.529030E-05  0.225E-03    0.18       4.3  T
   8   -163.2921173 -0.759914E-06  0.127E-03    0.18       7.6  T
   9   -163.2921176 -0.275223E-06  0.637E-04    0.18      15.2  T
  10   -163.2921177 -0.533550E-07  0.400E-04    0.18      24.2  T
     SCC iter.                  ...        0 min,  0.167 sec
     gradient                   ...        0 min,  0.019 sec
 * total energy  :  -161.3423478 Eh     change       -0.2081548E-03 Eh
   gradient norm :     0.0036604 Eh/α   predicted    -0.1511043E-03 ( -27.41%)
   displ. norm   :     0.3544884 α      lambda       -0.2785209E-03
   maximum displ.:     0.1385317 α      in ANC's #7, #5, #22, ...

........................................................................
.............................. CYCLE    9 ..............................
........................................................................

 iter      E             dE          RMSdq      gap      omega  full diag
   1   -163.2914848 -0.163291E+03  0.669E-02    0.14       0.0  T
   2   -163.2910507  0.434089E-03  0.631E-02    0.26       1.0  T
   3   -163.2908428  0.207968E-03  0.581E-02    0.13       1.0  T
   4   -163.2906205  0.222255E-03  0.557E-02    0.19       1.0  T
   5   -163.2915652 -0.944624E-03  0.166E-02    0.19       1.0  T
   6   -163.2916126 -0.474889E-04  0.735E-03    0.18       1.3  T
   7   -163.2916206 -0.800669E-05  0.326E-03    0.17       3.0  T
   8   -163.2916221 -0.141136E-05  0.183E-03    0.17       5.3  T
   9   -163.2916222 -0.109033E-06  0.176E-03    0.17       5.5  T
  10   -163.2916225 -0.349103E-06  0.105E-03    0.17       9.2  T
  11   -163.2916227 -0.209629E-06  0.357E-04    0.17      27.1  T
  12   -163.2916227 -0.555312E-08  0.306E-04    0.17      31.6  T
     SCC iter.                  ...        0 min,  0.198 sec
     gradient                   ...        0 min,  0.020 sec
 * total energy  :  -161.3425489 Eh     change       -0.2011179E-03 Eh
   gradient norm :     0.0071766 Eh/α   predicted    -0.1567619E-03 ( -22.05%)
   displ. norm   :     0.4156680 α      lambda       -0.2872426E-03
   maximum displ.:     0.1738212 α      in ANC's #7, #5, #22, ...

........................................................................
.............................. CYCLE   10 ..............................
........................................................................

 iter      E             dE          RMSdq      gap      omega  full diag
   1   -163.2906301 -0.163291E+03  0.927E-02    0.12       0.0  T
   2   -163.2895889  0.104118E-02  0.989E-02    0.36       1.0  T
   3   -163.2906382 -0.104928E-02  0.588E-02    0.18       1.0  T
   4   -163.2901799  0.458264E-03  0.642E-02    0.16       1.0  T
   5   -163.2903588 -0.178917E-03  0.626E-02    0.12       1.0  T
   6   -163.2911774 -0.818602E-03  0.132E-02    0.16       1.0  T
   7   -163.2912037 -0.262232E-04  0.852E-03    0.17       1.1  T
   8   -163.2912136 -0.989517E-05  0.441E-03    0.17       2.2  T
   9   -163.2912162 -0.261279E-05  0.193E-03    0.16       5.0  T
  10   -163.2912162 -0.594597E-07  0.200E-03    0.16       4.8  T
  11   -163.2912170 -0.724409E-06  0.543E-04    0.16      17.8  T
  12   -163.2912170 -0.296972E-07  0.363E-04    0.16      26.6  T
     SCC iter.                  ...        0 min,  0.229 sec
     gradient                   ...        0 min,  0.023 sec
 * total energy  :  -161.3427685 Eh     change       -0.2195608E-03 Eh
   gradient norm :     0.0065037 Eh/α   predicted    -0.1684380E-03 ( -23.28%)
   displ. norm   :     0.4962555 α      lambda       -0.3219629E-03
   maximum displ.:     0.2152463 α      in ANC's #7, #5, #6, ...

........................................................................
.............................. CYCLE   11 ..............................
........................................................................

 iter      E             dE          RMSdq      gap      omega  full diag
   1   -163.2888558 -0.163289E+03  0.116E-01    0.10       0.0  T
   2   -163.2871799  0.167590E-02  0.128E-01    0.43       1.0  T
   3   -163.2889547 -0.177483E-02  0.812E-02    0.21       1.0  T
   4   -163.2889388  0.159488E-04  0.702E-02    0.17       1.0  T
   5   -163.2860660  0.287277E-02  0.135E-01    0.08       1.0  T
   6   -163.2899108 -0.384484E-02  0.268E-02    0.18       1.0  T
   7   -163.2899480 -0.371325E-04  0.225E-02    0.18       1.0  T
   8   -163.2900056 -0.576253E-04  0.145E-02    0.17       1.0  T
   9   -163.2900401 -0.344623E-04  0.486E-03    0.16       2.0  T
  10   -163.2900406 -0.556022E-06  0.428E-03    0.15       2.3  T
  11   -163.2900443 -0.365393E-05  0.125E-03    0.15       7.7  T
  12   -163.2900444 -0.137749E-06  0.102E-03    0.15       9.5  T
  13   -163.2900446 -0.194685E-06  0.312E-04    0.15      31.0  T
  14   -163.2900446 -0.164950E-07  0.140E-04    0.15      68.9  T
     SCC iter.                  ...        0 min,  0.233 sec
     gradient                   ...        0 min,  0.021 sec
 * total energy  :  -161.3430406 Eh     change       -0.2721046E-03 Eh
   gradient norm :     0.0071256 Eh/α   predicted    -0.2006271E-03 ( -26.27%)
   displ. norm   :     0.5761144 α      lambda       -0.4714452E-03
   maximum displ.:     0.2603420 α      in ANC's #7, #5, #6, ...

........................................................................
.............................. CYCLE   12 ..............................
........................................................................

 iter      E             dE          RMSdq      gap      omega  full diag
   1   -163.2891577 -0.163289E+03  0.134E-01    0.09       0.0  T
   2   -163.2869380  0.221968E-02  0.148E-01    0.43       1.0  T
   3   -163.2891888 -0.225080E-02  0.956E-02    0.21       1.0  T
   4   -163.2891991 -0.102614E-04  0.817E-02    0.16       1.0  T
   5   -163.2826611  0.653801E-02  0.192E-01    0.06       1.0  T
   6   -163.2903582 -0.769708E-02  0.420E-02    0.19       1.0  T
   7   -163.2904599 -0.101756E-03  0.343E-02    0.18       1.0  T
   8   -163.2905745 -0.114541E-03  0.241E-02    0.17       1.0  T
   9   -163.2906469 -0.724029E-04  0.141E-02    0.16       1.0  T
  10   -163.2906820 -0.351280E-04  0.258E-03    0.14       3.7  T
  11   -163.2906833 -0.133325E-05  0.101E-03    0.14       9.6  T
  12   -163.2906833 -0.157647E-07  0.989E-04    0.15       9.8  T
  13   -163.2906835 -0.179602E-06  0.302E-04    0.14      32.0  T
     SCC iter.                  ...        0 min,  0.229 sec
     gradient                   ...        0 min,  0.024 sec
 * total energy  :  -161.3433980 Eh     change       -0.3573753E-03 Eh
   gradient norm :     0.0118827 Eh/α   predicted    -0.3139638E-03 ( -12.15%)
   displ. norm   :     0.6099198 α      lambda       -0.4522441E-03
   maximum displ.:     0.2796645 α      in ANC's #7, #5, #13, ...

........................................................................
.............................. CYCLE   13 ..............................
........................................................................

 iter      E             dE          RMSdq      gap      omega  full diag
   1   -163.2880864 -0.163288E+03  0.124E-01    0.10       0.0  T
   2   -163.2859916  0.209476E-02  0.133E-01    0.37       1.0  T
   3   -163.2877848 -0.179322E-02  0.787E-02    0.14       1.0  T
   4   -163.2863964  0.138839E-02  0.970E-02    0.13       1.0  T
   5   -163.2881668 -0.177034E-02  0.596E-02    0.11       1.0  T
   6   -163.2888621 -0.695339E-03  0.155E-02    0.14       1.0  T
   7   -163.2888912 -0.290703E-04  0.112E-02    0.15       1.0  T
   8   -163.2889119 -0.206584E-04  0.391E-03    0.14       2.5  T
   9   -163.2889094  0.241982E-05  0.463E-03    0.14       2.1  T
  10   -163.2889132 -0.378184E-05  0.222E-03    0.14       4.4  T
  11   -163.2889141 -0.881869E-06  0.683E-04    0.14      14.2  T
  12   -163.2889141  0.119276E-07  0.765E-04    0.14      12.6  T
     SCC iter.                  ...        0 min,  0.195 sec
     gradient                   ...        0 min,  0.019 sec
 * total energy  :  -161.3437459 Eh     change       -0.3479703E-03 Eh
   gradient norm :     0.0123675 Eh/α   predicted    -0.3102447E-03 ( -10.84%)
   displ. norm   :     0.5151330 α      lambda       -0.5298271E-03
   maximum displ.:     0.2438668 α      in ANC's #7, #13, #6, ...

........................................................................
.............................. CYCLE   14 ..............................
........................................................................

 iter      E             dE          RMSdq      gap      omega  full diag
   1   -163.2923487 -0.163292E+03  0.940E-02    0.18       0.0  T
   2   -163.2708245  0.215242E-01  0.321E-01    0.03       1.0  T
   3   -163.2920987 -0.212742E-01  0.676E-02    0.20       1.0  T
   4   -163.2901653  0.193338E-02  0.928E-02    0.16       1.0  T
   5   -163.2924002 -0.223484E-02  0.323E-02    0.17       1.0  T
   6   -163.2924869 -0.867186E-04  0.257E-02    0.17       1.0  T
   7   -163.2925370 -0.501371E-04  0.202E-02    0.16       1.0  T
   8   -163.2925783 -0.412893E-04  0.142E-02    0.16       1.0  T
   9   -163.2926073 -0.290003E-04  0.739E-03    0.15       1.3  T
  10   -163.2926170 -0.971857E-05  0.229E-03    0.14       4.2  T
  11   -163.2926179 -0.897060E-06  0.600E-04    0.14      16.1  T
  12   -163.2926180 -0.481815E-07  0.433E-04    0.14      22.3  T
     SCC iter.                  ...        0 min,  0.195 sec
     gradient                   ...        0 min,  0.022 sec
 * total energy  :  -161.3441232 Eh     change       -0.3772738E-03 Eh
   gradient norm :     0.0090449 Eh/α   predicted    -0.3352130E-03 ( -11.15%)
   displ. norm   :     0.6869300 α      lambda       -0.5507428E-03
   maximum displ.:     0.3278309 α      in ANC's #7, #13, #6, ...

........................................................................
.............................. CYCLE   15 ..............................
........................................................................

 iter      E             dE          RMSdq      gap      omega  full diag
   1   -163.2771138 -0.163277E+03  0.262E-01    0.04       0.0  T
   2   -163.2680384  0.907533E-02  0.321E-01    0.49       1.0  T
   3   -163.2815274 -0.134890E-01  0.208E-01    0.34       1.0  T
   4   -163.2850555 -0.352809E-02  0.154E-01    0.43       1.0  T
   5   -163.2878761 -0.282059E-02  0.109E-01    0.29       1.0  T
   6   -163.2888554 -0.979351E-03  0.633E-02    0.11       1.0  T
   7   -163.2754814  0.133740E-01  0.258E-01    0.04       1.0  T
   8   -163.2887970 -0.133155E-01  0.664E-02    0.21       1.0  T
   9   -163.2889077 -0.110703E-03  0.615E-02    0.20       1.0  T
  10   -163.2892340 -0.326316E-03  0.447E-02    0.17       1.0  T
  11   -163.2895167 -0.282725E-03  0.226E-02    0.15       1.0  T
  12   -163.2896142 -0.974973E-04  0.187E-03    0.13       5.2  T
  13   -163.2896145 -0.307639E-06  0.153E-03    0.13       6.3  T
  14   -163.2896128  0.170001E-05  0.335E-03    0.13       2.9  T
  15   -163.2896148 -0.201167E-05  0.949E-04    0.13      10.2  T
  16   -163.2896150 -0.159822E-06  0.346E-04    0.13      27.9  T
  17   -163.2896150 -0.122688E-07  0.214E-04    0.13      45.3  T
     SCC iter.                  ...        0 min,  0.321 sec
     gradient                   ...        0 min,  0.020 sec
 * total energy  :  -161.3445574 Eh     change       -0.4341986E-03 Eh
   gradient norm :     0.0110505 Eh/α   predicted    -0.4053172E-03 (  -6.65%)
   displ. norm   :     0.5224914 α      lambda       -0.6029323E-03
   maximum displ.:     0.2665972 α      in ANC's #7, #13, #6, ...

........................................................................
.............................. CYCLE   16 ..............................
........................................................................

 iter      E             dE          RMSdq      gap      omega  full diag
   1   -163.2926754 -0.163293E+03  0.862E-02    0.14       0.0  T
   2   -163.2902550  0.242041E-02  0.120E-01    0.08       1.0  T
   3   -163.2915610 -0.130600E-02  0.847E-02    0.21       1.0  T
   4   -163.2911958  0.365136E-03  0.775E-02    0.15       1.0  T
   5   -163.2922276 -0.103174E-02  0.481E-02    0.17       1.0  T
   6   -163.2925204 -0.292794E-03  0.329E-02    0.16       1.0  T
   7   -163.2926690 -0.148639E-03  0.201E-02    0.15       1.0  T
   8   -163.2927393 -0.702677E-04  0.710E-03    0.14       1.4  T
   9   -163.2927488 -0.950706E-05  0.162E-03    0.13       6.0  T
  10   -163.2927487  0.735670E-07  0.146E-03    0.13       6.6  T
  11   -163.2927489 -0.205789E-06  0.127E-03    0.13       7.6  T
  12   -163.2927492 -0.309349E-06  0.413E-04    0.13      23.4  T
  13   -163.2927492  0.696539E-08  0.467E-04    0.13      20.7  T
     SCC iter.                  ...        0 min,  0.208 sec
     gradient                   ...        0 min,  0.022 sec
 * total energy  :  -161.3449820 Eh     change       -0.4245699E-03 Eh
   gradient norm :     0.0074717 Eh/α   predicted    -0.3837678E-03 (  -9.61%)
   displ. norm   :     0.6492265 α      lambda       -0.4704948E-03
   maximum displ.:     0.3321173 α      in ANC's #7, #13, #6, ...

........................................................................
.............................. CYCLE   17 ..............................
........................................................................

 iter      E             dE          RMSdq      gap      omega  full diag
   1   -163.2880574 -0.163288E+03  0.145E-01    0.07       0.0  T
   2   -163.2837254  0.433201E-02  0.186E-01    0.44       1.0  T
   3   -163.2882331 -0.450772E-02  0.117E-01    0.23       1.0  T
   4   -163.2887517 -0.518651E-03  0.903E-02    0.18       1.0  T
   5   -163.2810067  0.774502E-02  0.213E-01    0.04       1.0  T
   6   -163.2900392 -0.903248E-02  0.474E-02    0.16       1.0  T
   7   -163.2901477 -0.108458E-03  0.401E-02    0.16       1.0  T
   8   -163.2903297 -0.182087E-03  0.253E-02    0.14       1.0  T
   9   -163.2904355 -0.105728E-03  0.834E-03    0.13       1.2  T
  10   -163.2904473 -0.117908E-04  0.217E-03    0.12       4.5  T
  11   -163.2904480 -0.749890E-06  0.137E-03    0.13       7.1  T
  12   -163.2904481 -0.872890E-07  0.116E-03    0.13       8.3  T
  13   -163.2904483 -0.231820E-06  0.356E-04    0.12      27.1  T
  14   -163.2904483 -0.180491E-07  0.182E-04    0.12      53.0  T
     SCC iter.                  ...        0 min,  0.219 sec
     gradient                   ...        0 min,  0.019 sec
 * total energy  :  -161.3453654 Eh     change       -0.3834014E-03 Eh
   gradient norm :     0.0089438 Eh/α   predicted    -0.3344095E-03 ( -12.78%)
   displ. norm   :     0.5523285 α      lambda       -0.5768698E-03
   maximum displ.:     0.3050407 α      in ANC's #7, #13, #6, ...

........................................................................
.............................. CYCLE   18 ..............................
........................................................................

 iter      E             dE          RMSdq      gap      omega  full diag
   1   -163.2955377 -0.163296E+03  0.791E-02    0.15       0.0  T
   2   -163.2792152  0.163225E-01  0.283E-01    0.03       1.0  T
   3   -163.2953654 -0.161502E-01  0.565E-02    0.16       1.0  T
   4   -163.2943077  0.105767E-02  0.684E-02    0.12       1.0  T
   5   -163.2955613 -0.125359E-02  0.256E-02    0.14       1.0  T
   6   -163.2956540 -0.927179E-04  0.172E-02    0.14       1.0  T
   7   -163.2956910 -0.369484E-04  0.116E-02    0.13       1.0  T
   8   -163.2957054 -0.143991E-04  0.750E-03    0.13       1.3  T
   9   -163.2957136 -0.817858E-05  0.391E-03    0.13       2.5  T
  10   -163.2957158 -0.222174E-05  0.173E-03    0.13       5.6  T
  11   -163.2957164 -0.619682E-06  0.398E-04    0.13      24.3  T
  12   -163.2957164 -0.253083E-07  0.193E-04    0.13      50.1  T
     SCC iter.                  ...        0 min,  0.193 sec
     gradient                   ...        0 min,  0.020 sec
 * total energy  :  -161.3457956 Eh     change       -0.4302579E-03 Eh
   gradient norm :     0.0092575 Eh/α   predicted    -0.3764283E-03 ( -12.51%)
   displ. norm   :     0.7044421 α      lambda       -0.5402450E-03
   maximum displ.:     0.3827712 α      in ANC's #7, #13, #6, ...

........................................................................
.............................. CYCLE   19 ..............................
........................................................................

 iter      E             dE          RMSdq      gap      omega  full diag
   1   -163.2906841 -0.163291E+03  0.155E-01    0.07       0.0  T
   2   -163.2854167  0.526739E-02  0.203E-01    0.45       1.0  T
   3   -163.2909858 -0.556911E-02  0.129E-01    0.25       1.0  T
   4   -163.2917103 -0.724552E-03  0.991E-02    0.19       1.0  T
   5   -163.2894255  0.228483E-02  0.146E-01    0.06       1.0  T
   6   -163.2935091 -0.408361E-02  0.314E-02    0.13       1.0  T
   7   -163.2935283 -0.192002E-04  0.322E-02    0.14       1.0  T
   8   -163.2936615 -0.133222E-03  0.180E-02    0.13       1.0  T
   9   -163.2937191 -0.575864E-04  0.337E-03    0.12       2.9  T
  10   -163.2937159  0.321751E-05  0.539E-03    0.12       1.8  T
  11   -163.2937209 -0.501865E-05  0.205E-03    0.12       4.7  T
  12   -163.2937214 -0.488813E-06  0.126E-03    0.12       7.7  T
  13   -163.2937217 -0.307563E-06  0.220E-04    0.12      44.0  T
  14   -163.2937217  0.514950E-08  0.264E-04    0.12      36.6  T
     SCC iter.                  ...        0 min,  0.248 sec
     gradient                   ...        0 min,  0.023 sec
 * total energy  :  -161.3462533 Eh     change       -0.4576492E-03 Eh
   gradient norm :     0.0073336 Eh/α   predicted    -0.4041697E-03 ( -11.69%)
   displ. norm   :     0.6362344 α      lambda       -0.5774673E-03
   maximum displ.:     0.3710852 α      in ANC's #7, #13, #6, ...

........................................................................
.............................. CYCLE   20 ..............................
........................................................................

 iter      E             dE          RMSdq      gap      omega  full diag
   1   -163.2969090 -0.163297E+03  0.780E-02    0.11       0.0  T
   2   -163.2955147  0.139436E-02  0.914E-02    0.20       1.0  T
   3   -163.2919746  0.354009E-02  0.151E-01    0.06       1.0  T
   4   -163.2960601 -0.408549E-02  0.726E-02    0.18       1.0  T
   5   -163.2962651 -0.205008E-03  0.580E-02    0.17       1.0  T
   6   -163.2966345 -0.369393E-03  0.433E-02    0.15       1.0  T
   7   -163.2968314 -0.196916E-03  0.303E-02    0.14       1.0  T
   8   -163.2969718 -0.140447E-03  0.150E-02    0.13       1.0  T
   9   -163.2970115 -0.396739E-04  0.563E-03    0.12       1.7  T
  10   -163.2970157 -0.416785E-05  0.278E-03    0.12       3.5  T
  11   -163.2970170 -0.127931E-05  0.163E-03    0.12       5.9  T
  12   -163.2970174 -0.431615E-06  0.648E-04    0.12      14.9  T
  13   -163.2970174  0.207019E-07  0.756E-04    0.12      12.8  T
     SCC iter.                  ...        0 min,  0.218 sec
     gradient                   ...        0 min,  0.020 sec
 * total energy  :  -161.3467551 Eh     change       -0.5018010E-03 Eh
   gradient norm :     0.0075355 Eh/α   predicted    -0.4056133E-03 ( -19.17%)
   displ. norm   :     0.7037827 α      lambda       -0.6620770E-03
   maximum displ.:     0.4178855 α      in ANC's #7, #13, #6, ...
 * RMSD in coord.:     0.7568146 α      energy gain  -0.1686452E-01 Eh

generating ANC from exact Hessian ...
Using Lindh-Hessian (1995)
 Shifting diagonal of input Hessian by   1.029508728791535E-002
 Lowest  eigenvalues of input Hessian
    0.010000    0.010091    0.010117    0.010139    0.000000    0.000000
    0.000000    0.000000    0.000000    0.000000    0.010305    0.010318
    0.010323    0.010363    0.010392    0.010456    0.010668    0.010681
 Highest eigenvalues
    2.141973    2.156952    2.158191    2.167705    2.193755    2.370929
 

........................................................................
.............................. CYCLE   21 ..............................
........................................................................

 iter      E             dE          RMSdq      gap      omega  full diag
   1   -163.2987084 -0.163299E+03  0.871E-02    0.10       0.0  T
   2   -163.2966576  0.205083E-02  0.109E-01    0.23       1.0  T
   3   -163.2959172  0.740388E-03  0.117E-01    0.07       1.0  T
   4   -163.2977262 -0.180901E-02  0.769E-02    0.18       1.0  T
   5   -163.2981108 -0.384629E-03  0.591E-02    0.17       1.0  T
   6   -163.2986202 -0.509363E-03  0.367E-02    0.14       1.0  T
   7   -163.2988529 -0.232720E-03  0.167E-02    0.13       1.0  T
   8   -163.2989080 -0.550766E-04  0.781E-03    0.12       1.2  T
   9   -163.2989178 -0.984209E-05  0.299E-03    0.12       3.2  T
  10   -163.2989186 -0.743221E-06  0.230E-03    0.12       4.2  T
  11   -163.2989196 -0.102872E-05  0.622E-04    0.12      15.5  T
  12   -163.2989196 -0.406461E-07  0.406E-04    0.12      23.8  T
  13   -163.2989197 -0.147243E-07  0.355E-04    0.12      27.3  T
     SCC iter.                  ...        0 min,  0.219 sec
     gradient                   ...        0 min,  0.020 sec
 * total energy  :  -161.3473645 Eh     change       -0.6093911E-03 Eh
   gradient norm :     0.0091827 Eh/α   predicted     0.0000000E+00 (-100.00%)
   displ. norm   :     0.1152296 α      lambda       -0.3075534E-03
   maximum displ.:     0.0511028 α      in ANC's #8, #11, #13, ...

........................................................................
.............................. CYCLE   22 ..............................
........................................................................

 iter      E             dE          RMSdq      gap      omega  full diag
   1   -163.2983518 -0.163298E+03  0.300E-02    0.13       0.0  T
   2   -163.2976248  0.726983E-03  0.608E-02    0.09       1.0  T
   3   -163.2981523 -0.527531E-03  0.349E-02    0.14       1.0  T
   4   -163.2982834 -0.131056E-03  0.174E-02    0.12       1.0  T
   5   -163.2983305 -0.471258E-04  0.120E-02    0.12       1.0  T
   6   -163.2983642 -0.336768E-04  0.490E-03    0.12       2.0  T
   7   -163.2983687 -0.454436E-05  0.215E-03    0.12       4.5  T
   8   -163.2983694 -0.744549E-06  0.711E-04    0.12      13.6  T
   9   -163.2983695 -0.409320E-07  0.448E-04    0.12      21.6  T
     SCC iter.                  ...        0 min,  0.161 sec
     gradient                   ...        0 min,  0.021 sec
 * total energy  :  -161.3476221 Eh     change       -0.2575880E-03 Eh
   gradient norm :     0.0044082 Eh/α   predicted    -0.1558197E-03 ( -39.51%)
   displ. norm   :     0.4195364 α      lambda       -0.7880961E-03
   maximum displ.:     0.1952349 α      in ANC's #8, #11, #13, ...

........................................................................
.............................. CYCLE   23 ..............................
........................................................................

 iter      E             dE          RMSdq      gap      omega  full diag
   1   -163.2951287 -0.163295E+03  0.808E-02    0.13       0.0  T
   2   -163.2929936  0.213506E-02  0.110E-01    0.08       1.0  T
   3   -163.2936783 -0.684724E-03  0.912E-02    0.20       1.0  T
   4   -163.2944723 -0.794007E-03  0.577E-02    0.14       1.0  T
   5   -163.2946485 -0.176232E-03  0.475E-02    0.15       1.0  T
   6   -163.2950509 -0.402385E-03  0.259E-02    0.14       1.0  T
   7   -163.2951736 -0.122631E-03  0.126E-02    0.13       1.0  T
   8   -163.2952045 -0.309067E-04  0.248E-03    0.12       3.9  T
   9   -163.2952050 -0.521384E-06  0.177E-03    0.12       5.5  T
  10   -163.2952055 -0.458253E-06  0.115E-03    0.12       8.4  T
  11   -163.2952055 -0.607600E-07  0.120E-03    0.12       8.1  T
  12   -163.2952058 -0.259155E-06  0.345E-04    0.12      28.0  T
  13   -163.2952058 -0.220950E-08  0.335E-04    0.12      28.8  T
     SCC iter.                  ...        0 min,  0.222 sec
     gradient                   ...        0 min,  0.020 sec
 * total energy  :  -161.3480452 Eh     change       -0.4231336E-03 Eh
   gradient norm :     0.0126518 Eh/α   predicted    -0.4635184E-03 (   9.54%)
   displ. norm   :     0.2987039 α      lambda       -0.4520282E-03
   maximum displ.:     0.1307561 α      in ANC's #8, #13, #11, ...

........................................................................
.............................. CYCLE   24 ..............................
........................................................................

 iter      E             dE          RMSdq      gap      omega  full diag
   1   -163.2938860 -0.163294E+03  0.945E-02    0.12       0.0  T
   2   -163.2938061  0.799726E-04  0.609E-02    0.11       1.0  T
   3   -163.2914730  0.233304E-02  0.111E-01    0.23       1.0  T
   4   -163.2937690 -0.229592E-02  0.215E-02    0.12       1.0  T
   5   -163.2937911 -0.221435E-04  0.206E-02    0.13       1.0  T
   6   -163.2938867 -0.955707E-04  0.762E-03    0.13       1.3  T
   7   -163.2938980 -0.113426E-04  0.385E-03    0.12       2.5  T
   8   -163.2938987 -0.657959E-06  0.316E-03    0.12       3.1  T
   9   -163.2939006 -0.192539E-05  0.111E-03    0.12       8.7  T
  10   -163.2939007 -0.845819E-07  0.825E-04    0.12      11.7  T
  11   -163.2939008 -0.140940E-06  0.332E-04    0.12      29.1  T
     SCC iter.                  ...        0 min,  0.232 sec
     gradient                   ...        0 min,  0.023 sec
 * total energy  :  -161.3482774 Eh     change       -0.2322483E-03 Eh
   gradient norm :     0.0144315 Eh/α   predicted    -0.2461803E-03 (   6.00%)
   displ. norm   :     0.3333825 α      lambda       -0.5928627E-03
   maximum displ.:     0.1725411 α      in ANC's #8, #13, #11, ...

........................................................................
.............................. CYCLE   25 ..............................
........................................................................

 iter      E             dE          RMSdq      gap      omega  full diag
   1   -163.2950552 -0.163295E+03  0.690E-02    0.13       0.0  T
   2   -163.2949438  0.111462E-03  0.481E-02    0.11       1.0  T
   3   -163.2927263  0.221743E-02  0.978E-02    0.22       1.0  T
   4   -163.2948649 -0.213857E-02  0.269E-02    0.13       1.0  T
   5   -163.2949983 -0.133364E-03  0.170E-02    0.13       1.0  T
   6   -163.2950533 -0.550073E-04  0.754E-03    0.12       1.3  T
   7   -163.2950672 -0.139284E-04  0.385E-03    0.13       2.5  T
   8   -163.2950682 -0.985809E-06  0.307E-03    0.12       3.1  T
   9   -163.2950699 -0.165976E-05  0.141E-03    0.12       6.9  T
  10   -163.2950701 -0.193764E-06  0.811E-04    0.12      11.9  T
  11   -163.2950702 -0.113089E-06  0.324E-04    0.12      29.8  T
     SCC iter.                  ...        0 min,  0.182 sec
     gradient                   ...        0 min,  0.023 sec
 * total energy  :  -161.3487273 Eh     change       -0.4498881E-03 Eh
   gradient norm :     0.0081885 Eh/α   predicted    -0.3293785E-03 ( -26.79%)
   displ. norm   :     0.4983247 α      lambda       -0.7537646E-03
   maximum displ.:     0.2545248 α      in ANC's #8, #13, #11, ...

........................................................................
.............................. CYCLE   26 ..............................
........................................................................

 iter      E             dE          RMSdq      gap      omega  full diag
   1   -163.2978507 -0.163298E+03  0.710E-02    0.13       0.0  T
   2   -163.2959430  0.190766E-02  0.105E-01    0.08       1.0  T
   3   -163.2970565 -0.111348E-02  0.702E-02    0.18       1.0  T
   4   -163.2973546 -0.298087E-03  0.493E-02    0.14       1.0  T
   5   -163.2975989 -0.244288E-03  0.361E-02    0.15       1.0  T
   6   -163.2977831 -0.184209E-03  0.236E-02    0.14       1.0  T
   7   -163.2978778 -0.947112E-04  0.114E-02    0.13       1.0  T
   8   -163.2979012 -0.233400E-04  0.365E-03    0.13       2.6  T
   9   -163.2979035 -0.231620E-05  0.139E-03    0.12       7.0  T
  10   -163.2979037 -0.227222E-06  0.902E-04    0.12      10.7  T
  11   -163.2979038 -0.120656E-06  0.547E-04    0.12      17.7  T
     SCC iter.                  ...        0 min,  0.223 sec
     gradient                   ...        0 min,  0.023 sec
 * total energy  :  -161.3493129 Eh     change       -0.5855541E-03 Eh
   gradient norm :     0.0089427 Eh/α   predicted    -0.4704741E-03 ( -19.65%)
   displ. norm   :     0.6663951 α      lambda       -0.7196615E-03
   maximum displ.:     0.3394172 α      in ANC's #8, #13, #11, ...

........................................................................
.............................. CYCLE   27 ..............................
........................................................................

 iter      E             dE          RMSdq      gap      omega  full diag
   1   -163.2971268 -0.163297E+03  0.847E-02    0.13       0.0  T
   2   -163.2965957  0.531105E-03  0.720E-02    0.10       1.0  T
   3   -163.2948835  0.171217E-02  0.101E-01    0.24       1.0  T
   4   -163.2965169 -0.163339E-02  0.533E-02    0.15       1.0  T
   5   -163.2968540 -0.337100E-03  0.357E-02    0.15       1.0  T
   6   -163.2971012 -0.247174E-03  0.177E-02    0.14       1.0  T
   7   -163.2971680 -0.668154E-04  0.458E-03    0.13       2.1  T
   8   -163.2971697 -0.170855E-05  0.300E-03    0.13       3.2  T
   9   -163.2971703 -0.565803E-06  0.272E-03    0.13       3.6  T
  10   -163.2971710 -0.677407E-06  0.170E-03    0.13       5.7  T
  11   -163.2971716 -0.652654E-06  0.506E-04    0.13      19.1  T
  12   -163.2971716  0.133209E-07  0.565E-04    0.13      17.1  T
     SCC iter.                  ...        0 min,  0.236 sec
     gradient                   ...        0 min,  0.022 sec
 * total energy  :  -161.3499510 Eh     change       -0.6381394E-03 Eh
   gradient norm :     0.0078427 Eh/α   predicted    -0.5196320E-03 ( -18.57%)
   displ. norm   :     0.7380760 α      lambda       -0.8252804E-03
   maximum displ.:     0.3867939 α      in ANC's #8, #13, #11, ...

........................................................................
.............................. CYCLE   28 ..............................
........................................................................

 iter      E             dE          RMSdq      gap      omega  full diag
   1   -163.2982808 -0.163298E+03  0.868E-02    0.15       0.0  T
   2   -163.2902846  0.799618E-02  0.201E-01    0.05       1.0  T
   3   -163.2978347 -0.755012E-02  0.680E-02    0.18       1.0  T
   4   -163.2975490  0.285667E-03  0.574E-02    0.15       1.0  T
   5   -163.2980204 -0.471338E-03  0.397E-02    0.16       1.0  T
   6   -163.2982764 -0.256069E-03  0.267E-02    0.15       1.0  T
   7   -163.2983530 -0.765455E-04  0.182E-02    0.14       1.0  T
   8   -163.2983975 -0.444852E-04  0.105E-02    0.14       1.0  T
   9   -163.2984157 -0.181899E-04  0.372E-03    0.13       2.6  T
  10   -163.2984178 -0.209191E-05  0.155E-03    0.13       6.2  T
  11   -163.2984182 -0.459759E-06  0.595E-04    0.13      16.2  T
  12   -163.2984183 -0.686483E-07  0.324E-04    0.13      29.9  T
     SCC iter.                  ...        0 min,  0.206 sec
     gradient                   ...        0 min,  0.026 sec
 * total energy  :  -161.3507062 Eh     change       -0.7551488E-03 Eh
   gradient norm :     0.0090509 Eh/α   predicted    -0.6374287E-03 ( -15.59%)
   displ. norm   :     0.7783891 α      lambda       -0.9857169E-03
   maximum displ.:     0.4228224 α      in ANC's #8, #13, #11, ...

........................................................................
.............................. CYCLE   29 ..............................
........................................................................

 iter      E             dE          RMSdq      gap      omega  full diag
   1   -163.3009056 -0.163301E+03  0.910E-02    0.16       0.0  T
   2   -163.2933314  0.757414E-02  0.197E-01    0.05       1.0  T
   3   -163.3003767 -0.704528E-02  0.717E-02    0.19       1.0  T
   4   -163.2998837  0.492963E-03  0.657E-02    0.15       1.0  T
   5   -163.3005854 -0.701625E-03  0.430E-02    0.17       1.0  T
   6   -163.3008899 -0.304559E-03  0.289E-02    0.16       1.0  T
   7   -163.3009718 -0.819029E-04  0.209E-02    0.15       1.0  T
   8   -163.3010210 -0.491686E-04  0.135E-02    0.15       1.0  T
   9   -163.3010504 -0.294489E-04  0.544E-03    0.14       1.8  T
  10   -163.3010549 -0.444346E-05  0.236E-03    0.14       4.1  T
  11   -163.3010559 -0.975222E-06  0.928E-04    0.13      10.4  T
  12   -163.3010560 -0.152907E-06  0.348E-04    0.13      27.8  T
     SCC iter.                  ...        0 min,  0.204 sec
     gradient                   ...        0 min,  0.021 sec
 * total energy  :  -161.3516143 Eh     change       -0.9080914E-03 Eh
   gradient norm :     0.0098044 Eh/α   predicted    -0.7914927E-03 ( -12.84%)
   displ. norm   :     0.8238970 α      lambda       -0.1120128E-02
   maximum displ.:     0.4598167 α      in ANC's #8, #13, #9, ...

........................................................................
.............................. CYCLE   30 ..............................
........................................................................

 iter      E             dE          RMSdq      gap      omega  full diag
   1   -163.3011957 -0.163301E+03  0.101E-01    0.14       0.0  T
   2   -163.3010658  0.129844E-03  0.678E-02    0.12       1.0  T
   3   -163.2989871  0.207869E-02  0.100E-01    0.25       1.0  T
   4   -163.3008535 -0.186635E-02  0.354E-02    0.14       1.0  T
   5   -163.3011402 -0.286723E-03  0.188E-02    0.15       1.0  T
   6   -163.3012183 -0.781299E-04  0.852E-03    0.14       1.1  T
   7   -163.3012305 -0.121272E-04  0.465E-03    0.14       2.1  T
   8   -163.3012317 -0.124409E-05  0.372E-03    0.14       2.6  T
   9   -163.3012345 -0.284340E-05  0.127E-03    0.14       7.6  T
  10   -163.3012344  0.123661E-06  0.129E-03    0.14       7.5  T
  11   -163.3012348 -0.363025E-06  0.482E-04    0.14      20.1  T
  12   -163.3012348 -0.422504E-07  0.214E-04    0.14      45.1  T
     SCC iter.                  ...        0 min,  0.234 sec
     gradient                   ...        0 min,  0.023 sec
 * total energy  :  -161.3526428 Eh     change       -0.1028560E-02 Eh
   gradient norm :     0.0082269 Eh/α   predicted    -0.9402417E-03 (  -8.59%)
   displ. norm   :     0.8164312 α      lambda       -0.1138168E-02
   maximum displ.:     0.4630440 α      in ANC's #8, #9, #13, ...

........................................................................
.............................. CYCLE   31 ..............................
........................................................................

 iter      E             dE          RMSdq      gap      omega  full diag
   1   -163.3024102 -0.163302E+03  0.106E-01    0.15       0.0  T
   2   -163.3020471  0.363101E-03  0.786E-02    0.12       1.0  T
   3   -163.3004299  0.161721E-02  0.100E-01    0.26       1.0  T
   4   -163.3016234 -0.119347E-02  0.552E-02    0.15       1.0  T
   5   -163.3022765 -0.653148E-03  0.292E-02    0.16       1.0  T
   6   -163.3024465 -0.169936E-03  0.149E-02    0.15       1.0  T
   7   -163.3024855 -0.390715E-04  0.695E-03    0.15       1.4  T
   8   -163.3024908 -0.522776E-05  0.410E-03    0.14       2.4  T
   9   -163.3024939 -0.309845E-05  0.197E-03    0.14       4.9  T
  10   -163.3024940 -0.135375E-06  0.153E-03    0.14       6.3  T
  11   -163.3024945 -0.472175E-06  0.655E-04    0.14      14.8  T
  12   -163.3024945 -0.706846E-07  0.345E-04    0.14      28.0  T
     SCC iter.                  ...        0 min,  0.202 sec
     gradient                   ...        0 min,  0.021 sec
 * total energy  :  -161.3536319 Eh     change       -0.9891048E-03 Eh
   gradient norm :     0.0089577 Eh/α   predicted    -0.9484199E-03 (  -4.11%)
   displ. norm   :     0.8369800 α      lambda       -0.1011860E-02
   maximum displ.:     0.4676139 α      in ANC's #8, #9, #13, ...

........................................................................
.............................. CYCLE   32 ..............................
........................................................................

 iter      E             dE          RMSdq      gap      omega  full diag
   1   -163.2992072 -0.163299E+03  0.113E-01    0.13       0.0  T
   2   -163.2988700  0.337159E-03  0.822E-02    0.18       1.0  T
   3   -163.2691403  0.297297E-01  0.365E-01    0.02       1.0  T
   4   -163.2978698 -0.287294E-01  0.816E-02    0.21       1.0  T
   5   -163.2988163 -0.946541E-03  0.474E-02    0.19       1.0  T
   6   -163.2990250 -0.208686E-03  0.381E-02    0.19       1.0  T
   7   -163.2990864 -0.614482E-04  0.328E-02    0.18       1.0  T
   8   -163.2991705 -0.840438E-04  0.266E-02    0.17       1.0  T
   9   -163.2992206 -0.501069E-04  0.205E-02    0.16       1.0  T
  10   -163.2992698 -0.492229E-04  0.136E-02    0.16       1.0  T
  11   -163.2992943 -0.244601E-04  0.713E-03    0.15       1.4  T
  12   -163.2993029 -0.863582E-05  0.248E-03    0.15       3.9  T
  13   -163.2993040 -0.112513E-05  0.760E-04    0.14      12.7  T
  14   -163.2993042 -0.118598E-06  0.196E-04    0.14      49.2  T
  15   -163.2993042 -0.390537E-08  0.122E-04    0.14      79.5  T
     SCC iter.                  ...        0 min,  0.245 sec
     gradient                   ...        0 min,  0.019 sec
 * total energy  :  -161.3544925 Eh     change       -0.8605660E-03 Eh
   gradient norm :     0.0078955 Eh/α   predicted    -0.8603529E-03 (  -0.02%)
   displ. norm   :     0.7155036 α      lambda       -0.1049226E-02
   maximum displ.:     0.4032062 α      in ANC's #8, #9, #5, ...

........................................................................
.............................. CYCLE   33 ..............................
........................................................................

 iter      E             dE          RMSdq      gap      omega  full diag
   1   -163.3086830 -0.163309E+03  0.132E-01    0.17       0.0  T
   2   -163.3068140  0.186899E-02  0.127E-01    0.09       1.0  T
   3   -163.3068183 -0.435176E-05  0.109E-01    0.30       1.0  T
   4   -163.3064263  0.392078E-03  0.973E-02    0.21       1.0  T
   5   -163.3080666 -0.164037E-02  0.574E-02    0.22       1.0  T
   6   -163.3085548 -0.488142E-03  0.396E-02    0.19       1.0  T
   7   -163.3087509 -0.196180E-03  0.248E-02    0.18       1.0  T
   8   -163.3088370 -0.860802E-04  0.118E-02    0.16       1.0  T
   9   -163.3088528 -0.157840E-04  0.667E-03    0.16       1.4  T
  10   -163.3088559 -0.314406E-05  0.536E-03    0.15       1.8  T
  11   -163.3088609 -0.491204E-05  0.176E-03    0.15       5.5  T
  12   -163.3088614 -0.544850E-06  0.825E-04    0.15      11.7  T
  13   -163.3088615 -0.106518E-06  0.471E-04    0.15      20.5  T
     SCC iter.                  ...        0 min,  0.233 sec
     gradient                   ...        0 min,  0.019 sec
 * total energy  :  -161.3551192 Eh     change       -0.6267138E-03 Eh
   gradient norm :     0.0149181 Eh/α   predicted    -0.7931865E-03 (  26.56%)
   displ. norm   :     0.6879774 α      lambda       -0.9765275E-03
   maximum displ.:     0.3612304 α      in ANC's #8, #9, #11, ...

........................................................................
.............................. CYCLE   34 ..............................
........................................................................

 iter      E             dE          RMSdq      gap      omega  full diag
   1   -163.3040207 -0.163304E+03  0.103E-01    0.14       0.0  T
   2   -163.3035636  0.457127E-03  0.816E-02    0.20       1.0  T
   3   -163.2958938  0.766982E-02  0.189E-01    0.06       1.0  T
   4   -163.3029426 -0.704880E-02  0.754E-02    0.23       1.0  T
   5   -163.3037717 -0.829133E-03  0.457E-02    0.21       1.0  T
   6   -163.3038901 -0.118421E-03  0.374E-02    0.20       1.0  T
   7   -163.3040385 -0.148388E-03  0.279E-02    0.19       1.0  T
   8   -163.3040889 -0.503904E-04  0.224E-02    0.18       1.0  T
   9   -163.3041546 -0.657118E-04  0.138E-02    0.17       1.0  T
  10   -163.3041822 -0.276295E-04  0.719E-03    0.16       1.3  T
  11   -163.3041906 -0.834691E-05  0.287E-03    0.15       3.4  T
  12   -163.3041922 -0.156668E-05  0.617E-04    0.15      15.7  T
  13   -163.3041922 -0.317807E-07  0.428E-04    0.15      22.6  T
  14   -163.3041922 -0.290599E-07  0.204E-04    0.15      47.3  T
     SCC iter.                  ...        0 min,  0.233 sec
     gradient                   ...        0 min,  0.023 sec
 * total energy  :  -161.3558294 Eh     change       -0.7102220E-03 Eh
   gradient norm :     0.0101577 Eh/α   predicted    -0.7193664E-03 (   1.29%)
   displ. norm   :     0.5466753 α      lambda       -0.6563801E-03
   maximum displ.:     0.2690823 α      in ANC's #8, #9, #5, ...

........................................................................
.............................. CYCLE   35 ..............................
........................................................................

 iter      E             dE          RMSdq      gap      omega  full diag
   1   -163.3047392 -0.163305E+03  0.959E-02    0.15       0.0  T
   2   -163.3045452  0.194003E-03  0.707E-02    0.18       1.0  T
   3   -163.2991093  0.543585E-02  0.158E-01    0.07       1.0  T
   4   -163.3035030 -0.439371E-02  0.730E-02    0.23       1.0  T
   5   -163.3045962 -0.109315E-02  0.336E-02    0.19       1.0  T
   6   -163.3046791 -0.829180E-04  0.259E-02    0.18       1.0  T
   7   -163.3047648 -0.857051E-04  0.181E-02    0.17       1.0  T
   8   -163.3047885 -0.237244E-04  0.140E-02    0.17       1.0  T
   9   -163.3048193 -0.307474E-04  0.690E-03    0.16       1.4  T
  10   -163.3048259 -0.662258E-05  0.328E-03    0.16       3.0  T
  11   -163.3048274 -0.148762E-05  0.171E-03    0.16       5.7  T
  12   -163.3048279 -0.466795E-06  0.670E-04    0.15      14.4  T
  13   -163.3048279 -0.905484E-07  0.282E-04    0.15      34.2  T
     SCC iter.                  ...        0 min,  0.232 sec
     gradient                   ...        0 min,  0.023 sec
 * total energy  :  -161.3563714 Eh     change       -0.5420130E-03 Eh
   gradient norm :     0.0072172 Eh/α   predicted    -0.4262760E-03 ( -21.35%)
   displ. norm   :     0.5874025 α      lambda       -0.7560971E-03
   maximum displ.:     0.2436672 α      in ANC's #9, #8, #5, ...

........................................................................
.............................. CYCLE   36 ..............................
........................................................................

 iter      E             dE          RMSdq      gap      omega  full diag
   1   -163.3077954 -0.163308E+03  0.119E-01    0.16       0.0  T
   2   -163.3076562  0.139217E-03  0.822E-02    0.15       1.0  T
   3   -163.3050666  0.258959E-02  0.103E-01    0.19       1.0  T
   4   -163.3071924 -0.212575E-02  0.491E-02    0.14       1.0  T
   5   -163.3078060 -0.613649E-03  0.175E-02    0.17       1.0  T
   6   -163.3078732 -0.671185E-04  0.471E-03    0.16       2.1  T
   7   -163.3078722  0.986113E-06  0.443E-03    0.16       2.2  T
   8   -163.3078772 -0.506258E-05  0.194E-03    0.16       5.0  T
   9   -163.3078775 -0.237318E-06  0.138E-03    0.16       7.0  T
  10   -163.3078778 -0.289831E-06  0.895E-04    0.16      10.8  T
  11   -163.3078779 -0.159612E-06  0.357E-04    0.16      27.1  T
     SCC iter.                  ...        0 min,  0.172 sec
     gradient                   ...        0 min,  0.019 sec
 * total energy  :  -161.3569141 Eh     change       -0.5426225E-03 Eh
   gradient norm :     0.0084785 Eh/α   predicted    -0.5084978E-03 (  -6.29%)
   displ. norm   :     0.5925138 α      lambda       -0.6031295E-03
   maximum displ.:     0.2498471 α      in ANC's #9, #8, #5, ...

........................................................................
.............................. CYCLE   37 ..............................
........................................................................

 iter      E             dE          RMSdq      gap      omega  full diag
   1   -163.3094161 -0.163309E+03  0.112E-01    0.16       0.0  T
   2   -163.3093086  0.107457E-03  0.754E-02    0.16       1.0  T
   3   -163.3063988  0.290987E-02  0.105E-01    0.13       1.0  T
   4   -163.3088852 -0.248643E-02  0.444E-02    0.19       1.0  T
   5   -163.3094071 -0.521934E-03  0.141E-02    0.15       1.0  T
   6   -163.3094639 -0.567552E-04  0.493E-03    0.16       2.0  T
   7   -163.3094674 -0.353927E-05  0.309E-03    0.16       3.1  T
   8   -163.3094690 -0.154825E-05  0.168E-03    0.16       5.8  T
   9   -163.3094691 -0.108746E-06  0.129E-03    0.16       7.5  T
  10   -163.3094694 -0.338057E-06  0.603E-04    0.16      16.0  T
  11   -163.3094695 -0.543889E-07  0.322E-04    0.16      30.0  T
     SCC iter.                  ...        0 min,  0.187 sec
     gradient                   ...        0 min,  0.028 sec
 * total energy  :  -161.3573231 Eh     change       -0.4090195E-03 Eh
   gradient norm :     0.0111441 Eh/α   predicted    -0.4074384E-03 (  -0.39%)
   displ. norm   :     0.5351715 α      lambda       -0.4818154E-03
   maximum displ.:     0.2159694 α      in ANC's #9, #5, #8, ...

........................................................................
.............................. CYCLE   38 ..............................
........................................................................

 iter      E             dE          RMSdq      gap      omega  full diag
   1   -163.3082351 -0.163308E+03  0.921E-02    0.16       0.0  T
   2   -163.3081522  0.828903E-04  0.620E-02    0.17       1.0  T
   3   -163.3059072  0.224499E-02  0.919E-02    0.13       1.0  T
   4   -163.3076791 -0.177183E-02  0.453E-02    0.20       1.0  T
   5   -163.3082267 -0.547685E-03  0.131E-02    0.16       1.0  T
   6   -163.3082735 -0.467412E-04  0.440E-03    0.16       2.2  T
   7   -163.3082761 -0.265806E-05  0.280E-03    0.16       3.5  T
   8   -163.3082776 -0.147125E-05  0.166E-03    0.16       5.8  T
   9   -163.3082779 -0.293968E-06  0.112E-03    0.16       8.6  T
  10   -163.3082781 -0.238356E-06  0.517E-04    0.16      18.7  T
  11   -163.3082782 -0.367691E-07  0.271E-04    0.16      35.7  T
     SCC iter.                  ...        0 min,  0.193 sec
     gradient                   ...        0 min,  0.021 sec
 * total energy  :  -161.3577007 Eh     change       -0.3776506E-03 Eh
   gradient norm :     0.0084946 Eh/α   predicted    -0.3099082E-03 ( -17.94%)
   displ. norm   :     0.5253124 α      lambda       -0.6454120E-03
   maximum displ.:     0.2100234 α      in ANC's #5, #2, #7, ...

........................................................................
.............................. CYCLE   39 ..............................
........................................................................

 iter      E             dE          RMSdq      gap      omega  full diag
   1   -163.3103797 -0.163310E+03  0.102E-01    0.15       0.0  T
   2   -163.3102068  0.172878E-03  0.676E-02    0.18       1.0  T
   3   -163.2985711  0.116357E-01  0.223E-01    0.06       1.0  T
   4   -163.3094618 -0.108907E-01  0.653E-02    0.22       1.0  T
   5   -163.3102158 -0.754004E-03  0.297E-02    0.19       1.0  T
   6   -163.3103160 -0.100239E-03  0.224E-02    0.19       1.0  T
   7   -163.3103720 -0.559693E-04  0.167E-02    0.18       1.0  T
   8   -163.3103925 -0.204795E-04  0.129E-02    0.17       1.0  T
   9   -163.3104185 -0.260028E-04  0.687E-03    0.17       1.4  T
  10   -163.3104238 -0.530139E-05  0.405E-03    0.16       2.4  T
  11   -163.3104264 -0.259224E-05  0.215E-03    0.16       4.5  T
  12   -163.3104271 -0.748253E-06  0.559E-04    0.16      17.3  T
  13   -163.3104272 -0.594484E-07  0.149E-04    0.16      65.0  T
     SCC iter.                  ...        0 min,  0.206 sec
     gradient                   ...        0 min,  0.020 sec
 * total energy  :  -161.3581875 Eh     change       -0.4867776E-03 Eh
   gradient norm :     0.0106098 Eh/α   predicted    -0.4117584E-03 ( -15.41%)
   displ. norm   :     0.5768173 α      lambda       -0.6984286E-03
   maximum displ.:     0.2371911 α      in ANC's #5, #2, #7, ...

........................................................................
.............................. CYCLE   40 ..............................
........................................................................

 iter      E             dE          RMSdq      gap      omega  full diag
   1   -163.3097353 -0.163310E+03  0.111E-01    0.17       0.0  T
   2   -163.3095769  0.158401E-03  0.736E-02    0.14       1.0  T
   3   -163.3074142  0.216272E-02  0.101E-01    0.24       1.0  T
   4   -163.3092259 -0.181174E-02  0.459E-02    0.19       1.0  T
   5   -163.3097632 -0.537280E-03  0.100E-02    0.17       1.0  T
   6   -163.3097719 -0.865794E-05  0.721E-03    0.17       1.3  T
   7   -163.3097809 -0.907759E-05  0.378E-03    0.16       2.6  T
   8   -163.3097832 -0.227630E-05  0.260E-03    0.16       3.7  T
   9   -163.3097843 -0.106027E-05  0.153E-03    0.16       6.3  T
  10   -163.3097847 -0.445932E-06  0.728E-04    0.16      13.3  T
  11   -163.3097848 -0.449095E-07  0.471E-04    0.16      20.5  T
     SCC iter.                  ...        0 min,  0.179 sec
     gradient                   ...        0 min,  0.021 sec
 * total energy  :  -161.3586848 Eh     change       -0.4972769E-03 Eh
   gradient norm :     0.0105169 Eh/α   predicted    -0.4654080E-03 (  -6.41%)
   displ. norm   :     0.5974450 α      lambda       -0.6268649E-03
   maximum displ.:     0.2478219 α      in ANC's #5, #2, #7, ...

........................................................................
.............................. CYCLE   41 ..............................
........................................................................

 iter      E             dE          RMSdq      gap      omega  full diag
   1   -163.3078016 -0.163308E+03  0.105E-01    0.16       0.0  T
   2   -163.3077181  0.835180E-04  0.666E-02    0.16       1.0  T
   3   -163.3052945  0.242367E-02  0.946E-02    0.17       1.0  T
   4   -163.3074166 -0.212211E-02  0.366E-02    0.18       1.0  T
   5   -163.3078100 -0.393451E-03  0.105E-02    0.15       1.0  T
   6   -163.3078324 -0.224412E-04  0.396E-03    0.16       2.4  T
   7   -163.3078345 -0.203680E-05  0.254E-03    0.16       3.8  T
   8   -163.3078356 -0.106548E-05  0.154E-03    0.16       6.3  T
   9   -163.3078359 -0.393617E-06  0.684E-04    0.16      14.1  T
  10   -163.3078360 -0.318653E-07  0.482E-04    0.16      20.1  T
     SCC iter.                  ...        0 min,  0.159 sec
     gradient                   ...        0 min,  0.020 sec
 * total energy  :  -161.3591466 Eh     change       -0.4618530E-03 Eh
   gradient norm :     0.0106419 Eh/α   predicted    -0.4253122E-03 (  -7.91%)
   displ. norm   :     0.5949442 α      lambda       -0.5811047E-03
   maximum displ.:     0.2511505 α      in ANC's #2, #7, #5, ...

........................................................................
.............................. CYCLE   42 ..............................
........................................................................

 iter      E             dE          RMSdq      gap      omega  full diag
   1   -163.3083347 -0.163308E+03  0.941E-02    0.16       0.0  T
   2   -163.3081890  0.145676E-03  0.619E-02    0.18       1.0  T
   3   -163.3005273  0.766171E-02  0.175E-01    0.08       1.0  T
   4   -163.3077022 -0.717494E-02  0.561E-02    0.22       1.0  T
   5   -163.3082584 -0.556132E-03  0.227E-02    0.19       1.0  T
   6   -163.3082943 -0.358732E-04  0.181E-02    0.18       1.0  T
   7   -163.3083415 -0.472514E-04  0.119E-02    0.18       1.0  T
   8   -163.3083582 -0.166873E-04  0.773E-03    0.17       1.3  T
   9   -163.3083688 -0.105647E-04  0.342E-03    0.16       2.8  T
  10   -163.3083706 -0.186068E-05  0.183E-03    0.16       5.3  T
  11   -163.3083711 -0.444536E-06  0.677E-04    0.16      14.3  T
  12   -163.3083712 -0.897790E-07  0.325E-04    0.16      29.7  T
     SCC iter.                  ...        0 min,  0.193 sec
     gradient                   ...        0 min,  0.023 sec
 * total energy  :  -161.3596126 Eh     change       -0.4659401E-03 Eh
   gradient norm :     0.0085049 Eh/α   predicted    -0.3934002E-03 ( -15.57%)
   displ. norm   :     0.5796805 α      lambda       -0.5880242E-03
   maximum displ.:     0.2464897 α      in ANC's #7, #2, #6, ...
 * RMSD in coord.:     1.0260587 α      energy gain  -0.1285750E-01 Eh

generating ANC from exact Hessian ...
Using Lindh-Hessian (1995)
 Shifting diagonal of input Hessian by   1.026914930405700E-002
 Lowest  eigenvalues of input Hessian
    0.010000    0.010076    0.010122    0.010173    0.000000    0.000000
    0.000000    0.000000    0.000000    0.000000    0.010300    0.010340
    0.010354    0.010437    0.010479    0.010664    0.010699    0.010746
 Highest eigenvalues
    2.142810    2.153607    2.163928    2.165641    2.193152    2.410764
 

........................................................................
.............................. CYCLE   43 ..............................
........................................................................

 iter      E             dE          RMSdq      gap      omega  full diag
   1   -163.3105052 -0.163311E+03  0.857E-02    0.19       0.0  T
   2   -163.3100197  0.485563E-03  0.729E-02    0.13       1.0  T
   3   -163.3098277  0.191939E-03  0.671E-02    0.26       1.0  T
   4   -163.3095592  0.268584E-03  0.600E-02    0.19       1.0  T
   5   -163.3104425 -0.883300E-03  0.257E-02    0.20       1.0  T
   6   -163.3105329 -0.904328E-04  0.162E-02    0.19       1.0  T
   7   -163.3105660 -0.331028E-04  0.991E-03    0.18       1.0  T
   8   -163.3105791 -0.130642E-04  0.512E-03    0.17       1.9  T
   9   -163.3105833 -0.426037E-05  0.200E-03    0.17       4.8  T
  10   -163.3105836 -0.335589E-06  0.133E-03    0.17       7.3  T
  11   -163.3105839 -0.211568E-06  0.804E-04    0.17      12.0  T
  12   -163.3105840 -0.104693E-06  0.406E-04    0.17      23.8  T
     SCC iter.                  ...        0 min,  0.211 sec
     gradient                   ...        0 min,  0.022 sec
 * total energy  :  -161.3600869 Eh     change       -0.4743577E-03 Eh
   gradient norm :     0.0072558 Eh/α   predicted     0.0000000E+00 (-100.00%)
   displ. norm   :     0.1063959 α      lambda       -0.2173893E-03
   maximum displ.:     0.0582262 α      in ANC's #6, #12, #2, ...

........................................................................
.............................. CYCLE   44 ..............................
........................................................................

 iter      E             dE          RMSdq      gap      omega  full diag
   1   -163.3105878 -0.163311E+03  0.424E-02    0.17       0.0  T
   2   -163.3105757  0.120573E-04  0.269E-02    0.17       1.0  T
   3   -163.3101917  0.383985E-03  0.401E-02    0.18       1.0  T
   4   -163.3105551 -0.363381E-03  0.122E-02    0.16       1.0  T
   5   -163.3105877 -0.325915E-04  0.455E-03    0.17       2.1  T
   6   -163.3105920 -0.430202E-05  0.215E-03    0.17       4.5  T
   7   -163.3105931 -0.113157E-05  0.934E-04    0.17      10.4  T
   8   -163.3105933 -0.155362E-06  0.460E-04    0.17      21.0  T
   9   -163.3105933 -0.100822E-07  0.321E-04    0.17      30.1  T
     SCC iter.                  ...        0 min,  0.162 sec
     gradient                   ...        0 min,  0.021 sec
 * total energy  :  -161.3602677 Eh     change       -0.1807995E-03 Eh
   gradient norm :     0.0038168 Eh/α   predicted    -0.1131213E-03 ( -37.43%)
   displ. norm   :     0.3827498 α      lambda       -0.6203302E-03
   maximum displ.:     0.2138551 α      in ANC's #6, #12, #2, ...

........................................................................
.............................. CYCLE   45 ..............................
........................................................................

 iter      E             dE          RMSdq      gap      omega  full diag
   1   -163.3097374 -0.163310E+03  0.129E-01    0.17       0.0  T
   2   -163.3094570  0.280341E-03  0.847E-02    0.16       1.0  T
   3   -163.3034046  0.605242E-02  0.152E-01    0.21       1.0  T
   4   -163.3090711 -0.566645E-02  0.509E-02    0.15       1.0  T
   5   -163.3097400 -0.668916E-03  0.168E-02    0.18       1.0  T
   6   -163.3098051 -0.651271E-04  0.684E-03    0.17       1.4  T
   7   -163.3098147 -0.956402E-05  0.333E-03    0.17       2.9  T
   8   -163.3098168 -0.214149E-05  0.175E-03    0.17       5.5  T
   9   -163.3098171 -0.313941E-06  0.132E-03    0.17       7.3  T
  10   -163.3098174 -0.258690E-06  0.786E-04    0.17      12.3  T
  11   -163.3098175 -0.841761E-07  0.443E-04    0.17      21.8  T
     SCC iter.                  ...        0 min,  0.187 sec
     gradient                   ...        0 min,  0.020 sec
 * total energy  :  -161.3605153 Eh     change       -0.2475176E-03 Eh
   gradient norm :     0.0108215 Eh/α   predicted    -0.3556039E-03 (  43.67%)
   displ. norm   :     0.1947715 α      lambda       -0.3561231E-03
   maximum displ.:     0.1106017 α      in ANC's #6, #12, #2, ...

........................................................................
.............................. CYCLE   46 ..............................
........................................................................

 iter      E             dE          RMSdq      gap      omega  full diag
   1   -163.3098655 -0.163310E+03  0.779E-02    0.17       0.0  T
   2   -163.3098268  0.387000E-04  0.495E-02    0.17       1.0  T
   3   -163.3085490  0.127778E-02  0.768E-02    0.18       1.0  T
   4   -163.3097481 -0.119915E-02  0.213E-02    0.17       1.0  T
   5   -163.3098648 -0.116683E-03  0.764E-03    0.16       1.3  T
   6   -163.3098789 -0.140929E-04  0.225E-03    0.17       4.3  T
   7   -163.3098792 -0.269059E-06  0.182E-03    0.17       5.3  T
   8   -163.3098798 -0.628939E-06  0.892E-04    0.17      10.8  T
   9   -163.3098799 -0.765692E-07  0.630E-04    0.17      15.3  T
     SCC iter.                  ...        0 min,  0.154 sec
     gradient                   ...        0 min,  0.025 sec
 * total energy  :  -161.3607469 Eh     change       -0.2316788E-03 Eh
   gradient norm :     0.0094652 Eh/α   predicted    -0.1848168E-03 ( -20.23%)
   displ. norm   :     0.2321605 α      lambda       -0.2946579E-03
   maximum displ.:     0.1452686 α      in ANC's #6, #12, #2, ...

........................................................................
.............................. CYCLE   47 ..............................
........................................................................

 iter      E             dE          RMSdq      gap      omega  full diag
   1   -163.3105883 -0.163311E+03  0.671E-02    0.17       0.0  T
   2   -163.3105640  0.243419E-04  0.428E-02    0.17       1.0  T
   3   -163.3093021  0.126186E-02  0.641E-02    0.16       1.0  T
   4   -163.3104184 -0.111632E-02  0.241E-02    0.18       1.0  T
   5   -163.3105921 -0.173654E-03  0.551E-03    0.16       1.8  T
   6   -163.3105977 -0.567569E-05  0.235E-03    0.17       4.1  T
   7   -163.3105986 -0.881894E-06  0.129E-03    0.17       7.5  T
   8   -163.3105989 -0.307600E-06  0.749E-04    0.17      12.9  T
   9   -163.3105990 -0.885348E-07  0.379E-04    0.17      25.5  T
     SCC iter.                  ...        0 min,  0.169 sec
     gradient                   ...        0 min,  0.022 sec
 * total energy  :  -161.3609846 Eh     change       -0.2376885E-03 Eh
   gradient norm :     0.0047747 Eh/α   predicted    -0.1552703E-03 ( -34.67%)
   displ. norm   :     0.3981146 α      lambda       -0.3892506E-03
   maximum displ.:     0.2486869 α      in ANC's #6, #12, #2, ...

........................................................................
.............................. CYCLE   48 ..............................
........................................................................

 iter      E             dE          RMSdq      gap      omega  full diag
   1   -163.3115622 -0.163312E+03  0.927E-02    0.17       0.0  T
   2   -163.3115351  0.271040E-04  0.589E-02    0.16       1.0  T
   3   -163.3106489  0.886175E-03  0.624E-02    0.19       1.0  T
   4   -163.3113991 -0.750256E-03  0.246E-02    0.17       1.0  T
   5   -163.3115651 -0.165962E-03  0.937E-03    0.16       1.0  T
   6   -163.3115865 -0.213852E-04  0.292E-03    0.17       3.3  T
   7   -163.3115878 -0.130477E-05  0.157E-03    0.17       6.1  T
   8   -163.3115881 -0.285395E-06  0.106E-03    0.17       9.1  T
   9   -163.3115882 -0.157940E-06  0.631E-04    0.17      15.3  T
  10   -163.3115883 -0.564743E-07  0.335E-04    0.17      28.8  T
     SCC iter.                  ...        0 min,  0.202 sec
     gradient                   ...        0 min,  0.022 sec
 * total energy  :  -161.3612957 Eh     change       -0.3110651E-03 Eh
   gradient norm :     0.0048504 Eh/α   predicted    -0.2254730E-03 ( -27.52%)
   displ. norm   :     0.4631696 α      lambda       -0.3324337E-03
   maximum displ.:     0.2868263 α      in ANC's #6, #12, #2, ...

........................................................................
.............................. CYCLE   49 ..............................
........................................................................

 iter      E             dE          RMSdq      gap      omega  full diag
   1   -163.3116031 -0.163312E+03  0.117E-01    0.17       0.0  T
   2   -163.3115660  0.370400E-04  0.738E-02    0.16       1.0  T
   3   -163.3103221  0.124395E-02  0.757E-02    0.21       1.0  T
   4   -163.3115509 -0.122887E-02  0.186E-02    0.17       1.0  T
   5   -163.3116299 -0.790013E-04  0.346E-03    0.17       2.8  T
   6   -163.3116304 -0.433315E-06  0.285E-03    0.17       3.4  T
   7   -163.3116312 -0.800898E-06  0.204E-03    0.17       4.7  T
   8   -163.3116321 -0.888333E-06  0.101E-03    0.17       9.6  T
   9   -163.3116322 -0.144488E-06  0.662E-04    0.17      14.6  T
  10   -163.3116323 -0.806085E-07  0.364E-04    0.17      26.6  T
     SCC iter.                  ...        0 min,  0.175 sec
     gradient                   ...        0 min,  0.020 sec
 * total energy  :  -161.3615748 Eh     change       -0.2790812E-03 Eh
   gradient norm :     0.0060000 Eh/α   predicted    -0.2018911E-03 ( -27.66%)
   displ. norm   :     0.4421967 α      lambda       -0.2825285E-03
   maximum displ.:     0.2795701 α      in ANC's #6, #12, #2, ...

........................................................................
.............................. CYCLE   50 ..............................
........................................................................

 iter      E             dE          RMSdq      gap      omega  full diag
   1   -163.3119490 -0.163312E+03  0.100E-01    0.17       0.0  T
   2   -163.3119143  0.347501E-04  0.636E-02    0.16       1.0  T
   3   -163.3108514  0.106286E-02  0.698E-02    0.23       1.0  T
   4   -163.3118737 -0.102229E-02  0.188E-02    0.17       1.0  T
   5   -163.3119625 -0.888211E-04  0.515E-03    0.17       1.9  T
   6   -163.3119685 -0.593176E-05  0.262E-03    0.17       3.7  T
   7   -163.3119696 -0.109434E-05  0.153E-03    0.17       6.3  T
   8   -163.3119693  0.240058E-06  0.160E-03    0.17       6.1  T
   9   -163.3119699 -0.613769E-06  0.623E-04    0.17      15.5  T
  10   -163.3119700 -0.370287E-07  0.429E-04    0.17      22.5  T
     SCC iter.                  ...        0 min,  0.174 sec
     gradient                   ...        0 min,  0.022 sec
 * total energy  :  -161.3618199 Eh     change       -0.2451527E-03 Eh
   gradient norm :     0.0049618 Eh/α   predicted    -0.1688934E-03 ( -31.11%)
   displ. norm   :     0.4277407 α      lambda       -0.2652242E-03
   maximum displ.:     0.2775563 α      in ANC's #6, #2, #12, ...

........................................................................
.............................. CYCLE   51 ..............................
........................................................................

 iter      E             dE          RMSdq      gap      omega  full diag
   1   -163.3126753 -0.163313E+03  0.937E-02    0.18       0.0  T
   2   -163.3126382  0.370757E-04  0.598E-02    0.17       1.0  T
   3   -163.3110218  0.161643E-02  0.787E-02    0.21       1.0  T
   4   -163.3125443 -0.152257E-02  0.221E-02    0.18       1.0  T
   5   -163.3126804 -0.136050E-03  0.624E-03    0.17       1.5  T
   6   -163.3126889 -0.850465E-05  0.243E-03    0.17       4.0  T
   7   -163.3126889  0.330302E-07  0.222E-03    0.17       4.4  T
   8   -163.3126902 -0.132069E-05  0.867E-04    0.17      11.2  T
   9   -163.3126903 -0.866758E-07  0.499E-04    0.17      19.4  T
  10   -163.3126903 -0.258726E-07  0.303E-04    0.17      31.9  T
     SCC iter.                  ...        0 min,  0.204 sec
     gradient                   ...        0 min,  0.020 sec
 * total energy  :  -161.3620526 Eh     change       -0.2326390E-03 Eh
   gradient norm :     0.0038305 Eh/α   predicted    -0.1568788E-03 ( -32.57%)
   displ. norm   :     0.4327593 α      lambda       -0.2627179E-03
   maximum displ.:     0.2891419 α      in ANC's #6, #2, #12, ...

........................................................................
.............................. CYCLE   52 ..............................
........................................................................

 iter      E             dE          RMSdq      gap      omega  full diag
   1   -163.3134284 -0.163313E+03  0.853E-02    0.18       0.0  T
   2   -163.3133790  0.494713E-04  0.553E-02    0.17       1.0  T
   3   -163.3112622  0.211679E-02  0.883E-02    0.18       1.0  T
   4   -163.3133082 -0.204606E-02  0.212E-02    0.18       1.0  T
   5   -163.3134334 -0.125152E-03  0.559E-03    0.17       1.7  T
   6   -163.3134395 -0.606830E-05  0.268E-03    0.18       3.6  T
   7   -163.3134404 -0.896349E-06  0.190E-03    0.17       5.1  T
   8   -163.3134412 -0.851722E-06  0.708E-04    0.18      13.7  T
   9   -163.3134412 -0.379016E-07  0.453E-04    0.18      21.4  T
     SCC iter.                  ...        0 min,  0.150 sec
     gradient                   ...        0 min,  0.021 sec
 * total energy  :  -161.3622806 Eh     change       -0.2280892E-03 Eh
   gradient norm :     0.0033787 Eh/α   predicted    -0.1559609E-03 ( -31.62%)
   displ. norm   :     0.4380283 α      lambda       -0.2565376E-03
   maximum displ.:     0.2987801 α      in ANC's #6, #2, #12, ...

........................................................................
.............................. CYCLE   53 ..............................
........................................................................

 iter      E             dE          RMSdq      gap      omega  full diag
   1   -163.3138359 -0.163314E+03  0.824E-02    0.18       0.0  T
   2   -163.3137670  0.689161E-04  0.538E-02    0.18       1.0  T
   3   -163.3111809  0.258610E-02  0.949E-02    0.17       1.0  T
   4   -163.3137295 -0.254855E-02  0.206E-02    0.18       1.0  T
   5   -163.3138422 -0.112786E-03  0.571E-03    0.17       1.7  T
   6   -163.3138488 -0.652602E-05  0.271E-03    0.18       3.6  T
   7   -163.3138498 -0.104999E-05  0.181E-03    0.18       5.3  T
   8   -163.3138505 -0.732868E-06  0.695E-04    0.18      13.9  T
   9   -163.3138506 -0.431354E-07  0.380E-04    0.18      25.4  T
     SCC iter.                  ...        0 min,  0.156 sec
     gradient                   ...        0 min,  0.024 sec
 * total energy  :  -161.3624992 Eh     change       -0.2185242E-03 Eh
   gradient norm :     0.0033424 Eh/α   predicted    -0.1528828E-03 ( -30.04%)
   displ. norm   :     0.4184856 α      lambda       -0.2344666E-03
   maximum displ.:     0.2907989 α      in ANC's #6, #2, #12, ...

........................................................................
.............................. CYCLE   54 ..............................
........................................................................

 iter      E             dE          RMSdq      gap      omega  full diag
   1   -163.3139503 -0.163314E+03  0.709E-02    0.18       0.0  T
   2   -163.3138834  0.668831E-04  0.468E-02    0.18       1.0  T
   3   -163.3119148  0.196854E-02  0.841E-02    0.16       1.0  T
   4   -163.3138031 -0.188822E-02  0.234E-02    0.19       1.0  T
   5   -163.3139579 -0.154802E-03  0.510E-03    0.18       1.9  T
   6   -163.3139632 -0.533106E-05  0.263E-03    0.18       3.7  T
   7   -163.3139646 -0.142073E-05  0.141E-03    0.18       6.8  T
   8   -163.3139649 -0.322535E-06  0.755E-04    0.18      12.8  T
   9   -163.3139650 -0.646764E-07  0.410E-04    0.18      23.6  T
     SCC iter.                  ...        0 min,  0.152 sec
     gradient                   ...        0 min,  0.021 sec
 * total energy  :  -161.3627055 Eh     change       -0.2062796E-03 Eh
   gradient norm :     0.0034792 Eh/α   predicted    -0.1377656E-03 ( -33.21%)
   displ. norm   :     0.3949455 α      lambda       -0.2221834E-03
   maximum displ.:     0.2767202 α      in ANC's #6, #2, #7, ...

........................................................................
.............................. CYCLE   55 ..............................
........................................................................

 iter      E             dE          RMSdq      gap      omega  full diag
   1   -163.3141198 -0.163314E+03  0.571E-02    0.18       0.0  T
   2   -163.3140712  0.486111E-04  0.376E-02    0.18       1.0  T
   3   -163.3128611  0.121011E-02  0.666E-02    0.17       1.0  T
   4   -163.3140268 -0.116576E-02  0.189E-02    0.18       1.0  T
   5   -163.3141259 -0.990688E-04  0.442E-03    0.18       2.2  T
   6   -163.3141297 -0.381936E-05  0.232E-03    0.18       4.2  T
   7   -163.3141309 -0.116659E-05  0.112E-03    0.18       8.6  T
   8   -163.3141311 -0.176612E-06  0.672E-04    0.18      14.4  T
   9   -163.3141311 -0.705405E-07  0.272E-04    0.18      35.5  T
     SCC iter.                  ...        0 min,  0.144 sec
     gradient                   ...        0 min,  0.021 sec
 * total energy  :  -161.3629106 Eh     change       -0.2051290E-03 Eh
   gradient norm :     0.0036083 Eh/α   predicted    -0.1284223E-03 ( -37.39%)
   displ. norm   :     0.4202594 α      lambda       -0.2580000E-03
   maximum displ.:     0.2918210 α      in ANC's #6, #2, #7, ...

........................................................................
.............................. CYCLE   56 ..............................
........................................................................

 iter      E             dE          RMSdq      gap      omega  full diag
   1   -163.3142009 -0.163314E+03  0.586E-02    0.18       0.0  T
   2   -163.3141583  0.426138E-04  0.380E-02    0.18       1.0  T
   3   -163.3130678  0.109049E-02  0.642E-02    0.17       1.0  T
   4   -163.3140934 -0.102560E-02  0.199E-02    0.18       1.0  T
   5   -163.3142083 -0.114965E-03  0.410E-03    0.18       2.4  T
   6   -163.3142111 -0.280264E-05  0.239E-03    0.18       4.0  T
   7   -163.3142124 -0.123353E-05  0.109E-03    0.18       8.9  T
   8   -163.3142125 -0.129927E-06  0.758E-04    0.18      12.8  T
   9   -163.3142126 -0.107937E-06  0.269E-04    0.18      35.9  T
     SCC iter.                  ...        0 min,  0.144 sec
     gradient                   ...        0 min,  0.023 sec
 * total energy  :  -161.3631521 Eh     change       -0.2415479E-03 Eh
   gradient norm :     0.0037858 Eh/α   predicted    -0.1517860E-03 ( -37.16%)
   displ. norm   :     0.5008331 α      lambda       -0.3269521E-03
   maximum displ.:     0.3422558 α      in ANC's #6, #2, #7, ...

........................................................................
.............................. CYCLE   57 ..............................
........................................................................

 iter      E             dE          RMSdq      gap      omega  full diag
   1   -163.3143446 -0.163314E+03  0.688E-02    0.17       0.0  T
   2   -163.3142905  0.541391E-04  0.445E-02    0.18       1.0  T
   3   -163.3129721  0.131841E-02  0.718E-02    0.17       1.0  T
   4   -163.3141961 -0.122399E-02  0.236E-02    0.17       1.0  T
   5   -163.3143575 -0.161407E-03  0.410E-03    0.18       2.4  T
   6   -163.3143601 -0.263900E-05  0.217E-03    0.18       4.5  T
   7   -163.3143605 -0.328791E-06  0.150E-03    0.18       6.4  T
   8   -163.3143608 -0.306447E-06  0.111E-03    0.18       8.7  T
   9   -163.3143611 -0.309582E-06  0.338E-04    0.18      28.6  T
  10   -163.3143611 -0.681769E-08  0.254E-04    0.18      38.1  T
     SCC iter.                  ...        0 min,  0.168 sec
     gradient                   ...        0 min,  0.021 sec
 * total energy  :  -161.3634562 Eh     change       -0.3041090E-03 Eh
   gradient norm :     0.0043834 Eh/α   predicted    -0.2044843E-03 ( -32.76%)
   displ. norm   :     0.5808975 α      lambda       -0.3877943E-03
   maximum displ.:     0.3934948 α      in ANC's #6, #2, #7, ...

........................................................................
.............................. CYCLE   58 ..............................
........................................................................

 iter      E             dE          RMSdq      gap      omega  full diag
   1   -163.3140302 -0.163314E+03  0.793E-02    0.17       0.0  T
   2   -163.3139683  0.618917E-04  0.512E-02    0.18       1.0  T
   3   -163.3124947  0.147363E-02  0.779E-02    0.17       1.0  T
   4   -163.3138415 -0.134683E-02  0.266E-02    0.16       1.0  T
   5   -163.3140470 -0.205502E-03  0.452E-03    0.18       2.1  T
   6   -163.3140506 -0.359689E-05  0.200E-03    0.18       4.8  T
   7   -163.3140507 -0.108382E-06  0.143E-03    0.18       6.8  T
   8   -163.3140505  0.158580E-06  0.138E-03    0.18       7.0  T
   9   -163.3140511 -0.536809E-06  0.512E-04    0.18      18.9  T
  10   -163.3140511 -0.412640E-07  0.316E-04    0.18      30.6  T
     SCC iter.                  ...        0 min,  0.166 sec
     gradient                   ...        0 min,  0.021 sec
 * total energy  :  -161.3638148 Eh     change       -0.3585499E-03 Eh
   gradient norm :     0.0049254 Eh/α   predicted    -0.2593284E-03 ( -27.67%)
   displ. norm   :     0.6273435 α      lambda       -0.4268431E-03
   maximum displ.:     0.4234641 α      in ANC's #6, #2, #7, ...

........................................................................
.............................. CYCLE   59 ..............................
........................................................................

 iter      E             dE          RMSdq      gap      omega  full diag
   1   -163.3139713 -0.163314E+03  0.908E-02    0.17       0.0  T
   2   -163.3138943  0.769922E-04  0.583E-02    0.18       1.0  T
   3   -163.3119074  0.198689E-02  0.890E-02    0.18       1.0  T
   4   -163.3137390 -0.183154E-02  0.297E-02    0.16       1.0  T
   5   -163.3139915 -0.252557E-03  0.520E-03    0.17       1.9  T
   6   -163.3139966 -0.504551E-05  0.211E-03    0.18       4.6  T
   7   -163.3139966 -0.211031E-07  0.162E-03    0.17       6.0  T
   8   -163.3139966 -0.305082E-07  0.135E-03    0.18       7.2  T
   9   -163.3139971 -0.444560E-06  0.649E-04    0.17      14.9  T
  10   -163.3139971 -0.855766E-07  0.339E-04    0.17      28.5  T
     SCC iter.                  ...        0 min,  0.185 sec
     gradient                   ...        0 min,  0.024 sec
 * total energy  :  -161.3642143 Eh     change       -0.3995315E-03 Eh
   gradient norm :     0.0047251 Eh/α   predicted    -0.2974206E-03 ( -25.56%)
   displ. norm   :     0.6553897 α      lambda       -0.4622366E-03
   maximum displ.:     0.4447123 α      in ANC's #6, #2, #8, ...

........................................................................
.............................. CYCLE   60 ..............................
........................................................................

 iter      E             dE          RMSdq      gap      omega  full diag
   1   -163.3142059 -0.163314E+03  0.917E-02    0.17       0.0  T
   2   -163.3141241  0.818456E-04  0.592E-02    0.17       1.0  T
   3   -163.3122193  0.190481E-02  0.893E-02    0.18       1.0  T
   4   -163.3139670 -0.174775E-02  0.301E-02    0.16       1.0  T
   5   -163.3142272 -0.260215E-03  0.562E-03    0.17       1.7  T
   6   -163.3142333 -0.601542E-05  0.230E-03    0.17       4.2  T
   7   -163.3142334 -0.107293E-06  0.172E-03    0.17       5.6  T
   8   -163.3142336 -0.195016E-06  0.125E-03    0.17       7.8  T
   9   -163.3142338 -0.251442E-06  0.804E-04    0.17      12.0  T
  10   -163.3142340 -0.146750E-06  0.386E-04    0.17      25.1  T
     SCC iter.                  ...        0 min,  0.189 sec
     gradient                   ...        0 min,  0.022 sec
 * total energy  :  -161.3646550 Eh     change       -0.4406777E-03 Eh
   gradient norm :     0.0039074 Eh/α   predicted    -0.3303968E-03 ( -25.03%)
   displ. norm   :     0.6827352 α      lambda       -0.5043272E-03
   maximum displ.:     0.4678342 α      in ANC's #6, #2, #8, ...

........................................................................
.............................. CYCLE   61 ..............................
........................................................................

 iter      E             dE          RMSdq      gap      omega  full diag
   1   -163.3147036 -0.163315E+03  0.961E-02    0.17       0.0  T
   2   -163.3146075  0.961681E-04  0.619E-02    0.17       1.0  T
   3   -163.3123030  0.230448E-02  0.959E-02    0.18       1.0  T
   4   -163.3143688 -0.206580E-02  0.344E-02    0.17       1.0  T
   5   -163.3147251 -0.356324E-03  0.703E-03    0.17       1.4  T
   6   -163.3147338 -0.866539E-05  0.312E-03    0.17       3.1  T
   7   -163.3147335  0.293091E-06  0.277E-03    0.17       3.5  T
   8   -163.3147354 -0.190520E-05  0.132E-03    0.17       7.3  T
   9   -163.3147357 -0.284760E-06  0.717E-04    0.17      13.5  T
  10   -163.3147358 -0.795676E-07  0.353E-04    0.17      27.4  T
     SCC iter.                  ...        0 min,  0.181 sec
     gradient                   ...        0 min,  0.024 sec
 * total energy  :  -161.3651419 Eh     change       -0.4868550E-03 Eh
   gradient norm :     0.0038473 Eh/α   predicted    -0.3697076E-03 ( -24.06%)
   displ. norm   :     0.7096569 α      lambda       -0.5553633E-03
   maximum displ.:     0.4930322 α      in ANC's #6, #2, #8, ...

........................................................................
.............................. CYCLE   62 ..............................
........................................................................

 iter      E             dE          RMSdq      gap      omega  full diag
   1   -163.3153099 -0.163315E+03  0.984E-02    0.17       0.0  T
   2   -163.3151908  0.119171E-03  0.638E-02    0.17       1.0  T
   3   -163.3125207  0.267004E-02  0.102E-01    0.17       1.0  T
   4   -163.3148522 -0.233151E-02  0.398E-02    0.18       1.0  T
   5   -163.3153343 -0.482114E-03  0.792E-03    0.17       1.2  T
   6   -163.3153450 -0.106415E-04  0.347E-03    0.17       2.8  T
   7   -163.3153452 -0.216567E-06  0.292E-03    0.17       3.3  T
   8   -163.3153473 -0.211966E-05  0.129E-03    0.17       7.5  T
   9   -163.3153475 -0.197017E-06  0.771E-04    0.17      12.5  T
  10   -163.3153476 -0.101323E-06  0.340E-04    0.17      28.4  T
     SCC iter.                  ...        0 min,  0.201 sec
     gradient                   ...        0 min,  0.023 sec
 * total energy  :  -161.3656830 Eh     change       -0.5411553E-03 Eh
   gradient norm :     0.0046086 Eh/α   predicted    -0.4175284E-03 ( -22.84%)
   displ. norm   :     0.7353624 α      lambda       -0.6144725E-03
   maximum displ.:     0.5194768 α      in ANC's #6, #2, #8, ...

........................................................................
.............................. CYCLE   63 ..............................
........................................................................

 iter      E             dE          RMSdq      gap      omega  full diag
   1   -163.3157325 -0.163316E+03  0.103E-01    0.17       0.0  T
   2   -163.3155777  0.154728E-03  0.671E-02    0.17       1.0  T
   3   -163.3121595  0.341828E-02  0.112E-01    0.17       1.0  T
   4   -163.3151686 -0.300912E-02  0.447E-02    0.18       1.0  T
   5   -163.3157639 -0.595277E-03  0.796E-03    0.16       1.2  T
   6   -163.3157739 -0.100096E-04  0.371E-03    0.17       2.6  T
   7   -163.3157745 -0.610160E-06  0.302E-03    0.17       3.2  T
   8   -163.3157767 -0.225237E-05  0.131E-03    0.17       7.4  T
   9   -163.3157769 -0.145635E-06  0.862E-04    0.17      11.2  T
  10   -163.3157770 -0.133138E-06  0.338E-04    0.17      28.6  T
     SCC iter.                  ...        0 min,  0.179 sec
     gradient                   ...        0 min,  0.023 sec
 * total energy  :  -161.3662852 Eh     change       -0.6021807E-03 Eh
   gradient norm :     0.0050769 Eh/α   predicted    -0.4733845E-03 ( -21.39%)
   displ. norm   :     0.7608183 α      lambda       -0.6825897E-03
   maximum displ.:     0.5482892 α      in ANC's #6, #2, #8, ...

........................................................................
.............................. CYCLE   64 ..............................
........................................................................

 iter      E             dE          RMSdq      gap      omega  full diag
   1   -163.3162605 -0.163316E+03  0.106E-01    0.17       0.0  T
   2   -163.3160694  0.191101E-03  0.700E-02    0.17       1.0  T
   3   -163.3121924  0.387701E-02  0.118E-01    0.17       1.0  T
   4   -163.3156160 -0.342360E-02  0.483E-02    0.19       1.0  T
   5   -163.3163007 -0.684774E-03  0.761E-03    0.17       1.3  T
   6   -163.3163097 -0.899973E-05  0.364E-03    0.17       2.7  T
   7   -163.3163100 -0.293180E-06  0.306E-03    0.17       3.2  T
   8   -163.3163123 -0.224923E-05  0.145E-03    0.17       6.7  T
   9   -163.3163125 -0.159473E-06  0.108E-03    0.17       9.0  T
  10   -163.3163127 -0.212172E-06  0.397E-04    0.17      24.3  T
  11   -163.3163127 -0.144049E-07  0.284E-04    0.17      34.0  T
     SCC iter.                  ...        0 min,  0.222 sec
     gradient                   ...        0 min,  0.030 sec
 * total energy  :  -161.3669552 Eh     change       -0.6700039E-03 Eh
   gradient norm :     0.0050772 Eh/α   predicted    -0.5388548E-03 ( -19.57%)
   displ. norm   :     0.7765676 α      lambda       -0.7448582E-03
   maximum displ.:     0.5699514 α      in ANC's #6, #2, #8, ...

........................................................................
.............................. CYCLE   65 ..............................
........................................................................

 iter      E             dE          RMSdq      gap      omega  full diag
   1   -163.3166223 -0.163317E+03  0.113E-01    0.17       0.0  T
   2   -163.3163785  0.243854E-03  0.751E-02    0.17       1.0  T
   3   -163.3115698  0.480865E-02  0.131E-01    0.17       1.0  T
   4   -163.3159187 -0.434887E-02  0.514E-02    0.20       1.0  T
   5   -163.3166725 -0.753880E-03  0.718E-03    0.17       1.3  T
   6   -163.3166800 -0.747323E-05  0.375E-03    0.17       2.6  T
   7   -163.3166809 -0.894181E-06  0.282E-03    0.17       3.4  T
   8   -163.3166824 -0.150968E-05  0.162E-03    0.17       6.0  T
   9   -163.3166826 -0.179485E-06  0.133E-03    0.17       7.3  T
  10   -163.3166830 -0.349327E-06  0.470E-04    0.17      20.6  T
  11   -163.3166830 -0.243149E-07  0.309E-04    0.17      31.3  T
     SCC iter.                  ...        0 min,  0.195 sec
     gradient                   ...        0 min,  0.021 sec
 * total energy  :  -161.3676885 Eh     change       -0.7333510E-03 Eh
   gradient norm :     0.0054475 Eh/α   predicted    -0.5970304E-03 ( -18.59%)
   displ. norm   :     0.7922556 α      lambda       -0.8155967E-03
   maximum displ.:     0.5915141 α      in ANC's #6, #8, #2, ...

........................................................................
.............................. CYCLE   66 ..............................
........................................................................

 iter      E             dE          RMSdq      gap      omega  full diag
   1   -163.3173285 -0.163317E+03  0.118E-01    0.18       0.0  T
   2   -163.3170344  0.294049E-03  0.797E-02    0.17       1.0  T
   3   -163.3116614  0.537302E-02  0.138E-01    0.17       1.0  T
   4   -163.3165387 -0.487727E-02  0.547E-02    0.21       1.0  T
   5   -163.3173862 -0.847495E-03  0.804E-03    0.17       1.2  T
   6   -163.3173972 -0.109848E-04  0.367E-03    0.17       2.6  T
   7   -163.3173984 -0.126340E-05  0.252E-03    0.17       3.8  T
   8   -163.3173992 -0.802603E-06  0.155E-03    0.17       6.2  T
   9   -163.3173992  0.187713E-07  0.138E-03    0.17       7.0  T
  10   -163.3173996 -0.390731E-06  0.588E-04    0.17      16.4  T
  11   -163.3173997 -0.576412E-07  0.340E-04    0.17      28.4  T
     SCC iter.                  ...        0 min,  0.181 sec
     gradient                   ...        0 min,  0.021 sec
 * total energy  :  -161.3684965 Eh     change       -0.8079393E-03 Eh
   gradient norm :     0.0065778 Eh/α   predicted    -0.6637671E-03 ( -17.84%)
   displ. norm   :     0.8223495 α      lambda       -0.9242290E-03
   maximum displ.:     0.6241886 α      in ANC's #6, #8, #2, ...
 * RMSD in coord.:     0.9792557 α      energy gain  -0.8883903E-02 Eh

generating ANC from exact Hessian ...
Using Lindh-Hessian (1995)
 Shifting diagonal of input Hessian by   1.112043036242666E-002
 Lowest  eigenvalues of input Hessian
    0.010000    0.010614    0.010858    0.010960    0.010995    0.000000
    0.000000    0.000000    0.000000    0.000000    0.000000    0.011169
    0.011190    0.011268    0.011335    0.011389    0.011419    0.011589
 Highest eigenvalues
    2.142191    2.152176    2.159916    2.166374    2.199360    2.406318
 

........................................................................
.............................. CYCLE   67 ..............................
........................................................................

 iter      E             dE          RMSdq      gap      omega  full diag
   1   -163.3183816 -0.163318E+03  0.127E-01    0.18       0.0  T
   2   -163.3179855  0.396089E-03  0.872E-02    0.17       1.0  T
   3   -163.3113081  0.667741E-02  0.154E-01    0.16       1.0  T
   4   -163.3175014 -0.619330E-02  0.585E-02    0.22       1.0  T
   5   -163.3184446 -0.943114E-03  0.109E-02    0.18       1.0  T
   6   -163.3184682 -0.236290E-04  0.363E-03    0.18       2.7  T
   7   -163.3184690 -0.849126E-06  0.275E-03    0.18       3.5  T
   8   -163.3184700 -0.101031E-05  0.157E-03    0.18       6.2  T
   9   -163.3184701 -0.784679E-07  0.117E-03    0.18       8.2  T
  10   -163.3184704 -0.230766E-06  0.422E-04    0.18      22.9  T
  11   -163.3184704 -0.235185E-07  0.246E-04    0.18      39.3  T
     SCC iter.                  ...        0 min,  0.178 sec
     gradient                   ...        0 min,  0.024 sec
 * total energy  :  -161.3694170 Eh     change       -0.9205139E-03 Eh
   gradient norm :     0.0080278 Eh/α   predicted     0.0000000E+00 (-100.00%)
   displ. norm   :     0.1391044 α      lambda       -0.3521739E-03
   maximum displ.:     0.0607984 α      in ANC's #9, #8, #23, ...

........................................................................
.............................. CYCLE   68 ..............................
........................................................................

 iter      E             dE          RMSdq      gap      omega  full diag
   1   -163.3203369 -0.163320E+03  0.321E-02    0.18       0.0  T
   2   -163.3203283  0.862246E-05  0.212E-02    0.17       1.0  T
   3   -163.3201360  0.192280E-03  0.296E-02    0.20       1.0  T
   4   -163.3202780 -0.142033E-03  0.142E-02    0.18       1.0  T
   5   -163.3203385 -0.604483E-04  0.350E-03    0.18       2.8  T
   6   -163.3203412 -0.271135E-05  0.140E-03    0.18       6.9  T
   7   -163.3203414 -0.272262E-06  0.945E-04    0.18      10.2  T
   8   -163.3203416 -0.137450E-06  0.540E-04    0.18      17.9  T
     SCC iter.                  ...        0 min,  0.138 sec
     gradient                   ...        0 min,  0.021 sec
 * total energy  :  -161.3697373 Eh     change       -0.3203206E-03 Eh
   gradient norm :     0.0046175 Eh/α   predicted    -0.1795533E-03 ( -43.95%)
   displ. norm   :     0.6414029 α      lambda       -0.1322650E-02
   maximum displ.:     0.2930405 α      in ANC's #9, #8, #23, ...

........................................................................
.............................. CYCLE   69 ..............................
........................................................................

 iter      E             dE          RMSdq      gap      omega  full diag
   1   -163.3235611 -0.163324E+03  0.133E-01    0.19       0.0  T
   2   -163.3234258  0.135292E-03  0.866E-02    0.18       1.0  T
   3   -163.3201049  0.332085E-02  0.123E-01    0.20       1.0  T
   4   -163.3229544 -0.284950E-02  0.475E-02    0.20       1.0  T
   5   -163.3235611 -0.606625E-03  0.157E-02    0.19       1.0  T
   6   -163.3236272 -0.661259E-04  0.522E-03    0.18       1.9  T
   7   -163.3236306 -0.342277E-05  0.378E-03    0.19       2.6  T
   8   -163.3236326 -0.202680E-05  0.224E-03    0.19       4.3  T
   9   -163.3236333 -0.607432E-06  0.137E-03    0.18       7.0  T
  10   -163.3236335 -0.273206E-06  0.919E-04    0.19      10.5  T
  11   -163.3236337 -0.176893E-06  0.420E-04    0.19      23.0  T
     SCC iter.                  ...        0 min,  0.194 sec
     gradient                   ...        0 min,  0.023 sec
 * total energy  :  -161.3707194 Eh     change       -0.9821206E-03 Eh
   gradient norm :     0.0079699 Eh/α   predicted    -0.9333943E-03 (  -4.96%)
   displ. norm   :     0.6714551 α      lambda       -0.1078801E-02
   maximum displ.:     0.3002040 α      in ANC's #9, #8, #23, ...

........................................................................
.............................. CYCLE   70 ..............................
........................................................................

 iter      E             dE          RMSdq      gap      omega  full diag
   1   -163.3223717 -0.163322E+03  0.160E-01    0.19       0.0  T
   2   -163.3222198  0.151845E-03  0.101E-01    0.20       1.0  T
   3   -163.3172827  0.493708E-02  0.149E-01    0.13       1.0  T
   4   -163.3221427 -0.485997E-02  0.367E-02    0.23       1.0  T
   5   -163.3223981 -0.255354E-03  0.130E-02    0.20       1.0  T
   6   -163.3224305 -0.324687E-04  0.540E-03    0.19       1.8  T
   7   -163.3224308 -0.298397E-06  0.466E-03    0.19       2.1  T
   8   -163.3224356 -0.480389E-05  0.238E-03    0.19       4.1  T
   9   -163.3224364 -0.744162E-06  0.144E-03    0.19       6.7  T
  10   -163.3224365 -0.121108E-06  0.109E-03    0.19       8.9  T
  11   -163.3224367 -0.243115E-06  0.613E-04    0.19      15.8  T
  12   -163.3224368 -0.881199E-07  0.247E-04    0.19      39.2  T
     SCC iter.                  ...        0 min,  0.208 sec
     gradient                   ...        0 min,  0.021 sec
 * total energy  :  -161.3714598 Eh     change       -0.7403759E-03 Eh
   gradient norm :     0.0109376 Eh/α   predicted    -0.7825947E-03 (   5.70%)
   displ. norm   :     0.6471891 α      lambda       -0.9795566E-03
   maximum displ.:     0.3117567 α      in ANC's #9, #8, #10, ...

........................................................................
.............................. CYCLE   71 ..............................
........................................................................

 iter      E             dE          RMSdq      gap      omega  full diag
   1   -163.3206000 -0.163321E+03  0.124E-01    0.19       0.0  T
   2   -163.3202110  0.388999E-03  0.858E-02    0.21       1.0  T
   3   -163.3134114  0.679959E-02  0.158E-01    0.15       1.0  T
   4   -163.3197891 -0.637770E-02  0.543E-02    0.21       1.0  T
   5   -163.3206440 -0.854858E-03  0.122E-02    0.20       1.0  T
   6   -163.3206732 -0.292401E-04  0.413E-03    0.20       2.3  T
   7   -163.3206738 -0.523871E-06  0.335E-03    0.20       2.9  T
   8   -163.3206754 -0.164813E-05  0.174E-03    0.20       5.6  T
   9   -163.3206755 -0.735076E-07  0.144E-03    0.19       6.7  T
  10   -163.3206758 -0.291680E-06  0.880E-04    0.19      11.0  T
  11   -163.3206759 -0.138175E-06  0.495E-04    0.19      19.5  T
     SCC iter.                  ...        0 min,  0.187 sec
     gradient                   ...        0 min,  0.023 sec
 * total energy  :  -161.3723130 Eh     change       -0.8532349E-03 Eh
   gradient norm :     0.0114887 Eh/α   predicted    -0.6949379E-03 ( -18.55%)
   displ. norm   :     0.6408138 α      lambda       -0.1310138E-02
   maximum displ.:     0.3086414 α      in ANC's #9, #8, #10, ...

........................................................................
.............................. CYCLE   72 ..............................
........................................................................

 iter      E             dE          RMSdq      gap      omega  full diag
   1   -163.3215533 -0.163322E+03  0.128E-01    0.19       0.0  T
   2   -163.3208463  0.707063E-03  0.942E-02    0.22       1.0  T
   3   -163.3136827  0.716355E-02  0.167E-01    0.15       1.0  T
   4   -163.3206002 -0.691747E-02  0.594E-02    0.21       1.0  T
   5   -163.3216313 -0.103106E-02  0.138E-02    0.20       1.0  T
   6   -163.3216703 -0.390528E-04  0.462E-03    0.20       2.1  T
   7   -163.3216719 -0.156270E-05  0.303E-03    0.20       3.2  T
   8   -163.3216723 -0.447955E-06  0.230E-03    0.20       4.2  T
   9   -163.3216730 -0.651780E-06  0.165E-03    0.20       5.9  T
  10   -163.3216734 -0.448189E-06  0.942E-04    0.20      10.3  T
  11   -163.3216736 -0.145268E-06  0.496E-04    0.20      19.5  T
     SCC iter.                  ...        0 min,  0.183 sec
     gradient                   ...        0 min,  0.021 sec
 * total energy  :  -161.3734365 Eh     change       -0.1123499E-02 Eh
   gradient norm :     0.0088189 Eh/α   predicted    -0.9240788E-03 ( -17.75%)
   displ. norm   :     0.7502194 α      lambda       -0.1384724E-02
   maximum displ.:     0.3644280 α      in ANC's #9, #8, #10, ...

........................................................................
.............................. CYCLE   73 ..............................
........................................................................

 iter      E             dE          RMSdq      gap      omega  full diag
   1   -163.3223675 -0.163322E+03  0.142E-01    0.19       0.0  T
   2   -163.3213641  0.100338E-02  0.107E-01    0.22       1.0  T
   3   -163.3130066  0.835759E-02  0.180E-01    0.15       1.0  T
   4   -163.3209760 -0.796941E-02  0.724E-02    0.22       1.0  T
   5   -163.3224725 -0.149659E-02  0.175E-02    0.21       1.0  T
   6   -163.3225384 -0.658697E-04  0.572E-03    0.20       1.7  T
   7   -163.3225411 -0.263505E-05  0.374E-03    0.20       2.6  T
   8   -163.3225423 -0.127006E-05  0.266E-03    0.20       3.6  T
   9   -163.3225431 -0.807642E-06  0.156E-03    0.20       6.2  T
  10   -163.3225433 -0.169944E-06  0.104E-03    0.20       9.3  T
  11   -163.3225435 -0.195364E-06  0.512E-04    0.20      18.9  T
  12   -163.3225435 -0.378782E-07  0.328E-04    0.20      29.5  T
     SCC iter.                  ...        0 min,  0.199 sec
     gradient                   ...        0 min,  0.022 sec
 * total energy  :  -161.3746533 Eh     change       -0.1216769E-02 Eh
   gradient norm :     0.0114699 Eh/α   predicted    -0.1082045E-02 ( -11.07%)
   displ. norm   :     0.7445847 α      lambda       -0.1365136E-02
   maximum displ.:     0.3713137 α      in ANC's #9, #8, #10, ...

........................................................................
.............................. CYCLE   74 ..............................
........................................................................

 iter      E             dE          RMSdq      gap      omega  full diag
   1   -163.3234706 -0.163323E+03  0.149E-01    0.20       0.0  T
   2   -163.3224208  0.104986E-02  0.111E-01    0.22       1.0  T
   3   -163.3122535  0.101673E-01  0.195E-01    0.16       1.0  T
   4   -163.3220184 -0.976484E-02  0.746E-02    0.23       1.0  T
   5   -163.3235715 -0.155317E-02  0.184E-02    0.22       1.0  T
   6   -163.3236493 -0.777968E-04  0.579E-03    0.21       1.7  T
   7   -163.3236513 -0.192558E-05  0.422E-03    0.21       2.3  T
   8   -163.3236532 -0.190264E-05  0.289E-03    0.21       3.3  T
   9   -163.3236536 -0.492839E-06  0.201E-03    0.21       4.8  T
  10   -163.3236540 -0.347682E-06  0.140E-03    0.21       6.9  T
  11   -163.3236544 -0.453096E-06  0.715E-04    0.21      13.5  T
  12   -163.3236546 -0.107335E-06  0.369E-04    0.21      26.2  T
     SCC iter.                  ...        0 min,  0.199 sec
     gradient                   ...        0 min,  0.024 sec
 * total energy  :  -161.3757989 Eh     change       -0.1145537E-02 Eh
   gradient norm :     0.0120824 Eh/α   predicted    -0.1060993E-02 (  -7.38%)
   displ. norm   :     0.6936172 α      lambda       -0.1123307E-02
   maximum displ.:     0.3592573 α      in ANC's #9, #8, #10, ...

........................................................................
.............................. CYCLE   75 ..............................
........................................................................

 iter      E             dE          RMSdq      gap      omega  full diag
   1   -163.3243883 -0.163324E+03  0.134E-01    0.22       0.0  T
   2   -163.3235528  0.835505E-03  0.987E-02    0.22       1.0  T
   3   -163.3155278  0.802497E-02  0.174E-01    0.19       1.0  T
   4   -163.3231040 -0.757613E-02  0.697E-02    0.24       1.0  T
   5   -163.3244569 -0.135297E-02  0.180E-02    0.23       1.0  T
   6   -163.3245379 -0.809337E-04  0.526E-03    0.22       1.8  T
   7   -163.3245397 -0.184665E-05  0.397E-03    0.22       2.4  T
   8   -163.3245414 -0.169938E-05  0.249E-03    0.22       3.9  T
   9   -163.3245415 -0.948867E-07  0.193E-03    0.22       5.0  T
  10   -163.3245420 -0.533287E-06  0.126E-03    0.22       7.7  T
  11   -163.3245424 -0.404668E-06  0.514E-04    0.22      18.8  T
  12   -163.3245425 -0.398618E-07  0.303E-04    0.22      31.9  T
     SCC iter.                  ...        0 min,  0.220 sec
     gradient                   ...        0 min,  0.020 sec
 * total energy  :  -161.3766916 Eh     change       -0.8927574E-03 Eh
   gradient norm :     0.0100536 Eh/α   predicted    -0.8318749E-03 (  -6.82%)
   displ. norm   :     0.6197903 α      lambda       -0.8559959E-03
   maximum displ.:     0.3305269 α      in ANC's #9, #8, #10, ...

........................................................................
.............................. CYCLE   76 ..............................
........................................................................

 iter      E             dE          RMSdq      gap      omega  full diag
   1   -163.3243214 -0.163324E+03  0.142E-01    0.24       0.0  T
   2   -163.3237599  0.561497E-03  0.966E-02    0.24       1.0  T
   3   -163.3129277  0.108322E-01  0.193E-01    0.21       1.0  T
   4   -163.3233141 -0.103864E-01  0.622E-02    0.25       1.0  T
   5   -163.3243641 -0.104995E-02  0.157E-02    0.25       1.0  T
   6   -163.3244230 -0.589020E-04  0.561E-03    0.24       1.7  T
   7   -163.3244270 -0.401653E-05  0.342E-03    0.24       2.8  T
   8   -163.3244280 -0.104030E-05  0.231E-03    0.24       4.2  T
   9   -163.3244282 -0.190802E-06  0.171E-03    0.24       5.7  T
  10   -163.3244286 -0.324269E-06  0.121E-03    0.24       8.0  T
  11   -163.3244289 -0.382419E-06  0.451E-04    0.24      21.5  T
  12   -163.3244290 -0.342915E-07  0.252E-04    0.24      38.4  T
     SCC iter.                  ...        0 min,  0.200 sec
     gradient                   ...        0 min,  0.020 sec
 * total energy  :  -161.3773382 Eh     change       -0.6465646E-03 Eh
   gradient norm :     0.0075533 Eh/α   predicted    -0.5924114E-03 (  -8.38%)
   displ. norm   :     0.5302184 α      lambda       -0.7001572E-03
   maximum displ.:     0.2873145 α      in ANC's #9, #8, #10, ...

........................................................................
.............................. CYCLE   77 ..............................
........................................................................

 iter      E             dE          RMSdq      gap      omega  full diag
   1   -163.3277872 -0.163328E+03  0.114E-01    0.27       0.0  T
   2   -163.3273968  0.390344E-03  0.776E-02    0.26       1.0  T
   3   -163.3213515  0.604531E-02  0.147E-01    0.24       1.0  T
   4   -163.3268530 -0.550152E-02  0.599E-02    0.27       1.0  T
   5   -163.3278140 -0.960972E-03  0.149E-02    0.27       1.0  T
   6   -163.3278693 -0.552925E-04  0.507E-03    0.26       1.9  T
   7   -163.3278733 -0.397619E-05  0.286E-03    0.26       3.4  T
   8   -163.3278737 -0.450553E-06  0.210E-03    0.26       4.6  T
   9   -163.3278741 -0.381181E-06  0.136E-03    0.26       7.1  T
  10   -163.3278743 -0.214829E-06  0.103E-03    0.26       9.4  T
  11   -163.3278746 -0.260729E-06  0.374E-04    0.26      25.9  T
  12   -163.3278746 -0.232349E-07  0.175E-04    0.26      55.3  T
     SCC iter.                  ...        0 min,  0.203 sec
     gradient                   ...        0 min,  0.023 sec
 * total energy  :  -161.3778516 Eh     change       -0.5134237E-03 Eh
   gradient norm :     0.0090869 Eh/α   predicted    -0.4484983E-03 ( -12.65%)
   displ. norm   :     0.5500036 α      lambda       -0.6169177E-03
   maximum displ.:     0.2908552 α      in ANC's #9, #8, #10, ...

........................................................................
.............................. CYCLE   78 ..............................
........................................................................

 iter      E             dE          RMSdq      gap      omega  full diag
   1   -163.3264086 -0.163326E+03  0.124E-01    0.27       0.0  T
   2   -163.3260400  0.368587E-03  0.826E-02    0.28       1.0  T
   3   -163.3177219  0.831809E-02  0.169E-01    0.25       1.0  T
   4   -163.3255642 -0.784223E-02  0.577E-02    0.27       1.0  T
   5   -163.3264484 -0.884219E-03  0.109E-02    0.28       1.0  T
   6   -163.3264724 -0.240530E-04  0.525E-03    0.28       1.8  T
   7   -163.3264767 -0.424559E-05  0.283E-03    0.28       3.4  T
   8   -163.3264774 -0.681569E-06  0.193E-03    0.28       5.0  T
   9   -163.3264776 -0.214606E-06  0.135E-03    0.28       7.2  T
  10   -163.3264778 -0.240631E-06  0.941E-04    0.28      10.3  T
  11   -163.3264780 -0.228055E-06  0.333E-04    0.28      29.0  T
     SCC iter.                  ...        0 min,  0.187 sec
     gradient                   ...        0 min,  0.022 sec
 * total energy  :  -161.3783267 Eh     change       -0.4750930E-03 Eh
   gradient norm :     0.0081015 Eh/α   predicted    -0.4017746E-03 ( -15.43%)
   displ. norm   :     0.5871377 α      lambda       -0.7390504E-03
   maximum displ.:     0.2793830 α      in ANC's #16, #9, #5, ...

........................................................................
.............................. CYCLE   79 ..............................
........................................................................

 iter      E             dE          RMSdq      gap      omega  full diag
   1   -163.3324021 -0.163332E+03  0.154E-01    0.31       0.0  T
   2   -163.3321387  0.263395E-03  0.983E-02    0.30       1.0  T
   3   -163.3230501  0.908864E-02  0.175E-01    0.28       1.0  T
   4   -163.3309347 -0.788461E-02  0.738E-02    0.31       1.0  T
   5   -163.3324467 -0.151197E-02  0.122E-02    0.30       1.0  T
   6   -163.3324726 -0.258963E-04  0.668E-03    0.30       1.4  T
   7   -163.3324810 -0.845499E-05  0.363E-03    0.30       2.7  T
   8   -163.3324824 -0.139316E-05  0.234E-03    0.30       4.1  T
   9   -163.3324830 -0.622118E-06  0.153E-03    0.30       6.3  T
  10   -163.3324833 -0.258835E-06  0.102E-03    0.30       9.4  T
  11   -163.3324835 -0.228081E-06  0.347E-04    0.30      27.8  T
  12   -163.3324835 -0.139767E-07  0.201E-04    0.30      48.0  T
     SCC iter.                  ...        0 min,  0.201 sec
     gradient                   ...        0 min,  0.024 sec
 * total energy  :  -161.3788156 Eh     change       -0.4888780E-03 Eh
   gradient norm :     0.0103843 Eh/α   predicted    -0.4969134E-03 (   1.64%)
   displ. norm   :     0.5637945 α      lambda       -0.6580278E-03
   maximum displ.:     0.2786385 α      in ANC's #9, #16, #5, ...

........................................................................
.............................. CYCLE   80 ..............................
........................................................................

 iter      E             dE          RMSdq      gap      omega  full diag
   1   -163.3292411 -0.163329E+03  0.121E-01    0.28       0.0  T
   2   -163.3287060  0.535083E-03  0.853E-02    0.30       1.0  T
   3   -163.3206313  0.807471E-02  0.172E-01    0.28       1.0  T
   4   -163.3283562 -0.772498E-02  0.605E-02    0.29       1.0  T
   5   -163.3293087 -0.952503E-03  0.975E-03    0.30       1.0  T
   6   -163.3293236 -0.148024E-04  0.496E-03    0.29       1.9  T
   7   -163.3293265 -0.295005E-05  0.312E-03    0.30       3.1  T
   8   -163.3293272 -0.675841E-06  0.257E-03    0.30       3.8  T
   9   -163.3293282 -0.107388E-05  0.125E-03    0.30       7.7  T
  10   -163.3293283 -0.709638E-07  0.967E-04    0.30      10.0  T
  11   -163.3293285 -0.214417E-06  0.329E-04    0.30      29.4  T
     SCC iter.                  ...        0 min,  0.196 sec
     gradient                   ...        0 min,  0.023 sec
 * total energy  :  -161.3793305 Eh     change       -0.5149267E-03 Eh
   gradient norm :     0.0090778 Eh/α   predicted    -0.4335981E-03 ( -15.79%)
   displ. norm   :     0.5564086 α      lambda       -0.6539839E-03
   maximum displ.:     0.2476129 α      in ANC's #16, #9, #5, ...

........................................................................
.............................. CYCLE   81 ..............................
........................................................................

 iter      E             dE          RMSdq      gap      omega  full diag
   1   -163.3283252 -0.163328E+03  0.126E-01    0.32       0.0  T
   2   -163.3278427  0.482457E-03  0.874E-02    0.31       1.0  T
   3   -163.3193937  0.844900E-02  0.177E-01    0.30       1.0  T
   4   -163.3273274 -0.793370E-02  0.633E-02    0.31       1.0  T
   5   -163.3283801 -0.105269E-02  0.115E-02    0.31       1.0  T
   6   -163.3284007 -0.205903E-04  0.588E-03    0.31       1.6  T
   7   -163.3284069 -0.623745E-05  0.336E-03    0.31       2.9  T
   8   -163.3284079 -0.951262E-06  0.243E-03    0.31       4.0  T
   9   -163.3284082 -0.343811E-06  0.168E-03    0.31       5.8  T
  10   -163.3284086 -0.406119E-06  0.102E-03    0.31       9.5  T
  11   -163.3284089 -0.279982E-06  0.328E-04    0.31      29.5  T
  12   -163.3284089 -0.137478E-07  0.222E-04    0.31      43.6  T
     SCC iter.                  ...        0 min,  0.203 sec
     gradient                   ...        0 min,  0.021 sec
 * total energy  :  -161.3798468 Eh     change       -0.5163493E-03 Eh
   gradient norm :     0.0096967 Eh/α   predicted    -0.4282315E-03 ( -17.07%)
   displ. norm   :     0.6191426 α      lambda       -0.6617684E-03
   maximum displ.:     0.2688103 α      in ANC's #16, #9, #5, ...

........................................................................
.............................. CYCLE   82 ..............................
........................................................................

 iter      E             dE          RMSdq      gap      omega  full diag
   1   -163.3249341 -0.163325E+03  0.145E-01    0.27       0.0  T
   2   -163.3239763  0.957794E-03  0.106E-01    0.30       1.0  T
   3   -163.3130034  0.109729E-01  0.205E-01    0.27       1.0  T
   4   -163.3236302 -0.106268E-01  0.742E-02    0.28       1.0  T
   5   -163.3250327 -0.140254E-02  0.148E-02    0.29       1.0  T
   6   -163.3250662 -0.335410E-04  0.803E-03    0.29       1.2  T
   7   -163.3250800 -0.137429E-04  0.411E-03    0.29       2.4  T
   8   -163.3250816 -0.156404E-05  0.305E-03    0.29       3.2  T
   9   -163.3250823 -0.733479E-06  0.179E-03    0.29       5.4  T
  10   -163.3250824 -0.839376E-07  0.138E-03    0.29       7.0  T
  11   -163.3250828 -0.398078E-06  0.395E-04    0.29      24.5  T
  12   -163.3250828 -0.205907E-07  0.241E-04    0.29      40.2  T
     SCC iter.                  ...        0 min,  0.192 sec
     gradient                   ...        0 min,  0.020 sec
 * total energy  :  -161.3803155 Eh     change       -0.4686858E-03 Eh
   gradient norm :     0.0119454 Eh/α   predicted    -0.4577260E-03 (  -2.34%)
   displ. norm   :     0.5629499 α      lambda       -0.6022569E-03
   maximum displ.:     0.2327994 α      in ANC's #16, #5, #9, ...

........................................................................
.............................. CYCLE   83 ..............................
........................................................................

 iter      E             dE          RMSdq      gap      omega  full diag
   1   -163.3258002 -0.163326E+03  0.122E-01    0.35       0.0  T
   2   -163.3253100  0.490216E-03  0.859E-02    0.32       1.0  T
   3   -163.3184844  0.682559E-02  0.165E-01    0.32       1.0  T
   4   -163.3245467 -0.606230E-02  0.691E-02    0.33       1.0  T
   5   -163.3258415 -0.129485E-02  0.150E-02    0.32       1.0  T
   6   -163.3258861 -0.445272E-04  0.680E-03    0.32       1.4  T
   7   -163.3258955 -0.944686E-05  0.340E-03    0.32       2.8  T
   8   -163.3258966 -0.113509E-05  0.238E-03    0.32       4.1  T
   9   -163.3258971 -0.476543E-06  0.152E-03    0.32       6.4  T
  10   -163.3258973 -0.172273E-06  0.102E-03    0.32       9.4  T
  11   -163.3258975 -0.205046E-06  0.298E-04    0.32      32.4  T
  12   -163.3258975 -0.880576E-08  0.205E-04    0.32      47.1  T
     SCC iter.                  ...        0 min,  0.208 sec
     gradient                   ...        0 min,  0.022 sec
 * total energy  :  -161.3807517 Eh     change       -0.4361587E-03 Eh
   gradient norm :     0.0111322 Eh/α   predicted    -0.3965612E-03 (  -9.08%)
   displ. norm   :     0.5779234 α      lambda       -0.5478268E-03
   maximum displ.:     0.2319092 α      in ANC's #5, #9, #16, ...

........................................................................
.............................. CYCLE   84 ..............................
........................................................................

 iter      E             dE          RMSdq      gap      omega  full diag
   1   -163.3267041 -0.163327E+03  0.115E-01    0.32       0.0  T
   2   -163.3261933  0.510798E-03  0.807E-02    0.33       1.0  T
   3   -163.3194965  0.669675E-02  0.163E-01    0.32       1.0  T
   4   -163.3256381 -0.614161E-02  0.656E-02    0.32       1.0  T
   5   -163.3267601 -0.112199E-02  0.106E-02    0.33       1.0  T
   6   -163.3267802 -0.201154E-04  0.485E-03    0.32       2.0  T
   7   -163.3267836 -0.336289E-05  0.304E-03    0.33       3.2  T
   8   -163.3267841 -0.495635E-06  0.241E-03    0.32       4.0  T
   9   -163.3267840  0.115993E-06  0.186E-03    0.33       5.2  T
  10   -163.3267847 -0.720027E-06  0.915E-04    0.32      10.6  T
  11   -163.3267849 -0.192012E-06  0.306E-04    0.32      31.6  T
     SCC iter.                  ...        0 min,  0.200 sec
     gradient                   ...        0 min,  0.022 sec
 * total energy  :  -161.3811855 Eh     change       -0.4338434E-03 Eh
   gradient norm :     0.0096431 Eh/α   predicted    -0.3654024E-03 ( -15.78%)
   displ. norm   :     0.5883454 α      lambda       -0.6447110E-03
   maximum displ.:     0.2456643 α      in ANC's #5, #9, #7, ...

........................................................................
.............................. CYCLE   85 ..............................
........................................................................

 iter      E             dE          RMSdq      gap      omega  full diag
   1   -163.3311740 -0.163331E+03  0.123E-01    0.33       0.0  T
   2   -163.3307905  0.383495E-03  0.836E-02    0.34       1.0  T
   3   -163.3225525  0.823801E-02  0.175E-01    0.32       1.0  T
   4   -163.3302561 -0.770357E-02  0.605E-02    0.33       1.0  T
   5   -163.3311995 -0.943419E-03  0.124E-02    0.34       1.0  T
   6   -163.3312277 -0.282555E-04  0.662E-03    0.33       1.5  T
   7   -163.3312372 -0.945221E-05  0.284E-03    0.34       3.4  T
   8   -163.3312375 -0.275495E-06  0.231E-03    0.33       4.2  T
   9   -163.3312376 -0.896959E-07  0.172E-03    0.34       5.6  T
  10   -163.3312379 -0.300037E-06  0.114E-03    0.33       8.5  T
  11   -163.3312382 -0.289857E-06  0.324E-04    0.33      29.8  T
  12   -163.3312382 -0.159346E-07  0.181E-04    0.33      53.5  T
     SCC iter.                  ...        0 min,  0.211 sec
     gradient                   ...        0 min,  0.022 sec
 * total energy  :  -161.3816695 Eh     change       -0.4839248E-03 Eh
   gradient norm :     0.0085344 Eh/α   predicted    -0.4339408E-03 ( -10.33%)
   displ. norm   :     0.6559204 α      lambda       -0.5987395E-03
   maximum displ.:     0.2764853 α      in ANC's #5, #9, #7, ...

........................................................................
.............................. CYCLE   86 ..............................
........................................................................

 iter      E             dE          RMSdq      gap      omega  full diag
   1   -163.3317059 -0.163332E+03  0.125E-01    0.32       0.0  T
   2   -163.3307685  0.937440E-03  0.923E-02    0.34       1.0  T
   3   -163.3220924  0.867609E-02  0.187E-01    0.33       1.0  T
   4   -163.3307445 -0.865211E-02  0.663E-02    0.33       1.0  T
   5   -163.3317832 -0.103873E-02  0.129E-02    0.34       1.0  T
   6   -163.3318105 -0.272573E-04  0.694E-03    0.34       1.4  T
   7   -163.3318188 -0.830869E-05  0.373E-03    0.34       2.6  T
   8   -163.3318189 -0.834328E-07  0.330E-03    0.34       2.9  T
   9   -163.3318189 -0.165073E-07  0.229E-03    0.34       4.2  T
  10   -163.3318199 -0.967960E-06  0.115E-03    0.34       8.4  T
  11   -163.3318201 -0.266076E-06  0.472E-04    0.34      20.5  T
  12   -163.3318202 -0.376934E-07  0.258E-04    0.34      37.5  T
     SCC iter.                  ...        0 min,  0.206 sec
     gradient                   ...        0 min,  0.023 sec
 * total energy  :  -161.3820831 Eh     change       -0.4136792E-03 Eh
   gradient norm :     0.0110120 Eh/α   predicted    -0.4281710E-03 (   3.50%)
   displ. norm   :     0.6020099 α      lambda       -0.5736838E-03
   maximum displ.:     0.2623014 α      in ANC's #5, #4, #7, ...

........................................................................
.............................. CYCLE   87 ..............................
........................................................................

 iter      E             dE          RMSdq      gap      omega  full diag
   1   -163.3316534 -0.163332E+03  0.129E-01    0.35       0.0  T
   2   -163.3310749  0.578448E-03  0.899E-02    0.35       1.0  T
   3   -163.3184386  0.126363E-01  0.213E-01    0.35       1.0  T
   4   -163.3312091 -0.127706E-01  0.466E-02    0.35       1.0  T
   5   -163.3316944 -0.485275E-03  0.974E-03    0.36       1.0  T
   6   -163.3317088 -0.144250E-04  0.592E-03    0.35       1.6  T
   7   -163.3317153 -0.649251E-05  0.328E-03    0.36       2.9  T
   8   -163.3317154 -0.713267E-07  0.299E-03    0.35       3.2  T
   9   -163.3317155 -0.116391E-06  0.204E-03    0.36       4.7  T
  10   -163.3317165 -0.952922E-06  0.800E-04    0.35      12.1  T
  11   -163.3317166 -0.105866E-06  0.366E-04    0.35      26.4  T
     SCC iter.                  ...        0 min,  0.193 sec
     gradient                   ...        0 min,  0.021 sec
 * total energy  :  -161.3825173 Eh     change       -0.4342017E-03 Eh
   gradient norm :     0.0086232 Eh/α   predicted    -0.3908026E-03 ( -10.00%)
   displ. norm   :     0.5454928 α      lambda       -0.5414358E-03
   maximum displ.:     0.2356001 α      in ANC's #5, #4, #7, ...

........................................................................
.............................. CYCLE   88 ..............................
........................................................................

 iter      E             dE          RMSdq      gap      omega  full diag
   1   -163.3350508 -0.163335E+03  0.121E-01    0.37       0.0  T
   2   -163.3348621  0.188662E-03  0.787E-02    0.38       1.0  T
   3   -163.3282449  0.661718E-02  0.158E-01    0.35       1.0  T
   4   -163.3341640 -0.591904E-02  0.567E-02    0.37       1.0  T
   5   -163.3350263 -0.862389E-03  0.146E-02    0.38       1.0  T
   6   -163.3350796 -0.532374E-04  0.718E-03    0.37       1.3  T
   7   -163.3350914 -0.118313E-04  0.288E-03    0.37       3.4  T
   8   -163.3350919 -0.468858E-06  0.218E-03    0.37       4.4  T
   9   -163.3350921 -0.207424E-06  0.148E-03    0.37       6.5  T
  10   -163.3350925 -0.409947E-06  0.835E-04    0.37      11.6  T
  11   -163.3350926 -0.120532E-06  0.408E-04    0.37      23.7  T
     SCC iter.                  ...        0 min,  0.178 sec
     gradient                   ...        0 min,  0.021 sec
 * total energy  :  -161.3828772 Eh     change       -0.3598291E-03 Eh
   gradient norm :     0.0082326 Eh/α   predicted    -0.3512747E-03 (  -2.38%)
   displ. norm   :     0.6126227 α      lambda       -0.4497807E-03
   maximum displ.:     0.2714183 α      in ANC's #5, #4, #7, ...

........................................................................
.............................. CYCLE   89 ..............................
........................................................................

 iter      E             dE          RMSdq      gap      omega  full diag
   1   -163.3280979 -0.163328E+03  0.133E-01    0.38       0.0  T
   2   -163.3264129  0.168504E-02  0.111E-01    0.38       1.0  T
   3   -163.3170988  0.931407E-02  0.200E-01    0.38       1.0  T
   4   -163.3271173 -0.100185E-01  0.663E-02    0.38       1.0  T
   5   -163.3281629 -0.104560E-02  0.193E-02    0.38       1.0  T
   6   -163.3282362 -0.733686E-04  0.702E-03    0.38       1.4  T
   7   -163.3282421 -0.588724E-05  0.473E-03    0.38       2.0  T
   8   -163.3282431 -0.992683E-06  0.384E-03    0.38       2.5  T
   9   -163.3282411  0.202788E-05  0.380E-03    0.38       2.5  T
  10   -163.3282440 -0.290238E-05  0.119E-03    0.38       8.2  T
  11   -163.3282442 -0.219771E-06  0.554E-04    0.38      17.5  T
  12   -163.3282443 -0.491477E-07  0.284E-04    0.38      34.1  T
     SCC iter.                  ...        0 min,  0.210 sec
     gradient                   ...        0 min,  0.026 sec
 * total energy  :  -161.3831559 Eh     change       -0.2787253E-03 Eh
   gradient norm :     0.0086938 Eh/α   predicted    -0.3092964E-03 (  10.97%)
   displ. norm   :     0.3988259 α      lambda       -0.4422807E-03
   maximum displ.:     0.1800095 α      in ANC's #4, #8, #5, ...

........................................................................
.............................. CYCLE   90 ..............................
........................................................................

 iter      E             dE          RMSdq      gap      omega  full diag
   1   -163.3326644 -0.163333E+03  0.115E-01    0.37       0.0  T
   2   -163.3325694  0.949749E-04  0.740E-02    0.38       1.0  T
   3   -163.3282314  0.433805E-02  0.119E-01    0.34       1.0  T
   4   -163.3324496 -0.421826E-02  0.315E-02    0.37       1.0  T
   5   -163.3326730 -0.223406E-03  0.942E-03    0.37       1.0  T
   6   -163.3326809 -0.784261E-05  0.685E-03    0.37       1.4  T
   7   -163.3326919 -0.110191E-04  0.308E-03    0.37       3.1  T
   8   -163.3326933 -0.141443E-05  0.194E-03    0.37       5.0  T
   9   -163.3326939 -0.546430E-06  0.105E-03    0.37       9.2  T
  10   -163.3326939 -0.923071E-07  0.723E-04    0.37      13.4  T
  11   -163.3326940 -0.991951E-07  0.326E-04    0.37      29.6  T
     SCC iter.                  ...        0 min,  0.259 sec
     gradient                   ...        0 min,  0.023 sec
 * total energy  :  -161.3833664 Eh     change       -0.2105559E-03 Eh
   gradient norm :     0.0092957 Eh/α   predicted    -0.2563173E-03 (  21.73%)
   displ. norm   :     0.3324375 α      lambda       -0.3029487E-03
   maximum displ.:     0.1511700 α      in ANC's #5, #4, #7, ...

........................................................................
.............................. CYCLE   91 ..............................
........................................................................

 iter      E             dE          RMSdq      gap      omega  full diag
   1   -163.3320698 -0.163332E+03  0.808E-02    0.39       0.0  T
   2   -163.3319070  0.162835E-03  0.564E-02    0.38       1.0  T
   3   -163.3281514  0.375555E-02  0.119E-01    0.39       1.0  T
   4   -163.3312884 -0.313695E-02  0.537E-02    0.39       1.0  T
   5   -163.3320748 -0.786433E-03  0.107E-02    0.38       1.0  T
   6   -163.3320952 -0.203335E-04  0.406E-03    0.39       2.4  T
   7   -163.3320980 -0.284983E-05  0.254E-03    0.38       3.8  T
   8   -163.3320991 -0.107229E-05  0.137E-03    0.38       7.1  T
   9   -163.3320989  0.225288E-06  0.141E-03    0.38       6.9  T
  10   -163.3320993 -0.400459E-06  0.595E-04    0.38      16.3  T
  11   -163.3320993 -0.474267E-07  0.336E-04    0.38      28.8  T
     SCC iter.                  ...        0 min,  0.199 sec
     gradient                   ...        0 min,  0.022 sec
 * total energy  :  -161.3835877 Eh     change       -0.2212401E-03 Eh
   gradient norm :     0.0063739 Eh/α   predicted    -0.1682169E-03 ( -23.97%)
   displ. norm   :     0.3306377 α      lambda       -0.3025869E-03
   maximum displ.:     0.1651112 α      in ANC's #4, #5, #8, ...

........................................................................
.............................. CYCLE   92 ..............................
........................................................................

 iter      E             dE          RMSdq      gap      omega  full diag
   1   -163.3335902 -0.163334E+03  0.968E-02    0.41       0.0  T
   2   -163.3335111  0.791059E-04  0.628E-02    0.39       1.0  T
   3   -163.3309735  0.253757E-02  0.105E-01    0.41       1.0  T
   4   -163.3327400 -0.176654E-02  0.535E-02    0.39       1.0  T
   5   -163.3335626 -0.822575E-03  0.145E-02    0.40       1.0  T
   6   -163.3336133 -0.507457E-04  0.400E-03    0.40       2.4  T
   7   -163.3336157 -0.236470E-05  0.281E-03    0.40       3.4  T
   8   -163.3336175 -0.174049E-05  0.121E-03    0.40       8.0  T
   9   -163.3336175 -0.112118E-07  0.995E-04    0.40       9.7  T
  10   -163.3336176 -0.166682E-06  0.528E-04    0.40      18.3  T
     SCC iter.                  ...        0 min,  0.191 sec
     gradient                   ...        0 min,  0.022 sec
 * total energy  :  -161.3838011 Eh     change       -0.2133766E-03 Eh
   gradient norm :     0.0065237 Eh/α   predicted    -0.1678379E-03 ( -21.34%)
   displ. norm   :     0.3951376 α      lambda       -0.2820939E-03
   maximum displ.:     0.2030266 α      in ANC's #4, #5, #8, ...
 * RMSD in coord.:     1.0901500 α      energy gain  -0.1530458E-01 Eh

generating ANC from exact Hessian ...
Using Lindh-Hessian (1995)
 Shifting diagonal of input Hessian by   1.028950554482220E-002
 Lowest  eigenvalues of input Hessian
    0.010000    0.010058    0.000000    0.000000    0.000000    0.000000
    0.000000    0.000000    0.010341    0.010410    0.010444    0.010506
    0.010565    0.010665    0.010777    0.010887    0.010891    0.010941
 Highest eigenvalues
    2.153102    2.155426    2.164184    2.165052    2.199857    2.430374
 

........................................................................
.............................. CYCLE   93 ..............................
........................................................................

 iter      E             dE          RMSdq      gap      omega  full diag
   1   -163.3332192 -0.163333E+03  0.107E-01    0.40       0.0  T
   2   -163.3330151  0.204086E-03  0.734E-02    0.39       1.0  T
   3   -163.3269598  0.605522E-02  0.150E-01    0.41       1.0  T
   4   -163.3317235 -0.476370E-02  0.732E-02    0.40       1.0  T
   5   -163.3331883 -0.146471E-02  0.170E-02    0.40       1.0  T
   6   -163.3332541 -0.658550E-04  0.471E-03    0.40       2.1  T
   7   -163.3332576 -0.348744E-05  0.340E-03    0.40       2.8  T
   8   -163.3332598 -0.223087E-05  0.168E-03    0.40       5.8  T
   9   -163.3332597  0.963373E-07  0.148E-03    0.40       6.5  T
  10   -163.3332600 -0.317988E-06  0.819E-04    0.40      11.8  T
  11   -163.3332602 -0.138789E-06  0.299E-04    0.40      32.4  T
     SCC iter.                  ...        0 min,  0.197 sec
     gradient                   ...        0 min,  0.021 sec
 * total energy  :  -161.3840060 Eh     change       -0.2049784E-03 Eh
   gradient norm :     0.0073773 Eh/α   predicted     0.0000000E+00 (-100.00%)
   displ. norm   :     0.0974600 α      lambda       -0.2139097E-03
   maximum displ.:     0.0342396 α      in ANC's #8, #4, #9, ...

........................................................................
.............................. CYCLE   94 ..............................
........................................................................

 iter      E             dE          RMSdq      gap      omega  full diag
   1   -163.3331830 -0.163333E+03  0.435E-02    0.39       0.0  T
   2   -163.3331713  0.116535E-04  0.275E-02    0.40       1.0  T
   3   -163.3326725  0.498862E-03  0.435E-02    0.40       1.0  T
   4   -163.3331113 -0.438865E-03  0.161E-02    0.39       1.0  T
   5   -163.3331685 -0.571364E-04  0.795E-03    0.40       1.2  T
   6   -163.3331872 -0.187634E-04  0.155E-03    0.40       6.2  T
   7   -163.3331874 -0.158440E-06  0.109E-03    0.40       8.9  T
   8   -163.3331874  0.137563E-07  0.924E-04    0.40      10.5  T
   9   -163.3331875 -0.139156E-06  0.525E-04    0.40      18.4  T
     SCC iter.                  ...        0 min,  0.180 sec
     gradient                   ...        0 min,  0.023 sec
 * total energy  :  -161.3841613 Eh     change       -0.1553013E-03 Eh
   gradient norm :     0.0037730 Eh/α   predicted    -0.1082105E-03 ( -30.32%)
   displ. norm   :     0.2684592 α      lambda       -0.3701932E-03
   maximum displ.:     0.1082471 α      in ANC's #8, #4, #9, ...

........................................................................
.............................. CYCLE   95 ..............................
........................................................................

 iter      E             dE          RMSdq      gap      omega  full diag
   1   -163.3331189 -0.163333E+03  0.747E-02    0.39       0.0  T
   2   -163.3330273  0.916150E-04  0.495E-02    0.40       1.0  T
   3   -163.3312442  0.178303E-02  0.856E-02    0.40       1.0  T
   4   -163.3326452 -0.140098E-02  0.406E-02    0.40       1.0  T
   5   -163.3330534 -0.408175E-03  0.177E-02    0.40       1.0  T
   6   -163.3331441 -0.906635E-04  0.375E-03    0.40       2.6  T
   7   -163.3331457 -0.164992E-05  0.212E-03    0.40       4.6  T
   8   -163.3331460 -0.318031E-06  0.163E-03    0.40       5.9  T
   9   -163.3331464 -0.415225E-06  0.941E-04    0.40      10.3  T
  10   -163.3331466 -0.155664E-06  0.465E-04    0.40      20.8  T
     SCC iter.                  ...        0 min,  0.175 sec
     gradient                   ...        0 min,  0.021 sec
 * total energy  :  -161.3844023 Eh     change       -0.2409643E-03 Eh
   gradient norm :     0.0064630 Eh/α   predicted    -0.1984912E-03 ( -17.63%)
   displ. norm   :     0.2990696 α      lambda       -0.2621270E-03
   maximum displ.:     0.1237675 α      in ANC's #8, #4, #9, ...

........................................................................
.............................. CYCLE   96 ..............................
........................................................................

 iter      E             dE          RMSdq      gap      omega  full diag
   1   -163.3332416 -0.163333E+03  0.737E-02    0.41       0.0  T
   2   -163.3331017  0.139951E-03  0.508E-02    0.40       1.0  T
   3   -163.3303137  0.278797E-02  0.104E-01    0.42       1.0  T
   4   -163.3323771 -0.206338E-02  0.530E-02    0.41       1.0  T
   5   -163.3332245 -0.847391E-03  0.133E-02    0.41       1.0  T
   6   -163.3332647 -0.402223E-04  0.351E-03    0.41       2.8  T
   7   -163.3332661 -0.140909E-05  0.230E-03    0.41       4.2  T
   8   -163.3332670 -0.860761E-06  0.137E-03    0.41       7.1  T
   9   -163.3332672 -0.222208E-06  0.880E-04    0.41      11.0  T
  10   -163.3332673 -0.993933E-07  0.517E-04    0.41      18.7  T
     SCC iter.                  ...        0 min,  0.169 sec
     gradient                   ...        0 min,  0.026 sec
 * total energy  :  -161.3846233 Eh     change       -0.2210152E-03 Eh
   gradient norm :     0.0088101 Eh/α   predicted    -0.1427902E-03 ( -35.39%)
   displ. norm   :     0.5690261 α      lambda       -0.5205339E-03
   maximum displ.:     0.2362700 α      in ANC's #8, #4, #9, ...

........................................................................
.............................. CYCLE   97 ..............................
........................................................................

 iter      E             dE          RMSdq      gap      omega  full diag
   1   -163.3328466 -0.163333E+03  0.130E-01    0.43       0.0  T
   2   -163.3323079  0.538708E-03  0.917E-02    0.42       1.0  T
   3   -163.3247582  0.754975E-02  0.176E-01    0.44       1.0  T
   4   -163.3294664 -0.470822E-02  0.105E-01    0.42       1.0  T
   5   -163.3327698 -0.330340E-02  0.275E-02    0.42       1.0  T
   6   -163.3329323 -0.162534E-03  0.761E-03    0.42       1.3  T
   7   -163.3329414 -0.906997E-05  0.448E-03    0.42       2.2  T
   8   -163.3329447 -0.334105E-05  0.263E-03    0.42       3.7  T
   9   -163.3329452 -0.497766E-06  0.199E-03    0.42       4.9  T
  10   -163.3329456 -0.372216E-06  0.121E-03    0.42       8.0  T
  11   -163.3329458 -0.220043E-06  0.636E-04    0.42      15.2  T
  12   -163.3329459 -0.805814E-07  0.235E-04    0.42      41.2  T
     SCC iter.                  ...        0 min,  0.215 sec
     gradient                   ...        0 min,  0.021 sec
 * total energy  :  -161.3850738 Eh     change       -0.4504383E-03 Eh
   gradient norm :     0.0089049 Eh/α   predicted    -0.3445451E-03 ( -23.51%)
   displ. norm   :     0.6802005 α      lambda       -0.6610976E-03
   maximum displ.:     0.2857632 α      in ANC's #8, #4, #9, ...

........................................................................
.............................. CYCLE   98 ..............................
........................................................................

 iter      E             dE          RMSdq      gap      omega  full diag
   1   -163.3321411 -0.163332E+03  0.153E-01    0.45       0.0  T
   2   -163.3312325  0.908603E-03  0.112E-01    0.43       1.0  T
   3   -163.3183910  0.128415E-01  0.227E-01    0.47       1.0  T
   4   -163.3263579 -0.796693E-02  0.140E-01    0.44       1.0  T
   5   -163.3319973 -0.563934E-02  0.351E-02    0.44       1.0  T
   6   -163.3322446 -0.247290E-03  0.110E-02    0.45       1.0  T
   7   -163.3322674 -0.228229E-04  0.632E-03    0.44       1.5  T
   8   -163.3322739 -0.651441E-05  0.376E-03    0.44       2.6  T
   9   -163.3322739  0.172295E-07  0.337E-03    0.44       2.9  T
  10   -163.3322749 -0.103451E-05  0.169E-03    0.44       5.7  T
  11   -163.3322754 -0.459009E-06  0.790E-04    0.44      12.2  T
  12   -163.3322755 -0.114234E-06  0.336E-04    0.44      28.7  T
     SCC iter.                  ...        0 min,  0.205 sec
     gradient                   ...        0 min,  0.021 sec
 * total energy  :  -161.3856331 Eh     change       -0.5593050E-03 Eh
   gradient norm :     0.0070175 Eh/α   predicted    -0.4834933E-03 ( -13.55%)
   displ. norm   :     0.7049470 α      lambda       -0.6490009E-03
   maximum displ.:     0.2965556 α      in ANC's #8, #4, #9, ...

........................................................................
.............................. CYCLE   99 ..............................
........................................................................

 iter      E             dE          RMSdq      gap      omega  full diag
   1   -163.3320666 -0.163332E+03  0.160E-01    0.47       0.0  T
   2   -163.3311619  0.904649E-03  0.115E-01    0.45       1.0  T
   3   -163.3175280  0.136340E-01  0.235E-01    0.49       1.0  T
   4   -163.3250274 -0.749949E-02  0.157E-01    0.45       1.0  T
   5   -163.3318492 -0.682175E-02  0.395E-02    0.46       1.0  T
   6   -163.3321636 -0.314448E-03  0.125E-02    0.46       1.0  T
   7   -163.3321955 -0.318743E-04  0.699E-03    0.46       1.4  T
   8   -163.3322034 -0.788872E-05  0.406E-03    0.46       2.4  T
   9   -163.3322041 -0.725604E-06  0.349E-03    0.46       2.8  T
  10   -163.3322053 -0.118195E-05  0.166E-03    0.46       5.8  T
  11   -163.3322058 -0.478532E-06  0.712E-04    0.46      13.6  T
  12   -163.3322059 -0.790463E-07  0.341E-04    0.46      28.3  T
     SCC iter.                  ...        0 min,  0.222 sec
     gradient                   ...        0 min,  0.024 sec
 * total energy  :  -161.3861966 Eh     change       -0.5635023E-03 Eh
   gradient norm :     0.0081093 Eh/α   predicted    -0.4857785E-03 ( -13.79%)
   displ. norm   :     0.7087964 α      lambda       -0.6854355E-03
   maximum displ.:     0.2948569 α      in ANC's #8, #4, #3, ...

........................................................................
.............................. CYCLE  100 ..............................
........................................................................

 iter      E             dE          RMSdq      gap      omega  full diag
   1   -163.3335017 -0.163334E+03  0.169E-01    0.48       0.0  T
   2   -163.3327805  0.721218E-03  0.116E-01    0.47       1.0  T
   3   -163.3171285  0.156520E-01  0.250E-01    0.50       1.0  T
   4   -163.3266222 -0.949374E-02  0.159E-01    0.47       1.0  T
   5   -163.3331813 -0.655910E-02  0.431E-02    0.48       1.0  T
   6   -163.3335668 -0.385435E-03  0.138E-02    0.48       1.0  T
   7   -163.3336071 -0.402940E-04  0.800E-03    0.48       1.2  T
   8   -163.3336169 -0.985859E-05  0.465E-03    0.48       2.1  T
   9   -163.3336190 -0.212646E-05  0.357E-03    0.48       2.7  T
  10   -163.3336205 -0.143213E-05  0.161E-03    0.48       6.0  T
  11   -163.3336209 -0.440782E-06  0.581E-04    0.48      16.6  T
  12   -163.3336209 -0.329742E-07  0.351E-04    0.48      27.5  T
     SCC iter.                  ...        0 min,  0.200 sec
     gradient                   ...        0 min,  0.021 sec
 * total energy  :  -161.3868039 Eh     change       -0.6073173E-03 Eh
   gradient norm :     0.0098895 Eh/α   predicted    -0.5149045E-03 ( -15.22%)
   displ. norm   :     0.7365064 α      lambda       -0.7725922E-03
   maximum displ.:     0.3001054 α      in ANC's #8, #4, #3, ...

........................................................................
.............................. CYCLE  101 ..............................
........................................................................

 iter      E             dE          RMSdq      gap      omega  full diag
   1   -163.3354065 -0.163335E+03  0.187E-01    0.50       0.0  T
   2   -163.3348328  0.573616E-03  0.121E-01    0.49       1.0  T
   3   -163.3208890  0.139438E-01  0.249E-01    0.53       1.0  T
   4   -163.3328199 -0.119309E-01  0.968E-02    0.48       1.0  T
   5   -163.3345927 -0.177272E-02  0.595E-02    0.50       1.0  T
   6   -163.3354394 -0.846737E-03  0.185E-02    0.50       1.0  T
   7   -163.3355152 -0.758399E-04  0.833E-03    0.49       1.2  T
   8   -163.3355265 -0.112417E-04  0.442E-03    0.49       2.2  T
   9   -163.3355288 -0.236388E-05  0.288E-03    0.49       3.4  T
  10   -163.3355297 -0.849457E-06  0.160E-03    0.49       6.0  T
  11   -163.3355301 -0.417559E-06  0.547E-04    0.49      17.7  T
  12   -163.3355301 -0.351569E-07  0.328E-04    0.49      29.5  T
     SCC iter.                  ...        0 min,  0.211 sec
     gradient                   ...        0 min,  0.023 sec
 * total energy  :  -161.3874977 Eh     change       -0.6938277E-03 Eh
   gradient norm :     0.0098325 Eh/α   predicted    -0.5958488E-03 ( -14.12%)
   displ. norm   :     0.7445842 α      lambda       -0.8831972E-03
   maximum displ.:     0.2932618 α      in ANC's #8, #4, #3, ...

........................................................................
.............................. CYCLE  102 ..............................
........................................................................

 iter      E             dE          RMSdq      gap      omega  full diag
   1   -163.3381804 -0.163338E+03  0.219E-01    0.51       0.0  T
   2   -163.3374694  0.711034E-03  0.134E-01    0.50       1.0  T
   3   -163.3133782  0.240912E-01  0.354E-01    0.52       1.0  T
   4   -163.3304610 -0.170829E-01  0.171E-01    0.51       1.0  T
   5   -163.3360236 -0.556259E-02  0.904E-02    0.49       1.0  T
   6   -163.3382463 -0.222265E-02  0.174E-02    0.51       1.0  T
   7   -163.3383100 -0.637163E-04  0.117E-02    0.51       1.0  T
   8   -163.3383335 -0.235241E-04  0.626E-03    0.51       1.5  T
   9   -163.3383367 -0.321180E-05  0.469E-03    0.51       2.1  T
  10   -163.3383387 -0.193078E-05  0.270E-03    0.51       3.6  T
  11   -163.3383398 -0.116032E-05  0.693E-04    0.51      14.0  T
  12   -163.3383399 -0.468386E-07  0.422E-04    0.51      22.9  T
  13   -163.3383399 -0.108425E-07  0.293E-04    0.51      33.0  T
     SCC iter.                  ...        0 min,  0.237 sec
     gradient                   ...        0 min,  0.020 sec
 * total energy  :  -161.3882701 Eh     change       -0.7723658E-03 Eh
   gradient norm :     0.0085707 Eh/α   predicted    -0.6864494E-03 ( -11.12%)
   displ. norm   :     0.7629263 α      lambda       -0.9616109E-03
   maximum displ.:     0.3107316 α      in ANC's #3, #8, #4, ...

........................................................................
.............................. CYCLE  103 ..............................
........................................................................

 iter      E             dE          RMSdq      gap      omega  full diag
   1   -163.3390206 -0.163339E+03  0.243E-01    0.52       0.0  T
   2   -163.3368584  0.216223E-02  0.156E-01    0.50       1.0  T
   3   -163.3038047  0.330537E-01  0.410E-01    0.53       1.0  T
   4   -163.3328168 -0.290121E-01  0.158E-01    0.52       1.0  T
   5   -163.3357437 -0.292694E-02  0.111E-01    0.50       1.0  T
   6   -163.3392480 -0.350433E-02  0.182E-02    0.52       1.0  T
   7   -163.3393088 -0.607627E-04  0.133E-02    0.52       1.0  T
   8   -163.3393237 -0.149452E-04  0.101E-02    0.52       1.0  T
   9   -163.3393261 -0.239697E-05  0.868E-03    0.52       1.1  T
  10   -163.3393357 -0.958015E-05  0.410E-03    0.52       2.4  T
  11   -163.3393383 -0.256633E-05  0.839E-04    0.52      11.5  T
  12   -163.3393384 -0.871167E-07  0.532E-04    0.52      18.2  T
  13   -163.3393384 -0.116706E-07  0.356E-04    0.52      27.2  T
     SCC iter.                  ...        0 min,  0.278 sec
     gradient                   ...        0 min,  0.028 sec
 * total energy  :  -161.3891040 Eh     change       -0.8339150E-03 Eh
   gradient norm :     0.0105050 Eh/α   predicted    -0.7606793E-03 (  -8.78%)
   displ. norm   :     0.7016297 α      lambda       -0.1106367E-02
   maximum displ.:     0.2969195 α      in ANC's #3, #11, #12, ...

........................................................................
.............................. CYCLE  104 ..............................
........................................................................

 iter      E             dE          RMSdq      gap      omega  full diag
   1   -163.3421143 -0.163342E+03  0.281E-01    0.52       0.0  T
   2   -163.3392132  0.290109E-02  0.180E-01    0.50       1.0  T
   3   -163.3048200  0.343932E-01  0.411E-01    0.53       1.0  T
   4   -163.3333241 -0.285041E-01  0.175E-01    0.49       1.0  T
   5   -163.3415655 -0.824137E-02  0.594E-02    0.53       1.0  T
   6   -163.3419901 -0.424574E-03  0.484E-02    0.51       1.0  T
   7   -163.3425570 -0.566888E-03  0.163E-02    0.52       1.0  T
   8   -163.3425541  0.287562E-05  0.162E-02    0.52       1.0  T
   9   -163.3425512  0.287761E-05  0.152E-02    0.52       1.0  T
  10   -163.3425712 -0.199726E-04  0.616E-03    0.52       1.6  T
  11   -163.3425774 -0.619007E-05  0.156E-03    0.52       6.2  T
  12   -163.3425779 -0.552165E-06  0.835E-04    0.52      11.6  T
  13   -163.3425780 -0.809033E-07  0.446E-04    0.52      21.7  T
     SCC iter.                  ...        0 min,  0.230 sec
     gradient                   ...        0 min,  0.021 sec
 * total energy  :  -161.3900294 Eh     change       -0.9253884E-03 Eh
   gradient norm :     0.0157000 Eh/α   predicted    -0.8255231E-03 ( -10.79%)
   displ. norm   :     0.6962078 α      lambda       -0.1244594E-02
   maximum displ.:     0.2813037 α      in ANC's #3, #11, #8, ...

........................................................................
.............................. CYCLE  105 ..............................
........................................................................

 iter      E             dE          RMSdq      gap      omega  full diag
   1   -163.3366686 -0.163337E+03  0.270E-01    0.51       0.0  T
   2   -163.3301118  0.655673E-02  0.216E-01    0.47       1.0  T
   3   -163.2877110  0.424008E-01  0.425E-01    0.54       1.0  T
   4   -163.3194572 -0.317462E-01  0.235E-01    0.46       1.0  T
   5   -163.3324149 -0.129577E-01  0.118E-01    0.51       1.0  T
   6   -163.3371346 -0.471965E-02  0.364E-02    0.50       1.0  T
   7   -163.3372907 -0.156174E-03  0.212E-02    0.51       1.0  T
   8   -163.3373199 -0.291225E-04  0.187E-02    0.51       1.0  T
   9   -163.3373191  0.743011E-06  0.172E-02    0.51       1.0  T
  10   -163.3373345 -0.153507E-04  0.741E-03    0.51       1.3  T
  11   -163.3373429 -0.839405E-05  0.221E-03    0.51       4.4  T
  12   -163.3373434 -0.518592E-06  0.136E-03    0.51       7.1  T
  13   -163.3373435 -0.785463E-07  0.103E-03    0.51       9.4  T
  14   -163.3373435 -0.182794E-07  0.825E-04    0.51      11.7  T
  15   -163.3373436 -0.150896E-06  0.393E-04    0.51      24.6  T
     SCC iter.                  ...        0 min,  0.247 sec
     gradient                   ...        0 min,  0.022 sec
 * total energy  :  -161.3910674 Eh     change       -0.1038014E-02 Eh
   gradient norm :     0.0184197 Eh/α   predicted    -0.9239429E-03 ( -10.99%)
   displ. norm   :     0.6583344 α      lambda       -0.1909944E-02
   maximum displ.:     0.2219623 α      in ANC's #11, #12, #26, ...

........................................................................
.............................. CYCLE  106 ..............................
........................................................................

 iter      E             dE          RMSdq      gap      omega  full diag
   1   -163.3420071 -0.163342E+03  0.315E-01    0.49       0.0  T
   2   -163.3393248  0.268229E-02  0.219E-01    0.46       1.0  T
   3   -163.2927760  0.465488E-01  0.438E-01    0.54       1.0  T
   4   -163.3226278 -0.298518E-01  0.245E-01    0.43       1.0  T
   5   -163.3412035 -0.185757E-01  0.697E-02    0.48       1.0  T
   6   -163.3424267 -0.122321E-02  0.281E-02    0.48       1.0  T
   7   -163.3425763 -0.149546E-03  0.141E-02    0.48       1.0  T
   8   -163.3425792 -0.294264E-05  0.129E-02    0.48       1.0  T
   9   -163.3425883 -0.908877E-05  0.947E-03    0.48       1.0  T
  10   -163.3425828  0.547800E-05  0.727E-03    0.48       1.3  T
  11   -163.3425967 -0.138788E-04  0.225E-03    0.48       4.3  T
  12   -163.3425977 -0.940863E-06  0.114E-03    0.48       8.5  T
  13   -163.3425977 -0.613052E-07  0.769E-04    0.48      12.6  T
  14   -163.3425977 -0.223578E-07  0.560E-04    0.48      17.3  T
     SCC iter.                  ...        0 min,  0.224 sec
     gradient                   ...        0 min,  0.021 sec
 * total energy  :  -161.3918913 Eh     change       -0.8238574E-03 Eh
   gradient norm :     0.0255850 Eh/α   predicted    -0.1368885E-02 (  66.16%)
   displ. norm   :     0.5622975 α      lambda       -0.1769750E-02
   maximum displ.:     0.2345263 α      in ANC's #11, #8, #3, ...

........................................................................
.............................. CYCLE  107 ..............................
........................................................................

 iter      E             dE          RMSdq      gap      omega  full diag
   1   -163.3330300 -0.163333E+03  0.186E-01    0.50       0.0  T
   2   -163.3253146  0.771546E-02  0.198E-01    0.44       1.0  T
   3   -163.3200580  0.525654E-02  0.221E-01    0.51       1.0  T
   4   -163.3237963 -0.373828E-02  0.177E-01    0.46       1.0  T
   5   -163.3321434 -0.834715E-02  0.702E-02    0.48       1.0  T
   6   -163.3336774 -0.153399E-02  0.223E-02    0.48       1.0  T
   7   -163.3337781 -0.100627E-03  0.103E-02    0.48       1.0  T
   8   -163.3337799 -0.188871E-05  0.901E-03    0.48       1.1  T
   9   -163.3337771  0.281077E-05  0.856E-03    0.48       1.1  T
  10   -163.3337822 -0.503584E-05  0.430E-03    0.48       2.2  T
  11   -163.3337857 -0.349643E-05  0.165E-03    0.48       5.9  T
  12   -163.3337862 -0.546037E-06  0.875E-04    0.48      11.1  T
  13   -163.3337863 -0.789103E-07  0.408E-04    0.48      23.7  T
     SCC iter.                  ...        0 min,  0.206 sec
     gradient                   ...        0 min,  0.021 sec
 * total energy  :  -161.3930215 Eh     change       -0.1130266E-02 Eh
   gradient norm :     0.0169028 Eh/α   predicted    -0.1164653E-02 (   3.04%)
   displ. norm   :     0.4134971 α      lambda       -0.1327062E-02
   maximum displ.:     0.2348330 α      in ANC's #11, #12, #3, ...

........................................................................
.............................. CYCLE  108 ..............................
........................................................................

 iter      E             dE          RMSdq      gap      omega  full diag
   1   -163.3364724 -0.163336E+03  0.168E-01    0.48       0.0  T
   2   -163.3331270  0.334545E-02  0.150E-01    0.44       1.0  T
   3   -163.3222184  0.109085E-01  0.226E-01    0.51       1.0  T
   4   -163.3297059 -0.748741E-02  0.156E-01    0.45       1.0  T
   5   -163.3364032 -0.669733E-02  0.429E-02    0.46       1.0  T
   6   -163.3368543 -0.451137E-03  0.164E-02    0.46       1.0  T
   7   -163.3369165 -0.621860E-04  0.789E-03    0.46       1.2  T
   8   -163.3369225 -0.594280E-05  0.623E-03    0.46       1.6  T
   9   -163.3369222  0.240440E-06  0.552E-03    0.46       1.8  T
  10   -163.3369223 -0.686250E-07  0.413E-03    0.47       2.3  T
  11   -163.3369260 -0.368824E-05  0.129E-03    0.46       7.5  T
  12   -163.3369263 -0.295267E-06  0.589E-04    0.46      16.4  T
  13   -163.3369263 -0.265703E-07  0.308E-04    0.46      31.4  T
     SCC iter.                  ...        0 min,  0.272 sec
     gradient                   ...        0 min,  0.025 sec
 * total energy  :  -161.3940704 Eh     change       -0.1048904E-02 Eh
   gradient norm :     0.0135831 Eh/α   predicted    -0.7769804E-03 ( -25.92%)
   displ. norm   :     0.5643088 α      lambda       -0.1889511E-02
   maximum displ.:     0.3212811 α      in ANC's #11, #32, #19, ...

........................................................................
.............................. CYCLE  109 ..............................
........................................................................

 iter      E             dE          RMSdq      gap      omega  full diag
   1   -163.3389397 -0.163339E+03  0.272E-01    0.45       0.0  T
   2   -163.3334682  0.547144E-02  0.221E-01    0.40       1.0  T
   3   -163.3115102  0.219580E-01  0.324E-01    0.49       1.0  T
   4   -163.3164276 -0.491741E-02  0.267E-01    0.38       1.0  T
   5   -163.3391011 -0.226735E-01  0.579E-02    0.43       1.0  T
   6   -163.3398421 -0.740997E-03  0.215E-02    0.43       1.0  T
   7   -163.3399263 -0.841816E-04  0.113E-02    0.43       1.0  T
   8   -163.3399410 -0.147109E-04  0.865E-03    0.43       1.1  T
   9   -163.3399419 -0.910029E-06  0.716E-03    0.43       1.3  T
  10   -163.3399393  0.257471E-05  0.530E-03    0.43       1.8  T
  11   -163.3399465 -0.716265E-05  0.182E-03    0.43       5.3  T
  12   -163.3399471 -0.660846E-06  0.759E-04    0.43      12.7  T
  13   -163.3399472 -0.463523E-07  0.396E-04    0.43      24.4  T
     SCC iter.                  ...        0 min,  0.240 sec
     gradient                   ...        0 min,  0.025 sec
 * total energy  :  -161.3954733 Eh     change       -0.1402898E-02 Eh
   gradient norm :     0.0176543 Eh/α   predicted    -0.1245604E-02 ( -11.21%)
   displ. norm   :     0.8055826 α      lambda       -0.2059042E-02
   maximum displ.:     0.4665233 α      in ANC's #11, #12, #3, ...

........................................................................
.............................. CYCLE  110 ..............................
........................................................................

 iter      E             dE          RMSdq      gap      omega  full diag
   1   -163.3344749 -0.163334E+03  0.372E-01    0.41       0.0  T
   2   -163.3226571  0.118178E-01  0.313E-01    0.35       1.0  T
   3   -163.2916998  0.309572E-01  0.406E-01    0.47       1.0  T
   4   -163.2990997 -0.739984E-02  0.340E-01    0.33       1.0  T
   5   -163.3338920 -0.347923E-01  0.100E-01    0.40       1.0  T
   6   -163.3364976 -0.260567E-02  0.328E-02    0.40       1.0  T
   7   -163.3367013 -0.203652E-03  0.168E-02    0.40       1.0  T
   8   -163.3367213 -0.199968E-04  0.139E-02    0.40       1.0  T
   9   -163.3367197  0.156552E-05  0.117E-02    0.40       1.0  T
  10   -163.3367199 -0.198878E-06  0.602E-03    0.40       1.6  T
  11   -163.3367283 -0.834174E-05  0.247E-03    0.40       3.9  T
  12   -163.3367295 -0.122581E-05  0.108E-03    0.40       8.9  T
  13   -163.3367296 -0.846129E-07  0.626E-04    0.40      15.4  T
  14   -163.3367296 -0.393173E-07  0.296E-04    0.40      32.6  T
     SCC iter.                  ...        0 min,  0.253 sec
     gradient                   ...        0 min,  0.022 sec
 * total energy  :  -161.3975101 Eh     change       -0.2036768E-02 Eh
   gradient norm :     0.0187413 Eh/α   predicted    -0.1697642E-02 ( -16.65%)
   displ. norm   :     0.7933941 α      lambda       -0.3503950E-02
   maximum displ.:     0.4586206 α      in ANC's #11, #16, #19, ...

........................................................................
.............................. CYCLE  111 ..............................
........................................................................

 iter      E             dE          RMSdq      gap      omega  full diag
   1   -163.3362425 -0.163336E+03  0.451E-01    0.38       0.0  T
   2   -163.3254404  0.108021E-01  0.344E-01    0.34       1.0  T
   3   -163.2808678  0.445726E-01  0.472E-01    0.45       1.0  T
   4   -163.2955555 -0.146877E-01  0.362E-01    0.28       1.0  T
   5   -163.3350542 -0.394986E-01  0.117E-01    0.38       1.0  T
   6   -163.3387320 -0.367784E-02  0.308E-02    0.38       1.0  T
   7   -163.3388616 -0.129596E-03  0.181E-02    0.38       1.0  T
   8   -163.3388883 -0.266830E-04  0.146E-02    0.38       1.0  T
   9   -163.3388798  0.849013E-05  0.123E-02    0.38       1.0  T
  10   -163.3388915 -0.116813E-04  0.522E-03    0.37       1.9  T
  11   -163.3388969 -0.541801E-05  0.156E-03    0.37       6.2  T
  12   -163.3388971 -0.216070E-06  0.105E-03    0.37       9.2  T
  13   -163.3388972 -0.137387E-06  0.714E-04    0.37      13.5  T
  14   -163.3388973 -0.438124E-07  0.435E-04    0.37      22.2  T
     SCC iter.                  ...        0 min,  0.228 sec
     gradient                   ...        0 min,  0.021 sec
 * total energy  :  -161.4001719 Eh     change       -0.2661825E-02 Eh
   gradient norm :     0.0406175 Eh/α   predicted    -0.2854790E-02 (   7.25%)
   displ. norm   :     0.8639421 α      lambda       -0.3077461E-02
   maximum displ.:     0.4944362 α      in ANC's #11, #12, #19, ...

........................................................................
.............................. CYCLE  112 ..............................
........................................................................

 iter      E             dE          RMSdq      gap      omega  full diag
   1   -163.3236240 -0.163324E+03  0.486E-01    0.40       0.0  T
   2   -163.3169708  0.665321E-02  0.336E-01    0.37       1.0  T
   3   -163.2562662  0.607046E-01  0.507E-01    0.47       1.0  T
   4   -163.2980834 -0.418172E-01  0.293E-01    0.30       1.0  T
   5   -163.3224697 -0.243863E-01  0.102E-01    0.41       1.0  T
   6   -163.3253114 -0.284171E-02  0.324E-02    0.40       1.0  T
   7   -163.3255010 -0.189626E-03  0.189E-02    0.39       1.0  T
   8   -163.3255437 -0.426659E-04  0.139E-02    0.39       1.0  T
   9   -163.3255271  0.166145E-04  0.130E-02    0.39       1.0  T
  10   -163.3255389 -0.118173E-04  0.743E-03    0.39       1.3  T
  11   -163.3255520 -0.130848E-04  0.259E-03    0.39       3.7  T
  12   -163.3255531 -0.106261E-05  0.119E-03    0.39       8.1  T
  13   -163.3255531 -0.208737E-07  0.846E-04    0.39      11.4  T
  14   -163.3255531 -0.699631E-07  0.601E-04    0.39      16.1  T
     SCC iter.                  ...        0 min,  0.280 sec
     gradient                   ...        0 min,  0.027 sec
 * total energy  :  -161.4024363 Eh     change       -0.2264430E-02 Eh
   gradient norm :     0.0634054 Eh/α   predicted    -0.2687230E-02 (  18.67%)
   displ. norm   :     0.7747273 α      lambda       -0.8122881E-02
   maximum displ.:     0.1900256 α      in ANC's #34, #26, #47, ...

........................................................................
.............................. CYCLE  113 ..............................
........................................................................

 iter      E             dE          RMSdq      gap      omega  full diag
   1   -163.2972149 -0.163297E+03  0.605E-01    0.50       0.0  T
   2   -163.2839700  0.132449E-01  0.415E-01    0.46       1.0  T
   3   -163.0954338  0.188536E+00  0.825E-01    0.55       1.0  T
   4   -163.2411335 -0.145700E+00  0.451E-01    0.45       1.0  T
   5   -163.2945821 -0.534486E-01  0.147E-01    0.54       1.0  T
   6   -163.2988313 -0.424916E-02  0.662E-02    0.54       1.0  T
   7   -163.2994973 -0.665973E-03  0.408E-02    0.53       1.0  T
   8   -163.2995928 -0.955658E-04  0.344E-02    0.53       1.0  T
   9   -163.2995891  0.377009E-05  0.278E-02    0.53       1.0  T
  10   -163.2996848 -0.957493E-04  0.127E-02    0.53       1.0  T
  11   -163.2997040 -0.192146E-04  0.634E-03    0.52       1.5  T
  12   -163.2997055 -0.144131E-05  0.450E-03    0.53       2.1  T
  13   -163.2997073 -0.178629E-05  0.345E-03    0.53       2.8  T
  14   -163.2997078 -0.588570E-06  0.247E-03    0.53       3.9  T
  15   -163.2997088 -0.943051E-06  0.104E-03    0.53       9.3  T
  16   -163.2997090 -0.182868E-06  0.493E-04    0.53      19.6  T
  17   -163.2997090 -0.200479E-07  0.317E-04    0.53      30.5  T
     SCC iter.                  ...        0 min,  0.298 sec
     gradient                   ...        0 min,  0.024 sec
 * total energy  :  -161.4040771 Eh     change       -0.1640726E-02 Eh
   gradient norm :     0.0893801 Eh/α   predicted    -0.6499118E-02 ( 296.11%)
   displ. norm   :     0.5222727 α      lambda       -0.1234009E-01
   maximum displ.:     0.1819506 α      in ANC's #19, #26, #34, ...

........................................................................
.............................. CYCLE  114 ..............................
........................................................................

 iter      E             dE          RMSdq      gap      omega  full diag
   1   -163.3079851 -0.163308E+03  0.357E-01    0.56       0.0  T
   2   -163.3033262  0.465893E-02  0.262E-01    0.58       1.0  T
   3   -163.2613405  0.419857E-01  0.444E-01    0.46       1.0  T
   4   -163.3003436 -0.390031E-01  0.178E-01    0.53       1.0  T
   5   -163.3044515 -0.410786E-02  0.122E-01    0.58       1.0  T
   6   -163.3086206 -0.416914E-02  0.359E-02    0.55       1.0  T
   7   -163.3088143 -0.193678E-03  0.166E-02    0.55       1.0  T
   8   -163.3088391 -0.248250E-04  0.154E-02    0.55       1.0  T
   9   -163.3088455 -0.640918E-05  0.116E-02    0.55       1.0  T
  10   -163.3088470 -0.149654E-05  0.103E-02    0.55       1.0  T
  11   -163.3088719 -0.248637E-04  0.312E-03    0.55       3.1  T
  12   -163.3088738 -0.192232E-05  0.124E-03    0.55       7.8  T
  13   -163.3088740 -0.172614E-06  0.623E-04    0.55      15.5  T
  14   -163.3088740  0.146628E-08  0.452E-04    0.55      21.4  T
     SCC iter.                  ...        0 min,  0.259 sec
     gradient                   ...        0 min,  0.024 sec
 * total energy  :  -161.4084671 Eh     change       -0.4389980E-02 Eh
   gradient norm :     0.0747630 Eh/α   predicted    -0.7853047E-02 (  78.89%)
   displ. norm   :     0.4880018 α      lambda       -0.1271269E-01
   maximum displ.:     0.1404171 α      in ANC's #81, #70, #79, ...

........................................................................
.............................. CYCLE  115 ..............................
........................................................................

 iter      E             dE          RMSdq      gap      omega  full diag
   1   -163.3348738 -0.163335E+03  0.357E-01    0.55       0.0  T
   2   -163.3301411  0.473264E-02  0.252E-01    0.57       1.0  T
   3   -163.2775872  0.525540E-01  0.495E-01    0.45       1.0  T
   4   -163.3257145 -0.481273E-01  0.199E-01    0.55       1.0  T
   5   -163.3321108 -0.639626E-02  0.111E-01    0.54       1.0  T
   6   -163.3351770 -0.306620E-02  0.404E-02    0.56       1.0  T
   7   -163.3355539 -0.376953E-03  0.229E-02    0.54       1.0  T
   8   -163.3356282 -0.743201E-04  0.159E-02    0.55       1.0  T
   9   -163.3356081  0.201523E-04  0.157E-02    0.54       1.0  T
  10   -163.3356275 -0.194316E-04  0.646E-03    0.55       1.5  T
  11   -163.3356341 -0.657605E-05  0.297E-03    0.55       3.3  T
  12   -163.3356353 -0.123306E-05  0.165E-03    0.55       5.8  T
  13   -163.3356354 -0.470577E-07  0.144E-03    0.55       6.7  T
  14   -163.3356358 -0.398240E-06  0.715E-04    0.55      13.5  T
  15   -163.3356358 -0.589539E-07  0.331E-04    0.55      29.2  T
     SCC iter.                  ...        0 min,  0.266 sec
     gradient                   ...        0 min,  0.024 sec
 * total energy  :  -161.4129374 Eh     change       -0.4470380E-02 Eh
   gradient norm :     0.0586776 Eh/α   predicted    -0.7870090E-02 (  76.05%)
   displ. norm   :     0.2827404 α      lambda       -0.5550887E-02
   maximum displ.:     0.1482170 α      in ANC's #24, #47, #62, ...

........................................................................
.............................. CYCLE  116 ..............................
........................................................................

 iter      E             dE          RMSdq      gap      omega  full diag
   1   -163.3405572 -0.163341E+03  0.206E-01    0.54       0.0  T
   2   -163.3368551  0.370208E-02  0.176E-01    0.54       1.0  T
   3   -163.3260102  0.108449E-01  0.276E-01    0.56       1.0  T
   4   -163.3270589 -0.104870E-02  0.216E-01    0.52       1.0  T
   5   -163.3393264 -0.122675E-01  0.766E-02    0.56       1.0  T
   6   -163.3409268 -0.160037E-02  0.208E-02    0.55       1.0  T
   7   -163.3410095 -0.827379E-04  0.124E-02    0.55       1.0  T
   8   -163.3410359 -0.263869E-04  0.751E-03    0.55       1.3  T
   9   -163.3410305  0.535542E-05  0.731E-03    0.55       1.3  T
  10   -163.3410354 -0.484051E-05  0.404E-03    0.55       2.4  T
  11   -163.3410389 -0.354509E-05  0.152E-03    0.55       6.3  T
  12   -163.3410391 -0.231872E-06  0.978E-04    0.55       9.9  T
  13   -163.3410392 -0.781857E-07  0.736E-04    0.55      13.1  T
     SCC iter.                  ...        0 min,  0.222 sec
     gradient                   ...        0 min,  0.022 sec
 * total energy  :  -161.4167758 Eh     change       -0.3838330E-02 Eh
   gradient norm :     0.0469224 Eh/α   predicted    -0.2997316E-02 ( -21.91%)
   displ. norm   :     0.3513921 α      lambda       -0.5211813E-02
   maximum displ.:     0.0999328 α      in ANC's #47, #39, #11, ...

........................................................................
.............................. CYCLE  117 ..............................
........................................................................

 iter      E             dE          RMSdq      gap      omega  full diag
   1   -163.3455758 -0.163346E+03  0.349E-01    0.50       0.0  T
   2   -163.3265473  0.190285E-01  0.337E-01    0.46       1.0  T
   3   -163.2998753  0.266720E-01  0.450E-01    0.51       1.0  T
   4   -163.3243812 -0.245059E-01  0.293E-01    0.49       1.0  T
   5   -163.3423855 -0.180043E-01  0.135E-01    0.51       1.0  T
   6   -163.3465994 -0.421390E-02  0.607E-02    0.50       1.0  T
   7   -163.3471198 -0.520372E-03  0.421E-02    0.51       1.0  T
   8   -163.3471468 -0.269823E-04  0.396E-02    0.51       1.0  T
   9   -163.3471506 -0.379507E-05  0.305E-02    0.51       1.0  T
  10   -163.3472347 -0.840716E-04  0.106E-02    0.50       1.0  T
  11   -163.3472490 -0.143220E-04  0.391E-03    0.50       2.5  T
  12   -163.3472502 -0.123168E-05  0.204E-03    0.50       4.8  T
  13   -163.3472504 -0.178392E-06  0.137E-03    0.50       7.1  T
  14   -163.3472504 -0.711177E-08  0.113E-03    0.50       8.5  T
  15   -163.3472506 -0.195017E-06  0.422E-04    0.50      22.9  T
  16   -163.3472506 -0.240795E-07  0.182E-04    0.50      53.0  T
     SCC iter.                  ...        0 min,  0.269 sec
     gradient                   ...        0 min,  0.022 sec
 * total energy  :  -161.4196528 Eh     change       -0.2877053E-02 Eh
   gradient norm :     0.0490709 Eh/α   predicted    -0.2927672E-02 (   1.76%)
   displ. norm   :     0.5444865 α      lambda       -0.9175156E-02
   maximum displ.:     0.1910851 α      in ANC's #11, #24, #116, ...

........................................................................
.............................. CYCLE  118 ..............................
........................................................................

 iter      E             dE          RMSdq      gap      omega  full diag
   1   -163.3598131 -0.163360E+03  0.367E-01    0.45       0.0  T
   2   -163.3544090  0.540410E-02  0.286E-01    0.44       1.0  T
   3   -163.3242760  0.301330E-01  0.385E-01    0.45       1.0  T
   4   -163.3412129 -0.169369E-01  0.262E-01    0.44       1.0  T
   5   -163.3570654 -0.158526E-01  0.120E-01    0.45       1.0  T
   6   -163.3608199 -0.375450E-02  0.271E-02    0.44       1.0  T
   7   -163.3608738 -0.538431E-04  0.230E-02    0.45       1.0  T
   8   -163.3609605 -0.866659E-04  0.148E-02    0.45       1.0  T
   9   -163.3609322  0.282471E-04  0.146E-02    0.45       1.0  T
  10   -163.3609739 -0.416873E-04  0.811E-03    0.45       1.2  T
  11   -163.3609878 -0.139251E-04  0.229E-03    0.45       4.2  T
  12   -163.3609886 -0.750911E-06  0.127E-03    0.45       7.6  T
  13   -163.3609887 -0.178590E-06  0.784E-04    0.45      12.3  T
  14   -163.3609888 -0.768669E-07  0.389E-04    0.45      24.8  T
     SCC iter.                  ...        0 min,  0.258 sec
     gradient                   ...        0 min,  0.022 sec
 * total energy  :  -161.4193878 Eh     change        0.2649703E-03 Eh
   gradient norm :     0.0619863 Eh/α   predicted    -0.5947641E-02 (*******%)
   displ. norm   :     0.2643827 α      lambda       -0.8221513E-02
   maximum displ.:     0.0872745 α      in ANC's #11, #20, #38, ...

........................................................................
.............................. CYCLE  119 ..............................
........................................................................

 iter      E             dE          RMSdq      gap      omega  full diag
   1   -163.3576585 -0.163358E+03  0.188E-01    0.45       0.0  T
   2   -163.3553525  0.230599E-02  0.158E-01    0.45       1.0  T
   3   -163.3494141  0.593837E-02  0.190E-01    0.44       1.0  T
   4   -163.3553984 -0.598424E-02  0.105E-01    0.45       1.0  T
   5   -163.3579534 -0.255505E-02  0.255E-02    0.45       1.0  T
   6   -163.3580968 -0.143387E-03  0.932E-03    0.45       1.0  T
   7   -163.3580991 -0.226163E-05  0.910E-03    0.45       1.1  T
   8   -163.3581051 -0.599868E-05  0.678E-03    0.45       1.4  T
   9   -163.3581087 -0.360395E-05  0.593E-03    0.45       1.6  T
  10   -163.3581156 -0.688723E-05  0.255E-03    0.45       3.8  T
  11   -163.3581166 -0.103335E-05  0.132E-03    0.45       7.3  T
  12   -163.3581169 -0.308687E-06  0.586E-04    0.45      16.5  T
  13   -163.3581170 -0.339210E-07  0.366E-04    0.45      26.4  T
     SCC iter.                  ...        0 min,  0.219 sec
     gradient                   ...        0 min,  0.022 sec
 * total energy  :  -161.4247319 Eh     change       -0.5344005E-02 Eh
   gradient norm :     0.0293750 Eh/α   predicted    -0.4398091E-02 ( -17.70%)
   displ. norm   :     0.4038764 α      lambda       -0.4774753E-02
   maximum displ.:     0.1294849 α      in ANC's #18, #4, #34, ...

........................................................................
.............................. CYCLE  120 ..............................
........................................................................

 iter      E             dE          RMSdq      gap      omega  full diag
   1   -163.3586187 -0.163359E+03  0.223E-01    0.43       0.0  T
   2   -163.3508877  0.773094E-02  0.227E-01    0.43       1.0  T
   3   -163.3517550 -0.867207E-03  0.206E-01    0.42       1.0  T
   4   -163.3557869 -0.403195E-02  0.133E-01    0.43       1.0  T
   5   -163.3595298 -0.374286E-02  0.334E-02    0.42       1.0  T
   6   -163.3597650 -0.235244E-03  0.126E-02    0.43       1.0  T
   7   -163.3597851 -0.200645E-04  0.879E-03    0.43       1.1  T
   8   -163.3597898 -0.475968E-05  0.688E-03    0.43       1.4  T
   9   -163.3597853  0.450060E-05  0.630E-03    0.43       1.5  T
  10   -163.3597930 -0.764296E-05  0.381E-03    0.43       2.5  T
  11   -163.3597965 -0.353093E-05  0.120E-03    0.43       8.1  T
  12   -163.3597967 -0.195016E-06  0.551E-04    0.43      17.6  T
  13   -163.3597967 -0.245520E-07  0.358E-04    0.43      27.0  T
     SCC iter.                  ...        0 min,  0.247 sec
     gradient                   ...        0 min,  0.020 sec
 * total energy  :  -161.4284462 Eh     change       -0.3714331E-02 Eh
   gradient norm :     0.0282964 Eh/α   predicted    -0.2776789E-02 ( -25.24%)
   displ. norm   :     0.6827449 α      lambda       -0.7820476E-02
   maximum displ.:     0.1967134 α      in ANC's #4, #18, #38, ...

   *** FAILED TO CONVERGE GEOMETRY OPTIMIZATION IN 120 ITERATIONS ***


 ANCopt (total)                0 d,  0 h,  0 min, 29.256 sec
 optimizer setup                ...        0 min,  0.001 sec (  0.003%)
 model hessian                  ...        0 min,  0.246 sec (  0.841%)
 ANC generation                 ...        0 min,  0.068 sec (  0.232%)
 coordinate transformation      ...        0 min,  0.012 sec (  0.041%)
 single point calculation       ...        0 min, 28.680 sec ( 98.031%)
 optimization log               ...        0 min,  0.178 sec (  0.608%)
 hessian update                 ...        0 min,  0.016 sec (  0.055%)
 rational function              ...        0 min,  0.035 sec (  0.120%)

================
 final structure:
================
107
 xtb: 6.7.1pre (5071a88)
O           -1.96235678566336       -0.10419719949310        4.93548518284847
C           -1.46201381945125       -0.26012853931009        6.02035734325636
O           -1.79099446367405        0.32956977461727        7.15382519802601
C           -2.70639901433498        1.36755486140208        7.26854731982330
C           -2.66103532883461        2.05425296743126        8.47691719581689
C           -3.50698086625182        3.13138990722115        8.68366677058265
O           -3.47723306596741        3.80850833304279        9.85806348122021
C           -4.38440465233637        3.53082521131192        7.67074378066369
O           -5.19812402049879        4.61738737197423        7.88893164843716
C           -4.40672708817133        2.83777089487147        6.46272316328845
O           -5.25890404566664        3.29347797623495        5.50039870881188
C           -3.58742576594765        1.73755090015850        6.26707636708172
C           -0.27926037275335       -1.20914568509752        6.21860118234613
O           -0.79959092645933       -2.49858342250489        6.49839561884719
C            0.17412992821918       -3.44826724478190        6.60428120680418
C           -0.20299179634391       -4.76814668555553        6.42192643551193
C            0.75517952071270       -5.76701603650749        6.47594248982327
O            0.35433324612741       -7.04956688679815        6.30171363102081
C            2.09354419939509       -5.44390241513619        6.66121740134718
C            2.46749952556535       -4.12161461416018        6.84407413597206
O            3.78252379158841       -3.83315942235364        6.98911694184693
C            1.49923702311007       -3.11207634141401        6.87182599685483
C            1.91987588677010       -1.70412720778734        7.22787767375011
O            2.88736764496701       -1.27236603477764        6.28089836449286
C            0.68562687602240       -0.77976807149161        7.31901920566037
C            1.06803860105672        0.67611179172985        7.23554077110070
C            1.27091104159496        1.31296787153020        6.01234990537825
C            1.67165697208092        2.64326321607614        5.97831043032581
O            1.94103308671363        3.33817288847711        4.84584025457235
C            1.85286270716577        3.34347798973889        7.17277523227036
O            2.23826452662797        4.65987971470052        7.15850011958694
C            1.64115936161022        2.71323556562435        8.39586667019116
O            1.81044586324543        3.39443370198918        9.55609647095523
C            1.25786744469051        1.37938485706894        8.41732765022114
H           -1.96305070887956        1.76553554935402        9.24311778270955
H           -4.12138353051406        4.52977107572836        9.79420609855106
H           -5.70060797335823        4.75537101250324        7.07596128190211
H           -5.06022912160002        2.83468877700232        4.66121901564699
H           -3.61336418823184        1.21344574231822        5.32785843635642
H            0.25515596110475       -1.25431087035656        5.26082388342606
H           -1.23259828951059       -5.00920625878790        6.22552908164343
H            1.11835204123180       -7.63866288406601        6.33771977842488
H            2.85852404238437       -6.20229967500961        6.66148788690989
H            3.89920528763845       -2.88288272809025        6.83677462405035
H            2.39285401672742       -1.71983804511781        8.23070159403158
H            2.87284088855089       -0.29963105902373        6.26670849480804
H            0.19698579638104       -0.96316475357750        8.27976715592737
H            1.11175186371388        0.80474189601249        5.07629733126019
H            1.61597395429123        2.90415812254975        4.01197599780183
H            2.30403496912418        4.91613022895193        6.22814928328116
H            2.04554286336638        4.30562099848346        9.33145297528273
H            1.10405033299020        0.90954909107404        9.37368691438339
B           -4.77307861044113       -2.33032723958927        1.81173322267188
B           -4.40737397946975       -1.03537839871245        0.95926104066293
B           -4.28072864478003        0.31898517149484       -0.06347937712490
B           -3.62068106526412       -2.52404498212395        0.71630373433094
B           -2.73391580257216        0.29387631526865        0.09274992301172
B           -3.64952619301376        0.52954008592633        1.57571477939688
B           -4.13318004239800        1.56943532546638        2.70165774097345
B           -3.26056606632733        2.94119557747730        2.88495401169374
B           -2.03356315732401        0.20904691958081        1.63119410407885
B           -1.81773789410693        2.91825341417923        3.63991254998743
B           -2.62777564069352       -3.83618179674007        0.40336050606955
B           -2.17226024269692       -2.33836013647767       -0.02245825799523
B           -1.50856706300400       -0.82872168609938        0.13533093032035
B           -1.03646890045528       -3.48145005569038        0.12504429328514
B            0.07182381674330       -0.53191563443360        0.07306118677216
B           -0.66064147509991       -0.64883359832626        1.68172499408793
B           -0.67011289409789        0.85072094295318        2.35592578382973
B           -0.61198099962474        2.38376071135257        2.70345320910882
B            0.79602111814273       -0.15181857748241        2.13819883489138
B            0.61658617301067        3.38107074062166        2.20932685851753
B            0.20243494607035       -4.01746312874299        1.16678169271748
B            0.50080699845342       -3.06178661238872       -0.11598787161472
B            1.45448832991452       -1.79070451288938       -0.24118015647146
B            1.37668133434585       -2.90324245175710        1.25920070169785
B            2.78270724482120       -0.91779272340351       -0.44200930727831
B            1.49073211866672        0.05863872033343        0.04202685011974
B            2.14191833812856        0.79444665436752        1.69618910561321
B            1.72550887233350        2.35174879091596        1.78922650375359
B            2.90695735745018        0.77893162590515        0.08828267227170
B            1.85817570872857        2.62682998952724        0.14586086188709
B            1.04543558364960       -1.70357557566663        2.67773724899781
B            2.57067346763001       -2.15805211776499        2.01716295387789
B            3.88032663471749       -1.40448875204744        1.62890261140752
B            2.51091467979042       -0.53696810905647        2.69293550364540
B            5.35991043022364       -0.97757075105630        1.24129362111283
B            4.29823515706758       -0.63090409834931       -0.03987235781935
B            4.60374751991584        1.22740579221784       -0.04596777143837
B            3.41939122030835        2.36938153093803       -0.19257129580804
B            5.73216886643967        0.05893953602773       -0.22104334062844
B            4.93263330677409        2.74426744213448       -0.30268377486520
H           -5.20208610567972       -2.90964590710019        2.73184392304043
H           -5.58568016972414       -1.34858949305144        1.43030487781318
H           -5.18790455339200        0.74465947334754       -0.68028305368236
H           -5.07570629352845        1.31348535563026        3.38452302594391
H           -3.67230086891810        3.94358004604812        2.41509541635133
H           -1.70284784514176        3.21849325163146        4.77882798623185
H           -3.02273499481645       -4.94287514402783        0.34061495001687
H            0.57172440696623        4.55702322256983        2.13386570713492
H            0.02971131344836       -4.94803983162728        1.83447436913202
H            1.00584527631235        2.88813358768861       -0.62244327732039
H            0.57282223120573       -2.21380433944133        3.62121946848052
H            2.86052159681738       -0.33129148058222        3.80526487841952
H            6.42018980724146       -1.14978942983102        1.66125244472591
H            6.79474938990809        0.04408098345416       -0.72036656756575
H            5.77976781679233        3.52597314925782       -0.48810423195248
 
 Bond Distances (Angstroems)
 ---------------------------
O1-C2=1.2048         C2-O1=1.2048         C2-O3=1.3194         C2-C13=1.5293        O3-C2=1.3194         O3-C4=1.3887         
C4-O3=1.3887         C4-C5=1.3906         C4-C12=1.3842        C5-C4=1.3906         C5-C6=1.3851         C5-H35=1.0759        
C6-C5=1.3851         C6-O7=1.3559         C6-C8=1.3984         O7-C6=1.3559         O7-H36=0.9691        C8-C6=1.3984         
C8-O9=1.3749         C8-C10=1.3929        O9-C8=1.3749         O9-H37=0.9656        C10-C8=1.3929        C10-O11=1.3638       
C10-C12=1.3856       O11-C10=1.3638       O11-H38=0.9768       C12-C4=1.3842        C12-C10=1.3856       C12-H39=1.0759       
C13-C2=1.5293        C13-O14=1.4183       C13-C25=1.5252       C13-H40=1.0977       O14-C13=1.4183       O14-C15=1.3643       
C15-O14=1.3643       C15-C16=1.3848       C15-C22=1.3930       C16-C15=1.3848       C16-C17=1.3852       C16-H41=1.0755       
C17-C16=1.3852       C17-O18=1.3550       C17-C19=1.3892       O18-C17=1.3550       O18-H42=0.9654       C19-C17=1.3892       
C19-C20=1.3863       C19-H43=1.0772       C20-C19=1.3863       C20-O21=1.3541       C20-C22=1.3991       O21-C20=1.3541       
O21-H44=0.9695       C22-C15=1.3930       C22-C20=1.3991       C22-C23=1.5120       C23-C22=1.5120       C23-O24=1.4210       
C23-C25=1.5447       C23-H45=1.1089       O24-C23=1.4210       O24-H46=0.9729       C25-C13=1.5252       C25-C23=1.5447       
C25-C26=1.5076       C25-H47=1.0934       C26-C25=1.5076       C26-C27=1.3939       C26-C34=1.3883       C27-C26=1.3939       
C27-C28=1.3898       C27-H48=1.0769       C28-C27=1.3898       C28-O29=1.3557       C28-C30=1.3964       O29-C28=1.3557       
O29-H49=0.9947       C30-C28=1.3964       C30-O31=1.3717       C30-C32=1.3921       O31-C30=1.3717       O31-H50=0.9672       
C32-C30=1.3921       C32-O33=1.3560       C32-C34=1.3880       O33-C32=1.3560       O33-H51=0.9675       C34-C26=1.3883       
C34-C32=1.3880       C34-H52=1.0766       H35-C5=1.0759        H36-O7=0.9691        H37-O9=0.9656        H38-O11=0.9768       
H39-C12=1.0759       H40-C13=1.0977       H41-C16=1.0755       H42-O18=0.9654       H43-C19=1.0772       H44-O21=0.9695       
H45-C23=1.1089       H46-O24=0.9729       H47-C25=1.0934       H48-C27=1.0769       H49-O29=0.9947       H50-O31=0.9672       
H51-O33=0.9675       H52-C34=1.0766       B53-B54=1.5929       B53-B56=1.6017       B53-H93=1.1689       B53-H94=1.3303       
B54-B53=1.5929       B54-B55=1.7019       B54-B56=1.7012       B54-B58=1.8448       B54-H94=1.3071       B55-B54=1.7019       
B55-B57=1.5549       B55-B58=1.7691       B55-H95=1.1767       B56-B53=1.6017       B56-B54=1.7012       B56-B63=1.6750       
B56-B64=1.6365       B57-B55=1.5549       B57-B58=1.7587       B57-B61=1.6925       B57-B65=1.6624       B58-B54=1.8448       
B58-B55=1.7691       B58-B57=1.7587       B58-B59=1.6072       B58-B61=1.6484       B59-B58=1.6072       B59-B60=1.6361       
B59-H96=1.1917       B60-B59=1.6361       B60-B62=1.6286       B60-H97=1.1811       B61-B57=1.6925       B61-B58=1.6484       
B61-B65=1.8948       B61-B68=1.6197       B61-B69=1.6721       B62-B60=1.6286       B62-B70=1.6176       B62-H98=1.1834       
B63-B56=1.6750       B63-B64=1.6224       B63-B66=1.6540       B63-H99=1.1767       B64-B56=1.6365       B64-B63=1.6224       
B64-B65=1.6566       B64-B66=1.6182       B65-B57=1.6624       B65-B61=1.8948       B65-B64=1.6566       B65-B67=1.6092       
B65-B68=1.7728       B66-B63=1.6540       B66-B64=1.6182       B66-B73=1.7051       B66-B74=1.6117       B67-B65=1.6092       
B67-B68=1.7714       B67-B75=1.8961       B67-B78=1.5372       B68-B61=1.6197       B68-B65=1.7728       B68-B67=1.7714       
B68-B69=1.6442       B68-B71=1.6054       B69-B61=1.6721       B69-B68=1.6442       B69-B70=1.5730       B69-B71=1.7894       
B70-B62=1.6176       B70-B69=1.5730       B70-B72=1.6578       B71-B68=1.6054       B71-B69=1.7894       B71-B79=1.7036       
B71-B83=1.6617       B71-B86=1.8431       B72-B70=1.6578       B72-B80=1.5703       B72-H100=1.1792      B73-B66=1.7051       
B73-B74=1.6272       B73-B76=1.6214       B73-H101=1.1583      B74-B66=1.6117       B74-B73=1.6272       B74-B75=1.5940       
B74-B76=1.6381       B75-B67=1.8961       B75-B74=1.5940       B75-B76=1.8695       B75-B77=1.6020       B75-B78=1.8713       
B76-B73=1.6214       B76-B74=1.6381       B76-B75=1.8695       B76-B83=1.8871       B76-B84=1.5986       B77-B75=1.6020       
B77-B78=1.6902       B77-B81=1.7820       B77-B88=1.5940       B78-B67=1.5372       B78-B75=1.8713       B78-B77=1.6902       
B78-B79=1.9240       B78-B81=1.5895       B79-B71=1.7036       B79-B78=1.9240       B79-B80=1.6147       B79-B81=1.7807       
B79-B86=1.7036       B80-B72=1.5703       B80-B79=1.6147       B80-B82=1.6715       B81-B77=1.7820       B81-B78=1.5895       
B81-B79=1.7807       B81-B82=2.1256       B81-B88=1.9849       B81-B89=1.7602       B81-B90=1.6944       B82-B80=1.6715       
B82-B81=2.1256       B82-B90=1.6181       B82-H102=1.1769      B83-B71=1.6617       B83-B76=1.8871       B83-B84=1.7232       
B83-B86=1.8732       B83-H103=1.1721      B84-B76=1.5986       B84-B83=1.7232       B84-B85=1.5601       B84-B86=1.7573       
B85-B84=1.5601       B85-B86=1.9391       B85-B87=1.5880       B85-B88=1.8862       B86-B71=1.8431       B86-B79=1.7036       
B86-B83=1.8732       B86-B84=1.7573       B86-B85=1.9391       B86-H104=1.1840      B87-B85=1.5880       B87-B88=1.6996       
B87-B91=1.8307       B87-H105=1.1534      B88-B77=1.5940       B88-B81=1.9849       B88-B85=1.8862       B88-B87=1.6996       
B88-B89=1.8833       B88-B91=1.6015       B89-B81=1.7602       B89-B88=1.8833       B89-B90=1.6518       B89-B91=1.6338       
B89-B92=1.5732       B90-B81=1.6944       B90-B82=1.6181       B90-B89=1.6518       B90-B92=1.5629       B91-B87=1.8307       
B91-B88=1.6015       B91-B89=1.6338       B91-H106=1.1741      B92-B89=1.5732       B92-B90=1.5629       B92-H107=1.1675      
H93-B53=1.1689       H94-B53=1.3303       H94-B54=1.3071       H95-B55=1.1767       H96-B59=1.1917       H97-B60=1.1811       
H98-B62=1.1834       H99-B63=1.1767       H100-B72=1.1792      H101-B73=1.1583      H102-B82=1.1769      H103-B83=1.1721      
H104-B86=1.1840      H105-B87=1.1534      H106-B91=1.1741      H107-B92=1.1675      
 B  H  Rav=1.1926 sigma=0.0487  Rmin=1.1534  Rmax=1.3303    16
 B  B  Rav=1.7003 sigma=0.1188  Rmin=1.5372  Rmax=2.1256    78
 C  H  Rav=1.0842 sigma=0.0118  Rmin=1.0755  Rmax=1.1089     9
 C  C  Rav=1.4192 sigma=0.0556  Rmin=1.3842  Rmax=1.5447    23
 O  H  Rav=0.9721 sigma=0.0087  Rmin=0.9654  Rmax=0.9947     9
 O  C  Rav=1.3574 sigma=0.0493  Rmin=1.2048  Rmax=1.4210    14
 
 selected bond angles (degree)
 --------------------
O3-C2-O1=127.75                C13-C2-O1=121.21               C13-C2-O3=111.03               C4-O3-C2=124.71                
C5-C4-O3=114.80                C12-C4-O3=124.03               C12-C4-C5=121.16               C6-C5-C4=119.59                
H35-C5-C4=120.50               H35-C5-C6=119.91               O7-C6-C5=120.28                C8-C6-C5=119.82                
C8-C6-O7=119.90                H36-O7-C6=107.46               O9-C8-C6=118.83                C10-C8-C6=119.75               
C10-C8-O9=121.42               H37-O9-C8=106.70               O11-C10-C8=117.11              C12-C10-C8=120.53              
C12-C10-O11=122.35             
 
 selected dihedral angles (degree)
 ---------------------------------
C4-O3-C2-O1=352.64            C4-O3-C2-C13=171.35           C5-C4-O3-C2=195.16            C12-C4-O3-C2= 13.67           
C6-C5-C4-O3=178.29            C6-C5-C4-C12=359.73           H35-C5-C4-O3=359.36           H35-C5-C4-C12=180.80          
O7-C6-C5-C4=179.81            O7-C6-C5-H35=358.74           C8-C6-C5-C4=359.08            C8-C6-C5-H35=178.02           
H36-O7-C6-C5=178.66           H36-O7-C6-C8=359.39           O9-C8-C6-C5=181.15            O9-C8-C6-O7=  0.43            
C10-C8-C6-C5=  0.35           C10-C8-C6-O7=179.62           H37-O9-C8-C6=178.01           H37-O9-C8-C10=358.83          
O11-C10-C8-C6=181.59          O11-C10-C8-O9=  0.77          C12-C10-C8-C6=  1.42          C12-C10-C8-O9=180.60          
 
 CMA Distance (Angstroems)
 ---------------------------
R(CMA):  5.9373
           -------------------------------------------------
          |                Final Singlepoint                |
           -------------------------------------------------

          ...................................................
          :                      SETUP                      :
          :.................................................:
          :  # basis functions                 329          :
          :  # atomic orbitals                 329          :
          :  # shells                          181          :
          :  # electrons                       313          :
          :  max. iterations                   500          :
          :  Hamiltonian                  GFN2-xTB          :
          :  restarted?                      false          :
          :  GBSA solvation                  false          :
          :  PC potential                    false          :
          :  electronic temp.          300.0000000     K    :
          :  accuracy                    1.0000000          :
          :  -> integral cutoff          0.2500000E+02      :
          :  -> integral neglect         0.1000000E-07      :
          :  -> SCF convergence          0.1000000E-05 Eh   :
          :  -> wf. convergence          0.1000000E-03 e    :
          :  Broyden damping             0.4000000          :
          :  net charge                          0          :
          :  unpaired electrons                  0          :
          ...................................................

 iter      E             dE          RMSdq      gap      omega  full diag
   1   -163.3586409 -0.163359E+03  0.353E-01    0.40       0.0  T
   2   -163.3485105  0.101304E-01  0.275E-01    0.39       1.0  T
   3   -163.3013241  0.471864E-01  0.461E-01    0.42       1.0  T
   4   -163.3403234 -0.389993E-01  0.248E-01    0.36       1.0  T
   5   -163.3589914 -0.186679E-01  0.707E-02    0.40       1.0  T
   6   -163.3601869 -0.119550E-02  0.239E-02    0.39       1.0  T
   7   -163.3602772 -0.902986E-04  0.137E-02    0.40       1.0  T
   8   -163.3602803 -0.313715E-05  0.114E-02    0.39       1.0  T
   9   -163.3602414  0.388828E-04  0.132E-02    0.40       1.0  T
  10   -163.3602854 -0.440113E-04  0.406E-03    0.39       2.4  T
  11   -163.3602884 -0.300466E-05  0.118E-03    0.39       8.2  T
  12   -163.3602884 -0.426624E-08  0.864E-04    0.39      11.2  T
  13   -163.3602885 -0.100644E-06  0.366E-04    0.39      26.4  T

   *** convergence criteria satisfied after 13 iterations ***

         #    Occupation            Energy/Eh            Energy/eV
      -------------------------------------------------------------
         1        2.0000           -0.7475081             -20.3407
       ...           ...                  ...                  ...
       151        2.0000           -0.2969923              -8.0816
       152        2.0000           -0.2940889              -8.0026
       153        2.0000           -0.2932769              -7.9805
       154        2.0000           -0.2873844              -7.8201
       155        2.0000           -0.2792192              -7.5979
       156        1.9959           -0.2749378              -7.4814
       157        1.0037           -0.2645318              -7.1983 (HOMO)
       158        0.0005           -0.2500240              -6.8035 (LUMO)
       159        0.0000           -0.2463964              -6.7048
       160        0.0000           -0.2446374              -6.6569
       161                         -0.2259260              -6.1478
       162                         -0.2205740              -6.0021
       ...                                ...                  ...
       329                          1.0891664              29.6377
      -------------------------------------------------------------
                  HL-Gap            0.0145078 Eh            0.3948 eV
             Fermi-level           -0.2635097 Eh           -7.1705 eV

 SCC (total)                   0 d,  0 h,  0 min,  0.326 sec
 SCC setup                      ...        0 min,  0.000 sec (  0.000%)
 Dispersion                     ...        0 min,  0.001 sec (  0.307%)
 classical contributions        ...        0 min,  0.000 sec (  0.000%)
 integral evaluation            ...        0 min,  0.007 sec (  2.147%)
 iterations                     ...        0 min,  0.277 sec ( 84.969%)
 molecular gradient             ...        0 min,  0.028 sec (  8.589%)
 printout                       ...        0 min,  0.013 sec (  3.988%)

         :::::::::::::::::::::::::::::::::::::::::::::::::::::
         ::                     SUMMARY                     ::
         :::::::::::::::::::::::::::::::::::::::::::::::::::::
         :: total energy            -161.434416878756 Eh    ::
         :: gradient norm              0.039121904862 Eh/a0 ::
         :: HOMO-LUMO gap              0.394776184375 eV    ::
         ::.................................................::
         :: SCC energy              -163.352014098939 Eh    ::
         :: -> isotropic ES            0.375392806959 Eh    ::
         :: -> anisotropic ES         -0.005384561962 Eh    ::
         :: -> anisotropic XC         -0.027152273695 Eh    ::
         :: -> dispersion             -0.164017040891 Eh    ::
         :: repulsion energy           1.917597220183 Eh    ::
         :: add. restraining           0.000000000000 Eh    ::
         :: total charge              -0.000000000165 e     ::
         :::::::::::::::::::::::::::::::::::::::::::::::::::::

           -------------------------------------------------
          |                Property Printout                |
           -------------------------------------------------

    * Orbital Energies and Occupations

         #    Occupation            Energy/Eh            Energy/eV
      -------------------------------------------------------------
         1        2.0000           -0.7475081             -20.3407
       ...           ...                  ...                  ...
       145        2.0000           -0.3147684              -8.5653
       146        2.0000           -0.3126089              -8.5065
       147        2.0000           -0.3091827              -8.4133
       148        2.0000           -0.3036935              -8.2639
       149        2.0000           -0.3011919              -8.1958
       150        2.0000           -0.3007687              -8.1843
       151        2.0000           -0.2969923              -8.0816
       152        2.0000           -0.2940889              -8.0026
       153        2.0000           -0.2932769              -7.9805
       154        2.0000           -0.2873844              -7.8201
       155        2.0000           -0.2792192              -7.5979
       156        1.9959           -0.2749378              -7.4814
       157        1.0037           -0.2645318              -7.1983 (HOMO)
       158        0.0005           -0.2500240              -6.8035 (LUMO)
       159        0.0000           -0.2463964              -6.7048
       160        0.0000           -0.2446374              -6.6569
       161                         -0.2259260              -6.1478
       162                         -0.2205740              -6.0021
       163                         -0.2134421              -5.8081
       164                         -0.2130622              -5.7977
       165                         -0.2099783              -5.7138
       166                         -0.2094104              -5.6983
       167                         -0.2074925              -5.6462
       168                         -0.2068401              -5.6284
       ...                                ...                  ...
       329                          1.0891664              29.6377
      -------------------------------------------------------------
                  HL-Gap            0.0145078 Eh            0.3948 eV
             Fermi-level           -0.2635097 Eh           -7.1705 eV

     #   Z          covCN         q      C6AA      α(0)
     1   8 O        0.856    -0.404    21.758     6.254
     2   6 C        2.704     0.346    21.121     7.522
     3   8 O        1.709    -0.217    17.600     5.664
     4   6 C        2.865     0.125    25.247     8.236
     5   6 C        2.917    -0.091    30.293     9.025
     6   6 C        2.845     0.126    25.226     8.231
     7   8 O        1.659    -0.376    20.396     6.097
     8   6 C        2.844     0.079    26.234     8.394
     9   8 O        1.658    -0.405    20.953     6.179
    10   6 C        2.847     0.111    25.544     8.283
    11   8 O        1.658    -0.416    21.157     6.209
    12   6 C        2.915    -0.118    30.989     9.129
    13   6 C        3.779     0.078    19.303     6.259
    14   8 O        1.705    -0.273    18.529     5.812
    15   6 C        2.895     0.137    25.008     8.199
    16   6 C        2.918    -0.098    30.467     9.051
    17   6 C        2.848     0.145    24.847     8.170
    18   8 O        1.660    -0.384    20.533     6.117
    19   6 C        2.917    -0.115    30.919     9.118
    20   6 C        2.850     0.144    24.860     8.172
    21   8 O        1.660    -0.396    20.763     6.151
    22   6 C        2.969    -0.084    30.105     9.000
    23   6 C        3.734     0.119    18.722     6.175
    24   8 O        1.654    -0.470    22.255     6.368
    25   6 C        3.861    -0.046    21.362     6.573
    26   6 C        2.970    -0.016    28.417     8.744
    27   6 C        2.919    -0.125    31.173     9.156
    28   6 C        2.842     0.109    25.595     8.291
    29   8 O        1.656    -0.435    21.545     6.266
    30   6 C        2.847     0.079    26.238     8.395
    31   8 O        1.658    -0.412    21.076     6.197
    32   6 C        2.842     0.123    25.288     8.241
    33   8 O        1.659    -0.383    20.516     6.115
    34   6 C        2.924    -0.084    30.115     8.999
    35   1 H        0.926     0.083     1.952     2.185
    36   1 H        0.805     0.327     0.646     1.263
    37   1 H        0.805     0.326     0.648     1.265
    38   1 H        0.803     0.333     0.630     1.246
    39   1 H        0.926     0.104     1.747     2.067
    40   1 H        0.924     0.073     2.048     2.238
    41   1 H        0.926     0.075     2.030     2.228
    42   1 H        0.805     0.306     0.704     1.318
    43   1 H        0.926     0.053     2.284     2.363
    44   1 H        0.805     0.335     0.625     1.241
    45   1 H        0.922     0.023     2.691     2.566
    46   1 H        0.804     0.305     0.706     1.319
    47   1 H        0.924     0.061     2.183     2.310
    48   1 H        0.926     0.060     2.194     2.316
    49   1 H        0.800     0.331     0.635     1.253
    50   1 H        0.805     0.328     0.642     1.259
    51   1 H        0.805     0.324     0.653     1.270
    52   1 H        0.926     0.059     2.213     2.326
    53   5 B        3.664     0.081    20.995     7.442
    54   5 B        4.624     0.060    21.665     7.500
    55   5 B        3.771     0.035    22.058     7.577
    56   5 B        3.840     0.020    22.365     7.622
    57   5 B        3.898     0.070    21.474     7.467
    58   5 B        4.606     0.028    22.233     7.597
    59   5 B        2.867     0.064    20.329     7.527
    60   5 B        2.868     0.065    20.317     7.524
    61   5 B        4.618     0.052    21.799     7.523
    62   5 B        2.871     0.085    19.988     7.463
    63   5 B        3.822     0.066    21.532     7.480
    64   5 B        3.864     0.048    21.853     7.534
    65   5 B        4.578    -0.021    23.139     7.751
    66   5 B        3.847     0.043    21.949     7.551
    67   5 B        3.827     0.027    22.221     7.599
    68   5 B        4.887     0.088    21.176     7.415
    69   5 B        3.792     0.030    22.152     7.590
    70   5 B        2.913     0.002    21.375     7.715
    71   5 B        5.001     0.074    21.413     7.456
    72   5 B        2.879     0.047    20.605     7.577
    73   5 B        3.824     0.066    21.539     7.481
    74   5 B        3.878     0.046    21.898     7.541
    75   5 B        4.349    -0.002    22.784     7.691
    76   5 B        4.508     0.033    22.135     7.581
    77   5 B        3.835     0.032    22.133     7.583
    78   5 B        4.641     0.041    21.997     7.557
    79   5 B        4.528    -0.002    22.784     7.691
    80   5 B        2.915    -0.003    21.463     7.731
    81   5 B        5.620     0.080    21.308     7.438
    82   5 B        3.250     0.093    19.810     7.423
    83   5 B        4.598     0.087    21.190     7.417
    84   5 B        3.810     0.054    21.741     7.517
    85   5 B        3.486     0.031    20.957     7.610
    86   5 B        5.161     0.061    21.637     7.495
    87   5 B        3.723     0.080    21.192     7.440
    88   5 B        5.102     0.043    21.951     7.549
    89   5 B        4.615     0.046    21.900     7.540
    90   5 B        3.858     0.011    22.531     7.650
    91   5 B        3.733     0.078    21.252     7.447
    92   5 B        2.890     0.059    20.406     7.539
    93   1 H        0.939    -0.118     6.227     3.902
    94   1 H        1.602     0.043     2.388     2.413
    95   1 H        0.937    -0.139     7.127     4.174
    96   1 H        0.931    -0.154     7.916     4.399
    97   1 H        0.935    -0.113     6.044     3.844
    98   1 H        0.934    -0.130     6.756     4.064
    99   1 H        0.937    -0.110     5.918     3.803
   100   1 H        0.936    -0.139     7.127     4.174
   101   1 H        0.943    -0.119     6.268     3.914
   102   1 H        0.937    -0.138     7.107     4.168
   103   1 H        0.938    -0.150     7.670     4.330
   104   1 H        0.934    -0.132     6.843     4.090
   105   1 H        0.944    -0.099     5.507     3.669
   106   1 H        0.938    -0.136     7.007     4.139
   107   1 H        0.940    -0.143     7.316     4.229

 Mol. C6AA /au·bohr⁶  :     168046.769397
 Mol. C8AA /au·bohr⁸  :    4926511.814196
 Mol. α(0) /au        :        647.970156


Wiberg/Mayer (AO) data.
largest (>0.10) Wiberg bond orders for each atom

 ---------------------------------------------------------------------------
     #   Z sym  total        # sym  WBO       # sym  WBO       # sym  WBO
 ---------------------------------------------------------------------------
     1   8 O    2.037 --     2 C    1.730     3 O    0.171
     2   6 C    3.917 --     1 O    1.730     3 O    1.163    13 C    0.927
     3   8 O    2.403 --     2 C    1.163     4 C    0.969     1 O    0.171
     4   6 C    3.905 --    12 C    1.392     5 C    1.371     3 O    0.969
     5   6 C    3.976 --     6 C    1.383     4 C    1.371    35 H    0.962
     6   6 C    3.949 --     5 C    1.383     8 C    1.311     7 O    1.091
     7   8 O    2.133 --     6 C    1.091    36 H    0.871
     8   6 C    3.936 --    10 C    1.331     6 C    1.311     9 O    1.054
     9   8 O    2.088 --     8 C    1.054    37 H    0.871
    10   6 C    3.947 --    12 C    1.368     8 C    1.331    11 O    1.075
    11   8 O    2.100 --    10 C    1.075    38 H    0.836
    12   6 C    3.973 --     4 C    1.392    10 C    1.368    39 H    0.945
    13   6 C    3.940 --    25 C    0.972    14 O    0.955    40 H    0.931
                             2 C    0.927
    14   8 O    2.211 --    15 C    1.048    13 C    0.955
    15   6 C    3.935 --    16 C    1.373    22 C    1.356    14 O    1.048
    16   6 C    3.972 --    17 C    1.374    15 C    1.373    41 H    0.963
    17   6 C    3.942 --    16 C    1.374    19 C    1.367    18 O    1.081
    18   8 O    2.126 --    17 C    1.081    42 H    0.885
    19   6 C    3.971 --    20 C    1.380    17 C    1.367    43 H    0.963
    20   6 C    3.947 --    19 C    1.380    22 C    1.333    21 O    1.098
    21   8 O    2.127 --    20 C    1.098    44 H    0.850
    22   6 C    3.966 --    15 C    1.356    20 C    1.333    23 C    0.989
    23   6 C    3.956 --    22 C    0.989    24 O    0.978    25 C    0.958
                            45 H    0.950
    24   8 O    1.956 --    23 C    0.978    46 H    0.862
    25   6 C    3.992 --    26 C    0.999    13 C    0.972    47 H    0.960
                            23 C    0.958
    26   6 C    3.986 --    34 C    1.414    27 C    1.392    25 C    0.999
    27   6 C    3.976 --    26 C    1.392    28 C    1.366    48 H    0.956
    28   6 C    3.948 --    27 C    1.366    30 C    1.317    29 O    1.089
    29   8 O    2.096 --    28 C    1.089    49 H    0.782
    30   6 C    3.935 --    32 C    1.325    28 C    1.317    31 O    1.055
    31   8 O    2.089 --    30 C    1.055    50 H    0.866
    32   6 C    3.946 --    34 C    1.366    30 C    1.325    33 O    1.087
    33   8 O    2.130 --    32 C    1.087    51 H    0.873
    34   6 C    3.980 --    26 C    1.414    32 C    1.366    52 H    0.965
    35   1 H    0.993 --     5 C    0.962
    36   1 H    0.893 --     7 O    0.871
    37   1 H    0.894 --     9 O    0.871
    38   1 H    0.888 --    11 O    0.836
    39   1 H    0.989 --    12 C    0.945
    40   1 H    0.994 --    13 C    0.931
    41   1 H    0.994 --    16 C    0.963
    42   1 H    0.906 --    18 O    0.885
    43   1 H    0.997 --    19 C    0.963
    44   1 H    0.887 --    21 O    0.850
    45   1 H    0.998 --    23 C    0.950
    46   1 H    0.906 --    24 O    0.862
    47   1 H    0.995 --    25 C    0.960
    48   1 H    0.996 --    27 C    0.956
    49   1 H    0.889 --    29 O    0.782
    50   1 H    0.892 --    31 O    0.866
    51   1 H    0.895 --    33 O    0.873
    52   1 H    0.996 --    34 C    0.965
    53   5 B    3.563 --    93 H    0.957    56 B    0.942    54 B    0.894
                            94 H    0.478
    54   5 B    3.590 --    53 B    0.894    56 B    0.736    55 B    0.673
                            94 H    0.486    58 B    0.448    57 B    0.148
    55   5 B    3.576 --    57 B    1.140    95 H    0.953    54 B    0.673
                            58 B    0.500
    56   5 B    3.590 --    53 B    0.942    63 B    0.815    64 B    0.790
                            54 B    0.736
    57   5 B    3.365 --    55 B    1.140    65 B    0.759    61 B    0.585
                            58 B    0.486    54 B    0.148
    58   5 B    3.591 --    59 B    1.037    61 B    0.809    55 B    0.500
                            57 B    0.486    54 B    0.448
    59   5 B    3.377 --    58 B    1.037    60 B    1.035    96 H    0.911
    60   5 B    3.277 --    59 B    1.035    62 B    1.030    97 H    0.925
                            70 B    0.106
    61   5 B    3.674 --    58 B    0.809    68 B    0.757    69 B    0.743
                            57 B    0.585    65 B    0.371
    62   5 B    3.333 --    60 B    1.030    70 B    0.994    98 H    0.928
                            69 B    0.105
    63   5 B    3.602 --    99 H    0.928    66 B    0.845    56 B    0.815
                            64 B    0.753
    64   5 B    3.575 --    66 B    0.821    65 B    0.817    56 B    0.790
                            63 B    0.753
    65   5 B    3.669 --    67 B    0.884    64 B    0.817    57 B    0.759
                            68 B    0.499    61 B    0.371
    66   5 B    3.590 --    63 B    0.845    74 B    0.835    64 B    0.821
                            73 B    0.679
    67   5 B    3.525 --    78 B    1.097    65 B    0.884    68 B    0.433
                            75 B    0.414    71 B    0.215
    68   5 B    3.624 --    61 B    0.757    71 B    0.714    69 B    0.617
                            65 B    0.499    67 B    0.433    83 B    0.301
    69   5 B    3.545 --    70 B    1.097    61 B    0.743    71 B    0.624
                            68 B    0.617    62 B    0.105
    70   5 B    3.500 --    69 B    1.097    62 B    0.994    72 B    0.863
                            80 B    0.172    60 B    0.106
    71   5 B    3.651 --    68 B    0.714    83 B    0.644    69 B    0.624
                            79 B    0.557    86 B    0.422    67 B    0.215
                            78 B    0.179
    72   5 B    3.482 --    80 B    1.130   100 H    0.957    70 B    0.863
                            82 B    0.209
    73   5 B    3.572 --   101 H    0.942    76 B    0.901    74 B    0.732
                            66 B    0.679
    74   5 B    3.558 --    75 B    0.962    66 B    0.835    73 B    0.732
                            76 B    0.680
    75   5 B    3.612 --    77 B    1.027    74 B    0.962    76 B    0.444
                            67 B    0.414    78 B    0.375    84 B    0.136
    76   5 B    3.623 --    73 B    0.901    84 B    0.889    74 B    0.680
                            75 B    0.444    83 B    0.401
    77   5 B    3.565 --    75 B    1.027    88 B    0.905    78 B    0.554
                            81 B    0.495    85 B    0.180
    78   5 B    3.615 --    67 B    1.097    81 B    0.757    77 B    0.554
                            75 B    0.375    79 B    0.341    71 B    0.179
    79   5 B    3.627 --    80 B    0.990    86 B    0.670    71 B    0.557
                            81 B    0.533    78 B    0.341
    80   5 B    3.478 --    72 B    1.130    79 B    0.990    82 B    0.761
                            70 B    0.172
    81   5 B    3.643 --    78 B    0.757    90 B    0.580    79 B    0.533
                            89 B    0.525    77 B    0.495    88 B    0.279
                            82 B    0.220
    82   5 B    3.463 --   102 H    0.952    90 B    0.934    80 B    0.761
                            81 B    0.220    72 B    0.209
    83   5 B    3.645 --   103 H    0.931    71 B    0.644    84 B    0.569
                            86 B    0.484    76 B    0.401    68 B    0.301
    84   5 B    3.517 --    85 B    1.078    76 B    0.889    83 B    0.569
                            86 B    0.507    75 B    0.136
    85   5 B    3.570 --    84 B    1.078    87 B    1.052    86 B    0.441
                            88 B    0.401    77 B    0.180
    86   5 B    3.637 --   104 H    0.924    79 B    0.670    84 B    0.507
                            83 B    0.484    85 B    0.441    71 B    0.422
    87   5 B    3.467 --    85 B    1.052   105 H    0.927    88 B    0.637
                            91 B    0.566
    88   5 B    3.596 --    77 B    0.905    91 B    0.839    87 B    0.637
                            85 B    0.401    89 B    0.362    81 B    0.279
    89   5 B    3.617 --    92 B    1.011    91 B    0.795    90 B    0.700
                            81 B    0.525    88 B    0.362
    90   5 B    3.585 --    92 B    1.084    82 B    0.934    89 B    0.700
                            81 B    0.580
    91   5 B    3.574 --   106 H    0.964    88 B    0.839    89 B    0.795
                            87 B    0.566    92 B    0.132
    92   5 B    3.495 --    90 B    1.084    89 B    1.011   107 H    0.968
                            91 B    0.132
    93   1 H    0.982 --    53 B    0.957
    94   1 H    0.994 --    54 B    0.486    53 B    0.478
    95   1 H    0.978 --    55 B    0.953
    96   1 H    0.974 --    59 B    0.911
    97   1 H    0.985 --    60 B    0.925
    98   1 H    0.980 --    62 B    0.928
    99   1 H    0.976 --    63 B    0.928
   100   1 H    0.977 --    72 B    0.957
   101   1 H    0.978 --    73 B    0.942
   102   1 H    0.977 --    82 B    0.952
   103   1 H    0.975 --    83 B    0.931
   104   1 H    0.976 --    86 B    0.924
   105   1 H    0.985 --    87 B    0.927
   106   1 H    0.980 --    91 B    0.964
   107   1 H    0.978 --    92 B    0.968
 ---------------------------------------------------------------------------

Topologies differ in total number of bonds
Writing topology from bond orders to xtbtopo.mol

molecular dipole:
                 x           y           z       tot (Debye)
 q only:        0.605      -1.338      -3.958
   full:       -0.250      -1.548      -3.039       8.691
molecular quadrupole (traceless):
                xx          xy          yy          xz          yz          zz
 q only:        9.579     -14.539      24.638      11.956       7.327     -34.217
  q+dip:       36.576      -7.556      22.561       8.796      -1.726     -59.137
   full:       24.622     -10.918      23.500       9.091      -0.277     -48.122

           -------------------------------------------------
          |                Geometry Summary                 |
           -------------------------------------------------

      molecular mass/u    :      921.9322156
   center of mass at/Å    :       -0.0198580      -0.0043399       4.1186665
  moments of inertia/u·Å² :        0.1272448E+05   0.1672294E+05   0.1787854E+05
rotational constants/cm⁻¹ :        0.1324819E-02   0.1008054E-02   0.9428975E-03

 * 125 selected distances

     #   Z          #   Z                                           value/Å
     1   8 O        2   6 C                                       1.2048259
     2   6 C        3   8 O                                       1.3193643
     3   8 O        4   6 C                                       1.3887189
     4   6 C        5   6 C                                       1.3906007
     5   6 C        6   6 C                                       1.3851331
     6   6 C        7   8 O                                       1.3559433
     6   6 C        8   6 C                                       1.3983685
     8   6 C        9   8 O                                       1.3749047
     8   6 C       10   6 C                                       1.3928879
    10   6 C       11   8 O                                       1.3637973
     4   6 C       12   6 C                                       1.3842144
    10   6 C       12   6 C                                       1.3856467
    13   6 C       14   8 O                                       1.4183367
    14   8 O       15   6 C                                       1.3642741
    15   6 C       16   6 C                                       1.3847585
    16   6 C       17   6 C                                       1.3851896
    17   6 C       18   8 O                                       1.3549799
    17   6 C       19   6 C                                       1.3892263
    19   6 C       20   6 C                                       1.3862628
    20   6 C       21   8 O                                       1.3540801
    15   6 C       22   6 C                                       1.3930232
    20   6 C       22   6 C                                       1.3990963
    23   6 C       24   8 O                                       1.4209955
    13   6 C       25   6 C                                       1.5252189
    26   6 C       27   6 C                                       1.3938935
    27   6 C       28   6 C                                       1.3897633
    28   6 C       29   8 O                                       1.3557109
    28   6 C       30   6 C                                       1.3963820
    30   6 C       31   8 O                                       1.3717333
    30   6 C       32   6 C                                       1.3921124
    32   6 C       33   8 O                                       1.3560318
    26   6 C       34   6 C                                       1.3882538
    32   6 C       34   6 C                                       1.3879954
     5   6 C       35   1 H                                       1.0759200
     7   8 O       36   1 H                                       0.9691376
     9   8 O       37   1 H                                       0.9656348
    11   8 O       38   1 H                                       0.9768224
    12   6 C       39   1 H                                       1.0758669
    13   6 C       40   1 H                                       1.0977150
    16   6 C       41   1 H                                       1.0755331
    18   8 O       42   1 H                                       0.9654302 (min)
    19   6 C       43   1 H                                       1.0772005
    21   8 O       44   1 H                                       0.9694580
    23   6 C       45   1 H                                       1.1088783
    24   8 O       46   1 H                                       0.9729470
    25   6 C       47   1 H                                       1.0933624
    27   6 C       48   1 H                                       1.0769494
    29   8 O       49   1 H                                       0.9946668
    31   8 O       50   1 H                                       0.9672347
    33   8 O       51   1 H                                       0.9674698
    34   6 C       52   1 H                                       1.0765819
    53   5 B       54   5 B                                       1.5929035
    54   5 B       55   5 B                                       1.7018632
    53   5 B       56   5 B                                       1.6017219
    54   5 B       56   5 B                                       1.7011886
    55   5 B       57   5 B                                       1.5548854
    58   5 B       59   5 B                                       1.6071874
    59   5 B       60   5 B                                       1.6360866
    57   5 B       61   5 B                                       1.6924836
    58   5 B       61   5 B                                       1.6483722
    60   5 B       62   5 B                                       1.6285707
    56   5 B       63   5 B                                       1.6749621
    56   5 B       64   5 B                                       1.6365120
    63   5 B       64   5 B                                       1.6224322
    57   5 B       65   5 B                                       1.6623837
    64   5 B       65   5 B                                       1.6566215
    63   5 B       66   5 B                                       1.6539505
    64   5 B       66   5 B                                       1.6181576
    65   5 B       67   5 B                                       1.6092256
    61   5 B       68   5 B                                       1.6196996
    65   5 B       68   5 B                                       1.7727585
    61   5 B       69   5 B                                       1.6721180
    68   5 B       69   5 B                                       1.6441717
    62   5 B       70   5 B                                       1.6175564
    69   5 B       70   5 B                                       1.5730118
    68   5 B       71   5 B                                       1.6053843
    70   5 B       72   5 B                                       1.6577593
    66   5 B       73   5 B                                       1.7051129
    66   5 B       74   5 B                                       1.6116549
    73   5 B       74   5 B                                       1.6272190
    74   5 B       75   5 B                                       1.5939985
    73   5 B       76   5 B                                       1.6213834
    74   5 B       76   5 B                                       1.6381197
    75   5 B       77   5 B                                       1.6020216
    67   5 B       78   5 B                                       1.5372114
    77   5 B       78   5 B                                       1.6902395
    71   5 B       79   5 B                                       1.7035934
    72   5 B       80   5 B                                       1.5702541
    79   5 B       80   5 B                                       1.6146960
    77   5 B       81   5 B                                       1.7819994 (max)
    78   5 B       81   5 B                                       1.5895458
    79   5 B       81   5 B                                       1.7806990
    80   5 B       82   5 B                                       1.6715027
    71   5 B       83   5 B                                       1.6617038
    76   5 B       84   5 B                                       1.5985722
    83   5 B       84   5 B                                       1.7231536
    84   5 B       85   5 B                                       1.5600627
    79   5 B       86   5 B                                       1.7036219
    84   5 B       86   5 B                                       1.7573143
    85   5 B       87   5 B                                       1.5879762
    77   5 B       88   5 B                                       1.5940027
    87   5 B       88   5 B                                       1.6996232
    81   5 B       89   5 B                                       1.7601846
    81   5 B       90   5 B                                       1.6944022
    82   5 B       90   5 B                                       1.6180885
    89   5 B       90   5 B                                       1.6517571
    88   5 B       91   5 B                                       1.6015223
    89   5 B       91   5 B                                       1.6337993
    89   5 B       92   5 B                                       1.5731938
    90   5 B       92   5 B                                       1.5628712
    53   5 B       93   1 H                                       1.1688719
    54   5 B       94   1 H                                       1.3070537
    55   5 B       95   1 H                                       1.1766961
    59   5 B       96   1 H                                       1.1917094
    60   5 B       97   1 H                                       1.1811298
    62   5 B       98   1 H                                       1.1834155
    63   5 B       99   1 H                                       1.1767329
    72   5 B      100   1 H                                       1.1792249
    73   5 B      101   1 H                                       1.1582833
    82   5 B      102   1 H                                       1.1768765
    83   5 B      103   1 H                                       1.1721159
    86   5 B      104   1 H                                       1.1839784
    87   5 B      105   1 H                                       1.1533505
    91   5 B      106   1 H                                       1.1741474
    92   5 B      107   1 H                                       1.1675109

 * 6 distinct bonds (by element types)

   Z      Z             #   av. dist./Å        max./Å        min./Å
   1 H    5 B          15     1.1834065     1.3070537     1.1533505
   5 B    5 B          59     1.6437808     1.7819994     1.5372114
   1 H    6 C           9     1.0842230     1.1088783     1.0755331
   6 C    6 C          19     1.3972646     1.5252189     1.3842144
   1 H    8 O           9     0.9720890     0.9946668     0.9654302
   6 C    8 O          14     1.3574069     1.4209955     1.2048259


optimized geometry written to: xtbopt.xyz


           -------------------------------------------------
          | TOTAL ENERGY             -161.434416878756 Eh   |
          | GRADIENT NORM               0.039121904862 Eh/α |
          | HOMO-LUMO GAP               0.394776184375 eV   |
           -------------------------------------------------

------------------------------------------------------------------------
 * finished run on 2026/09/01 at 20:34:08.681     
------------------------------------------------------------------------
 total:
 * wall-time:     0 d,  0 h,  0 min, 30.244 sec
 *  cpu-time:     0 d,  0 h,  6 min,  0.469 sec
 * ratio c/w:    11.919 speedup
 SCF:
 * wall-time:     0 d,  0 h,  0 min,  0.593 sec
 *  cpu-time:     0 d,  0 h,  0 min,  7.734 sec
 * ratio c/w:    13.043 speedup
 ANC optimizer:
 * wall-time:     0 d,  0 h,  0 min, 29.593 sec
 *  cpu-time:     0 d,  0 h,  5 min, 52.359 sec
 * ratio c/w:    11.907 speedup

