      -----------------------------------------------------------      
     |                   =====================                   |     
     |                           x T B                           |     
     |                   =====================                   |     
     |                         S. Grimme                         |     
     |          Mulliken Center for Theoretical Chemistry        |     
     |                    University of Bonn                     |     
      -----------------------------------------------------------      

   * xtb version 6.7.1pre (5071a88) compiled by 'Marcel@Raven' on 2024-07-23

   xtb is free software: you can redistribute it and/or modify it under
   the terms of the GNU Lesser General Public License as published by
   the Free Software Foundation, either version 3 of the License, or
   (at your option) any later version.
   
   xtb is distributed in the hope that it will be useful,
   but WITHOUT ANY WARRANTY; without even the implied warranty of
   MERCHANTABILITY or FITNESS FOR A PARTICULAR PURPOSE.  See the
   GNU Lesser General Public License for more details.
   
   Cite this work as:
   * C. Bannwarth, E. Caldeweyher, S. Ehlert, A. Hansen, P. Pracht,
     J. Seibert, S. Spicher, S. Grimme, WIREs Comput. Mol. Sci., 2020, 11,
     e01493. DOI: 10.1002/wcms.1493
   
   for GFN2-xTB:
   * C. Bannwarth, S. Ehlert and S. Grimme., J. Chem. Theory Comput., 2019,
     15, 1652-1671. DOI: 10.1021/acs.jctc.8b01176
   for GFN1-xTB:
   * S. Grimme, C. Bannwarth, P. Shushkov, J. Chem. Theory Comput., 2017,
     13, 1989-2009. DOI: 10.1021/acs.jctc.7b00118
   for GFN0-xTB:
   * P. Pracht, E. Caldeweyher, S. Ehlert, S. Grimme, ChemRxiv, 2019, preprint.
     DOI: 10.26434/chemrxiv.8326202.v1
   for GFN-FF:
   * S. Spicher and S. Grimme, Angew. Chem. Int. Ed., 2020, 59, 15665-15673.
     DOI: 10.1002/anie.202004239
   
   for ALPB and GBSA implicit solvation:
   * S. Ehlert, M. Stahn, S. Spicher, S. Grimme, J. Chem. Theory Comput.,
     2021, 17, 4250-4261. DOI: 10.1021/acs.jctc.1c00471
   
   for ddCOSMO and CPCM-X implicit solvation:
   * M. Stahn, S. Ehlert, S. Grimme, J. Phys. Chem. A,
     2023, XX, XXXX-XXXX. DOI: 10.1021/acs.jpca.3c04382
   
   for DFT-D4:
   * E. Caldeweyher, C. Bannwarth and S. Grimme, J. Chem. Phys., 2017,
     147, 034112. DOI: 10.1063/1.4993215
   * E. Caldeweyher, S. Ehlert, A. Hansen, H. Neugebauer, S. Spicher,
     C. Bannwarth and S. Grimme, J. Chem. Phys., 2019, 150, 154122.
     DOI: 10.1063/1.5090222
   * E. Caldeweyher, J.-M. Mewes, S. Ehlert and S. Grimme, Phys. Chem. Chem. Phys.
     2020, 22, 8499-8512. DOI: 10.1039/D0CP00502A
   
   for sTDA-xTB:
   * S. Grimme and C. Bannwarth, J. Chem. Phys., 2016, 145, 054103.
     DOI: 10.1063/1.4959605
   
   in the mass-spec context:
   * V. Asgeirsson, C. Bauer and S. Grimme, Chem. Sci., 2017, 8, 4879.
     DOI: 10.1039/c7sc00601b
   * J. Koopman and S. Grimme, ACS Omega 2019, 4, 12, 15120-15133.
     DOI: 10.1021/acsomega.9b02011
   
   for metadynamics refer to:
   * S. Grimme, J. Chem. Theory Comput., 2019, 155, 2847-2862
     DOI: 10.1021/acs.jctc.9b00143
   
   for SPH calculations refer to:
   * S. Spicher and S. Grimme, J. Chem. Theory Comput., 2021, 17, 1701-1714
     DOI: 10.1021/acs.jctc.0c01306
   
   for ONIOM refer to:
   * C. Plett, A. Katbashev, S. Ehlert, S. Grimme, M. Bursch,
     Phys. Chem. Chem. Phys., 2023, 25, 17860-17868. DOI: 10.1039/D3CP02178E
   
   for DIPRO refer to:
   * J. Kohn, N. Gildemeister, S. Grimme, D. Fazzi, A. Hansen,
     J. Chem. Phys., 2023, just accepted.
   
   for PTB refer to:
   * S. Grimme, M. Mueller, A. Hansen, J. Chem. Phys., 2023, 158, 124111.
     DOI: 10.1063/5.0137838
   
   with help from (in alphabetical order)
   P. Atkinson, C. Bannwarth, F. Bohle, G. Brandenburg, E. Caldeweyher
   M. Checinski, S. Dohm, S. Ehlert, S. Ehrlich, I. Gerasimov, C. Hölzer
   A. Katbashev, J. Kohn, J. Koopman, C. Lavigne, S. Lehtola, F. März, M. Müller,
   F. Musil, H. Neugebauer, J. Pisarek, C. Plett, P. Pracht, F. Pultar,
   J. Seibert, P. Shushkov, S. Spicher, M. Stahn, M. Steiner, T. Strunk,
   J. Stückrath, T. Rose, and J. Unsleber
   
 * started run on 2026/08/31 at 20:21:45.863     
   ID    Z sym.   atoms
    1    8 O      1, 3, 7, 9, 11, 14, 18, 21, 24, 29, 31, 33
    2    6 C      2, 4-6, 8, 10, 12, 13, 15-17, 19, 20, 22, 23, 25-28, 30,
                  32, 34
    3    1 H      35-52, 106-112
    4    5 B      53-105

           -------------------------------------------------
          |                Calculation Setup                |
           -------------------------------------------------

          program call               : "c:\Users\Andre\Proyectos doctorado\kras-pancreatic-gC3N4-ai\tools\xtb\xtb-6.7.1\bin\xtb.exe" "c:\Users\Andre\Proyectos doctorado\borophene-alzheimer-tau-ai\calculations\tau\EGCG\EGCG_B48H12_complex.xyz" --gfn 2 --sp --chrg 0 --uhf 0 --iterations 500 --norestart
          coordinate file            : c:\Users\Andre\Proyectos doctorado\borophene-alzheimer-tau-ai\calculations\tau\EGCG\EGCG_B48H12_complex.xyz
          omp threads                :                    16


molecular fragmentation (1/2 indicates fragments):
111111111111111111111111111111111111111111111111111111111111111111111111
1111111111111111111111111111111111221111
# atoms in fragment 1/2:   110     2
 fragment masses (1/2) :     1052.40        2.02
CMA distance (Bohr)    :  16.502
constraining FC (au)   :  0.0500

           -------------------------------------------------
          |                 G F N 2 - x T B                 |
           -------------------------------------------------

        Reference                      10.1021/acs.jctc.8b01176
      * Hamiltonian:
        H0-scaling (s, p, d)           1.850000    2.230000    2.230000
        zeta-weighting                 0.500000
      * Dispersion:
        s8                             2.700000
        a1                             0.520000
        a2                             5.000000
        s9                             5.000000
      * Repulsion:
        kExp                           1.500000    1.000000
        rExp                           1.000000
      * Coulomb:
        alpha                          2.000000
        third order                    shell-resolved
        anisotropic                    true
        a3                             3.000000
        a5                             4.000000
        cn-shift                       1.200000
        cn-exp                         4.000000
        max-rad                        5.000000


          ...................................................
          :                      SETUP                      :
          :.................................................:
          :  # basis functions                 373          :
          :  # atomic orbitals                 373          :
          :  # shells                          199          :
          :  # electrons                       344          :
          :  max. iterations                   500          :
          :  Hamiltonian                  GFN2-xTB          :
          :  restarted?                      false          :
          :  GBSA solvation                  false          :
          :  PC potential                    false          :
          :  electronic temp.          300.0000000     K    :
          :  accuracy                    1.0000000          :
          :  -> integral cutoff          0.2500000E+02      :
          :  -> integral neglect         0.1000000E-07      :
          :  -> SCF convergence          0.1000000E-05 Eh   :
          :  -> wf. convergence          0.1000000E-03 e    :
          :  Broyden damping             0.4000000          :
          :  net charge                          0          :
          :  unpaired electrons                  0          :
          ...................................................

 iter      E             dE          RMSdq      gap      omega  full diag
   1   -172.1917306 -0.172192E+03  0.162E+01    0.09       0.0  T
   2    -76.5706477  0.956211E+02  0.139E+01    0.01       1.0  T
   3    370.7177250  0.447288E+03  0.272E+01    0.09       1.0  T
   4    -70.1268437 -0.440845E+03  0.142E+01    0.12       1.0  T
   5    126.1509232  0.196278E+03  0.178E+01    0.14       1.0  T
   6   -158.4377270 -0.284589E+03  0.947E+00    0.10       1.0  T
   7    -97.7279969  0.607097E+02  0.118E+01    0.16       1.0  T
   8   -148.8845096 -0.511565E+02  0.732E+00    0.01       1.0  T
   9   -156.9123273 -0.802782E+01  0.733E+00    0.09       1.0  T
  10   -165.9787722 -0.906644E+01  0.671E+00    0.18       1.0  T
  11   -171.1460384 -0.516727E+01  0.586E+00    0.25       1.0  T
  12   -172.3066892 -0.116065E+01  0.550E+00    0.03       1.0  T
  13   -170.8190239  0.148767E+01  0.561E+00    0.24       1.0  T
  14   -171.8550452 -0.103602E+01  0.516E+00    0.01       1.0  T
  15   -171.0460985  0.808947E+00  0.507E+00    0.03       1.0  T
  16   -171.0376346  0.846394E-02  0.496E+00    0.07       1.0  T
  17   -170.6270429  0.410592E+00  0.461E+00    0.11       1.0  T
  18   -170.6860503 -0.590074E-01  0.453E+00    0.09       1.0  T
  19   -171.4401694 -0.754119E+00  0.375E+00    0.08       1.0  T
  20   -171.6468495 -0.206680E+00  0.330E+00    0.08       1.0  T
  21   -172.1483468 -0.501497E+00  0.309E+00    0.03       1.0  T
  22   -172.0352517  0.113095E+00  0.295E+00    0.06       1.0  T
  23   -172.8224675 -0.787216E+00  0.264E+00    0.02       1.0  T
  24   -173.2048847 -0.382417E+00  0.240E+00    0.08       1.0  T
  25   -173.2398620 -0.349774E-01  0.239E+00    0.09       1.0  T
  26   -173.2393765  0.485513E-03  0.235E+00    0.08       1.0  T
  27   -173.4575979 -0.218221E+00  0.214E+00    0.14       1.0  T
  28   -173.7884437 -0.330846E+00  0.170E+00    0.13       1.0  T
  29   -173.9562833 -0.167840E+00  0.153E+00    0.12       1.0  T
  30   -173.9557443  0.538951E-03  0.153E+00    0.14       1.0  T
  31   -173.9775825 -0.218381E-01  0.152E+00    0.16       1.0  T
  32   -174.0054420 -0.278595E-01  0.149E+00    0.19       1.0  T
  33   -174.0266829 -0.212409E-01  0.145E+00    0.19       1.0  T
  34   -174.0977527 -0.710698E-01  0.130E+00    0.17       1.0  T
  35   -174.2287243 -0.130972E+00  0.998E-01    0.10       1.0  T
  36   -174.2414548 -0.127306E-01  0.953E-01    0.11       1.0  T
  37   -174.2366203  0.483451E-02  0.968E-01    0.12       1.0  T
  38   -174.2267125  0.990782E-02  0.971E-01    0.12       1.0  T
  39   -174.2268558 -0.143301E-03  0.969E-01    0.12       1.0  T
  40   -174.2196859  0.716986E-02  0.981E-01    0.09       1.0  T
  41   -174.2071205  0.125655E-01  0.965E-01    0.05       1.0  T
  42   -174.2271079 -0.199875E-01  0.856E-01    0.07       1.0  T
  43   -174.2055299  0.215780E-01  0.933E-01    0.06       1.0  T
  44   -174.2140977 -0.856777E-02  0.877E-01    0.06       1.0  T
  45   -174.1859727  0.281251E-01  0.904E-01    0.05       1.0  T
  46   -174.1838179  0.215472E-02  0.901E-01    0.04       1.0  T
  47   -174.2094166 -0.255987E-01  0.792E-01    0.06       1.0  T
  48   -174.2024732  0.694347E-02  0.824E-01    0.05       1.0  T
  49   -174.2277331 -0.252600E-01  0.712E-01    0.07       1.0  T
  50   -174.2331518 -0.541867E-02  0.692E-01    0.07       1.0  T
  51   -174.2354479 -0.229605E-02  0.682E-01    0.08       1.0  T
  52   -174.2458807 -0.104329E-01  0.607E-01    0.08       1.0  T
  53   -174.2505998 -0.471905E-02  0.575E-01    0.08       1.0  T
  54   -174.2653725 -0.147727E-01  0.439E-01    0.08       1.0  T
  55   -174.2703970 -0.502444E-02  0.392E-01    0.09       1.0  T
  56   -174.2741984 -0.380148E-02  0.349E-01    0.09       1.0  T
  57   -174.2760653 -0.186687E-02  0.315E-01    0.09       1.0  T
  58   -174.2810789 -0.501359E-02  0.228E-01    0.09       1.0  T
  59   -174.2834110 -0.233212E-02  0.176E-01    0.09       1.0  T
  60   -174.2840004 -0.589360E-03  0.163E-01    0.09       1.0  T
  61   -174.2855670 -0.156660E-02  0.137E-01    0.10       1.0  T
  62   -174.2868097 -0.124274E-02  0.114E-01    0.10       1.0  T
  63   -174.2871164 -0.306700E-03  0.108E-01    0.11       1.0  T
  64   -174.2876933 -0.576855E-03  0.942E-02    0.11       1.0  T
  65   -174.2883899 -0.696605E-03  0.698E-02    0.11       1.0  T
  66   -174.2887149 -0.325028E-03  0.532E-02    0.11       1.0  T
  67   -174.2889631 -0.248220E-03  0.363E-02    0.12       1.0  T
  68   -174.2889770 -0.138401E-04  0.352E-02    0.12       1.0  T
  69   -174.2890347 -0.577318E-04  0.286E-02    0.12       1.0  T
  70   -174.2890575 -0.227969E-04  0.235E-02    0.12       1.0  T
  71   -174.2890783 -0.207840E-04  0.196E-02    0.12       1.0  T
  72   -174.2890930 -0.147747E-04  0.165E-02    0.12       1.0  T
  73   -174.2891157 -0.226060E-04  0.115E-02    0.12       1.0  T
  74   -174.2891231 -0.742791E-05  0.873E-03    0.12       1.1  T
  75   -174.2891256 -0.254102E-05  0.719E-03    0.12       1.3  T
  76   -174.2891283 -0.272511E-05  0.561E-03    0.12       1.7  T
  77   -174.2891284 -0.608705E-07  0.553E-03    0.12       1.7  T
  78   -174.2891312 -0.281383E-05  0.353E-03    0.12       2.7  T
  79   -174.2891320 -0.823594E-06  0.272E-03    0.12       3.5  T
  80   -174.2891326 -0.534787E-06  0.176E-03    0.12       5.4  T
  81   -174.2891327 -0.930366E-07  0.151E-03    0.12       6.2  T
  82   -174.2891328 -0.120587E-06  0.114E-03    0.12       8.3  T
  83   -174.2891329 -0.109166E-06  0.641E-04    0.12      14.7  T
  84   -174.2891329 -0.260070E-07  0.400E-04    0.12      23.6  T

   *** convergence criteria satisfied after 84 iterations ***

         #    Occupation            Energy/Eh            Energy/eV
      -------------------------------------------------------------
         1        2.0000           -0.6868060             -18.6889
       ...           ...                  ...                  ...
       166        2.0000           -0.2325187              -6.3272
       167        2.0000           -0.2319792              -6.3125
       168        2.0000           -0.2285385              -6.2188
       169        1.9996           -0.2222889              -6.0488
       170        1.9743           -0.2182246              -5.9382
       171        1.9442           -0.2174727              -5.9177
       172        1.8140           -0.2162641              -5.8848 (HOMO)
       173        0.1634           -0.2118013              -5.7634 (LUMO)
       174        0.1039           -0.2113411              -5.7509
       175        0.0003           -0.2058475              -5.6014
       176        0.0002           -0.2053804              -5.5887
       177        0.0001           -0.2040378              -5.5522
       ...           ...                  ...                  ...
       373                          1.6390093              44.5997
      -------------------------------------------------------------
                  HL-Gap            0.0044628 Eh            0.1214 eV
             Fermi-level           -0.2141001 Eh           -5.8260 eV

 SCC (total)                   0 d,  0 h,  0 min,  2.423 sec
 SCC setup                      ...        0 min,  0.001 sec (  0.041%)
 Dispersion                     ...        0 min,  0.003 sec (  0.124%)
 classical contributions        ...        0 min,  0.000 sec (  0.000%)
 integral evaluation            ...        0 min,  0.012 sec (  0.495%)
 iterations                     ...        0 min,  2.371 sec ( 97.854%)
 molecular gradient             ...        0 min,  0.033 sec (  1.362%)
 printout                       ...        0 min,  0.002 sec (  0.083%)

         :::::::::::::::::::::::::::::::::::::::::::::::::::::
         ::                     SUMMARY                     ::
         :::::::::::::::::::::::::::::::::::::::::::::::::::::
         :: total energy            -171.777409910998 Eh    ::
         :: gradient norm              0.449278061064 Eh/a0 ::
         :: HOMO-LUMO gap              0.121439293355 eV    ::
         ::.................................................::
         :: SCC energy              -174.280332926331 Eh    ::
         :: -> isotropic ES            0.554657459259 Eh    ::
         :: -> anisotropic ES         -0.017880518106 Eh    ::
         :: -> anisotropic XC         -0.084285728960 Eh    ::
         :: -> dispersion             -0.187087190687 Eh    ::
         :: repulsion energy           2.502923015333 Eh    ::
         :: add. restraining           0.000000000000 Eh    ::
         :: total charge              -0.000000000001 e     ::
         :::::::::::::::::::::::::::::::::::::::::::::::::::::

           -------------------------------------------------
          |                Property Printout                |
           -------------------------------------------------

    * Orbital Energies and Occupations

         #    Occupation            Energy/Eh            Energy/eV
      -------------------------------------------------------------
         1        2.0000           -0.6868060             -18.6889
       ...           ...                  ...                  ...
       160        2.0000           -0.2514674              -6.8428
       161        2.0000           -0.2512927              -6.8380
       162        2.0000           -0.2507139              -6.8223
       163        2.0000           -0.2493962              -6.7864
       164        2.0000           -0.2426613              -6.6032
       165        2.0000           -0.2412522              -6.5648
       166        2.0000           -0.2325187              -6.3272
       167        2.0000           -0.2319792              -6.3125
       168        2.0000           -0.2285385              -6.2188
       169        1.9996           -0.2222889              -6.0488
       170        1.9743           -0.2182246              -5.9382
       171        1.9442           -0.2174727              -5.9177
       172        1.8140           -0.2162641              -5.8848 (HOMO)
       173        0.1634           -0.2118013              -5.7634 (LUMO)
       174        0.1039           -0.2113411              -5.7509
       175        0.0003           -0.2058475              -5.6014
       176        0.0002           -0.2053804              -5.5887
       177        0.0001           -0.2040378              -5.5522
       178        0.0000           -0.1993195              -5.4238
       179                         -0.1961467              -5.3374
       180                         -0.1958266              -5.3287
       181                         -0.1941481              -5.2830
       182                         -0.1873764              -5.0988
       183                         -0.1856970              -5.0531
       ...                                ...                  ...
       373                          1.6390093              44.5997
      -------------------------------------------------------------
                  HL-Gap            0.0044628 Eh            0.1214 eV
             Fermi-level           -0.2141001 Eh           -5.8260 eV

     #   Z          covCN         q      C6AA      α(0)
     1   8 O        1.878    -0.293    18.846     5.863
     2   6 C        2.733     0.226    23.248     7.894
     3   8 O        1.704    -0.303    19.038     5.891
     4   6 C        2.892     0.120    25.371     8.258
     5   6 C        2.910    -0.100    30.528     9.060
     6   6 C        2.847     0.111    25.550     8.284
     7   8 O        1.658    -0.399    20.835     6.162
     8   6 C        2.844     0.066    26.521     8.440
     9   8 O        1.657    -0.430    21.447     6.252
    10   6 C        2.845     0.098    25.814     8.327
    11   8 O        1.658    -0.433    21.495     6.259
    12   6 C        2.909    -0.132    31.370     9.184
    13   6 C        3.758     0.037    19.998     6.376
    14   8 O        1.703    -0.273    18.534     5.812
    15   6 C        2.879     0.129    25.183     8.227
    16   6 C        2.913    -0.118    30.982     9.127
    17   6 C        2.846     0.131    25.134     8.216
    18   8 O        1.659    -0.401    20.874     6.168
    19   6 C        2.910    -0.120    31.057     9.138
    20   6 C        2.850     0.129    25.177     8.224
    21   8 O        1.658    -0.425    21.338     6.236
    22   6 C        2.962    -0.083    30.070     8.994
    23   6 C        3.733     0.113    18.812     6.191
    24   8 O        1.653    -0.461    22.076     6.343
    25   6 C        3.855    -0.047    21.386     6.577
    26   6 C        2.961    -0.021    28.518     8.759
    27   6 C        2.912    -0.149    31.834     9.252
    28   6 C        2.842     0.090    25.999     8.356
    29   8 O        1.670    -0.505    22.999     6.474
    30   6 C        2.845     0.068    26.482     8.434
    31   8 O        1.657    -0.431    21.459     6.253
    32   6 C        2.843     0.111    25.550     8.284
    33   8 O        1.658    -0.404    20.933     6.176
    34   6 C        2.915    -0.093    30.334     9.032
    35   1 H        0.925     0.067     2.119     2.277
    36   1 H        0.804     0.321     0.661     1.277
    37   1 H        0.803     0.333     0.629     1.246
    38   1 H        0.804     0.354     0.579     1.195
    39   1 H        0.925     0.102     1.763     2.077
    40   1 H        0.924     0.119     1.618     1.989
    41   1 H        0.925     0.099     1.793     2.094
    42   1 H        0.804     0.296     0.735     1.346
    43   1 H        0.925     0.039     2.456     2.451
    44   1 H        0.803     0.329     0.641     1.258
    45   1 H        0.923     0.015     2.816     2.624
    46   1 H        0.803     0.296     0.735     1.347
    47   1 H        0.923     0.054     2.276     2.359
    48   1 H        0.925     0.113     1.669     2.020
    49   1 H        0.999     0.386     0.500     1.104
    50   1 H        0.803     0.325     0.652     1.268
    51   1 H        0.803     0.317     0.671     1.287
    52   1 H        0.925     0.043     2.411     2.428
    53   5 B        2.887    -0.005    21.512     7.741
    54   5 B        2.890     0.031    20.880     7.627
    55   5 B        2.890     0.027    20.946     7.639
    56   5 B        2.890     0.023    21.014     7.651
    57   5 B        2.890     0.035    20.806     7.613
    58   5 B        2.887     0.008    21.272     7.698
    59   5 B        2.916     0.007    21.280     7.698
    60   5 B        3.868    -0.013    22.973     7.724
    61   5 B        3.888    -0.020    23.122     7.749
    62   5 B        3.868     0.011    22.526     7.649
    63   5 B        3.868     0.008    22.595     7.660
    64   5 B        2.916     0.056    20.441     7.544
    65   5 B        3.266    -0.013    21.606     7.752
    66   5 B        2.314     0.058    31.079    10.862
    67   5 B        1.958     0.001    44.069    13.960
    68   5 B        2.595     0.129    20.057     7.609
    69   5 B        1.958     0.022    43.314    13.840
    70   5 B        2.911    -0.068    22.652     7.942
    71   5 B        2.939    -0.004    21.473     7.732
    72   5 B        2.936    -0.101    23.295     8.053
    73   5 B        1.958    -0.077    47.034    14.423
    74   5 B        2.348     0.021    29.910    10.438
    75   5 B        1.958    -0.073    46.891    14.401
    76   5 B        1.960    -0.001    44.130    13.969
    77   5 B        3.266    -0.014    21.629     7.756
    78   5 B        2.314     0.073    30.702    10.796
    79   5 B        1.959     0.015    43.577    13.882
    80   5 B        1.958     0.034    42.899    13.774
    81   5 B        1.958     0.021    43.362    13.848
    82   5 B        2.911    -0.049    22.299     7.880
    83   5 B        2.916     0.008    21.260     7.694
    84   5 B        3.868    -0.011    22.934     7.718
    85   5 B        3.868     0.006    22.621     7.665
    86   5 B        3.868     0.003    22.679     7.675
    87   5 B        3.868     0.003    22.689     7.676
    88   5 B        2.914    -0.011    21.604     7.756
    89   5 B        2.887    -0.003    21.473     7.734
    90   5 B        2.890     0.030    20.884     7.627
    91   5 B        2.890     0.037    20.773     7.607
    92   5 B        2.890     0.045    20.636     7.582
    93   5 B        2.890     0.023    21.013     7.651
    94   5 B        1.934    -0.005    44.418    14.023
    95   5 B        3.822     0.045    21.899     7.544
    96   5 B        4.009     0.039    22.024     7.562
    97   5 B        3.822     0.041    21.977     7.557
    98   5 B        3.822     0.038    22.035     7.567
    99   5 B        3.822     0.054    21.742     7.517
   100   5 B        3.822     0.044    21.923     7.548
   101   5 B        3.822     0.044    21.928     7.549
   102   5 B        3.823     0.053    21.758     7.519
   103   5 B        3.822     0.037    22.046     7.569
   104   5 B        3.822     0.033    22.114     7.581
   105   5 B        3.381     0.115    19.484     7.358
   106   1 H        0.954    -0.079     4.883     3.454
   107   1 H        0.956     0.012     2.846     2.637
   108   1 H        0.956     0.013     2.840     2.634
   109   1 H        0.954    -0.079     4.883     3.454
   110   1 H        0.954    -0.075     4.754     3.408
   111   1 H        0.956     0.001     3.040     2.725
   112   1 H        0.956    -0.015     3.318     2.847

 Mol. C6AA /au·bohr⁶  :     217904.577883
 Mol. C8AA /au·bohr⁸  :    7011128.374836
 Mol. α(0) /au        :        781.516965


Wiberg/Mayer (AO) data.
largest (>0.10) Wiberg bond orders for each atom

 ---------------------------------------------------------------------------
     #   Z sym  total        # sym  WBO       # sym  WBO       # sym  WBO
 ---------------------------------------------------------------------------
     1   8 O    2.290 --     2 C    1.383    68 B    0.409    74 B    0.271
     2   6 C    3.715 --     1 O    1.383     3 O    0.977    13 C    0.962
     3   8 O    2.198 --     4 C    0.981     2 C    0.977
     4   6 C    3.925 --     5 C    1.389    12 C    1.385     3 O    0.981
     5   6 C    3.972 --     4 C    1.389     6 C    1.376    35 H    0.965
     6   6 C    3.934 --     5 C    1.376     8 C    1.324     7 O    1.068
     7   8 O    2.102 --     6 C    1.068    36 H    0.874
     8   6 C    3.925 --    10 C    1.326     6 C    1.324     9 O    1.042
     9   8 O    2.066 --     8 C    1.042    37 H    0.859
    10   6 C    3.949 --    12 C    1.364     8 C    1.326    11 O    1.076
    11   8 O    2.094 --    10 C    1.076    38 H    0.796
    12   6 C    3.964 --     4 C    1.385    10 C    1.364    39 H    0.936
    13   6 C    3.890 --    25 C    0.964     2 C    0.962    14 O    0.930
                            40 H    0.839
    14   8 O    2.235 --    15 C    1.080    13 C    0.930
    15   6 C    3.935 --    22 C    1.343    16 C    1.329    14 O    1.080
    16   6 C    3.954 --    17 C    1.366    15 C    1.329    41 H    0.932
    17   6 C    3.928 --    19 C    1.374    16 C    1.366    18 O    1.057
    18   8 O    2.099 --    17 C    1.057    42 H    0.891
    19   6 C    3.961 --    17 C    1.374    20 C    1.366    43 H    0.964
    20   6 C    3.925 --    19 C    1.366    22 C    1.348    21 O    1.064
    21   8 O    2.075 --    20 C    1.064    44 H    0.855
    22   6 C    3.966 --    20 C    1.348    15 C    1.343    23 C    0.993
    23   6 C    3.951 --    22 C    0.993    24 O    0.966    25 C    0.959
                            45 H    0.956
    24   8 O    1.962 --    23 C    0.966    46 H    0.891
    25   6 C    3.982 --    26 C    0.996    13 C    0.964    23 C    0.959
                            47 H    0.956
    26   6 C    3.982 --    27 C    1.409    34 C    1.402    25 C    0.996
    27   6 C    3.951 --    26 C    1.409    28 C    1.367    48 H    0.884
    28   6 C    3.949 --    27 C    1.367    30 C    1.321    29 O    1.078
    29   8 O    2.028 --    28 C    1.078    49 H    0.657
    30   6 C    3.926 --    32 C    1.332    28 C    1.321    31 O    1.039
    31   8 O    2.068 --    30 C    1.039    50 H    0.865
    32   6 C    3.938 --    34 C    1.376    30 C    1.332    33 O    1.063
    33   8 O    2.100 --    32 C    1.063    51 H    0.876
    34   6 C    3.973 --    26 C    1.402    32 C    1.376    52 H    0.967
    35   1 H    0.995 --     5 C    0.965
    36   1 H    0.896 --     7 O    0.874
    37   1 H    0.889 --     9 O    0.859
    38   1 H    0.873 --    11 O    0.796
    39   1 H    0.989 --    12 C    0.936
    40   1 H    0.985 --    13 C    0.839
    41   1 H    0.990 --    16 C    0.932
    42   1 H    0.912 --    18 O    0.891
    43   1 H    0.998 --    19 C    0.964
    44   1 H    0.891 --    21 O    0.855
    45   1 H    0.998 --    23 C    0.956
    46   1 H    0.912 --    24 O    0.891
    47   1 H    0.995 --    25 C    0.956
    48   1 H    0.986 --    27 C    0.884
    49   1 H    0.850 --    29 O    0.657
    50   1 H    0.894 --    31 O    0.865
    51   1 H    0.899 --    33 O    0.876
    52   1 H    0.998 --    34 C    0.967
    53   5 B    3.266 --    59 B    1.093    95 B    0.938   106 H    0.866
                            54 B    0.109    65 B    0.106
    54   5 B    3.412 --    95 B    0.993    96 B    0.969    60 B    0.936
                            55 B    0.134    53 B    0.109
    55   5 B    3.475 --    97 B    1.043    96 B    0.949    61 B    0.904
                            54 B    0.134    56 B    0.134
    56   5 B    3.451 --    62 B    0.990    98 B    0.985    97 B    0.951
                            55 B    0.134    57 B    0.122
    57   5 B    3.437 --    98 B    0.996    99 B    0.956    63 B    0.926
                            58 B    0.186    56 B    0.122
    58   5 B    3.409 --    99 B    1.081    64 B    1.013   110 H    0.860
                            57 B    0.186
    59   5 B    3.422 --    65 B    1.180    53 B    1.093    95 B    0.729
                           107 H    0.108
    60   5 B    3.661 --    66 B    1.160    54 B    0.936    95 B    0.680
                            96 B    0.674
    61   5 B    3.641 --    67 B    1.148    55 B    0.904    97 B    0.671
                            96 B    0.613
    62   5 B    3.669 --    68 B    1.077    56 B    0.990    97 B    0.688
                            98 B    0.687
    63   5 B    3.631 --    69 B    1.141    57 B    0.926    98 B    0.669
                            99 B    0.652
    64   5 B    3.468 --    70 B    1.228    58 B    1.013    99 B    0.693
                           111 H    0.155
    65   5 B    3.588 --    59 B    1.180    71 B    0.970   107 H    0.693
                           105 B    0.379    53 B    0.106
    66   5 B    3.372 --    72 B    1.298    60 B    1.160   105 B    0.370
                            78 B    0.179
    67   5 B    3.280 --    73 B    1.467    61 B    1.148    79 B    0.245
    68   5 B    3.220 --    74 B    1.173    62 B    1.077     1 O    0.409
                            80 B    0.104
    69   5 B    3.277 --    75 B    1.434    63 B    1.141    81 B    0.223
    70   5 B    3.545 --    76 B    1.268    64 B    1.228   111 H    0.663
                            82 B    0.114
    71   5 B    3.594 --   105 B    1.003    77 B    0.976    65 B    0.970
                           108 H    0.145   107 H    0.145
    72   5 B    3.669 --    66 B    1.298    78 B    1.269   105 B    0.904
    73   5 B    3.369 --    67 B    1.467    79 B    1.442
    74   5 B    3.302 --    80 B    1.360    68 B    1.173     1 O    0.271
    75   5 B    3.345 --    81 B    1.447    69 B    1.434
    76   5 B    3.306 --    82 B    1.348    70 B    1.268   112 H    0.161
                           111 H    0.135
    77   5 B    3.588 --    83 B    1.181    71 B    0.976   108 H    0.692
                           105 B    0.377    89 B    0.105
    78   5 B    3.359 --    72 B    1.269    84 B    1.163   105 B    0.367
                            66 B    0.179
    79   5 B    3.300 --    73 B    1.442    85 B    1.140    67 B    0.245
    80   5 B    3.342 --    74 B    1.360    86 B    1.217    68 B    0.104
    81   5 B    3.302 --    75 B    1.447    87 B    1.165    69 B    0.223
    82   5 B    3.459 --    76 B    1.348    88 B    1.040   112 H    0.686
                            70 B    0.114
    83   5 B    3.413 --    77 B    1.181    89 B    1.085   100 B    0.730
                           108 H    0.109
    84   5 B    3.659 --    78 B    1.163    90 B    0.935   101 B    0.681
                           100 B    0.676
    85   5 B    3.625 --    79 B    1.140    91 B    0.921   102 B    0.665
                           101 B    0.660
    86   5 B    3.658 --    80 B    1.217    92 B    0.894   103 B    0.649
                           102 B    0.648
    87   5 B    3.639 --    81 B    1.165    93 B    0.914   103 B    0.689
                           104 B    0.633
    88   5 B    3.623 --    94 B    1.589    82 B    1.040   104 B    0.694
    89   5 B    3.277 --    83 B    1.085   100 B    0.953   109 H    0.865
                            90 B    0.116    77 B    0.105
    90   5 B    3.416 --   101 B    0.991   100 B    0.970    84 B    0.935
                            91 B    0.143    89 B    0.116
    91   5 B    3.496 --   102 B    1.024   101 B    0.986    85 B    0.921
                            92 B    0.148    90 B    0.143
    92   5 B    3.445 --   103 B    1.008   102 B    0.929    86 B    0.894
                            91 B    0.148    93 B    0.123
    93   5 B    3.471 --   104 B    0.990   103 B    0.963    87 B    0.914
                            94 B    0.198    92 B    0.123
    94   5 B    3.162 --    88 B    1.589   104 B    1.127    93 B    0.198
    95   5 B    3.598 --    54 B    0.993    53 B    0.938    59 B    0.729
                            60 B    0.680
    96   5 B    3.564 --    54 B    0.969    55 B    0.949    60 B    0.674
                            61 B    0.613
    97   5 B    3.616 --    55 B    1.043    56 B    0.951    62 B    0.688
                            61 B    0.671
    98   5 B    3.615 --    57 B    0.996    56 B    0.985    62 B    0.687
                            63 B    0.669
    99   5 B    3.600 --    58 B    1.081    57 B    0.956    64 B    0.693
                            63 B    0.652
   100   5 B    3.592 --    90 B    0.970    89 B    0.953    83 B    0.730
                            84 B    0.676
   101   5 B    3.600 --    90 B    0.991    91 B    0.986    84 B    0.681
                            85 B    0.660
   102   5 B    3.583 --    91 B    1.024    92 B    0.929    85 B    0.665
                            86 B    0.648
   103   5 B    3.605 --    92 B    1.008    93 B    0.963    87 B    0.689
                            86 B    0.649
   104   5 B    3.620 --    94 B    1.127    93 B    0.990    88 B    0.694
                            87 B    0.633
   105   5 B    3.603 --    71 B    1.003    72 B    0.904    65 B    0.379
                            77 B    0.377    66 B    0.370    78 B    0.367
   106   1 H    0.980 --    53 B    0.866
   107   1 H    0.992 --    65 B    0.693    71 B    0.145    59 B    0.108
   108   1 H    0.993 --    77 B    0.692    71 B    0.145    83 B    0.109
   109   1 H    0.979 --    89 B    0.865
   110   1 H    0.988 --    58 B    0.860
   111   1 H    0.988 --    70 B    0.663    64 B    0.155    76 B    0.135
   112   1 H    0.970 --    82 B    0.686    76 B    0.161
 ---------------------------------------------------------------------------

Topologies differ in total number of bonds
Writing topology from bond orders to xtbtopo.mol

molecular dipole:
                 x           y           z       tot (Debye)
 q only:       -0.310       0.307      -5.278
   full:       -1.364       0.523      -3.552       9.762
molecular quadrupole (traceless):
                xx          xy          yy          xz          yz          zz
 q only:       -3.081       5.169      41.700       4.992      11.736     -38.619
  q+dip:       50.163       0.482      64.502       1.972      11.063    -114.665
   full:       44.325       0.402      28.354       2.941      12.105     -72.679


           -------------------------------------------------
          | TOTAL ENERGY             -171.777409910998 Eh   |
          | GRADIENT NORM               0.449278061064 Eh/α |
          | HOMO-LUMO GAP               0.121439293355 eV   |
           -------------------------------------------------

------------------------------------------------------------------------
 * finished run on 2026/08/31 at 20:21:48.352     
------------------------------------------------------------------------
 total:
 * wall-time:     0 d,  0 h,  0 min,  2.487 sec
 *  cpu-time:     0 d,  0 h,  0 min, 19.500 sec
 * ratio c/w:     7.841 speedup
 SCF:
 * wall-time:     0 d,  0 h,  0 min,  2.425 sec
 *  cpu-time:     0 d,  0 h,  0 min, 19.172 sec
 * ratio c/w:     7.906 speedup

normal termination of xtb
