51
 energy: -101.088827378678 gnorm: 0.000217281635 xtb: 6.7.1 (edcfbbe)
O            2.09733776559429       -2.25752328449240        0.72151599183567
C            2.11808741174545       -1.12300922137234        0.30343020537352
O            1.17233489358247       -0.61379526444499       -0.49821085286724
C            0.03494327605521       -1.42276378117185       -0.76418424252560
C           -0.69802697240611       -0.82509538504456       -1.95515433927223
C           -2.03472468390688       -1.49031824796188       -2.10362401947797
C           -2.70161186708944       -1.48691377942156       -3.33063817751878
O           -2.10444636051658       -0.84370873884867       -4.37075822703908
C           -3.92577463786549       -2.11777850197166       -3.47930698035446
C           -4.50094170443650       -2.77180929092987       -2.39496403231830
O           -5.69893756362172       -3.38576720229052       -2.58283918972384
C           -3.85822295462416       -2.77687784593897       -1.16925651127400
C           -2.62951245164187       -2.13457541949462       -1.02318543387940
O           -2.06889657067282       -2.20116046956816        0.21205260593838
C           -0.89809256781399       -1.45341243384999        0.47259677185702
C           -1.17297812337779       -0.04477186252883        0.94935901999900
C           -0.27160705418231        0.54930026895601        1.82086522382544
C           -0.43604042028582        1.86827612255667        2.21567727098997
O            0.45901083836301        2.44758951968181        3.05169520637717
C           -1.53419258721059        2.59551330247562        1.75223089421392
O           -1.68190344481111        3.89782103228358        2.16188099270011
C           -2.45202177699565        1.98812697361258        0.90086921183989
O           -3.51861163181272        2.75221345322100        0.49157923639713
C           -2.26780239423614        0.67619789648789        0.49392841441943
C            3.17034524970391       -0.13738392410509        0.62668996853715
C            3.08313963963245        1.18693293383178        0.21268385107240
C            4.07131435722797        2.08836318609113        0.57460209566970
O            3.99927936182903        3.38065624858925        0.17815277008566
C            5.15041221258718        1.65911063750214        1.35543533383874
O            6.11036020754999        2.57018482604054        1.70011772178570
C            5.22995773516175        0.32847380180821        1.76905124229253
O            6.31576656479676       -0.01400584710766        2.53467231539813
C            4.24248354714170       -0.56622718204369        1.40607719001531
H            0.35683603413966       -2.45203398538105       -0.97327092176090
H           -0.11669380407815       -0.95452819923033       -2.86873578091631
H           -0.81423894608390        0.24993216476631       -1.78883820282659
H           -2.64991434192115       -0.94048417815025       -5.16054198185842
H           -4.44197045908197       -2.12019979840854       -4.42711281113863
H           -5.97171092588180       -3.81732716144517       -1.76426493673256
H           -4.28506754879456       -3.27583460238947       -0.31264988270828
H           -0.38989864955565       -2.00340070896970        1.27367300197190
H            0.57555147431130        0.00540288699443        2.20523280790594
H            0.17846080589897        3.36302494606347        3.19302196262176
H           -2.48676627287416        4.23677127233228        1.75051354131343
H           -4.07940671626832        2.22596580692396       -0.08805625997465
H           -2.99089434775627        0.22181767418812       -0.16807913794051
H            2.25094928490698        1.52596036117040       -0.37911268490353
H            4.76619248466754        3.84703976608081        0.54019334839383
H            6.76336659478238        2.11073033014728        2.24420654815925
H            6.25359796460314       -0.94592019475085        2.77061181466448
H            4.28118003551113       -1.59877891047178        1.72016803752467
