51
RDKit ETKDG+MMFF
O       1.96763430     -2.09551690      1.05099356
C       2.06982693     -1.04266091      0.44219655
O       1.17291587     -0.55447237     -0.44489841
C      -0.00131421     -1.36038318     -0.67267456
C      -0.65641218     -0.87920428     -1.96080884
C      -1.97816936     -1.55724412     -2.16231625
C      -2.56378809     -1.63170489     -3.43205539
O      -1.90396687     -1.07495258     -4.49164308
C      -3.79460415     -2.25470591     -3.62472495
C      -4.45272141     -2.80352348     -2.53199409
O      -5.65511768     -3.40793920     -2.75326187
C      -3.90332612     -2.72802949     -1.25734567
C      -2.67088782     -2.09623962     -1.07304700
O      -2.23414165     -2.04259601      0.22195681
C      -1.01448013     -1.32566896      0.49472414
C      -1.31237502      0.06341512      1.05861311
C      -0.56053613      0.52864840      2.15790405
C      -0.78681667      1.79659663      2.67739094
O      -0.04191556      2.23017612      3.73522279
C      -1.75875619      2.61639102      2.12671730
O      -1.96186212      3.86156143      2.65692849
C      -2.51564693      2.17318458      1.05055641
O      -3.46371532      3.02083580      0.54731393
C      -2.30159609      0.90522431      0.51319128
C       3.21079217     -0.10531473      0.61206444
C       3.34402482      1.05771789     -0.16295152
C       4.43610765      1.89019050      0.04388920
O       4.56975257      3.01891103     -0.71145377
C       5.38735093      1.58255034      1.00754071
O       6.45057008      2.42527236      1.18566975
C       5.25824848      0.43392514      1.77891200
O       6.22354115      0.18291007      2.71347733
C       4.17541072     -0.41766034      1.58848790
H       0.30616225     -2.40388581     -0.83861209
H       0.02471908     -1.09422891     -2.79386039
H      -0.79453570      0.20869969     -1.95015792
H      -2.41676413     -1.23786243     -5.30129318
H      -4.25122205     -2.32088741     -4.60675429
H      -5.98046985     -3.77178929     -1.91242703
H      -4.41843884     -3.14412994     -0.39692707
H      -0.56805712     -1.89061731      1.32276649
H       0.20369291     -0.09487656      2.61609222
H      -0.37477653      3.13344860      3.91240137
H      -2.67995879      4.23798870      2.10751814
H      -3.90417821      2.57290120     -0.19630703
H      -2.90199063      0.56900411     -0.32574074
H       2.61379944      1.32456725     -0.92135437
H       5.38984938      3.44137405     -0.38383756
H       6.96762563      2.01192078      1.90776442
H       5.98566656     -0.63217598      3.19058933
H       4.06485059     -1.31914452      2.18556440
