86
Fisetin/B40H15 GFN2 opt
O      -1.09710226     -1.21204144      3.66335452
C      -1.11680870     -0.66632232      4.91529846
C       0.09953073     -0.62855342      5.60610530
O       1.16960691     -1.14650760      4.93630805
C       0.20579610     -0.08751366      6.88030152
C       1.37375207     -0.02739654      7.71216274
C       2.59896759     -0.60186118      7.34154232
C       3.68857132     -0.53709907      8.18421778
C       3.59972519      0.09732105      9.41165392
O       4.66052371      0.19065721     10.29374843
C       2.38576071      0.67943313      9.80123654
O       2.28643747      1.30707756     11.00716218
C       1.29501132      0.61434366      8.96179143
O      -0.92515371      0.46867315      7.45072392
C      -2.12791911      0.41272761      6.82009942
C      -3.22200828      0.93535239      7.48724909
C      -4.48050220      0.90573458      6.90274183
C      -4.64742111      0.34898459      5.63992469
O      -5.89925120      0.31980692      5.10855033
C      -3.55754399     -0.17169803      4.95653077
C      -2.28583324     -0.14655770      5.53439774
H       0.79101011     -1.58735495      4.14581848
H       2.69557042     -1.10670926      6.39873687
H       4.62607812     -0.98902179      7.88758907
H       5.42052280     -0.25659864      9.90878542
H       3.14807742      1.23767113     11.43924561
H       0.37170904      1.06484607      9.28222980
H      -3.07973375      1.36242155      8.46641154
H      -5.33780019      1.30649026      7.41683820
H      -5.84088762      0.05448400      4.17957326
H      -3.68362893     -0.61521195      3.98097194
B      -4.77320139     -2.63354963      1.75274008
B      -4.30479950     -1.57195039      0.66001661
B      -3.97128195     -0.51553995     -0.58491437
B      -3.31835210     -2.90773833      1.14410935
B      -2.56262107     -0.14787186     -0.02200844
B      -3.92228117      0.17179427      1.06705329
B      -4.71548155      1.29440195      1.87657537
B      -4.16644672      2.82769885      1.99613285
B      -2.34583804      0.21862203      1.55360624
B      -2.90027225      3.03655987      2.99284093
B      -2.10574204     -3.99357262      1.54657428
B      -1.76581921     -2.62411759      0.78709985
B      -1.33842353     -1.02630615      0.70922813
B      -0.52858081     -3.47600195      1.39851204
B       0.15374382     -0.59170349      1.10210775
B      -1.04077032     -0.37228854      2.46430471
B      -1.34323011      1.32003824      2.17043824
B      -1.52203247      2.89531871      2.19454044
B       0.23343439      0.76630424      2.18222374
B      -0.45143077      4.08159366      1.80005586
B       0.73605368     -3.81564121      2.57693601
B       0.97404250     -2.90238517      1.27335138
B       1.68664599     -1.50049156      0.96490782
B       2.01340214     -2.82057594      2.54242466
B       3.01799275     -0.65790366      0.72866007
B       1.51100133      0.25649962      1.21917405
B       1.52370965      1.77795433      2.03649967
B       0.79550159      3.15522688      1.64630732
B       2.68536312      1.44703694      0.93142384
B       1.15133647      2.77603270      0.05197211
B       3.31078344     -2.56471565      3.51464289
B       3.10549705     -1.49201211      2.31718457
B       4.39621616     -0.47820718      2.07118918
B       4.03391966     -0.98916174      3.56956882
B       5.71605263      0.17133315      1.34841009
B       4.27085546      0.26489105      0.43403289
B       4.09365417      2.04968678      0.27873432
B       2.69979556      2.75054917     -0.29563689
B       5.53437163      1.22560249      0.05697441
B       4.11117577      3.35187069     -0.61650853
H      -5.37104147     -2.95267921      2.70737420
H      -5.52983253     -2.03894606      0.85540459
H      -4.68926600     -0.32167176     -1.49905252
H      -5.70225067      1.04557800      2.48739427
H      -4.69645432      3.71812092      1.43778379
H      -3.03847173      3.21798160      4.14574516
H      -2.33547879     -5.09708945      1.86187833
H      -0.66991539      5.21041445      1.56262155
H       0.54515382     -4.71857222      3.29385480
H       0.30849659      2.40368901     -0.68510099
H       3.73751115     -3.35843645      4.25986159
H       4.50736203     -0.63090838      4.57734887
H       6.80444177     -0.18212517      1.61302016
H       6.37669145      1.44417803     -0.73161171
H       4.74846056      4.17607806     -1.13520091
