31
Fisetin GFN2 opt
O       2.06496583     -0.26239227     -3.26329454
C       1.66591071     -0.18019084     -2.09938914
C       0.23250896     -0.05428898     -1.85201429
O      -0.50619137     -0.04228925     -2.98609093
C      -0.28090823      0.02541463     -0.58724369
C      -1.69169060      0.13470132     -0.22391628
C      -2.68010194      0.40312667     -1.16928918
C      -4.00297811      0.50756303     -0.78176522
C      -4.36589088      0.34511378      0.54359645
O      -5.66081066      0.43573190      0.98785742
C      -3.38158017      0.07227007      1.50546723
O      -3.72065339     -0.09339347      2.80876600
C      -2.06057674     -0.02718747      1.11543539
O       0.54588968     -0.00235657      0.48953999
C       1.88046997     -0.10427414      0.34063027
C       2.66475782     -0.11500839      1.49971502
C       4.02986615     -0.21702080      1.40581914
C       4.65658926     -0.31309109      0.15391847
O       6.00912509     -0.41217659      0.13079553
C       3.89040668     -0.30289391     -0.99247577
C       2.49849394     -0.19756104     -0.91098220
H       0.16093426     -0.13897509     -3.70299721
H      -2.41867143      0.53444700     -2.20381615
H      -4.76544928      0.71880789     -1.51936279
H      -6.24272877      0.62523716      0.24451290
H      -4.67919784      0.01222773      2.88301823
H      -1.32054061     -0.23842694      1.86928556
H       2.17588773     -0.04057429      2.45766716
H       4.64848315     -0.22543393      2.28863863
H       6.31904708     -0.47272423     -0.78137276
H       4.33463371     -0.37438191     -1.97535706
