38
 energy: -55.085204526416 gnorm: 0.000535444200 xtb: 6.7.1 (edcfbbe)
C            6.18223784851879       -0.40899143370323       -0.01263910859355
N            5.01762828482563        0.40856962007001        0.23950582088940
C            5.22194647519932        1.78909268603611        0.61130678283682
C            3.77871962900736       -0.09457044387140        0.12067732969733
C            3.56630291332098       -1.47746826337308       -0.16522247566637
C            2.31632924686767       -1.99095604322585       -0.28108154548467
C            1.15330057005623       -1.18551957178863       -0.13385278673878
N           -0.01832847954174       -1.77952887332010       -0.26695497840834
C           -1.17631858874086       -1.15384478980631       -0.16632038560299
C           -2.35645703454060       -1.92971713672415       -0.33556826637129
C           -3.59469688685104       -1.38185311194789       -0.25885164876185
C           -3.77678240939139        0.01214699515737       -0.00817826525199
N           -5.00369796463948        0.55268487885279        0.05489933615415
C           -6.19111108549391       -0.27047812731690        0.02219097669622
C           -5.18379793235569        1.98218121033428        0.15655632073255
C           -2.61730628705104        0.79462385519184        0.16482141492552
C           -1.36080481476305        0.23961937711312        0.09281917952503
S            0.01517501790216        1.28711959461140        0.33603928493653
C            1.36784600180781        0.19892508850588        0.14790670809363
C            2.63616710681757        0.71632550777033        0.27397032758063
H            6.12839299289053       -0.86831433151898       -1.00124762749357
H            6.28359205885211       -1.19549419526232        0.73899085852508
H            7.07461154403367        0.20948044159155        0.02156751525579
H            4.69448007350104        2.02194693011715        1.53838963587066
H            6.28079808847390        1.97151896213258        0.77177728753714
H            4.87290428644451        2.46517760243614       -0.17384518931911
H            4.41043089312569       -2.13534205474046       -0.28055596550593
H            2.15657280204404       -3.03650945849858       -0.48990682484275
H           -2.21924505208878       -2.98015290422175       -0.53586186322022
H           -4.45284308143204       -2.01340981689972       -0.41229666379418
H           -6.10385775641909       -1.10610830576592        0.71725849831870
H           -6.37615618836190       -0.66076734268458       -0.98216947418704
H           -7.05010284913347        0.32419163578961        0.32137188808154
H           -4.92983927053162        2.34385252452698        1.15672147355602
H           -4.56473781538057        2.50223413793053       -0.57562227768232
H           -6.22200896722086        2.23188011741001       -0.04479432622132
H           -2.69141481553108        1.84815321375994        0.37785574435408
H            2.73207145577974        1.76930183533240        0.48028484957964
