60
 energy: -61.507997537188 gnorm: 0.000789152737 xtb: 6.7.1 (edcfbbe)
B           -5.83172133434989        3.39920702989136        0.25977954844760
B           -5.83917688021578        1.71768520590542       -0.10098486449366
B           -4.37080083711679        4.23170655825327       -0.10776637158013
B           -4.38079214222291        2.54854901168526       -0.00195708154814
B           -4.38619852491307        0.85081675785704        0.05260359773447
B           -5.85254208802345       -1.67382165253742        0.33052621478102
B           -5.86257435968101       -3.35803513208521        0.00066358414095
B           -4.39345790115957       -0.82151949053412        0.13401731441598
B           -4.40187690101406       -2.51813147695699        0.23095663028242
B           -4.40579664745937       -4.19912885279150        0.37401462150028
B           -2.90460085937922        3.39861742571318        0.06516583688896
B           -2.91446008431881        1.69049307584946        0.09736158488432
B           -1.44014057240405        4.22008398617382        0.29909121534842
B           -1.44846557527468        2.53718511371703        0.13814461778470
B           -1.45575084134477        0.84192108385082        0.05049760607060
B           -2.92958047903254       -1.67407028618760        0.07055877891592
B           -2.93387137273610       -3.38118223757998        0.17506407501121
B           -1.46327734868356       -0.83800098199969        0.07597843506364
B           -1.47110690870402       -2.53335323737259        0.06758678859466
B           -1.47832606198761       -4.21894489525243       -0.04138893375324
B            0.02208302305826        3.38501337603877        0.10426377364667
B            0.01453712629569        1.67788227436998        0.06798905175242
B            1.48925837066347        4.20893280046021       -0.08097309679770
B            1.48291563359443        2.52439767378644        0.04848653302530
B            1.47517105764821        0.82900476681037        0.07057177235622
B           -0.00008122847300       -1.68694449468359        0.06705167871033
B           -0.00738864714444       -3.39377224904849        0.11520803789281
B            1.46760774980826       -0.85088114861431        0.04581938899154
B            1.46072771933108       -2.54599457070895        0.12929669891344
B            1.45353237101453       -4.22770964482557        0.31152877124069
B            2.94880835100587        3.37287668167169        0.12821017539082
B            2.94397851242946        1.66498678224429        0.05093894140117
B            4.41969007606133        4.19257763964735        0.30600136730319
B            4.41480855601214        2.51022652789196        0.18353204590569
B            4.40567674820240        0.81271908554114        0.10930627884973
B            2.92902997088113       -1.69941139352253        0.08793970801064
B            2.91905497976749       -3.40762007747561        0.06604319947868
B            4.39809537468969       -0.85987462512232        0.03390851735775
B            4.39242772025481       -2.55791836758378       -0.00938289810148
B            4.38177568577907       -4.24150600444923       -0.11112211830607
B            5.87691750604136        3.34759115152612       -0.05855874321414
B            5.86821216864943        1.66682150325123        0.29162071931452
B            5.85252413382085       -1.72774232365594       -0.12764896127234
B            5.84758212586150       -3.40706363340383        0.24074189900306
H           -6.76597424859288        3.97985249829547        0.66703685167174
H           -6.79515325523578        1.23071415038230       -0.57244964885820
H           -4.42272397735032        5.34243362140291       -0.48975539818403
H           -6.79358645017396       -1.16778309908258        0.81232863437124
H           -6.80233895554754       -3.94139783269363       -0.39023339589334
H           -4.46611599724659       -5.30101800489335        0.77923168215757
H           -1.44248295895342        5.37079822028636        0.54415820511230
H           -1.49124077116879       -5.37940665828273       -0.23425437383677
H            1.50076447257406        5.36637331922337       -0.29091046230119
H            1.45758319701118       -5.37696726616751        0.56279437227897
H            4.48264650545070        5.30131232425205        0.69198242713150
H            4.43292203374355       -5.35543816435791       -0.48369855096886
H            6.81451036978563        3.92726391870676       -0.45992225858875
H            6.80898734275911        1.16469142270955        0.77773472987336
H            6.80221032126436       -1.24089300998128       -0.61154439511049
H            6.78268115644880       -3.98834844554428        0.64542674180212
