51
drug @complex
O      -0.87222489      3.15100336      4.24824523
C      -1.35540886      2.05051648      4.48534801
O      -0.58234639      1.01047684      4.94906096
C       0.66714426      1.35934658      5.50420957
C       1.79347732      1.41966855      4.47820739
C       3.09759068      1.55239760      5.21134373
C       4.21145491      2.11928377      4.58615806
O       4.04847651      2.54713562      3.31166313
C       5.42344236      2.24113324      5.24509507
C       5.53091113      1.82189546      6.56621576
O       6.73420525      1.96033801      7.18608758
C       4.43358074      1.27959820      7.21167751
C       3.22105568      1.14564246      6.53579040
O       2.19837226      0.61483700      7.25672961
C       0.99253188      0.30624571      6.58497430
C       0.98357221     -1.09007033      6.00657892
C      -0.22775046     -1.75723919      5.90087923
C      -0.28205692     -3.03122331      5.35846240
O      -1.46778502     -3.66225140      5.18864187
C       0.89856890     -3.67385323      4.97497162
O       0.80595837     -4.95760272      4.51483943
C       2.11061422     -2.99686231      5.07282370
O       3.23311514     -3.65734007      4.64123092
C       2.14925394     -1.70295498      5.56985586
C      -2.75260236      1.69899273      4.39445501
C      -3.20330503      0.38470279      4.60396081
C      -4.55195640      0.10891189      4.62554718
O      -4.99259148     -1.16413600      4.80429706
C      -5.48341923      1.14180641      4.44505011
O      -6.82334868      0.83955660      4.49471019
C      -5.03740748      2.44225351      4.19812932
O      -6.01008919      3.39261072      3.98023398
C      -3.69002295      2.72151735      4.15700411
H       0.58269237      2.34284581      5.98921538
H       1.64780165      2.28042671      3.82631339
H       1.77674507      0.51821591      3.85976281
H       4.88468794      2.82924389      2.91561239
H       6.28361936      2.67075868      4.75703369
H       6.66119072      1.65799039      8.09873252
H       4.48868199      0.95798601      8.24032299
H       0.21928380      0.35766147      7.36011681
H      -1.14051772     -1.29343680      6.23009069
H      -1.29623249     -4.49990793      4.72905174
H       1.61350125     -5.16305244      4.02080825
H       3.99910120     -3.07954398      4.71136005
H       3.09925656     -1.19529136      5.64425538
H      -2.49899563     -0.41503111      4.73159226
H      -5.94770403     -1.16080585      4.65524133
H      -7.29980276      1.63418228      4.22611042
H      -5.59306303      4.19132317      3.64093495
H      -3.33224611      3.72348830      3.97933241
