111
EGCG on beta12_supported 270 deg
O       2.47750004      1.35546214      7.92230256
C       1.76910412      1.57652266      6.96749583
O       1.24035947      0.61247505      6.20106490
C       1.43449214     -0.73279778      6.61505175
C       1.09470193     -1.63868510      5.44169185
C       1.03403498     -3.06237000      5.91154958
C       1.20445638     -4.11843357      5.01377448
O       1.40521457     -3.80637360      3.70439149
C       1.17089720     -5.43428892      5.44512779
C       0.97138105     -5.71351083      6.79294139
O       0.95287090     -7.01683927      7.17820469
C       0.79121598     -4.67928320      7.69482041
C       0.81906110     -3.35683116      7.25440705
O       0.64382082     -2.40939801      8.21158939
C       0.51567163     -1.05739709      7.81984495
C      -0.90732074     -0.64880934      7.51116822
C      -1.28951765      0.66254150      7.75447680
C      -2.55673900      1.10470291      7.40625916
O      -2.91619650      2.39184049      7.62922529
C      -3.46438312      0.21367962      6.83019120
O      -4.71653574      0.67066226      6.50016424
C      -3.08774680     -1.10819982      6.61356910
O      -4.03079101     -1.93877898      6.05700262
C      -1.81169304     -1.53584417      6.94448085
C       1.37327218      2.92848912      6.52173307
C       0.46333311      3.11990836      5.48820002
C       0.08707676      4.40470097      5.13072316
O      -0.79763425      4.60569738      4.12609918
C       0.62554121      5.50114095      5.81357445
O       0.23515785      6.75799648      5.44171790
C       1.53690647      5.30093115      6.85151924
O       2.01691598      6.42529425      7.47429306
C       1.90866610      4.01850769      7.20440750
H       2.47630452     -0.87236286      6.93423489
H       1.84054914     -1.54100353      4.65207016
H       0.13275543     -1.32428592      5.02616495
H       1.53657776     -4.61815690      3.20000000
H       1.30597684     -6.25259377      4.75452621
H       0.83096062     -7.06865905      8.13380173
H       0.63294269     -4.87044934      8.74521754
H       0.86706255     -0.48302951      8.68534920
H      -0.61346795      1.36605156      8.21193804
H      -3.82213130      2.50330974      7.30741737
H      -5.20144523     -0.07361247      6.12223233
H      -3.65565402     -2.82021581      5.95827887
H      -1.53731669     -2.56599074      6.76814870
H       0.03767033      2.28102688      4.96590452
H      -0.94006734      5.55915449      4.04022099
H       0.68825310      7.38493183      6.02068698
H       2.62033227      6.16253442      8.17774370
H       2.60760317      3.84063885      8.00825028
B      -5.85857624      3.38040841      0.00000000
B      -5.85854689      1.69158049     -0.00000000
B      -4.39532834      4.22466855     -0.00000000
B      -4.39711400      2.53475765     -0.00000000
B      -4.39575475      0.84147203     -0.00000000
B      -5.85854686     -1.69158078      0.00000000
B      -5.85857617     -3.38040837     -0.00000000
B      -4.39575479     -0.84147232     -0.00000000
B      -4.39711414     -2.53475765      0.00000000
B      -4.39532857     -4.22466843      0.00000000
B      -2.92793521      3.38324044     -0.00000000
B      -2.92888517      1.68724694     -0.00000000
B      -1.46554580      4.22439782     -0.00000000
B      -1.46605622      2.53507234     -0.00000000
B      -1.46573170      0.84295491     -0.00000000
B      -2.92888518     -1.68724692      0.00000000
B      -2.92793508     -3.38324074      0.00000000
B      -1.46573174     -0.84295512     -0.00000000
B      -1.46605627     -2.53507234      0.00000000
B      -1.46554588     -4.22439779     -0.00000000
B       0.00067086      3.38275146      0.00000000
B       0.00067433      1.68721076      0.00000000
B       1.46420559      4.22439023     -0.00000000
B       1.46473580      2.53506444     -0.00000000
B       1.46438553      0.84295188     -0.00000000
B       0.00067433     -1.68721088      0.00000000
B       0.00067085     -3.38275170      0.00000000
B       1.46438555     -0.84295208     -0.00000000
B       1.46473583     -2.53506442     -0.00000000
B       1.46420568     -4.22439021     -0.00000000
B       2.92927005      3.38326104     -0.00000000
B       2.93022956      1.68726759      0.00000000
B       4.39401124      4.22463050     -0.00000000
B       4.39579743      2.53472819      0.00000000
B       4.39441416      0.84146678     -0.00000000
B       2.93022962     -1.68726763     -0.00000000
B       2.92927005     -3.38326139     -0.00000000
B       4.39441419     -0.84146703     -0.00000000
B       4.39579756     -2.53472819     -0.00000000
B       4.39401144     -4.22463033     -0.00000000
B       5.85997303      3.38040496      0.00000000
B       5.85993260      1.69164307     -0.00000000
B       5.85993251     -1.69164335      0.00000000
B       5.85997297     -3.38040486      0.00000000
H      -6.86866001      3.98474441      0.00000000
H      -6.88164909      1.12316321     -0.00000000
H      -4.39961690      5.40226943     -0.00000000
H      -6.88164986     -1.12316494      0.00000000
H      -6.86866148     -3.98474191     -0.00000000
H      -4.39961557     -5.40226922      0.00000000
H      -1.46579024      5.40011773     -0.00000000
H      -1.46578943     -5.40011766      0.00000000
H       1.46622796      5.40011192     -0.00000000
H       1.46622721     -5.40011186     -0.00000000
H       4.39986570      5.40225046     -0.00000000
H       4.39986407     -5.40225022     -0.00000000
H       6.86878772      3.98676429      0.00000000
H       6.88200886      1.12155941     -0.00000000
H       6.88200989     -1.12156160      0.00000000
H       6.86878944     -3.98676138      0.00000000
