111
 energy: -162.657534194813 gnorm: 0.000701698381 xtb: 6.7.1 (edcfbbe)
O            0.99199049877113       -2.92670846816710        4.32860122416911
C            1.47686649938960       -1.83295192374575        4.59176065682098
O            0.70681047780460       -0.79816721663787        5.06756149407886
C           -0.56228774067797       -1.14222245748662        5.58047219864795
C           -1.64729246315374       -1.22168700927481        4.51252565011352
C           -2.98213827933041       -1.32981866555886        5.19179536490566
C           -4.07716303271243       -1.87986286321859        4.52002053016985
O           -3.86208481347742       -2.33095287710515        3.26218293943045
C           -5.32246867613403       -1.96479925433683        5.12037749721892
C           -5.48156143658422       -1.53282091421208        6.43197252738562
O           -6.71611051301823       -1.63649068950213        6.99452910069379
C           -4.40309089304101       -1.01174710092824        7.12539873137610
C           -3.15820627184099       -0.90777429256001        6.50535825137452
O           -2.15857516913642       -0.38678960263635        7.26560116512727
C           -0.93437638964797       -0.07321887604158        6.63084985672203
C           -0.92379097587756        1.31157619443298        6.02500970116289
C            0.28646603294970        1.98018937257640        5.91936035609059
C            0.34725950036938        3.23630926782162        5.33668658705905
O            1.53599905535724        3.86094040975212        5.16844099664923
C           -0.82779852657349        3.86136238726764        4.90963144127678
O           -0.73431602489195        5.12325843627022        4.39341531374995
C           -2.04130506738364        3.18914586173024        5.02306919647228
O           -3.15999313127313        3.83746780265309        4.56496729194896
C           -2.08514442901866        1.91135845909336        5.55912341514106
C            2.87754176644352       -1.48639268343935        4.52193046545300
C            3.32958186078589       -0.17698474238544        4.75318501038704
C            4.67887689161101        0.09352974510712        4.80176979424317
O            5.11910554268031        1.36166072915045        5.01360695290826
C            5.60944506572293       -0.93887245276973        4.61776954977857
O            6.94903549293213       -0.64149568130272        4.68750865965355
C            5.16260123073832       -2.23518179228015        4.34944445820448
O            6.13421840868061       -3.18633734086293        4.13022889724429
C            3.81507867885228       -2.51024628631802        4.29160470847616
H           -0.49375795226098       -2.11700927598689        6.08518930518487
H           -1.47885865590956       -2.09538588447733        3.88412719423959
H           -1.60116307215570       -0.33447953393500        3.87515217962607
H           -4.68940268107101       -2.53994619914825        2.80467537936568
H           -6.16894830557042       -2.37666945425614        4.59454053607972
H           -6.67852666499380       -1.33125793057610        7.90820226341193
H           -4.49918846769030       -0.68024061393523        8.14784123457345
H           -0.18760549115033       -0.10111940942365        7.43247043766686
H            1.19492515485579        1.53012717272766        6.27825910439768
H            1.37860335036429        4.67497735587620        4.66425995583148
H           -1.54691819179796        5.30425358974824        3.89942548094539
H           -3.92662547055562        3.26173912017114        4.64324368461527
H           -3.03617230917242        1.40651070436464        5.63822899113260
H            2.62725086913707        0.62407699125821        4.88408091527970
H            6.07863562095210        1.35497748490860        4.89728880623247
H            7.42426436914298       -1.43498064566332        4.41277906648560
H            5.72512757729245       -3.96581671718996        3.73875794249790
H            3.45732046727233       -3.50980927069462        4.10112666171853
B           -6.16657028024435        2.51001040202364        1.30194495388718
B           -5.88490680988068        0.92051202194297        0.74083503926186
B           -4.83766346139905        3.59306115814917        1.25310259766868
B           -4.58688297933312        1.92591457050884        1.12329740021190
B           -4.32546351523498        0.26296602205858        0.91034164023014
B           -5.35613904072719       -2.38247162251028        0.18454284560863
B           -5.11497288209536       -4.07402414037645        0.20789098570148
B           -4.06248801568471       -1.36766381431284        0.61269416101777
B           -3.79460738052045       -3.00731531393795        0.26371956917069
B           -3.52306051247105       -4.63267007770949       -0.10438200450761
B           -3.26612774050558        2.97311062040660        1.34848000644700
B           -3.01241823741616        1.29104880360135        1.20818689384317
B           -1.96010104131070        3.98785543054382        1.67170139744296
B           -1.69838456851097        2.34102563278432        1.40454993926754
B           -1.43197561486270        0.69608382521890        1.09980263954287
B           -2.48489815491384       -1.98450977072585        0.61967347389260
B           -2.21360418803674       -3.63304302647803        0.28743864428986
B           -1.16875520334781       -0.94124087002337        0.81156101855884
B           -0.91507507540457       -2.61363040522942        0.66545540813180
B           -0.65988016186189       -4.27490980332236        0.50028238670853
B           -0.38311752128791        3.38206510535865        1.65740003586161
B           -0.12543376537057        1.70864884039761        1.47186205073153
B            0.94026544368364        4.42662491867015        1.78958949435447
B            1.18898203311480        2.75439195042168        1.69424353994264
B            1.44460082852264        1.08507001238214        1.52650392537589
B            0.40123031221137       -1.56993301203093        0.89984416268015
B            0.66545219424713       -3.22926172193654        0.63266864696458
B            1.70808361199480       -0.55161530133827        1.23614681364013
B            1.97761761571857       -2.18872368675728        0.88606816021125
B            2.24926584271458       -3.80667018199534        0.47150482923046
B            2.49389001932015        3.78231313359551        2.02343355141169
B            2.76521237633786        2.13347802718335        1.69343575656351
B            3.79941391453710        4.77693455526594        2.43354013905026
B            4.07449920938336        3.16003581145003        2.02252164279176
B            4.34395288338237        1.52754400265514        1.63813703013695
B            3.29181194166032       -1.14387212760638        1.11516276324921
B            3.54850608305788       -2.81883871275974        0.93015067365616
B            4.60714044150173       -0.10126858667292        1.32935052268935
B            4.86865156519134       -1.76739618640740        1.13365412606119
B            5.11631145664827       -3.44133014989132        1.04355093482352
B            5.39400589425444        4.22141561717448        2.12325636773006
B            5.63839611328124        2.53410085223602        2.10644888047815
B            6.17482788046484       -0.75036280088238        1.45508457525195
B            6.44814585039380       -2.35765461922360        0.98125763638449
H           -7.20832829767672        2.87031953235316        1.70433554972432
H           -6.72476246065478        0.36197340768671        0.14895829508396
H           -5.03817216249796        4.74137762348061        1.11168509145664
H           -6.36233040964182       -1.95579578732465       -0.23292252187653
H           -5.98241417345265       -4.84083491767264        0.39649369591705
H           -3.37717922445925       -5.66697866346426       -0.64052387797158
H           -2.15456220010350        5.13821637688286        1.83332102347141
H           -0.51075367749368       -5.43762788850646        0.54901737132181
H            0.79193121625956        5.58907215897364        1.70765041884416
H            2.45035546641432       -4.87787336216890        0.03434317594637
H            3.64672476497645        5.82052749268814        2.94794765773262
H            5.31762834533489       -4.59052175769391        1.19732084506865
H            6.25611664642277        4.99038462756914        1.92477814488073
H            6.65697988145604        2.09525570956002        2.47218282503032
H            7.05207189187689       -0.12815130071662        1.90844056255660
H            7.49682375608770       -2.75037158249072        0.63087699411323
