36
FDDNP GFN2 opt
C      -3.83240704      2.07336397     -0.02781308
C      -3.46502685      0.85848286     -0.88121206
N      -2.81583634     -0.18157629     -0.11265056
C      -3.69453604     -1.17906658      0.45832281
C      -3.90714538     -2.37444988     -0.47223668
C      -1.46419338     -0.23264323      0.04266492
C      -0.63121147      0.82758856     -0.36929212
C       0.73049184      0.77374075     -0.22202657
C       1.36647019     -0.33776684      0.35325152
C       2.78062261     -0.44343047      0.52471561
C       3.72041940      0.46479492      0.15487170
C       5.09911213      0.25538479      0.37479672
C       6.07527359      1.14165695      0.00788265
C       7.43699731      0.88320289      0.25499906
N       8.54474091      0.66603587      0.46358253
C       5.78671777      2.36098519     -0.63721599
N       5.54939639      3.35381093     -1.16289761
C       0.53652393     -1.38867838      0.77453097
C      -0.82574756     -1.34505663      0.62564242
H      -4.32027468      2.82544598     -0.64199872
H      -4.51139183      1.78555681      0.77145747
H      -2.94452098      2.50984569      0.42180169
H      -2.81977992      1.15996580     -1.70921090
H      -4.37426060      0.43561220     -1.31725600
H      -3.29441522     -1.51357131      1.41816677
H      -4.65774857     -0.70183315      0.65814503
H      -4.34634806     -2.05035405     -1.41281810
H      -4.57628270     -3.09371544     -0.00766798
H      -2.96197574     -2.86439374     -0.69066036
H      -1.05734566      1.71774694     -0.80149349
H       1.31869275      1.61590243     -0.55189780
H       3.12421339     -1.35498916      1.00115659
H       3.43811981      1.38991301     -0.32793509
H       5.40609118     -0.66197258      0.86274459
H       0.98659693     -2.26412580      1.22161895
H      -1.40003209     -2.19478272      0.95593113
