70
RDKit ETKDG+MMFF
N       4.51429070     -2.11690918     -5.68514924
C       5.76216548     -1.77175081     -5.09054990
C       5.78485168     -1.47753568     -3.70789776
N       4.58007209     -1.45850211     -2.97235466
N       4.29780210     -0.28804511     -2.63242214
C       3.08538273     -0.24141502     -1.91799853
C       2.82692443     -1.06174612     -0.81349339
C       1.61768079     -0.96227789     -0.11525804
C       0.63671641     -0.03325190     -0.49643652
C      -0.63536980      0.07205111      0.23644633
C      -0.65667902      0.25862638      1.62764478
C      -1.86724552      0.35883998      2.32335998
C      -3.09011707      0.28452972      1.64616097
N      -4.32988702      0.35182858      2.31008742
N      -4.39435761      1.36165759      3.04601774
C      -5.64970917      1.42054489      3.68896329
C      -5.97544772      0.49643873      4.67840622
C      -7.21182593      0.56702743      5.32670796
S      -7.56934833     -0.67737712      6.54119875
O      -8.73067180     -1.41756049      6.09714869
O      -7.50682450     -0.05796518      7.84524792
O      -6.35862777     -1.74191584      6.46366310
C      -8.14976357      1.59396571      5.04027546
C      -9.39881790      1.73609761      5.70094106
C     -10.27787938      2.77969525      5.41165587
C      -9.93357357      3.72075695      4.45861226
C      -8.71614811      3.60783322      3.78871272
C      -7.80875106      2.55125550      4.04317007
C      -6.57607153      2.42873626      3.33656393
N      -6.17514095      3.40800978      2.38317676
C      -3.07583488      0.08453765      0.26375308
C      -1.86607183     -0.01513843     -0.43360314
C       0.90912361      0.79555219     -1.59637875
C       2.11926762      0.69525296     -2.29300934
C       6.99833038     -1.22253821     -3.07426517
C       8.19274845     -1.26582692     -3.79938305
S       9.69621605     -0.92326128     -2.91970887
O      10.51484619     -2.11595268     -2.94287480
O      10.19365425      0.35580233     -3.37286884
O       9.28205876     -0.74533126     -1.36993909
C       8.21865912     -1.59297730     -5.18120256
C       9.40464717     -1.66457925     -5.95917381
C       9.38905538     -2.02593919     -7.30629780
C       8.18792874     -2.33297879     -7.91901573
C       7.00390205     -2.26053202     -7.18662534
C       6.98059115     -1.87692079     -5.82398825
H       3.73679719     -1.80933822     -5.10041112
H       4.42277238     -1.77836931     -6.63685016
H       3.57046268     -1.78697414     -0.49265970
H       1.44411448     -1.62780007      0.72831214
H       0.27512210      0.33849041      2.18452708
H      -1.85365108      0.49897874      3.40140483
H      -5.24835715     -0.27129727      4.93020467
H      -6.75775930     -2.63781834      6.48489426
H      -9.71577456      1.03722111      6.47327068
H     -11.22292762      2.85809597      5.94324113
H     -10.60357755      4.54726231      4.23713687
H      -8.47458123      4.38111576      3.06341464
H      -6.93415952      3.71513357      1.78492559
H      -5.37431148      3.08277748      1.84133647
H      -4.01533743      0.00378705     -0.27717504
H      -1.89318410     -0.17748547     -1.50952214
H       0.18289957      1.54209041     -1.91256587
H       2.31031811      1.35619199     -3.13480594
H       6.98897013     -0.98525212     -2.01363231
H       9.97039526     -1.19124947     -0.83182789
H      10.38023618     -1.44390779     -5.52915207
H      10.31906949     -2.07531970     -7.86707721
H       8.16585568     -2.63099854     -8.96388231
H       6.08385626     -2.52614570     -7.70173866
