70
 energy: -129.118382054377 gnorm: 0.000827779176 xtb: 6.7.1 (edcfbbe)
N            4.39998579266549       -1.34787851166545       -5.97700761232240
C            5.60669772823456       -1.33817448630389       -5.37425862115933
C            5.63639972116432       -1.28194568422365       -3.96608852054005
N            4.42093222120907       -1.14607520193494       -3.35546876746474
N            4.38102244523154       -1.27039947200814       -2.08614710838629
C            3.19851758324532       -0.99330144629772       -1.45564433641791
C            2.98641457429576       -1.57972809083089       -0.20035682901603
C            1.85355613621020       -1.28830894834803        0.52103385654290
C            0.89901990222120       -0.38847296668183        0.03403355982409
C           -0.29832167471342       -0.07300300172163        0.81297057360611
C           -0.24278991112120        0.01390482816624        2.20848452233574
C           -1.36717256882991        0.29543673961256        2.94691354100390
C           -2.59470134874871        0.52463067726253        2.31021575413651
N           -3.68768049663330        0.72509536362889        3.10857529737513
N           -4.67243927173833        1.37212978826541        2.61890375149480
C           -5.81023582917300        1.45519492004150        3.37269537446281
C           -6.03545252496526        0.72243717239043        4.56162223790589
C           -7.21631041836967        0.83073585921471        5.21713368406305
S           -7.51832616098297       -0.10086912970810        6.70456696769100
O           -8.58612167910959       -1.03922702459914        6.50179015059823
O           -7.58547265700959        0.77451528212033        7.82861826653727
O           -6.16919163984566       -0.98521099570177        6.83410770293762
C           -8.24979972906396        1.68345472138115        4.76045661977165
C           -9.46200071392386        1.80592844517967        5.46027830221433
C          -10.44814074007562        2.64323143668606        5.00709166337768
C          -10.25872711545555        3.38665311324287        3.83713434071596
C           -9.08660587724285        3.28461373647713        3.13494638510746
C           -8.05029225602172        2.43604121257234        3.57050408720509
C           -6.81153792949045        2.30996614840151        2.86804216899692
N           -6.53622408592650        3.00658124188787        1.74852937024880
C           -2.65659695963807        0.43409933421903        0.91114210157313
C           -1.52864587058790        0.13824722670323        0.18287011354603
C            1.12330434172863        0.20868177359116       -1.21038200763606
C            2.24702074261083       -0.08548744947340       -1.94567097217870
C            6.87346430925202       -1.31065187866185       -3.28035207635831
C            8.03572107644881       -1.39242472798727       -3.97201907806799
S            9.60036143244695       -1.39358206461606       -3.12117787145348
O           10.27781206708285       -2.64526183919556       -3.30808384954521
O           10.30818578081698       -0.18713772697966       -3.40093615297620
O            9.14608662973639       -1.35949706109018       -1.56872097382288
C            8.06165666987368       -1.45698851103529       -5.38574569876832
C            9.27222429590587       -1.54559692714960       -6.09351196982278
C            9.27713359362422       -1.61053914425771       -7.46268058514421
C            8.07219744184020       -1.58939377987975       -8.17353709030939
C            6.87786142640936       -1.50163312450381       -7.50798568319004
C            6.83320509258815       -1.43170969750682       -6.10184707475493
H            3.61332200448972       -1.19052038695758       -5.36541395863996
H            4.30275943280337       -1.21468235700932       -6.96612167060748
H            3.71716407171111       -2.28170514563385        0.17082142563309
H            1.68670222787541       -1.77560292154053        1.47018640785552
H            0.70323009084067       -0.12350302460738        2.71078356689655
H           -1.32224769754312        0.37289724165120        4.02229673758784
H           -5.24470401095158        0.08380848735786        4.92016005526065
H           -6.38334564547345       -1.90047664409772        6.64533888355056
H           -9.59174705918684        1.22808075183125        6.36062599303021
H          -11.37499557472471        2.73445902921474        5.55213534417102
H          -11.04086879459691        4.04472406516733        3.48953110259246
H           -8.96217703375411        3.87316676998175        2.23787325238930
H           -7.23168279134108        3.54303781961918        1.26568026893725
H           -5.65194636376566        2.79858858904639        1.31128720699691
H           -3.61209640750508        0.57161619571613        0.42580653984131
H           -1.59837561733569        0.04216023224418       -0.89121531209916
H            0.41490941738436        0.93253787984345       -1.58705282144676
H            2.43312246989584        0.39636575278531       -2.89459757864089
H            6.85732893035783       -1.24645150730367       -2.20455714416415
H            9.31963605913004       -2.21803607838099       -1.17842562733916
H           10.19149805842195       -1.56324123887349       -5.53141742724508
H           10.21092776947470       -1.67975144318913       -7.99905021317823
H            8.08677968517841       -1.64383048529620       -9.25172893306806
H            5.96081301247236       -1.49272180034119       -8.07859603228508
