60
carrier @complex
B      -5.84896311      3.38587758      0.48868298
B      -5.84935673      1.70211670      0.18381137
B      -4.38662630      4.22453851      0.17033196
B      -4.39151275      2.53977961      0.30079823
B      -4.39288743      0.84463429      0.38203610
B      -5.85398944     -1.68862435      0.18933672
B      -5.85857516     -3.37039994      0.50608330
B      -4.39524376     -0.83407655      0.38002508
B      -4.39861342     -2.52968369      0.31350496
B      -4.39837513     -4.21547560      0.20017620
B      -2.91862854      3.38927833      0.26593374
B      -2.92422669      1.68754504      0.42333324
B      -1.45845600      4.22374915      0.44467110
B      -1.46028712      2.53623961      0.38654899
B      -1.46212874      0.84278804      0.31659100
B      -2.92893313     -1.68093410      0.41918263
B      -2.92797676     -3.38367375      0.28892601
B      -1.46444137     -0.84089689      0.31721144
B      -1.46747983     -2.53352096      0.41449174
B      -1.47058796     -4.22007936      0.49653041
B       0.00713454      3.38336717      0.47152287
B       0.00589928      1.68382998      0.28784304
B       1.47246643      4.21846662      0.50685656
B       1.47038773      2.53192186      0.41525174
B       1.46853980      0.83875921      0.30364666
B       0.00116321     -1.68625550      0.28713703
B      -0.00233034     -3.38477994      0.48428490
B       1.46612744     -0.84511118      0.30748277
B       1.46331656     -2.53748452      0.42875091
B       1.46067082     -4.22325551      0.53691858
B       2.93511682      3.38168921      0.32758420
B       2.93419299      1.67940364      0.43793556
B       4.40379426      4.21268165      0.23087168
B       4.40263150      2.52750782      0.35314898
B       4.39841285      0.83228764      0.41651435
B       2.92953533     -1.68910446      0.44215682
B       2.92540547     -3.39205821      0.34128988
B       4.39606886     -0.84625211      0.41699755
B       4.39552548     -2.54175947      0.36668505
B       4.39187458     -4.22785806      0.25920583
B       5.86256210      3.36911223      0.56658553
B       5.86195434      1.68633810      0.25117289
B       5.85713794     -1.70524304      0.25719786
B       5.85320855     -3.38619739      0.58244848
H      -6.80027385      3.95883780      0.86804740
H      -6.81079228      1.20428929     -0.25889121
H      -4.43451089      5.34267368     -0.18654123
H      -6.81518089     -1.19234463     -0.25599597
H      -6.81248786     -3.93876942      0.88692019
H      -4.44732403     -5.34052332     -0.13595871
H      -1.46974771      5.39144954      0.57115565
H      -1.48845592     -5.37852072      0.69660441
H       1.48556687      5.38100553      0.67298632
H       1.47223501     -5.37899886      0.75199664
H       4.46160117      5.32516841     -0.14180293
H       4.44373118     -5.34996572     -0.08573214
H       6.80764321      3.93888321      0.96494600
H       6.82856908      1.18898897     -0.18107660
H       6.82540703     -1.21317080     -0.17710518
H       6.79707926     -3.95639627      0.98428010
