60
 energy: -61.503208509582 gnorm: 0.000991554175 xtb: 6.7.1 (edcfbbe)
B           -5.84725748495651        3.38524754761759        0.50928629582281
B           -5.84720873227248        1.70528201749240        0.15770794206170
B           -4.38694964463467        4.22062935301205        0.12393011888183
B           -4.39185489924174        2.53953395594193        0.28398731432336
B           -4.39344313105719        0.84263596671303        0.38375109442931
B           -5.85182476850956       -1.69237653441542        0.16639014772811
B           -5.85694787492898       -3.36937905798291        0.53276981366039
B           -4.39582276369032       -0.83208983340232        0.38687190077113
B           -4.39899625950493       -2.52972235126505        0.30193137669549
B           -4.39867940288740       -4.21227392833865        0.15932206312473
B           -2.91717614591607        3.39231884310568        0.24707572842159
B           -2.92424277150394        1.68490643374555        0.43439991465194
B           -1.45932491195845        4.22210822216110        0.47957428591018
B           -1.46041179049021        2.53620987185058        0.39525821738393
B           -1.46241933670905        0.84158018861706        0.32025333564363
B           -2.92898695737199       -1.67810034956082        0.44028554950336
B           -2.92657995474021       -3.38712389444090        0.27748945501934
B           -1.46476042790361       -0.83987732959792        0.32364261606372
B           -1.46764505659764       -2.53341954331846        0.42722692331683
B           -1.47152465316244       -4.21797909174984        0.53476250021137
B            0.00693348066319        3.38576999861188        0.49275512884046
B            0.00589248317020        1.68122478075296        0.26904256060325
B            1.47285801725673        4.21649901468842        0.53952429370622
B            1.47025834237695        2.53187817764685        0.42353893577230
B            1.46865609288575        0.83753944576015        0.31695619099567
B            0.00110129822251       -1.68410213783263        0.27569262753484
B           -0.00267321199741       -3.38669688361312        0.51922313868934
B            1.46622529048813       -0.84409791654817        0.32089061152722
B            1.46313556836199       -2.53739373044481        0.44317439387588
B            1.46102098676581       -4.22105707557541        0.57281906620424
B            2.93363564448451        3.38481863586610        0.30142768400250
B            2.93376506776193        1.67672637097033        0.45266224285966
B            4.40449928867172        4.20886601543070        0.18479747153190
B            4.40311496510813        2.52722398222918        0.33692143109253
B            4.39874923437324        0.83021836474611        0.42558726275705
B            2.92908262109002       -1.68633327143033        0.46141782113320
B            2.92383156695660       -3.39560435231628        0.32441572613359
B            4.39638472321727       -0.84424604039702        0.42964165635287
B            4.39595265711082       -2.54182349407222        0.35480577961906
B            4.39248569997960       -4.22476599089756        0.21811573977439
B            5.86054755279907        3.36857736542764        0.58228950677192
B            5.85996392043013        1.68948619919843        0.22757039177396
B            5.85505340671091       -1.70901147019919        0.23595242919148
B            5.85113197743172       -3.38535616006887        0.60485494891410
H           -6.78181129794478        3.95955657348189        0.92626434278585
H           -6.80030067609956        1.21818689400483       -0.31504523147510
H           -4.45050932617456        5.32487733163665       -0.27294181232984
H           -6.80265697862852       -1.20761992374726       -0.31319135666159
H           -6.79440918646290       -3.93750393684431        0.95165240048645
H           -4.46443797428422       -5.32073624615881       -0.22524697452632
H           -1.47461120838513        5.38510557284028        0.65611386814621
H           -1.49311535392855       -5.37321811422727        0.75581111962398
H            1.49306522193354        5.37140049390681        0.76158443822628
H            1.47857498759062       -5.37288956989378        0.81091046106641
H            4.47549247672802        5.31370219333418       -0.20935531352383
H            4.45955607041736       -5.33424273470224       -0.16342068837152
H            6.79107792049933        3.94212028119150        1.00905798384674
H            6.81704062094955        1.20003836859262       -0.23441246496207
H            6.81292282358576       -1.22630071647188       -0.23143074665824
H            6.78113872392197       -3.95713268106099        1.03518600104433
