38
 energy: -55.796760161443 gnorm: 0.000291173279 xtb: 6.7.1 (edcfbbe)
C           -5.32809152805947        2.53361165572750       -0.07372125725148
C           -4.03309265563923        2.28518393939819       -0.03534153036396
C           -3.34126836600065        1.55158869278878        1.07496005512501
C           -2.73463616192751        0.28164089923052        0.53665108976281
C           -3.53738647958263       -0.82710061391982        0.29455821566180
C           -2.99932308423291       -1.98674409267413       -0.22309585394765
C           -1.64434483555226       -2.06099877460389       -0.52664140661029
O           -1.16582261939063       -3.24324082420781       -1.00360759200186
C           -0.82335844667776       -0.94901510837899       -0.30780601349221
C            0.61722616815733       -0.98764341548658       -0.62307568903171
C            1.07276068742629       -1.39228188356187       -1.87515773134404
C            2.42756306256197       -1.41985872289221       -2.15147424524642
C            3.35260899669206       -1.04447813342290       -1.18707342009658
O            4.69309745841789       -1.06790498507106       -1.43650394996833
C            2.91380311718330       -0.63407701854706        0.07657437160431
C            3.90525447533002       -0.19004448248233        1.11855087841022
C            4.10927492572421        1.29218123827035        1.01511718675462
C            3.80591247375587        2.15412099296007        1.96631858219953
C            1.55539552513601       -0.60751766340332        0.33340258423902
C           -1.38662116762321        0.20377602721590        0.23004763534910
H           -5.78662653714931        3.05269244345572       -0.89834766035998
H           -5.98750077881720        2.23347654922838        0.72476323395877
H           -3.39032842437717        2.59057859172228       -0.85092087058815
H           -2.55399915059738        2.18537496246498        1.49101778647004
H           -4.05828973532142        1.31904328285320        1.86459012102341
H           -4.59277888747719       -0.78005238410916        0.51838903260856
H           -3.61095286507799       -2.85729021831897       -0.40020021452250
H           -0.20839965324677       -3.17560699676405       -1.12282451437818
H            0.36834854837087       -1.65145148949179       -2.65325268782962
H            2.77201875822952       -1.72931141340024       -3.13008357615870
H            4.84926812008898       -1.38150922564224       -2.33489260797720
H            3.54126250824396       -0.44768427809878        2.11436138877998
H            4.85669332015150       -0.69508398173467        0.93826824244088
H            4.51753381512982        1.63128624453320        0.07226159450109
H            3.39712063344253        1.83573871197291        2.91165651631095
H            3.96036356541333        3.21335602218749        1.84855560049536
H            1.21370248276946       -0.29410096208602        1.30901974613474
H           -0.74638724547583        1.05934641429106        0.39495694933495
