38
RDKit ETKDG+MMFF
C      -5.52011219      2.47905157     -0.35222331
C      -4.20614280      2.21825126     -0.34246763
C      -3.46348739      1.64454016      0.83095441
C      -2.79193260      0.33334673      0.49800632
C      -3.51799789     -0.86359287      0.53129431
C      -2.90020924     -2.07150500      0.21087362
C      -1.55485897     -2.09146133     -0.15034144
O      -1.02464468     -3.32415138     -0.42649192
C      -0.79886533     -0.90932556     -0.21316868
C       0.61214481     -0.89122024     -0.62076149
C       0.97512607     -1.12070720     -1.95589499
C       2.31582098     -1.10236094     -2.34532423
C       3.30776069     -0.85532999     -1.39794081
O       4.62000015     -0.82642626     -1.77631500
C       2.98340330     -0.63140149     -0.05635635
C       4.03893373     -0.34178273      0.98539052
C       4.24799227      1.13326232      1.18936247
C       4.02907289      1.78028942      2.34171471
C       1.62742672     -0.64361282      0.31671805
C      -1.43948187      0.29879778      0.11870445
H      -5.99591156      2.89472876     -1.23528000
H      -6.14875065      2.28266435      0.51062070
H      -3.62011560      2.43407050     -1.23371866
H      -2.71083259      2.37127960      1.16141603
H      -4.13035331      1.49684296      1.69012628
H      -4.57053945     -0.86000724      0.80566362
H      -3.46541506     -2.99872600      0.24490712
H      -0.06302466     -3.22587478     -0.53351034
H       0.20576446     -1.30621318     -2.70403679
H       2.56357918     -1.27650935     -3.38795469
H       4.67486939     -0.97250455     -2.73481787
H       3.75256147     -0.83002702      1.92626877
H       4.99325963     -0.80202733      0.70292836
H       4.61317260      1.69067125      0.32883594
H       3.67017899      1.26504320      3.22696465
H       4.20650254      2.84853713      2.41892550
H       1.36032167     -0.45623315      1.35642908
H      -0.87521568      1.22962342      0.07049928
